<?xml version="1.0"?>
<VTKFile type="UnstructuredGrid" version="0.1" byte_order="LittleEndian">
<UnstructuredGrid>
<Piece NumberOfPoints="29558" NumberOfCells="10381">
<Points>
<DataArray type="Float64" NumberOfComponents="3" format="ascii">
-0.5 -0.5 0 -0.47090232915261637 -0.4704768069041298 0 -0.44553013156639432 -0.5 0 -0.5 -0.5 0 -0.47090232915261637 -0.4704768069041298 0 -0.5 -0.43863998971076668 0 -0.47090232915261637 -0.4704768069041298 0 -0.44553013156639432 -0.5 0 -0.44812262496393962 -0.46666460052765141 0 -0.44553013156639432 -0.5 0 -0.44812262496393962 -0.46666460052765141 0 -0.42966516510445862 -0.47493785375449787 0 -0.43859953004751662 -0.44338025104756779 0 -0.46237382682180173 -0.44819266019555509 0 -0.45821215504689827 -0.42434516182733228 0 -0.43859953004751662 -0.44338025104756779 0 -0.44812262496393962 -0.46666460052765141 0 -0.46237382682180173 -0.44819266019555509 0 -0.43859953004751662 -0.44338025104756779 0 -0.44812262496393962 -0.46666460052765141 0 -0.4318534075676273 -0.45968213530707969 0 -0.47090232915261637 -0.4704768069041298 0 -0.44812262496393962 -0.46666460052765141 0 -0.46237382682180173 -0.44819266019555509 0 -0.47090232915261637 -0.4704768069041298 0 -0.46237382682180173 -0.44819266019555509 0 -0.5 -0.43863998971076668 0 -0.46237382682180173 -0.44819266019555509 0 -0.5 -0.43863998971076668 0 -0.45821215504689827 -0.42434516182733228 0 -0.5 -0.43863998971076668 0 -0.47750567453972392 -0.40852635851073449 0 -0.45821215504689827 -0.42434516182733228 0 -0.5 -0.43863998971076668 0 -0.47750567453972392 -0.40852635851073449 0 -0.5 -0.39181759546499362 0 -0.47750567453972392 -0.40852635851073449 0 -0.47209455863023031 -0.38705765678553983 0 -0.45722165902149109 -0.4007713887650402 0 -0.47750567453972392 -0.40852635851073449 0 -0.5 -0.39181759546499362 0 -0.47209455863023031 -0.38705765678553983 0 -0.5 -0.39181759546499362 0 -0.47209455863023031 -0.38705765678553983 0 -0.47853861946806869 -0.36707326441363841 0 -0.47209455863023031 -0.38705765678553983 0 -0.46237967713699429 -0.37714856317698459 0 -0.47853861946806869 -0.36707326441363841 0 -0.47209455863023031 -0.38705765678553983 0 -0.46237967713699429 -0.37714856317698459 0 -0.45158375521532551 -0.3864451481281978 0 -0.46237967713699429 -0.37714856317698459 0 -0.45158375521532551 -0.3864451481281978 0 -0.45066696737299938 -0.37295651524511042 0 -0.47209455863023031 -0.38705765678553983 0 -0.45722165902149109 -0.4007713887650402 0 -0.45158375521532551 -0.3864451481281978 0 -0.44346230006838111 -0.3963900529637881 0 -0.43238805296116911 -0.40908560025935448 0 -0.4370735921082044 -0.38573497627603048 0 -0.45722165902149109 -0.4007713887650402 0 -0.44346230006838111 -0.3963900529637881 0 -0.44582030122175442 -0.40855064000586577 0 -0.44346230006838111 -0.3963900529637881 0 -0.43790044695761132 -0.40726358474257868 0 -0.43238805296116911 -0.40908560025935448 0 -0.44346230006838111 -0.3963900529637881 0 -0.44582030122175442 -0.40855064000586577 0 -0.43790044695761132 -0.40726358474257868 0 -0.45722165902149109 -0.4007713887650402 0 -0.44346230006838111 -0.3963900529637881 0 -0.45158375521532551 -0.3864451481281978 0 -0.44523408858185248 -0.37690149056122402 0 -0.4370735921082044 -0.38573497627603048 0 -0.4416120396308808 -0.36246932259555742 0 -0.45158375521532551 -0.3864451481281978 0 -0.44523408858185248 -0.37690149056122402 0 -0.4370735921082044 -0.38573497627603048 0 -0.44346230006838111 -0.3963900529637881 0 -0.45158375521532551 -0.3864451481281978 0 -0.4370735921082044 -0.38573497627603048 0 -0.45158375521532551 -0.3864451481281978 0 -0.44523408858185248 -0.37690149056122402 0 -0.45066696737299938 -0.37295651524511042 0 -0.45722165902149109 -0.4007713887650402 0 -0.45821215504689827 -0.42434516182733228 0 -0.44582030122175442 -0.40855064000586577 0 -0.47750567453972392 -0.40852635851073449 0 -0.45722165902149109 -0.4007713887650402 0 -0.45821215504689827 -0.42434516182733228 0 -0.45821215504689827 -0.42434516182733228 0 -0.44582030122175442 -0.40855064000586577 0 -0.43253540755181352 -0.41555222417072912 0 -0.45821215504689827 -0.42434516182733228 0 -0.43253540755181352 -0.41555222417072912 0 -0.44582030122175442 -0.40855064000586577 0 -0.43790044695761132 -0.40726358474257868 0 -0.43253540755181352 -0.41555222417072912 0 -0.43859953004751662 -0.44338025104756779 0 -0.45821215504689827 -0.42434516182733228 0 -0.42857561061970589 -0.42966067495978361 0 -0.45821215504689827 -0.42434516182733228 0 -0.42857561061970589 -0.42966067495978361 0 -0.43253540755181352 -0.41555222417072912 0 -0.43859953004751662 -0.44338025104756779 0 -0.42857561061970589 -0.42966067495978361 0 -0.41990167697746822 -0.43858121456767568 0 -0.42857561061970589 -0.42966067495978361 0 -0.43253540755181352 -0.41555222417072912 0 -0.42118011556146362 -0.42258305396164969 0 -0.43253540755181352 -0.41555222417072912 0 -0.41283038837641622 -0.41783136866044501 0 -0.42118011556146362 -0.42258305396164969 0 -0.43790044695761132 -0.40726358474257868 0 -0.43253540755181352 -0.41555222417072912 0 -0.43482990403277733 -0.40937413313740562 0 -0.43790044695761132 -0.40726358474257868 0 -0.43482990403277733 -0.40937413313740562 0 -0.43238805296116911 -0.40908560025935448 0 -0.43253540755181352 -0.41555222417072912 0 -0.43482990403277733 -0.40937413313740562 0 -0.43321463686432932 -0.41051649511209959 0 -0.43482990403277733 -0.40937413313740562 0 -0.43321463686432932 -0.41051649511209959 0 -0.43238805296116911 -0.40908560025935448 0 -0.43321463686432932 -0.41051649511209959 0 -0.43238805296116911 -0.40908560025935448 0 -0.43253540755181352 -0.41555222417072912 0 -0.43321463686432932 -0.41051649511209959 0 -0.42350160717396401 -0.40572207709216401 0 -0.43321463686432932 -0.41051649511209959 0 -0.43238805296116911 -0.40908560025935448 0 -0.42350160717396401 -0.40572207709216401 0 -0.43253540755181352 -0.41555222417072912 0 -0.40685866005672883 -0.40675928651412591 0 -0.43253540755181352 -0.41555222417072912 0 -0.40685866005672883 -0.40675928651412591 0 -0.42350160717396401 -0.40572207709216401 0 -0.43253540755181352 -0.41555222417072912 0 -0.40685866005672883 -0.40675928651412591 0 -0.41283038837641622 -0.41783136866044501 0 -0.42857561061970589 -0.42966067495978361 0 -0.41161332360240022 -0.42847472097169992 0 -0.42118011556146362 -0.42258305396164969 0 -0.41283038837641622 -0.41783136866044501 0 -0.41161332360240022 -0.42847472097169992 0 -0.39596892105118531 -0.42148406768110269 0 -0.42857561061970589 -0.42966067495978361 0 -0.41161332360240022 -0.42847472097169992 0 -0.41990167697746822 -0.43858121456767568 0 -0.41161332360240022 -0.42847472097169992 0 -0.41990167697746822 -0.43858121456767568 0 -0.40737259347131649 -0.43946529467799111 0 -0.41283038837641622 -0.41783136866044501 0 -0.41161332360240022 -0.42847472097169992 0 -0.42118011556146362 -0.42258305396164969 0 -0.4370735921082044 -0.38573497627603048 0 -0.42139772422298449 -0.39006030257170132 0 -0.42615508220917647 -0.37274546335519909 0 -0.43238805296116911 -0.40908560025935448 0 -0.42350160717396401 -0.40572207709216401 0 -0.42139772422298449 -0.39006030257170132 0 -0.43238805296116911 -0.40908560025935448 0 -0.42139772422298449 -0.39006030257170132 0 -0.43238805296116911 -0.40908560025935448 0 -0.4370735921082044 -0.38573497627603048 0 -0.42139772422298449 -0.39006030257170132 0 -0.43238805296116911 -0.40908560025935448 0 -0.4370735921082044 -0.38573497627603048 0 -0.40685866005672883 -0.40675928651412591 0 -0.42350160717396401 -0.40572207709216401 0 -0.42139772422298449 -0.39006030257170132 0 -0.40685866005672883 -0.40675928651412591 0 -0.42139772422298449 -0.39006030257170132 0 -0.40184411310429918 -0.38771459213197013 0 -0.42139772422298449 -0.39006030257170132 0 -0.40958081158163978 -0.36960411003130289 0 -0.42139772422298449 -0.39006030257170132 0 -0.42615508220917647 -0.37274546335519909 0 -0.40958081158163978 -0.36960411003130289 0 -0.42139772422298449 -0.39006030257170132 0 -0.40184411310429918 -0.38771459213197013 0 -0.40958081158163978 -0.36960411003130289 0 -0.40184411310429918 -0.38771459213197013 0 -0.38118191256164402 -0.39796634885752269 0 -0.38956438601736298 -0.37407075850006588 0 -0.40184411310429918 -0.38771459213197013 0 -0.40958081158163978 -0.36960411003130289 0 -0.38956438601736298 -0.37407075850006588 0 -0.40685866005672883 -0.40675928651412591 0 -0.38118191256164402 -0.39796634885752269 0 -0.38727879121263292 -0.41086075103603631 0 -0.40685866005672883 -0.40675928651412591 0 -0.40184411310429918 -0.38771459213197013 0 -0.38118191256164402 -0.39796634885752269 0 -0.40685866005672883 -0.40675928651412591 0 -0.38118191256164402 -0.39796634885752269 0 -0.38118191256164402 -0.39796634885752269 0 -0.38727879121263292 -0.41086075103603631 0 -0.37028009626003638 -0.40862256529757612 0 -0.38118191256164402 -0.39796634885752269 0 -0.38956438601736298 -0.37407075850006588 0 -0.37153564175596138 -0.37906794085086831 0 -0.41161332360240022 -0.42847472097169992 0 -0.39657919142058629 -0.43358398703702861 0 -0.39596892105118531 -0.42148406768110269 0 -0.39657919142058629 -0.43358398703702861 0 -0.39596892105118531 -0.42148406768110269 0 -0.38233150034515673 -0.43024990898818288 0 -0.41161332360240022 -0.42847472097169992 0 -0.39657919142058629 -0.43358398703702861 0 -0.40737259347131649 -0.43946529467799111 0 -0.40685866005672883 -0.40675928651412591 0 -0.41283038837641622 -0.41783136866044501 0 -0.39596892105118531 -0.42148406768110269 0 -0.40685866005672883 -0.40675928651412591 0 -0.39596892105118531 -0.42148406768110269 0 -0.38727879121263292 -0.41086075103603631 0 -0.38727879121263292 -0.41086075103603631 0 -0.37637438270178791 -0.42005484761235917 0 -0.37028009626003638 -0.40862256529757612 0 -0.39596892105118531 -0.42148406768110269 0 -0.38727879121263292 -0.41086075103603631 0 -0.37637438270178791 -0.42005484761235917 0 -0.37637438270178791 -0.42005484761235917 0 -0.38233150034515673 -0.43024990898818288 0 -0.37084531619776401 -0.43037911208167451 0 -0.39596892105118531 -0.42148406768110269 0 -0.37637438270178791 -0.42005484761235917 0 -0.38233150034515673 -0.43024990898818288 0 -0.39657919142058629 -0.43358398703702861 0 -0.38233150034515673 -0.43024990898818288 0 -0.38693406732304553 -0.43887322453574013 0 -0.38233150034515673 -0.43024990898818288 0 -0.38693406732304553 -0.43887322453574013 0 -0.37168605652121861 -0.4418308960338253 0 -0.38510185592054819 -0.44874389077735072 0 -0.38693406732304553 -0.43887322453574013 0 -0.37168605652121861 -0.4418308960338253 0 -0.38510185592054819 -0.44874389077735072 0 -0.37739829615661102 -0.45474157277725152 0 -0.37168605652121861 -0.4418308960338253 0 -0.38510185592054819 -0.44874389077735072 0 -0.38693406732304553 -0.43887322453574013 0 -0.39827678994867632 -0.44909354821341002 0 -0.39657919142058629 -0.43358398703702861 0 -0.38693406732304553 -0.43887322453574013 0 -0.39827678994867632 -0.44909354821341002 0 -0.38510185592054819 -0.44874389077735072 0 -0.39827678994867632 -0.44909354821341002 0 -0.39121406965318978 -0.45918021232652639 0 -0.39827678994867632 -0.44909354821341002 0 -0.40558777713408961 -0.45702296238401469 0 -0.41342275732467182 -0.44957061732256209 0 -0.39657919142058629 -0.43358398703702861 0 -0.39827678994867632 -0.44909354821341002 0 -0.40737259347131649 -0.43946529467799111 0 -0.39121406965318978 -0.45918021232652639 0 -0.3819555217950461 -0.47106452858153419 0 -0.40108739583197922 -0.46903011241017412 0 -0.40558777713408961 -0.45702296238401469 0 -0.39121406965318978 -0.45918021232652639 0 -0.40108739583197922 -0.46903011241017412 0 -0.39827678994867632 -0.44909354821341002 0 -0.40558777713408961 -0.45702296238401469 0 -0.39121406965318978 -0.45918021232652639 0 -0.39121406965318978 -0.45918021232652639 0 -0.37739829615661102 -0.45474157277725152 0 -0.3819555217950461 -0.47106452858153419 0 -0.38510185592054819 -0.44874389077735072 0 -0.39121406965318978 -0.45918021232652639 0 -0.37739829615661102 -0.45474157277725152 0 -0.3819555217950461 -0.47106452858153419 0 -0.38542283066880828 -0.48748322493451268 0 -0.40055695164381561 -0.48586120252848719 0 -0.3819555217950461 -0.47106452858153419 0 -0.38542283066880828 -0.48748322493451268 0 -0.36479531787328517 -0.48049039356254197 0 -0.38542283066880828 -0.48748322493451268 0 -0.40498971627072061 -0.5 0 -0.37481664576117391 -0.49999999999999878 0 -0.38542283066880828 -0.48748322493451268 0 -0.40055695164381561 -0.48586120252848719 0 -0.40498971627072061 -0.5 0 -0.3819555217950461 -0.47106452858153419 0 -0.40055695164381561 -0.48586120252848719 0 -0.3819555217950461 -0.47106452858153419 0 -0.40055695164381561 -0.48586120252848719 0 -0.40108739583197922 -0.46903011241017412 0 -0.40055695164381561 -0.48586120252848719 0 -0.40108739583197922 -0.46903011241017412 0 -0.41064989296514492 -0.4761248499710754 0 -0.41064989296514492 -0.4761248499710754 0 -0.42966516510445862 -0.47493785375449787 0 -0.41694714714975067 -0.46347207764651499 0 -0.40055695164381561 -0.48586120252848719 0 -0.41064989296514492 -0.4761248499710754 0 -0.41809395220951839 -0.48738392370312877 0 -0.44553013156639432 -0.5 0 -0.40498971627072061 -0.5 0 -0.41809395220951839 -0.48738392370312877 0 -0.40108739583197922 -0.46903011241017412 0 -0.41064989296514492 -0.4761248499710754 0 -0.41694714714975067 -0.46347207764651499 0 -0.41064989296514492 -0.4761248499710754 0 -0.41809395220951839 -0.48738392370312877 0 -0.42966516510445862 -0.47493785375449787 0 -0.40055695164381561 -0.48586120252848719 0 -0.40498971627072061 -0.5 0 -0.41809395220951839 -0.48738392370312877 0 -0.44553013156639432 -0.5 0 -0.41809395220951839 -0.48738392370312877 0 -0.42966516510445862 -0.47493785375449787 0 -0.44812262496393962 -0.46666460052765141 0 -0.42966516510445862 -0.47493785375449787 0 -0.4318534075676273 -0.45968213530707969 0 -0.42966516510445862 -0.47493785375449787 0 -0.4318534075676273 -0.45968213530707969 0 -0.41694714714975067 -0.46347207764651499 0 -0.4318534075676273 -0.45968213530707969 0 -0.42414490381340691 -0.45093725917828009 0 -0.41694714714975067 -0.46347207764651499 0 -0.43859953004751662 -0.44338025104756779 0 -0.4318534075676273 -0.45968213530707969 0 -0.42414490381340691 -0.45093725917828009 0 -0.43859953004751662 -0.44338025104756779 0 -0.42414490381340691 -0.45093725917828009 0 -0.41990167697746822 -0.43858121456767568 0 -0.42414490381340691 -0.45093725917828009 0 -0.41990167697746822 -0.43858121456767568 0 -0.41342275732467182 -0.44957061732256209 0 -0.41990167697746822 -0.43858121456767568 0 -0.40737259347131649 -0.43946529467799111 0 -0.41342275732467182 -0.44957061732256209 0 -0.39827678994867632 -0.44909354821341002 0 -0.40737259347131649 -0.43946529467799111 0 -0.41342275732467182 -0.44957061732256209 0 -0.40558777713408961 -0.45702296238401469 0 -0.41342275732467182 -0.44957061732256209 0 -0.41694714714975067 -0.46347207764651499 0 -0.40558777713408961 -0.45702296238401469 0 -0.40108739583197922 -0.46903011241017412 0 -0.41694714714975067 -0.46347207764651499 0 -0.42414490381340691 -0.45093725917828009 0 -0.41342275732467182 -0.44957061732256209 0 -0.41694714714975067 -0.46347207764651499 0 -0.44864830593964822 -0.2500334732373703 0 -0.44298253871169141 -0.26232468591955088 0 -0.46208935328757689 -0.25642578960946882 0 -0.44864830593964822 -0.2500334732373703 0 -0.435575118997789 -0.25652031039257878 0 -0.43627010288686729 -0.2445603647363345 0 -0.44864830593964822 -0.2500334732373703 0 -0.44298253871169141 -0.26232468591955088 0 -0.435575118997789 -0.25652031039257878 0 -0.44298253871169141 -0.26232468591955088 0 -0.4409646919846561 -0.27305272402322422 0 -0.43276430356698531 -0.26595651689968919 0 -0.4409646919846561 -0.27305272402322422 0 -0.44939771002881951 -0.28092331762325351 0 -0.43786256834945619 -0.28856449337730261 0 -0.4409646919846561 -0.27305272402322422 0 -0.44939771002881951 -0.28092331762325351 0 -0.45470348964028012 -0.27083587735426062 0 -0.44298253871169141 -0.26232468591955088 0 -0.4409646919846561 -0.27305272402322422 0 -0.45470348964028012 -0.27083587735426062 0 -0.45470348964028012 -0.27083587735426062 0 -0.47075047919858642 -0.27509778328051859 0 -0.4584091687667361 -0.28294494253632407 0 -0.45470348964028012 -0.27083587735426062 0 -0.46208935328757689 -0.25642578960946882 0 -0.47075047919858642 -0.27509778328051859 0 -0.44939771002881951 -0.28092331762325351 0 -0.45470348964028012 -0.27083587735426062 0 -0.4584091687667361 -0.28294494253632407 0 -0.44298253871169141 -0.26232468591955088 0 -0.45470348964028012 -0.27083587735426062 0 -0.46208935328757689 -0.25642578960946882 0 -0.46208935328757689 -0.25642578960946882 0 -0.48189917680180622 -0.25820868803071712 0 -0.47665605152286777 -0.2387320218547713 0 -0.46208935328757689 -0.25642578960946882 0 -0.48189917680180622 -0.25820868803071712 0 -0.47075047919858642 -0.27509778328051859 0 -0.48189917680180622 -0.25820868803071712 0 -0.5 -0.27408003000767811 0 -0.5 -0.2467078154011485 0 -0.48189917680180622 -0.25820868803071712 0 -0.5 -0.27408003000767811 0 -0.47075047919858642 -0.27509778328051859 0 -0.5 -0.27408003000767811 0 -0.47075047919858642 -0.27509778328051859 0 -0.48137642421136462 -0.29391895110253152 0 -0.47075047919858642 -0.27509778328051859 0 -0.48137642421136462 -0.29391895110253152 0 -0.46495892278877382 -0.29489714931562788 0 -0.5 -0.27408003000767811 0 -0.48137642421136462 -0.29391895110253152 0 -0.5 -0.30145224461420761 0 -0.48137642421136462 -0.29391895110253152 0 -0.5 -0.30145224461420761 0 -0.4845811931527565 -0.30973495078586788 0 -0.48137642421136462 -0.29391895110253152 0 -0.46971375784646702 -0.3066716087777337 0 -0.46495892278877382 -0.29489714931562788 0 -0.48137642421136462 -0.29391895110253152 0 -0.4845811931527565 -0.30973495078586788 0 -0.46971375784646702 -0.3066716087777337 0 -0.46971375784646702 -0.3066716087777337 0 -0.457699139382581 -0.3036521386739659 0 -0.45866537445566019 -0.31705093726356348 0 -0.457699139382581 -0.3036521386739659 0 -0.44466820736317902 -0.30509047307138859 0 -0.45866537445566019 -0.31705093726356348 0 -0.457699139382581 -0.3036521386739659 0 -0.46495892278877382 -0.29489714931562788 0 -0.45223524217722072 -0.29297058510795998 0 -0.46971375784646702 -0.3066716087777337 0 -0.457699139382581 -0.3036521386739659 0 -0.46495892278877382 -0.29489714931562788 0 -0.47075047919858642 -0.27509778328051859 0 -0.46495892278877382 -0.29489714931562788 0 -0.4584091687667361 -0.28294494253632407 0 -0.44939771002881951 -0.28092331762325351 0 -0.4584091687667361 -0.28294494253632407 0 -0.45223524217722072 -0.29297058510795998 0 -0.46495892278877382 -0.29489714931562788 0 -0.4584091687667361 -0.28294494253632407 0 -0.45223524217722072 -0.29297058510795998 0 -0.45223524217722072 -0.29297058510795998 0 -0.43786256834945619 -0.28856449337730261 0 -0.44466820736317902 -0.30509047307138859 0 -0.44939771002881951 -0.28092331762325351 0 -0.45223524217722072 -0.29297058510795998 0 -0.43786256834945619 -0.28856449337730261 0 -0.457699139382581 -0.3036521386739659 0 -0.45223524217722072 -0.29297058510795998 0 -0.44466820736317902 -0.30509047307138859 0 -0.5 -0.39181759546499362 0 -0.50000000000000078 -0.32882445922073728 0 -0.47853861946806869 -0.36707326441363841 0 -0.44868622179086648 -0.32620461503102199 0 -0.45866537445566019 -0.31705093726356348 0 -0.43394743059794522 -0.32100779527154538 0 -0.44466820736317902 -0.30509047307138859 0 -0.45866537445566019 -0.31705093726356348 0 -0.43394743059794522 -0.32100779527154538 0 -0.45866537445566019 -0.31705093726356348 0 -0.43394743059794522 -0.32100779527154538 0 -0.44868622179086648 -0.32620461503102199 0 -0.43565033364742228 -0.33317761591693551 0 -0.43394743059794522 -0.32100779527154538 0 -0.44868622179086648 -0.32620461503102199 0 -0.44514913071087342 -0.34433696881328962 0 -0.43565033364742228 -0.33317761591693551 0 -0.44868622179086648 -0.32620461503102199 0 -0.45958134322252142 -0.33466221759317322 0 -0.44514913071087342 -0.34433696881328962 0 -0.44868622179086648 -0.32620461503102199 0 -0.44514913071087342 -0.34433696881328962 0 -0.45958134322252142 -0.33466221759317322 0 -0.45674625492989518 -0.35138060210471173 0 -0.44514913071087342 -0.34433696881328962 0 -0.45958134322252142 -0.33466221759317322 0 -0.45866537445566019 -0.31705093726356348 0 -0.47496354217292858 -0.32419480507711368 0 -0.44868622179086648 -0.32620461503102199 0 -0.45958134322252142 -0.33466221759317322 0 -0.45866537445566019 -0.31705093726356348 0 -0.46971375784646702 -0.3066716087777337 0 -0.45866537445566019 -0.31705093726356348 0 -0.47496354217292858 -0.32419480507711368 0 -0.4845811931527565 -0.30973495078586788 0 -0.46971375784646702 -0.3066716087777337 0 -0.47496354217292858 -0.32419480507711368 0 -0.5 -0.30145224461420761 0 -0.4845811931527565 -0.30973495078586788 0 -0.50000000000000078 -0.32882445922073728 0 -0.4845811931527565 -0.30973495078586788 0 -0.47496354217292858 -0.32419480507711368 0 -0.50000000000000078 -0.32882445922073728 0 -0.50000000000000078 -0.32882445922073728 0 -0.4772395843601665 -0.3482246568216068 0 -0.45958134322252142 -0.33466221759317322 0 -0.47496354217292858 -0.32419480507711368 0 -0.4772395843601665 -0.3482246568216068 0 -0.47496354217292858 -0.32419480507711368 0 -0.50000000000000078 -0.32882445922073728 0 -0.4772395843601665 -0.3482246568216068 0 -0.50000000000000078 -0.32882445922073728 0 -0.4772395843601665 -0.3482246568216068 0 -0.47853861946806869 -0.36707326441363841 0 -0.4772395843601665 -0.3482246568216068 0 -0.47853861946806869 -0.36707326441363841 0 -0.45447916872033189 -0.36762485442247578 0 -0.46237967713699429 -0.37714856317698459 0 -0.47853861946806869 -0.36707326441363841 0 -0.45447916872033189 -0.36762485442247578 0 -0.46237967713699429 -0.37714856317698459 0 -0.45447916872033189 -0.36762485442247578 0 -0.45066696737299938 -0.37295651524511042 0 -0.45958134322252142 -0.33466221759317322 0 -0.4772395843601665 -0.3482246568216068 0 -0.45674625492989518 -0.35138060210471173 0 -0.4772395843601665 -0.3482246568216068 0 -0.45447916872033189 -0.36762485442247578 0 -0.4772395843601665 -0.3482246568216068 0 -0.45447916872033189 -0.36762485442247578 0 -0.45674625492989518 -0.35138060210471173 0 -0.45674625492989518 -0.35138060210471173 0 -0.44514913071087342 -0.34433696881328962 0 -0.4416120396308808 -0.36246932259555742 0 -0.44514913071087342 -0.34433696881328962 0 -0.4416120396308808 -0.36246932259555742 0 -0.4370735921082044 -0.38573497627603048 0 -0.4416120396308808 -0.36246932259555742 0 -0.45447916872033189 -0.36762485442247578 0 -0.45674625492989518 -0.35138060210471173 0 -0.4416120396308808 -0.36246932259555742 0 -0.4416120396308808 -0.36246932259555742 0 -0.45066696737299938 -0.37295651524511042 0 -0.44523408858185248 -0.37690149056122402 0 -0.4416120396308808 -0.36246932259555742 0 -0.45066696737299938 -0.37295651524511042 0 -0.45447916872033189 -0.36762485442247578 0 -0.4416120396308808 -0.36246932259555742 0 -0.45066696737299938 -0.37295651524511042 0 -0.4370735921082044 -0.38573497627603048 0 -0.4416120396308808 -0.36246932259555742 0 -0.42615508220917647 -0.37274546335519909 0 -0.4416120396308808 -0.36246932259555742 0 -0.42615508220917647 -0.37274546335519909 0 -0.41999640766796498 -0.35910315551660371 0 -0.44514913071087342 -0.34433696881328962 0 -0.4416120396308808 -0.36246932259555742 0 -0.42542076318555527 -0.34371698793754413 0 -0.4416120396308808 -0.36246932259555742 0 -0.42542076318555527 -0.34371698793754413 0 -0.4416120396308808 -0.36246932259555742 0 -0.41999640766796498 -0.35910315551660371 0 -0.42542076318555527 -0.34371698793754413 0 -0.41999640766796498 -0.35910315551660371 0 -0.39776389894029512 -0.34914791749090462 0 -0.42542076318555527 -0.34371698793754413 0 -0.41999640766796498 -0.35910315551660371 0 -0.40958081158163978 -0.36960411003130289 0 -0.39776389894029512 -0.34914791749090462 0 -0.42615508220917647 -0.37274546335519909 0 -0.41999640766796498 -0.35910315551660371 0 -0.40958081158163978 -0.36960411003130289 0 -0.40958081158163978 -0.36960411003130289 0 -0.38956438601736298 -0.37407075850006588 0 -0.39776389894029512 -0.34914791749090462 0 -0.40958081158163978 -0.36960411003130289 0 -0.39776389894029512 -0.34914791749090462 0 -0.37547993816033892 -0.36092364163782709 0 -0.38956438601736298 -0.37407075850006588 0 -0.39776389894029512 -0.34914791749090462 0 -0.37547993816033892 -0.36092364163782709 0 -0.38956438601736298 -0.37407075850006588 0 -0.37153564175596138 -0.37906794085086831 0 -0.37547993816033892 -0.36092364163782709 0 -0.39776389894029512 -0.34914791749090462 0 -0.37339609366322613 -0.3437102825191708 0 -0.39776389894029512 -0.34914791749090462 0 -0.38594698629895069 -0.3286917249505063 0 -0.40922948674023052 -0.3249646532795305 0 -0.39776389894029512 -0.34914791749090462 0 -0.38594698629895069 -0.3286917249505063 0 -0.39776389894029512 -0.34914791749090462 0 -0.38594698629895069 -0.3286917249505063 0 -0.37339609366322613 -0.3437102825191708 0 -0.38594698629895069 -0.3286917249505063 0 -0.39416015630887641 -0.30751172865835558 0 -0.37140281569674732 -0.30351439114014039 0 -0.38594698629895069 -0.3286917249505063 0 -0.37140281569674732 -0.30351439114014039 0 -0.38594698629895069 -0.3286917249505063 0 -0.40922948674023052 -0.3249646532795305 0 -0.40922948674023052 -0.3249646532795305 0 -0.41361851828388779 -0.30738279728040468 0 -0.39416015630887641 -0.30751172865835558 0 -0.40922948674023052 -0.3249646532795305 0 -0.39416015630887641 -0.30751172865835558 0 -0.38594698629895069 -0.3286917249505063 0 -0.40922948674023052 -0.3249646532795305 0 -0.39416015630887641 -0.30751172865835558 0 -0.40922948674023052 -0.3249646532795305 0 -0.43394743059794522 -0.32100779527154538 0 -0.40922948674023052 -0.3249646532795305 0 -0.43394743059794522 -0.32100779527154538 0 -0.41361851828388779 -0.30738279728040468 0 -0.40922948674023052 -0.3249646532795305 0 -0.42504812195187119 -0.33062171253127631 0 -0.42542076318555527 -0.34371698793754413 0 -0.40922948674023052 -0.3249646532795305 0 -0.42542076318555527 -0.34371698793754413 0 -0.39776389894029512 -0.34914791749090462 0 -0.40922948674023052 -0.3249646532795305 0 -0.42542076318555527 -0.34371698793754413 0 -0.44514913071087342 -0.34433696881328962 0 -0.42542076318555527 -0.34371698793754413 0 -0.43565033364742228 -0.33317761591693551 0 -0.42504812195187119 -0.33062171253127631 0 -0.42542076318555527 -0.34371698793754413 0 -0.43565033364742228 -0.33317761591693551 0 -0.42504812195187119 -0.33062171253127631 0 -0.43565033364742228 -0.33317761591693551 0 -0.43394743059794522 -0.32100779527154538 0 -0.40922948674023052 -0.3249646532795305 0 -0.42504812195187119 -0.33062171253127631 0 -0.43394743059794522 -0.32100779527154538 0 -0.43786256834945619 -0.28856449337730261 0 -0.44466820736317902 -0.30509047307138859 0 -0.42982533240703852 -0.30412028556116438 0 -0.43394743059794522 -0.32100779527154538 0 -0.42982533240703852 -0.30412028556116438 0 -0.41361851828388779 -0.30738279728040468 0 -0.44466820736317902 -0.30509047307138859 0 -0.43394743059794522 -0.32100779527154538 0 -0.42982533240703852 -0.30412028556116438 0 -0.43786256834945619 -0.28856449337730261 0 -0.4219755659092681 -0.29334973950042958 0 -0.42750255175466351 -0.2765637117221153 0 -0.43786256834945619 -0.28856449337730261 0 -0.42982533240703852 -0.30412028556116438 0 -0.4219755659092681 -0.29334973950042958 0 -0.4219755659092681 -0.29334973950042958 0 -0.41379218012123259 -0.27914618365374289 0 -0.42750255175466351 -0.2765637117221153 0 -0.4219755659092681 -0.29334973950042958 0 -0.40323054075257991 -0.29202609485594749 0 -0.41379218012123259 -0.27914618365374289 0 -0.42982533240703852 -0.30412028556116438 0 -0.4219755659092681 -0.29334973950042958 0 -0.41361851828388779 -0.30738279728040468 0 -0.4219755659092681 -0.29334973950042958 0 -0.41361851828388779 -0.30738279728040468 0 -0.40323054075257991 -0.29202609485594749 0 -0.41361851828388779 -0.30738279728040468 0 -0.39416015630887641 -0.30751172865835558 0 -0.40323054075257991 -0.29202609485594749 0 -0.39416015630887641 -0.30751172865835558 0 -0.37909082587752441 -0.29005880403717882 0 -0.39416015630887641 -0.30751172865835558 0 -0.37909082587752441 -0.29005880403717882 0 -0.37470372960030601 -0.29354968472186049 0 -0.39416015630887641 -0.30751172865835558 0 -0.37470372960030601 -0.29354968472186049 0 -0.37140281569674732 -0.30351439114014039 0 -0.37909082587752441 -0.29005880403717882 0 -0.3981505848806387 -0.27489265760356402 0 -0.37909082587752441 -0.29005880403717882 0 -0.37470372960030601 -0.29354968472186049 0 -0.37909082587752441 -0.29005880403717882 0 -0.40323054075257991 -0.29202609485594749 0 -0.3981505848806387 -0.27489265760356402 0 -0.40323054075257991 -0.29202609485594749 0 -0.3981505848806387 -0.27489265760356402 0 -0.41379218012123259 -0.27914618365374289 0 -0.39416015630887641 -0.30751172865835558 0 -0.37909082587752441 -0.29005880403717882 0 -0.40323054075257991 -0.29202609485594749 0 -0.37909082587752441 -0.29005880403717882 0 -0.38177629440746669 -0.27382545810847292 0 -0.36850461242926758 -0.27779811427543122 0 -0.37909082587752441 -0.29005880403717882 0 -0.3981505848806387 -0.27489265760356402 0 -0.38177629440746669 -0.27382545810847292 0 -0.3981505848806387 -0.27489265760356402 0 -0.38177629440746669 -0.27382545810847292 0 -0.38725134753799723 -0.26283300573826918 0 -0.37544521494575228 -0.26563443993075719 0 -0.38177629440746669 -0.27382545810847292 0 -0.38725134753799723 -0.26283300573826918 0 -0.37544521494575228 -0.26563443993075719 0 -0.38177629440746669 -0.27382545810847292 0 -0.36850461242926758 -0.27779811427543122 0 -0.37825059063582961 -0.25078147603813578 0 -0.38725134753799723 -0.26283300573826918 0 -0.39923731037318688 -0.25095687761448998 0 -0.37544521494575228 -0.26563443993075719 0 -0.37825059063582961 -0.25078147603813578 0 -0.38725134753799723 -0.26283300573826918 0 -0.3981505848806387 -0.27489265760356402 0 -0.38725134753799723 -0.26283300573826918 0 -0.39923731037318688 -0.25095687761448998 0 -0.3981505848806387 -0.27489265760356402 0 -0.39923731037318688 -0.25095687761448998 0 -0.41721034388375311 -0.25972651116994921 0 -0.39923731037318688 -0.25095687761448998 0 -0.41721034388375311 -0.25972651116994921 0 -0.4139721545095808 -0.24030369345165711 0 -0.41721034388375311 -0.25972651116994921 0 -0.41379218012123259 -0.27914618365374289 0 -0.42750255175466351 -0.2765637117221153 0 -0.3981505848806387 -0.27489265760356402 0 -0.41721034388375311 -0.25972651116994921 0 -0.41379218012123259 -0.27914618365374289 0 -0.3981505848806387 -0.27489265760356402 0 -0.41721034388375311 -0.25972651116994921 0 -0.41721034388375311 -0.25972651116994921 0 -0.42750255175466351 -0.2765637117221153 0 -0.43276430356698531 -0.26595651689968919 0 -0.4409646919846561 -0.27305272402322422 0 -0.43786256834945619 -0.28856449337730261 0 -0.42750255175466351 -0.2765637117221153 0 -0.4409646919846561 -0.27305272402322422 0 -0.42750255175466351 -0.2765637117221153 0 -0.43276430356698531 -0.26595651689968919 0 -0.44298253871169141 -0.26232468591955088 0 -0.43276430356698531 -0.26595651689968919 0 -0.435575118997789 -0.25652031039257878 0 -0.41721034388375311 -0.25972651116994921 0 -0.43627010288686729 -0.2445603647363345 0 -0.41721034388375311 -0.25972651116994921 0 -0.435575118997789 -0.25652031039257878 0 -0.43627010288686729 -0.2445603647363345 0 -0.41721034388375311 -0.25972651116994921 0 -0.43276430356698531 -0.26595651689968919 0 -0.435575118997789 -0.25652031039257878 0 -0.31853060179945469 -0.25503139173680628 0 -0.31981497851325802 -0.27010456042686548 0 -0.31853060179945469 -0.25503139173680628 0 -0.33202487921675988 -0.27697969445189258 0 -0.31853060179945469 -0.25503139173680628 0 -0.31981497851325802 -0.27010456042686548 0 -0.33202487921675988 -0.27697969445189258 0 -0.31981497851325802 -0.27010456042686548 0 -0.33202487921675988 -0.27697969445189258 0 -0.3299130738749208 -0.28798636659317328 0 -0.31981497851325802 -0.27010456042686548 0 -0.33202487921675988 -0.27697969445189258 0 -0.33202487921675988 -0.27697969445189258 0 -0.33826031270920381 -0.27117983355355529 0 -0.33432504402486768 -0.26009261836498032 0 -0.33202487921675988 -0.27697969445189258 0 -0.33571648961732298 -0.27905836133775658 0 -0.33826031270920381 -0.27117983355355529 0 -0.33202487921675988 -0.27697969445189258 0 -0.33571648961732298 -0.27905836133775658 0 -0.33571648961732298 -0.27905836133775658 0 -0.34428484247167113 -0.27467619719949032 0 -0.34535365402782747 -0.28256577555113221 0 -0.33571648961732298 -0.27905836133775658 0 -0.33826031270920381 -0.27117983355355529 0 -0.34428484247167113 -0.27467619719949032 0 -0.33826031270920381 -0.27117983355355529 0 -0.34495030821539718 -0.26509229641365661 0 -0.34428484247167113 -0.27467619719949032 0 -0.31853060179945469 -0.25503139173680628 0 -0.33432504402486768 -0.26009261836498032 0 -0.33263985886390068 -0.24449966060984951 0 -0.31853060179945469 -0.25503139173680628 0 -0.33202487921675988 -0.27697969445189258 0 -0.33432504402486768 -0.26009261836498032 0 -0.33826031270920381 -0.27117983355355529 0 -0.33432504402486768 -0.26009261836498032 0 -0.34495030821539718 -0.26509229641365661 0 -0.33432504402486768 -0.26009261836498032 0 -0.34632554738986171 -0.25125444355949739 0 -0.34495030821539718 -0.26509229641365661 0 -0.33432504402486768 -0.26009261836498032 0 -0.34632554738986171 -0.25125444355949739 0 -0.33263985886390068 -0.24449966060984951 0 -0.34632554738986171 -0.25125444355949739 0 -0.35974485849464471 -0.26389708579551391 0 -0.36285249048315238 -0.24154690764458531 0 -0.34632554738986171 -0.25125444355949739 0 -0.34495030821539718 -0.26509229641365661 0 -0.35974485849464471 -0.26389708579551391 0 -0.37825059063582961 -0.25078147603813578 0 -0.35974485849464471 -0.26389708579551391 0 -0.36285249048315238 -0.24154690764458531 0 -0.37544521494575228 -0.26563443993075719 0 -0.37825059063582961 -0.25078147603813578 0 -0.35974485849464471 -0.26389708579551391 0 -0.37544521494575228 -0.26563443993075719 0 -0.35974485849464471 -0.26389708579551391 0 -0.36850461242926758 -0.27779811427543122 0 -0.35974485849464471 -0.26389708579551391 0 -0.36850461242926758 -0.27779811427543122 0 -0.35375628466548892 -0.27766368479869991 0 -0.36850461242926758 -0.27779811427543122 0 -0.35375628466548892 -0.27766368479869991 0 -0.35967439637182591 -0.28515838799487891 0 -0.34495030821539718 -0.26509229641365661 0 -0.35974485849464471 -0.26389708579551391 0 -0.35068407346180053 -0.2703323160518401 0 -0.35974485849464471 -0.26389708579551391 0 -0.35375628466548892 -0.27766368479869991 0 -0.35068407346180053 -0.2703323160518401 0 -0.34495030821539718 -0.26509229641365661 0 -0.35068407346180053 -0.2703323160518401 0 -0.34428484247167113 -0.27467619719949032 0 -0.35375628466548892 -0.27766368479869991 0 -0.35068407346180053 -0.2703323160518401 0 -0.34428484247167113 -0.27467619719949032 0 -0.35375628466548892 -0.27766368479869991 0 -0.34428484247167113 -0.27467619719949032 0 -0.34535365402782747 -0.28256577555113221 0 -0.35142723276918147 -0.28714614361388452 0 -0.34535365402782747 -0.28256577555113221 0 -0.34189718977640521 -0.29303690551697581 0 -0.35375628466548892 -0.27766368479869991 0 -0.35142723276918147 -0.28714614361388452 0 -0.34535365402782747 -0.28256577555113221 0 -0.35142723276918147 -0.28714614361388452 0 -0.35708217732622483 -0.29481079363002799 0 -0.34189718977640521 -0.29303690551697581 0 -0.35142723276918147 -0.28714614361388452 0 -0.35708217732622483 -0.29481079363002799 0 -0.35967439637182591 -0.28515838799487891 0 -0.35375628466548892 -0.27766368479869991 0 -0.35142723276918147 -0.28714614361388452 0 -0.35967439637182591 -0.28515838799487891 0 -0.36850461242926758 -0.27779811427543122 0 -0.35967439637182591 -0.28515838799487891 0 -0.36791544382989888 -0.28712561836749689 0 -0.35708217732622483 -0.29481079363002799 0 -0.35967439637182591 -0.28515838799487891 0 -0.36791544382989888 -0.28712561836749689 0 -0.35708217732622483 -0.29481079363002799 0 -0.36647511709029179 -0.29683945463575789 0 -0.36791544382989888 -0.28712561836749689 0 -0.36647511709029179 -0.29683945463575789 0 -0.37470372960030601 -0.29354968472186049 0 -0.36791544382989888 -0.28712561836749689 0 -0.37909082587752441 -0.29005880403717882 0 -0.37470372960030601 -0.29354968472186049 0 -0.36791544382989888 -0.28712561836749689 0 -0.37909082587752441 -0.29005880403717882 0 -0.36850461242926758 -0.27779811427543122 0 -0.37909082587752441 -0.29005880403717882 0 -0.36850461242926758 -0.27779811427543122 0 -0.36791544382989888 -0.28712561836749689 0 -0.36647511709029179 -0.29683945463575789 0 -0.37470372960030601 -0.29354968472186049 0 -0.37140281569674732 -0.30351439114014039 0 -0.35708217732622483 -0.29481079363002799 0 -0.36647511709029179 -0.29683945463575789 0 -0.36127141899828191 -0.30519678531926392 0 -0.36647511709029179 -0.29683945463575789 0 -0.37140281569674732 -0.30351439114014039 0 -0.36127141899828191 -0.30519678531926392 0 -0.37140281569674732 -0.30351439114014039 0 -0.36127141899828191 -0.30519678531926392 0 -0.36435420614806829 -0.31838088963314021 0 -0.36127141899828191 -0.30519678531926392 0 -0.35176950033605048 -0.30909411658205882 0 -0.36435420614806829 -0.31838088963314021 0 -0.35176950033605048 -0.30909411658205882 0 -0.34189718977640521 -0.29303690551697581 0 -0.35708217732622483 -0.29481079363002799 0 -0.35176950033605048 -0.30909411658205882 0 -0.34189718977640521 -0.29303690551697581 0 -0.35708217732622483 -0.29481079363002799 0 -0.36127141899828191 -0.30519678531926392 0 -0.35176950033605048 -0.30909411658205882 0 -0.35176950033605048 -0.30909411658205882 0 -0.33356045115611099 -0.30091949720866018 0 -0.34189718977640521 -0.29303690551697581 0 -0.35176950033605048 -0.30909411658205882 0 -0.3341182437469028 -0.31237922364634552 0 -0.33356045115611099 -0.30091949720866018 0 -0.3341182437469028 -0.31237922364634552 0 -0.33356045115611099 -0.30091949720866018 0 -0.32226787071206969 -0.29889117536147292 0 -0.33202487921675988 -0.27697969445189258 0 -0.33571648961732298 -0.27905836133775658 0 -0.34189718977640521 -0.29303690551697581 0 -0.33202487921675988 -0.27697969445189258 0 -0.34189718977640521 -0.29303690551697581 0 -0.33202487921675988 -0.27697969445189258 0 -0.34189718977640521 -0.29303690551697581 0 -0.3299130738749208 -0.28798636659317328 0 -0.33571648961732298 -0.27905836133775658 0 -0.34535365402782747 -0.28256577555113221 0 -0.34189718977640521 -0.29303690551697581 0 -0.33356045115611099 -0.30091949720866018 0 -0.34189718977640521 -0.29303690551697581 0 -0.3299130738749208 -0.28798636659317328 0 -0.33356045115611099 -0.30091949720866018 0 -0.3299130738749208 -0.28798636659317328 0 -0.32226787071206969 -0.29889117536147292 0 -0.31981497851325802 -0.27010456042686548 0 -0.32226787071206969 -0.29889117536147292 0 -0.31981497851325802 -0.27010456042686548 0 -0.32226787071206969 -0.29889117536147292 0 -0.30808354218744538 -0.28970203981806808 0 -0.31981497851325802 -0.27010456042686548 0 -0.3299130738749208 -0.28798636659317328 0 -0.32226787071206969 -0.29889117536147292 0 -0.32226787071206969 -0.29889117536147292 0 -0.31902787815523842 -0.31498760962057809 0 -0.31102866563183679 -0.31183269679364639 0 -0.32226787071206969 -0.29889117536147292 0 -0.32472076291088231 -0.32767779029608052 0 -0.3341182437469028 -0.31237922364634552 0 -0.32226787071206969 -0.29889117536147292 0 -0.32472076291088231 -0.32767779029608052 0 -0.32226787071206969 -0.29889117536147292 0 -0.32472076291088231 -0.32767779029608052 0 -0.31902787815523842 -0.31498760962057809 0 -0.31902787815523842 -0.31498760962057809 0 -0.30963193476466588 -0.32251695102987499 0 -0.31102866563183679 -0.31183269679364639 0 -0.32472076291088231 -0.32767779029608052 0 -0.31902787815523842 -0.31498760962057809 0 -0.31123735719736823 -0.3256238301406541 0 -0.31902787815523842 -0.31498760962057809 0 -0.31123735719736823 -0.3256238301406541 0 -0.30963193476466588 -0.32251695102987499 0 -0.31902787815523842 -0.31498760962057809 0 -0.31123735719736823 -0.3256238301406541 0 -0.32472076291088231 -0.32767779029608052 0 -0.31920550615353271 -0.34104411768567078 0 -0.31123735719736823 -0.3256238301406541 0 -0.31920550615353271 -0.34104411768567078 0 -0.31123735719736823 -0.3256238301406541 0 -0.32472076291088231 -0.32767779029608052 0 -0.31920550615353271 -0.34104411768567078 0 -0.32717365510969632 -0.3564644052306879 0 -0.32472076291088231 -0.32767779029608052 0 -0.32707891529565691 -0.33811534851339847 0 -0.32717365510969632 -0.3564644052306879 0 -0.32472076291088231 -0.32767779029608052 0 -0.32717365510969632 -0.3564644052306879 0 -0.32707891529565691 -0.33811534851339847 0 -0.35651295079730372 -0.333403536731952 0 -0.32472076291088231 -0.32767779029608052 0 -0.32707891529565691 -0.33811534851339847 0 -0.33725018802240653 -0.32801003164620429 0 -0.32707891529565691 -0.33811534851339847 0 -0.35651295079730372 -0.333403536731952 0 -0.34114363781128287 -0.3482351580527856 0 -0.32707891529565691 -0.33811534851339847 0 -0.33725018802240653 -0.32801003164620429 0 -0.35651295079730372 -0.333403536731952 0 -0.33725018802240653 -0.32801003164620429 0 -0.33514142166370292 -0.32160223499288121 0 -0.34522282086594108 -0.31912048202473231 0 -0.35176950033605048 -0.30909411658205882 0 -0.3341182437469028 -0.31237922364634552 0 -0.34522282086594108 -0.31912048202473231 0 -0.32472076291088231 -0.32767779029608052 0 -0.33725018802240653 -0.32801003164620429 0 -0.33514142166370292 -0.32160223499288121 0 -0.3341182437469028 -0.31237922364634552 0 -0.32472076291088231 -0.32767779029608052 0 -0.33514142166370292 -0.32160223499288121 0 -0.3341182437469028 -0.31237922364634552 0 -0.33514142166370292 -0.32160223499288121 0 -0.34522282086594108 -0.31912048202473231 0 -0.33725018802240653 -0.32801003164620429 0 -0.34522282086594108 -0.31912048202473231 0 -0.35651295079730372 -0.333403536731952 0 -0.34522282086594108 -0.31912048202473231 0 -0.36435420614806829 -0.31838088963314021 0 -0.35651295079730372 -0.333403536731952 0 -0.35176950033605048 -0.30909411658205882 0 -0.34522282086594108 -0.31912048202473231 0 -0.36435420614806829 -0.31838088963314021 0 -0.38594698629895069 -0.3286917249505063 0 -0.36435420614806829 -0.31838088963314021 0 -0.35651295079730372 -0.333403536731952 0 -0.38594698629895069 -0.3286917249505063 0 -0.37140281569674732 -0.30351439114014039 0 -0.36435420614806829 -0.31838088963314021 0 -0.38594698629895069 -0.3286917249505063 0 -0.35651295079730372 -0.333403536731952 0 -0.37339609366322613 -0.3437102825191708 0 -0.35651295079730372 -0.333403536731952 0 -0.35305206110251031 -0.35330467048691627 0 -0.38594698629895069 -0.3286917249505063 0 -0.37339609366322613 -0.3437102825191708 0 -0.35651295079730372 -0.333403536731952 0 -0.35651295079730372 -0.333403536731952 0 -0.35305206110251031 -0.35330467048691627 0 -0.34114363781128287 -0.3482351580527856 0 -0.35305206110251031 -0.35330467048691627 0 -0.34200876486991572 -0.3599368761212503 0 -0.34114363781128287 -0.3482351580527856 0 -0.37547993816033892 -0.36092364163782709 0 -0.37339609366322613 -0.3437102825191708 0 -0.35305206110251031 -0.35330467048691627 0 -0.37547993816033892 -0.36092364163782709 0 -0.35427861308453479 -0.3712390408439179 0 -0.37153564175596138 -0.37906794085086831 0 -0.37547993816033892 -0.36092364163782709 0 -0.35305206110251031 -0.35330467048691627 0 -0.35427861308453479 -0.3712390408439179 0 -0.35305206110251031 -0.35330467048691627 0 -0.35427861308453479 -0.3712390408439179 0 -0.35305206110251031 -0.35330467048691627 0 -0.35427861308453479 -0.3712390408439179 0 -0.34200876486991572 -0.3599368761212503 0 -0.35427861308453479 -0.3712390408439179 0 -0.3343958572415528 -0.37044110599194452 0 -0.34200876486991572 -0.3599368761212503 0 -0.3343958572415528 -0.37044110599194452 0 -0.32717365510969632 -0.3564644052306879 0 -0.32919298895259119 -0.38016287261054849 0 -0.3343958572415528 -0.37044110599194452 0 -0.32717365510969632 -0.3564644052306879 0 -0.3343958572415528 -0.37044110599194452 0 -0.34200876486991572 -0.3599368761212503 0 -0.32717365510969632 -0.3564644052306879 0 -0.34200876486991572 -0.3599368761212503 0 -0.34114363781128287 -0.3482351580527856 0 -0.32717365510969632 -0.3564644052306879 0 -0.32707891529565691 -0.33811534851339847 0 -0.34114363781128287 -0.3482351580527856 0 -0.32717365510969632 -0.3564644052306879 0 -0.31920550615353271 -0.34104411768567078 0 -0.32717365510969632 -0.3564644052306879 0 -0.3061461888686321 -0.35806835612729809 0 -0.31920550615353271 -0.34104411768567078 0 -0.32717365510969632 -0.3564644052306879 0 -0.32717365510969632 -0.3564644052306879 0 -0.31275818698668972 -0.37453481597633292 0 -0.3061461888686321 -0.35806835612729809 0 -0.32717365510969632 -0.3564644052306879 0 -0.32919298895259119 -0.38016287261054849 0 -0.32717365510969632 -0.3564644052306879 0 -0.31275818698668972 -0.37453481597633292 0 -0.32919298895259119 -0.38016287261054849 0 -0.31275818698668972 -0.37453481597633292 0 -0.3061461888686321 -0.35806835612729809 0 -0.29633111851887511 -0.36392256629571801 0 -0.31275818698668972 -0.37453481597633292 0 -0.28449688645340537 -0.36492255031166931 0 -0.29633111851887511 -0.36392256629571801 0 -0.31275818698668972 -0.37453481597633292 0 -0.28449688645340537 -0.36492255031166931 0 -0.31275818698668972 -0.37453481597633292 0 -0.3061461888686321 -0.35806835612729809 0 -0.3061461888686321 -0.35806835612729809 0 -0.29557720464884718 -0.35734196211623859 0 -0.29633111851887511 -0.36392256629571801 0 -0.31920550615353271 -0.34104411768567078 0 -0.3061461888686321 -0.35806835612729809 0 -0.29953419075057452 -0.34160189627826348 0 -0.3061461888686321 -0.35806835612729809 0 -0.29557720464884718 -0.35734196211623859 0 -0.29953419075057452 -0.34160189627826348 0 -0.3061461888686321 -0.35806835612729809 0 -0.29953419075057452 -0.34160189627826348 0 -0.29557720464884718 -0.35734196211623859 0 -0.28525896026232023 -0.36109154276905631 0 -0.29953419075057452 -0.34160189627826348 0 -0.28525896026232023 -0.36109154276905631 0 -0.29078040609833661 -0.33333478168311592 0 -0.29953419075057452 -0.34160189627826348 0 -0.28378773345677749 -0.34924878744250459 0 -0.28525896026232023 -0.36109154276905631 0 -0.29078040609833661 -0.33333478168311592 0 -0.28525896026232023 -0.36109154276905631 0 -0.29078040609833661 -0.33333478168311592 0 -0.28525896026232023 -0.36109154276905631 0 -0.29953419075057452 -0.34160189627826348 0 -0.28378773345677749 -0.34924878744250459 0 -0.27924205548977482 -0.3470979815196451 0 -0.28331512557020161 -0.34149468591467852 0 -0.28378773345677749 -0.34924878744250459 0 -0.28525896026232023 -0.36109154276905631 0 -0.28099170791004258 -0.35765199842540962 0 -0.28449688645340537 -0.36492255031166931 0 -0.29220560350421299 -0.3751358008765161 0 -0.28107340006278742 -0.38213269719123089 0 -0.28449688645340537 -0.36492255031166931 0 -0.28107340006278742 -0.38213269719123089 0 -0.28525896026232023 -0.36109154276905631 0 -0.27820297023149232 -0.36450699314271751 0 -0.28099170791004258 -0.35765199842540962 0 -0.31275818698668972 -0.37453481597633292 0 -0.28449688645340537 -0.36492255031166931 0 -0.29220560350421299 -0.3751358008765161 0 -0.28449688645340537 -0.36492255031166931 0 -0.28525896026232023 -0.36109154276905631 0 -0.28449688645340537 -0.36492255031166931 0 -0.28525896026232023 -0.36109154276905631 0 -0.290615564843834 -0.3620254491108571 0 -0.28449688645340537 -0.36492255031166931 0 -0.290615564843834 -0.3620254491108571 0 -0.29633111851887511 -0.36392256629571801 0 -0.29557720464884718 -0.35734196211623859 0 -0.28525896026232023 -0.36109154276905631 0 -0.290615564843834 -0.3620254491108571 0 -0.29557720464884718 -0.35734196211623859 0 -0.290615564843834 -0.3620254491108571 0 -0.29633111851887511 -0.36392256629571801 0 -0.28525896026232023 -0.36109154276905631 0 -0.27291372919560303 -0.37794620508329502 0 -0.27820297023149232 -0.36450699314271751 0 -0.27428291312613801 -0.36633669432266902 0 -0.27291372919560303 -0.37794620508329502 0 -0.28525896026232023 -0.36109154276905631 0 -0.27820297023149232 -0.36450699314271751 0 -0.27291372919560303 -0.37794620508329502 0 -0.28449688645340537 -0.36492255031166931 0 -0.28525896026232023 -0.36109154276905631 0 -0.27291372919560303 -0.37794620508329502 0 -0.27820297023149232 -0.36450699314271751 0 -0.2765394806504316 -0.35958889370680952 0 -0.28099170791004258 -0.35765199842540962 0 -0.27820297023149232 -0.36450699314271751 0 -0.27428291312613801 -0.36633669432266902 0 -0.2765394806504316 -0.35958889370680952 0 -0.27428291312613801 -0.36633669432266902 0 -0.2765394806504316 -0.35958889370680952 0 -0.27155419517377549 -0.36131393882857848 0 -0.27428291312613801 -0.36633669432266902 0 -0.27155419517377549 -0.36131393882857848 0 -0.26783804527933669 -0.36570721773656228 0 -0.27155419517377549 -0.36131393882857848 0 -0.26783804527933669 -0.36570721773656228 0 -0.2659211490268204 -0.35906304183491372 0 -0.27428291312613801 -0.36633669432266902 0 -0.26926203161365958 -0.37185306217428032 0 -0.27291372919560303 -0.37794620508329502 0 -0.27428291312613801 -0.36633669432266902 0 -0.26783804527933669 -0.36570721773656228 0 -0.26926203161365958 -0.37185306217428032 0 -0.26783804527933669 -0.36570721773656228 0 -0.26926203161365958 -0.37185306217428032 0 -0.26363369202367948 -0.37105824992650382 0 -0.26926203161365958 -0.37185306217428032 0 -0.26363369202367948 -0.37105824992650382 0 -0.26308015902417259 -0.3783684185991581 0 -0.26363369202367948 -0.37105824992650382 0 -0.25611156952797892 -0.37197391888178483 0 -0.26308015902417259 -0.3783684185991581 0 -0.26363369202367948 -0.37105824992650382 0 -0.26009348100226348 -0.36469405673082228 0 -0.25611156952797892 -0.37197391888178483 0 -0.26009348100226348 -0.36469405673082228 0 -0.25781005646879768 -0.35570691221177098 0 -0.2659211490268204 -0.35906304183491372 0 -0.26783804527933669 -0.36570721773656228 0 -0.26363369202367948 -0.37105824992650382 0 -0.26009348100226348 -0.36469405673082228 0 -0.26783804527933669 -0.36570721773656228 0 -0.26009348100226348 -0.36469405673082228 0 -0.2659211490268204 -0.35906304183491372 0 -0.26009348100226348 -0.36469405673082228 0 -0.25213775001602512 -0.36387883337385651 0 -0.25611156952797892 -0.37197391888178483 0 -0.26009348100226348 -0.36469405673082228 0 -0.25213775001602512 -0.36387883337385651 0 -0.25781005646879768 -0.35570691221177098 0 -0.25213775001602512 -0.36387883337385651 0 -0.25611156952797892 -0.37197391888178483 0 -0.24343557703179519 -0.37194162756017229 0 -0.25462839640928042 -0.34920478545609629 0 -0.25781005646879768 -0.35570691221177098 0 -0.26093404456019798 -0.34659481946017462 0 -0.25462839640928042 -0.34920478545609629 0 -0.26093404456019798 -0.34659481946017462 0 -0.25485850142864591 -0.34186581481566308 0 -0.25462839640928042 -0.34920478545609629 0 -0.25485850142864591 -0.34186581481566308 0 -0.2484532437441439 -0.34653965078355248 0 -0.25213775001602512 -0.36387883337385651 0 -0.25781005646879768 -0.35570691221177098 0 -0.24642239400577459 -0.3557809557026344 0 -0.25462839640928042 -0.34920478545609629 0 -0.25781005646879768 -0.35570691221177098 0 -0.24642239400577459 -0.3557809557026344 0 -0.25781005646879768 -0.35570691221177098 0 -0.2659211490268204 -0.35906304183491372 0 -0.26658287103400119 -0.35162612794364628 0 -0.25781005646879768 -0.35570691221177098 0 -0.26093404456019798 -0.34659481946017462 0 -0.26658287103400119 -0.35162612794364628 0 -0.26093404456019798 -0.34659481946017462 0 -0.26800058607996391 -0.34379033440819667 0 -0.26658287103400119 -0.35162612794364628 0 -0.26800058607996391 -0.34379033440819667 0 -0.26658287103400119 -0.35162612794364628 0 -0.27422527693990723 -0.34912989429125341 0 -0.26800058607996391 -0.34379033440819667 0 -0.27422527693990723 -0.34912989429125341 0 -0.27576886655864891 -0.34163202769652501 0 -0.2659211490268204 -0.35906304183491372 0 -0.26658287103400119 -0.35162612794364628 0 -0.27247489899014182 -0.35545695848506759 0 -0.26658287103400119 -0.35162612794364628 0 -0.27247489899014182 -0.35545695848506759 0 -0.27422527693990723 -0.34912989429125341 0 -0.27155419517377549 -0.36131393882857848 0 -0.2659211490268204 -0.35906304183491372 0 -0.27247489899014182 -0.35545695848506759 0 -0.28378773345677749 -0.34924878744250459 0 -0.27787685890617919 -0.35302908564511493 0 -0.28099170791004258 -0.35765199842540962 0 -0.2765394806504316 -0.35958889370680952 0 -0.27155419517377549 -0.36131393882857848 0 -0.27247489899014182 -0.35545695848506759 0 -0.2765394806504316 -0.35958889370680952 0 -0.27247489899014182 -0.35545695848506759 0 -0.27787685890617919 -0.35302908564511493 0 -0.27247489899014182 -0.35545695848506759 0 -0.27787685890617919 -0.35302908564511493 0 -0.27422527693990723 -0.34912989429125341 0 -0.2765394806504316 -0.35958889370680952 0 -0.27787685890617919 -0.35302908564511493 0 -0.28099170791004258 -0.35765199842540962 0 -0.27422527693990723 -0.34912989429125341 0 -0.27924205548977482 -0.3470979815196451 0 -0.27576886655864891 -0.34163202769652501 0 -0.27787685890617919 -0.35302908564511493 0 -0.27422527693990723 -0.34912989429125341 0 -0.27924205548977482 -0.3470979815196451 0 -0.28378773345677749 -0.34924878744250459 0 -0.27787685890617919 -0.35302908564511493 0 -0.27924205548977482 -0.3470979815196451 0 -0.27576886655864891 -0.34163202769652501 0 -0.27821092773920808 -0.33075633166540302 0 -0.26933625462187222 -0.33663959653609649 0 -0.27924205548977482 -0.3470979815196451 0 -0.27576886655864891 -0.34163202769652501 0 -0.28331512557020161 -0.34149468591467852 0 -0.27821092773920808 -0.33075633166540302 0 -0.26933625462187222 -0.33663959653609649 0 -0.26253583635012051 -0.32791345422897161 0 -0.27576886655864891 -0.34163202769652501 0 -0.27821092773920808 -0.33075633166540302 0 -0.28331512557020161 -0.34149468591467852 0 -0.26800058607996391 -0.34379033440819667 0 -0.26933625462187222 -0.33663959653609649 0 -0.26115620276515628 -0.33711954052148457 0 -0.26800058607996391 -0.34379033440819667 0 -0.27576886655864891 -0.34163202769652501 0 -0.26933625462187222 -0.33663959653609649 0 -0.26093404456019798 -0.34659481946017462 0 -0.26800058607996391 -0.34379033440819667 0 -0.26115620276515628 -0.33711954052148457 0 -0.26093404456019798 -0.34659481946017462 0 -0.26115620276515628 -0.33711954052148457 0 -0.25485850142864591 -0.34186581481566308 0 -0.26933625462187222 -0.33663959653609649 0 -0.26115620276515628 -0.33711954052148457 0 -0.26253583635012051 -0.32791345422897161 0 -0.26115620276515628 -0.33711954052148457 0 -0.25457171928039912 -0.33359119635171119 0 -0.26253583635012051 -0.32791345422897161 0 -0.25457171928039912 -0.33359119635171119 0 -0.26253583635012051 -0.32791345422897161 0 -0.24942821117417521 -0.32572181351697388 0 -0.26115620276515628 -0.33711954052148457 0 -0.25457171928039912 -0.33359119635171119 0 -0.25485850142864591 -0.34186581481566308 0 -0.25457171928039912 -0.33359119635171119 0 -0.25485850142864591 -0.34186581481566308 0 -0.24580149491983119 -0.33817239609924932 0 -0.25411182579487812 -0.31513474396981861 0 -0.26253583635012051 -0.32791345422897161 0 -0.27061114894282001 -0.31823846434284742 0 -0.25411182579487812 -0.31513474396981861 0 -0.26253583635012051 -0.32791345422897161 0 -0.24942821117417521 -0.32572181351697388 0 -0.27821092773920808 -0.33075633166540302 0 -0.26253583635012051 -0.32791345422897161 0 -0.27061114894282001 -0.31823846434284742 0 -0.27821092773920808 -0.33075633166540302 0 -0.27061114894282001 -0.31823846434284742 0 -0.28841438776264888 -0.31390924026709438 0 -0.28841438776264888 -0.31390924026709438 0 -0.29953419075057452 -0.34160189627826348 0 -0.30093312085317703 -0.31793889201409958 0 -0.27821092773920808 -0.33075633166540302 0 -0.28841438776264888 -0.31390924026709438 0 -0.29078040609833661 -0.33333478168311592 0 -0.28841438776264888 -0.31390924026709438 0 -0.29953419075057452 -0.34160189627826348 0 -0.28841438776264888 -0.31390924026709438 0 -0.29078040609833661 -0.33333478168311592 0 -0.29953419075057452 -0.34160189627826348 0 -0.28378773345677749 -0.34924878744250459 0 -0.28331512557020161 -0.34149468591467852 0 -0.29078040609833661 -0.33333478168311592 0 -0.27821092773920808 -0.33075633166540302 0 -0.28331512557020161 -0.34149468591467852 0 -0.29078040609833661 -0.33333478168311592 0 -0.29953419075057452 -0.34160189627826348 0 -0.31123735719736823 -0.3256238301406541 0 -0.30963193476466588 -0.32251695102987499 0 -0.29953419075057452 -0.34160189627826348 0 -0.31123735719736823 -0.3256238301406541 0 -0.31920550615353271 -0.34104411768567078 0 -0.29953419075057452 -0.34160189627826348 0 -0.31123735719736823 -0.3256238301406541 0 -0.29953419075057452 -0.34160189627826348 0 -0.30963193476466588 -0.32251695102987499 0 -0.30093312085317703 -0.31793889201409958 0 -0.31123735719736823 -0.3256238301406541 0 -0.30963193476466588 -0.32251695102987499 0 -0.30963193476466588 -0.32251695102987499 0 -0.30093312085317703 -0.31793889201409958 0 -0.31102866563183679 -0.31183269679364639 0 -0.32226787071206969 -0.29889117536147292 0 -0.30328252367403341 -0.30482885594220649 0 -0.31102866563183679 -0.31183269679364639 0 -0.32226787071206969 -0.29889117536147292 0 -0.30328252367403341 -0.30482885594220649 0 -0.30808354218744538 -0.28970203981806808 0 -0.28841438776264888 -0.31390924026709438 0 -0.30093312085317703 -0.31793889201409958 0 -0.30328252367403341 -0.30482885594220649 0 -0.30093312085317703 -0.31793889201409958 0 -0.30328252367403341 -0.30482885594220649 0 -0.31102866563183679 -0.31183269679364639 0 -0.30808354218744538 -0.28970203981806808 0 -0.28757152565984179 -0.28929772024978823 0 -0.30338591003566129 -0.27572745926915809 0 -0.30328252367403341 -0.30482885594220649 0 -0.30808354218744538 -0.28970203981806808 0 -0.28757152565984179 -0.28929772024978823 0 -0.28841438776264888 -0.31390924026709438 0 -0.30328252367403341 -0.30482885594220649 0 -0.28757152565984179 -0.28929772024978823 0 -0.28841438776264888 -0.31390924026709438 0 -0.28757152565984179 -0.28929772024978823 0 -0.26876206021005677 -0.30319784808910949 0 -0.27061114894282001 -0.31823846434284742 0 -0.28841438776264888 -0.31390924026709438 0 -0.26876206021005677 -0.30319784808910949 0 -0.25411182579487812 -0.31513474396981861 0 -0.27061114894282001 -0.31823846434284742 0 -0.26876206021005677 -0.30319784808910949 0 -0.25411182579487812 -0.31513474396981861 0 -0.26876206021005677 -0.30319784808910949 0 -0.25019827091422342 -0.29991895918425548 0 -0.26876206021005677 -0.30319784808910949 0 -0.25019827091422342 -0.29991895918425548 0 -0.26290989517439262 -0.28302934727630119 0 -0.28757152565984179 -0.28929772024978823 0 -0.26290989517439262 -0.28302934727630119 0 -0.28052499841522183 -0.27489458760039021 0 -0.28757152565984179 -0.28929772024978823 0 -0.26876206021005677 -0.30319784808910949 0 -0.26290989517439262 -0.28302934727630119 0 -0.26290989517439262 -0.28302934727630119 0 -0.28052499841522183 -0.27489458760039021 0 -0.27181102890816028 -0.26374018213583461 0 -0.26290989517439262 -0.28302934727630119 0 -0.27181102890816028 -0.26374018213583461 0 -0.24823463652209049 -0.26301989478753779 0 -0.26608339949288501 -0.25332103557671998 0 -0.24823463652209049 -0.26301989478753779 0 -0.26367345027242062 -0.23849246624210821 0 -0.24823463652209049 -0.26301989478753779 0 -0.26367345027242062 -0.23849246624210821 0 -0.27181102890816028 -0.26374018213583461 0 -0.24823463652209049 -0.26301989478753779 0 -0.27181102890816028 -0.26374018213583461 0 -0.26608339949288501 -0.25332103557671998 0 -0.24823463652209049 -0.26301989478753779 0 -0.27181102890816028 -0.26374018213583461 0 -0.2862676593319996 -0.25780462130847148 0 -0.28061448226886848 -0.24803159914139999 0 -0.27181102890816028 -0.26374018213583461 0 -0.26608339949288501 -0.25332103557671998 0 -0.28061448226886848 -0.24803159914139999 0 -0.29755551426531668 -0.25757073204069098 0 -0.28061448226886848 -0.24803159914139999 0 -0.27181102890816028 -0.26374018213583461 0 -0.29538742129423012 -0.26446046948413171 0 -0.2862676593319996 -0.25780462130847148 0 -0.29755551426531668 -0.25757073204069098 0 -0.28061448226886848 -0.24803159914139999 0 -0.27181102890816028 -0.26374018213583461 0 -0.29538742129423012 -0.26446046948413171 0 -0.2862676593319996 -0.25780462130847148 0 -0.29538742129423012 -0.26446046948413171 0 -0.2862676593319996 -0.25780462130847148 0 -0.29755551426531668 -0.25757073204069098 0 -0.29538742129423012 -0.26446046948413171 0 -0.29755551426531668 -0.25757073204069098 0 -0.28757152565984179 -0.28929772024978823 0 -0.28052499841522183 -0.27489458760039021 0 -0.29538742129423012 -0.26446046948413171 0 -0.28757152565984179 -0.28929772024978823 0 -0.29538742129423012 -0.26446046948413171 0 -0.30338591003566129 -0.27572745926915809 0 -0.28757152565984179 -0.28929772024978823 0 -0.29538742129423012 -0.26446046948413171 0 -0.28052499841522183 -0.27489458760039021 0 -0.27181102890816028 -0.26374018213583461 0 -0.29538742129423012 -0.26446046948413171 0 -0.31981497851325802 -0.27010456042686548 0 -0.30808354218744538 -0.28970203981806808 0 -0.30338591003566129 -0.27572745926915809 0 -0.29538742129423012 -0.26446046948413171 0 -0.30338591003566129 -0.27572745926915809 0 -0.29905643087618339 -0.26457256217157071 0 -0.30338591003566129 -0.27572745926915809 0 -0.30592489473381129 -0.26825193163907951 0 -0.29905643087618339 -0.26457256217157071 0 -0.31981497851325802 -0.27010456042686548 0 -0.30338591003566129 -0.27572745926915809 0 -0.30592489473381129 -0.26825193163907951 0 -0.31981497851325802 -0.27010456042686548 0 -0.29755551426531668 -0.25757073204069098 0 -0.31853060179945469 -0.25503139173680628 0 -0.31981497851325802 -0.27010456042686548 0 -0.29755551426531668 -0.25757073204069098 0 -0.31981497851325802 -0.27010456042686548 0 -0.30592489473381129 -0.26825193163907951 0 -0.29755551426531668 -0.25757073204069098 0 -0.30592489473381129 -0.26825193163907951 0 -0.29755551426531668 -0.25757073204069098 0 -0.29905643087618339 -0.26457256217157071 0 -0.29538742129423012 -0.26446046948413171 0 -0.29755551426531668 -0.25757073204069098 0 -0.29905643087618339 -0.26457256217157071 0 -0.29538742129423012 -0.26446046948413171 0 -0.29905643087618339 -0.26457256217157071 0 -0.33785355853623461 -0.45888316633727949 0 -0.33853239306919991 -0.44919243424643318 0 -0.3260111976139376 -0.4552771264172617 0 -0.33316795317968129 -0.46845189558605682 0 -0.33785355853623461 -0.45888316633727949 0 -0.3260111976139376 -0.4552771264172617 0 -0.33316795317968129 -0.46845189558605682 0 -0.33785355853623461 -0.45888316633727949 0 -0.34453898714871362 -0.46707878974630468 0 -0.33785355853623461 -0.45888316633727949 0 -0.33853239306919991 -0.44919243424643318 0 -0.34409031816741031 -0.45552127162854628 0 -0.33785355853623461 -0.45888316633727949 0 -0.34409031816741031 -0.45552127162854628 0 -0.34453898714871362 -0.46707878974630468 0 -0.33853239306919991 -0.44919243424643318 0 -0.34409031816741031 -0.45552127162854628 0 -0.3447526620975071 -0.44147118068762869 0 -0.33853239306919991 -0.44919243424643318 0 -0.33045493058138359 -0.44340657338311368 0 -0.3447526620975071 -0.44147118068762869 0 -0.3447526620975071 -0.44147118068762869 0 -0.3410508909004405 -0.43426454101031048 0 -0.33045493058138359 -0.44340657338311368 0 -0.3447526620975071 -0.44147118068762869 0 -0.33072353904460128 -0.43031158912594741 0 -0.33853239306919991 -0.44919243424643318 0 -0.33045493058138359 -0.44340657338311368 0 -0.3260111976139376 -0.4552771264172617 0 -0.31993214978950762 -0.44536794838952032 0 -0.3260111976139376 -0.4552771264172617 0 -0.31004507405123238 -0.45391909784596529 0 -0.31993214978950762 -0.44536794838952032 0 -0.31004507405123238 -0.45391909784596529 0 -0.31103488795350581 -0.43806579760096609 0 -0.33045493058138359 -0.44340657338311368 0 -0.31993214978950762 -0.44536794838952032 0 -0.3260111976139376 -0.4552771264172617 0 -0.33045493058138359 -0.44340657338311368 0 -0.31993214978950762 -0.44536794838952032 0 -0.32211465874747869 -0.43617114670029489 0 -0.31993214978950762 -0.44536794838952032 0 -0.32211465874747869 -0.43617114670029489 0 -0.31103488795350581 -0.43806579760096609 0 -0.3260111976139376 -0.4552771264172617 0 -0.32049323075785902 -0.46662239557187418 0 -0.31004507405123238 -0.45391909784596529 0 -0.33316795317968129 -0.46845189558605682 0 -0.3260111976139376 -0.4552771264172617 0 -0.32049323075785902 -0.46662239557187418 0 -0.33316795317968129 -0.46845189558605682 0 -0.32049323075785902 -0.46662239557187418 0 -0.32878590516865441 -0.4827288702560702 0 -0.32049323075785902 -0.46662239557187418 0 -0.32878590516865441 -0.4827288702560702 0 -0.30999977832717701 -0.48181093095822358 0 -0.31919532056843791 -0.5 0 -0.32878590516865441 -0.4827288702560702 0 -0.30999977832717701 -0.48181093095822358 0 -0.31919532056843791 -0.5 0 -0.32878590516865441 -0.4827288702560702 0 -0.34700598316480591 -0.5 0 -0.32878590516865441 -0.4827288702560702 0 -0.34317424172851951 -0.47935501081369442 0 -0.34700598316480591 -0.5 0 -0.33316795317968129 -0.46845189558605682 0 -0.32878590516865441 -0.4827288702560702 0 -0.34317424172851951 -0.47935501081369442 0 -0.33316795317968129 -0.46845189558605682 0 -0.34317424172851951 -0.47935501081369442 0 -0.34453898714871362 -0.46707878974630468 0 -0.34317424172851951 -0.47935501081369442 0 -0.36479531787328517 -0.48049039356254197 0 -0.34453898714871362 -0.46707878974630468 0 -0.36479531787328517 -0.48049039356254197 0 -0.35477398998539611 -0.46098078712508539 0 -0.34453898714871362 -0.46707878974630468 0 -0.34317424172851951 -0.47935501081369442 0 -0.34700598316480591 -0.5 0 -0.36479531787328517 -0.48049039356254197 0 -0.37481664576117391 -0.49999999999999878 0 -0.36479531787328517 -0.48049039356254197 0 -0.38542283066880828 -0.48748322493451268 0 -0.37481664576117391 -0.49999999999999878 0 -0.36479531787328517 -0.48049039356254197 0 -0.34700598316480591 -0.5 0 -0.37481664576117391 -0.49999999999999878 0 -0.36479531787328517 -0.48049039356254197 0 -0.36479531787328517 -0.48049039356254197 0 -0.35477398998539611 -0.46098078712508539 0 -0.3819555217950461 -0.47106452858153419 0 -0.36479531787328517 -0.48049039356254197 0 -0.36335409194627671 -0.4562678546345813 0 -0.3819555217950461 -0.47106452858153419 0 -0.36335409194627671 -0.4562678546345813 0 -0.36479531787328517 -0.48049039356254197 0 -0.36335409194627671 -0.4562678546345813 0 -0.35477398998539611 -0.46098078712508539 0 -0.37739829615661102 -0.45474157277725152 0 -0.3819555217950461 -0.47106452858153419 0 -0.36335409194627671 -0.4562678546345813 0 -0.37739829615661102 -0.45474157277725152 0 -0.36335409194627671 -0.4562678546345813 0 -0.3669919103187268 -0.44858589228940943 0 -0.35477398998539611 -0.46098078712508539 0 -0.34409031816741031 -0.45552127162854628 0 -0.34453898714871362 -0.46707878974630468 0 -0.35477398998539611 -0.46098078712508539 0 -0.34409031816741031 -0.45552127162854628 0 -0.3447526620975071 -0.44147118068762869 0 -0.35477398998539611 -0.46098078712508539 0 -0.3447526620975071 -0.44147118068762869 0 -0.36335409194627671 -0.4562678546345813 0 -0.35477398998539611 -0.46098078712508539 0 -0.3447526620975071 -0.44147118068762869 0 -0.36335409194627671 -0.4562678546345813 0 -0.3447526620975071 -0.44147118068762869 0 -0.35861228748391788 -0.442445473157765 0 -0.36335409194627671 -0.4562678546345813 0 -0.3447526620975071 -0.44147118068762869 0 -0.3447526620975071 -0.44147118068762869 0 -0.35861228748391788 -0.442445473157765 0 -0.35026330626987079 -0.43405424510252139 0 -0.35861228748391788 -0.442445473157765 0 -0.3669919103187268 -0.44858589228940943 0 -0.37168605652121861 -0.4418308960338253 0 -0.35861228748391788 -0.442445473157765 0 -0.37168605652121861 -0.4418308960338253 0 -0.35843762113336802 -0.43205113177740417 0 -0.36335409194627671 -0.4562678546345813 0 -0.35861228748391788 -0.442445473157765 0 -0.3669919103187268 -0.44858589228940943 0 -0.37739829615661102 -0.45474157277725152 0 -0.3669919103187268 -0.44858589228940943 0 -0.37168605652121861 -0.4418308960338253 0 -0.38233150034515673 -0.43024990898818288 0 -0.37168605652121861 -0.4418308960338253 0 -0.37084531619776401 -0.43037911208167451 0 -0.37168605652121861 -0.4418308960338253 0 -0.37084531619776401 -0.43037911208167451 0 -0.35843762113336802 -0.43205113177740417 0 -0.37084531619776401 -0.43037911208167451 0 -0.36641154426620298 -0.42055350687762161 0 -0.35843762113336802 -0.43205113177740417 0 -0.37637438270178791 -0.42005484761235917 0 -0.37084531619776401 -0.43037911208167451 0 -0.36641154426620298 -0.42055350687762161 0 -0.36641154426620298 -0.42055350687762161 0 -0.35697139309996367 -0.41061227148916191 0 -0.35843762113336802 -0.43205113177740417 0 -0.37637438270178791 -0.42005484761235917 0 -0.37028009626003638 -0.40862256529757612 0 -0.36641154426620298 -0.42055350687762161 0 -0.37028009626003638 -0.40862256529757612 0 -0.36641154426620298 -0.42055350687762161 0 -0.35697139309996367 -0.41061227148916191 0 -0.35697139309996367 -0.41061227148916191 0 -0.35843762113336802 -0.43205113177740417 0 -0.35697139309996367 -0.41061227148916191 0 -0.34920659543352373 -0.41313378832343423 0 -0.35101987313026939 -0.42327958058564452 0 -0.35697139309996367 -0.41061227148916191 0 -0.34920659543352373 -0.41313378832343423 0 -0.3526257367468324 -0.40572031392704783 0 -0.34920659543352373 -0.41313378832343423 0 -0.34721654259279422 -0.40829349125006792 0 -0.3526257367468324 -0.40572031392704783 0 -0.34920659543352373 -0.41313378832343423 0 -0.34721654259279422 -0.40829349125006792 0 -0.34216553461533689 -0.41519923655820817 0 -0.34920659543352373 -0.41313378832343423 0 -0.34574682152967418 -0.42155311910167848 0 -0.34216553461533689 -0.41519923655820817 0 -0.34920659543352373 -0.41313378832343423 0 -0.34574682152967418 -0.42155311910167848 0 -0.35101987313026939 -0.42327958058564452 0 -0.35101987313026939 -0.42327958058564452 0 -0.34549350131521611 -0.42827292771966702 0 -0.35026330626987079 -0.43405424510252139 0 -0.34574682152967418 -0.42155311910167848 0 -0.35101987313026939 -0.42327958058564452 0 -0.34549350131521611 -0.42827292771966702 0 -0.35697139309996367 -0.41061227148916191 0 -0.35101987313026939 -0.42327958058564452 0 -0.35843762113336802 -0.43205113177740417 0 -0.3447526620975071 -0.44147118068762869 0 -0.35026330626987079 -0.43405424510252139 0 -0.3410508909004405 -0.43426454101031048 0 -0.34549350131521611 -0.42827292771966702 0 -0.35026330626987079 -0.43405424510252139 0 -0.3410508909004405 -0.43426454101031048 0 -0.35861228748391788 -0.442445473157765 0 -0.35026330626987079 -0.43405424510252139 0 -0.35843762113336802 -0.43205113177740417 0 -0.35101987313026939 -0.42327958058564452 0 -0.35026330626987079 -0.43405424510252139 0 -0.35843762113336802 -0.43205113177740417 0 -0.35427861308453479 -0.3712390408439179 0 -0.37153564175596138 -0.37906794085086831 0 -0.35550516506655938 -0.38917341120091947 0 -0.38118191256164402 -0.39796634885752269 0 -0.37153564175596138 -0.37906794085086831 0 -0.35550516506655938 -0.38917341120091947 0 -0.38118191256164402 -0.39796634885752269 0 -0.37028009626003638 -0.40862256529757612 0 -0.35550516506655938 -0.38917341120091947 0 -0.38118191256164402 -0.39796634885752269 0 -0.35550516506655938 -0.38917341120091947 0 -0.37028009626003638 -0.40862256529757612 0 -0.35697139309996367 -0.41061227148916191 0 -0.35550516506655938 -0.38917341120091947 0 -0.3526257367468324 -0.40572031392704783 0 -0.35550516506655938 -0.38917341120091947 0 -0.34161805937340778 -0.38441780675320181 0 -0.35697139309996367 -0.41061227148916191 0 -0.3526257367468324 -0.40572031392704783 0 -0.35550516506655938 -0.38917341120091947 0 -0.35697139309996367 -0.41061227148916191 0 -0.35550516506655938 -0.38917341120091947 0 -0.3526257367468324 -0.40572031392704783 0 -0.34161805937340778 -0.38441780675320181 0 -0.3526257367468324 -0.40572031392704783 0 -0.34161805937340778 -0.38441780675320181 0 -0.3424744242690837 -0.3967840592329826 0 -0.34721654259279422 -0.40829349125006792 0 -0.3526257367468324 -0.40572031392704783 0 -0.34398127538848883 -0.40392885431542819 0 -0.3526257367468324 -0.40572031392704783 0 -0.34398127538848883 -0.40392885431542819 0 -0.3424744242690837 -0.3967840592329826 0 -0.35427861308453479 -0.3712390408439179 0 -0.35550516506655938 -0.38917341120091947 0 -0.35427861308453479 -0.3712390408439179 0 -0.35550516506655938 -0.38917341120091947 0 -0.34161805937340778 -0.38441780675320181 0 -0.35550516506655938 -0.38917341120091947 0 -0.34161805937340778 -0.38441780675320181 0 -0.35427861308453479 -0.3712390408439179 0 -0.3343958572415528 -0.37044110599194452 0 -0.34161805937340778 -0.38441780675320181 0 -0.32919298895259119 -0.38016287261054849 0 -0.33082468372016671 -0.39931209123000072 0 -0.3343958572415528 -0.37044110599194452 0 -0.32919298895259119 -0.38016287261054849 0 -0.34161805937340778 -0.38441780675320181 0 -0.32919298895259119 -0.38016287261054849 0 -0.34161805937340778 -0.38441780675320181 0 -0.3343958572415528 -0.37044110599194452 0 -0.34161805937340778 -0.38441780675320181 0 -0.32919298895259119 -0.38016287261054849 0 -0.34161805937340778 -0.38441780675320181 0 -0.33633578035051409 -0.39244022468685952 0 -0.32919298895259119 -0.38016287261054849 0 -0.33633578035051409 -0.39244022468685952 0 -0.33082468372016671 -0.39931209123000072 0 -0.33633578035051409 -0.39244022468685952 0 -0.33860502821464589 -0.40001556749097739 0 -0.33082468372016671 -0.39931209123000072 0 -0.34161805937340778 -0.38441780675320181 0 -0.33633578035051409 -0.39244022468685952 0 -0.3424744242690837 -0.3967840592329826 0 -0.33633578035051409 -0.39244022468685952 0 -0.3424744242690837 -0.3967840592329826 0 -0.33860502821464589 -0.40001556749097739 0 -0.33860502821464589 -0.40001556749097739 0 -0.33082468372016671 -0.39931209123000072 0 -0.33940897734497638 -0.4076126079896159 0 -0.34398127538848883 -0.40392885431542819 0 -0.3424744242690837 -0.3967840592329826 0 -0.33860502821464589 -0.40001556749097739 0 -0.34398127538848883 -0.40392885431542819 0 -0.33860502821464589 -0.40001556749097739 0 -0.33940897734497638 -0.4076126079896159 0 -0.31622299450641661 -0.40096807633612402 0 -0.31849636366453499 -0.40900155609401512 0 -0.31001403174684272 -0.40502274159019858 0 -0.32516686455043592 -0.40543727348385011 0 -0.31622299450641661 -0.40096807633612402 0 -0.31896252576856271 -0.38998604473009157 0 -0.32516686455043592 -0.40543727348385011 0 -0.31622299450641661 -0.40096807633612402 0 -0.31849636366453499 -0.40900155609401512 0 -0.31622299450641661 -0.40096807633612402 0 -0.31896252576856271 -0.38998604473009157 0 -0.30952619901890382 -0.39583992403434182 0 -0.33082468372016671 -0.39931209123000072 0 -0.32516686455043592 -0.40543727348385011 0 -0.31896252576856271 -0.38998604473009157 0 -0.32516686455043592 -0.40543727348385011 0 -0.31896252576856271 -0.38998604473009157 0 -0.32919298895259119 -0.38016287261054849 0 -0.33082468372016671 -0.39931209123000072 0 -0.31896252576856271 -0.38998604473009157 0 -0.31275818698668972 -0.37453481597633292 0 -0.32919298895259119 -0.38016287261054849 0 -0.31275818698668972 -0.37453481597633292 0 -0.32919298895259119 -0.38016287261054849 0 -0.31896252576856271 -0.38998604473009157 0 -0.31275818698668972 -0.37453481597633292 0 -0.31896252576856271 -0.38998604473009157 0 -0.33072353904460128 -0.43031158912594741 0 -0.33932882258598279 -0.42486635087054953 0 -0.33245637848774218 -0.41846130984945312 0 -0.3447526620975071 -0.44147118068762869 0 -0.33072353904460128 -0.43031158912594741 0 -0.3410508909004405 -0.43426454101031048 0 -0.3447526620975071 -0.44147118068762869 0 -0.33072353904460128 -0.43031158912594741 0 -0.33072353904460128 -0.43031158912594741 0 -0.3410508909004405 -0.43426454101031048 0 -0.33932882258598279 -0.42486635087054953 0 -0.34549350131521611 -0.42827292771966702 0 -0.3410508909004405 -0.43426454101031048 0 -0.33932882258598279 -0.42486635087054953 0 -0.34574682152967418 -0.42155311910167848 0 -0.34549350131521611 -0.42827292771966702 0 -0.33932882258598279 -0.42486635087054953 0 -0.33082468372016671 -0.39931209123000072 0 -0.33245637848774218 -0.41846130984945312 0 -0.33072353904460128 -0.43031158912594741 0 -0.33245637848774218 -0.41846130984945312 0 -0.32438351152728429 -0.4144276914956363 0 -0.33082468372016671 -0.39931209123000072 0 -0.33940897734497638 -0.4076126079896159 0 -0.33245637848774218 -0.41846130984945312 0 -0.33082468372016671 -0.39931209123000072 0 -0.32516686455043592 -0.40543727348385011 0 -0.33245637848774218 -0.41846130984945312 0 -0.33932882258598279 -0.42486635087054953 0 -0.34216553461533689 -0.41519923655820817 0 -0.33245637848774218 -0.41846130984945312 0 -0.34574682152967418 -0.42155311910167848 0 -0.33932882258598279 -0.42486635087054953 0 -0.34216553461533689 -0.41519923655820817 0 -0.34216553461533689 -0.41519923655820817 0 -0.33940897734497638 -0.4076126079896159 0 -0.33245637848774218 -0.41846130984945312 0 -0.34721654259279422 -0.40829349125006792 0 -0.34398127538848883 -0.40392885431542819 0 -0.33940897734497638 -0.4076126079896159 0 -0.34721654259279422 -0.40829349125006792 0 -0.34216553461533689 -0.41519923655820817 0 -0.33940897734497638 -0.4076126079896159 0 -0.33072353904460128 -0.43031158912594741 0 -0.32438351152728429 -0.4144276914956363 0 -0.3166944159916954 -0.4191519975642663 0 -0.32516686455043592 -0.40543727348385011 0 -0.33245637848774218 -0.41846130984945312 0 -0.32438351152728429 -0.4144276914956363 0 -0.32516686455043592 -0.40543727348385011 0 -0.32438351152728429 -0.4144276914956363 0 -0.31849636366453499 -0.40900155609401512 0 -0.31849636366453499 -0.40900155609401512 0 -0.3166944159916954 -0.4191519975642663 0 -0.31001403174684272 -0.40502274159019858 0 -0.32438351152728429 -0.4144276914956363 0 -0.31849636366453499 -0.40900155609401512 0 -0.3166944159916954 -0.4191519975642663 0 -0.33072353904460128 -0.43031158912594741 0 -0.3166944159916954 -0.4191519975642663 0 -0.32211465874747869 -0.43617114670029489 0 -0.3166944159916954 -0.4191519975642663 0 -0.32211465874747869 -0.43617114670029489 0 -0.31103488795350581 -0.43806579760096609 0 -0.33072353904460128 -0.43031158912594741 0 -0.3166944159916954 -0.4191519975642663 0 -0.33045493058138359 -0.44340657338311368 0 -0.33072353904460128 -0.43031158912594741 0 -0.32211465874747869 -0.43617114670029489 0 -0.30262894213434532 -0.42618385101296791 0 -0.29529954096621081 -0.44442736225208301 0 -0.31103488795350581 -0.43806579760096609 0 -0.3166944159916954 -0.4191519975642663 0 -0.30262894213434532 -0.42618385101296791 0 -0.31103488795350581 -0.43806579760096609 0 -0.30262894213434532 -0.42618385101296791 0 -0.29947458658657888 -0.409501558729158 0 -0.29022645416450482 -0.41518260632160919 0 -0.3166944159916954 -0.4191519975642663 0 -0.30262894213434532 -0.42618385101296791 0 -0.29947458658657888 -0.409501558729158 0 -0.3166944159916954 -0.4191519975642663 0 -0.29947458658657888 -0.409501558729158 0 -0.31001403174684272 -0.40502274159019858 0 -0.29947458658657888 -0.409501558729158 0 -0.29022645416450482 -0.41518260632160919 0 -0.28921150574369342 -0.39910233570533682 0 -0.29022645416450482 -0.41518260632160919 0 -0.28263344526792789 -0.42119767763215188 0 -0.27688783986325372 -0.40317385161340519 0 -0.29022645416450482 -0.41518260632160919 0 -0.28263344526792789 -0.42119767763215188 0 -0.29120138709189231 -0.42898759213384269 0 -0.30262894213434532 -0.42618385101296791 0 -0.29120138709189231 -0.42898759213384269 0 -0.29529954096621081 -0.44442736225208301 0 -0.28263344526792789 -0.42119767763215188 0 -0.28134155835358371 -0.43350377116314381 0 -0.29120138709189231 -0.42898759213384269 0 -0.28134155835358371 -0.43350377116314381 0 -0.29120138709189231 -0.42898759213384269 0 -0.29529954096621081 -0.44442736225208301 0 -0.30262894213434532 -0.42618385101296791 0 -0.29022645416450482 -0.41518260632160919 0 -0.29120138709189231 -0.42898759213384269 0 -0.31275818698668972 -0.37453481597633292 0 -0.29746666699145541 -0.38016074551718471 0 -0.29220560350421299 -0.3751358008765161 0 -0.31275818698668972 -0.37453481597633292 0 -0.29746666699145541 -0.38016074551718471 0 -0.3046360044437238 -0.38718987870667548 0 -0.31275818698668972 -0.37453481597633292 0 -0.31896252576856271 -0.38998604473009157 0 -0.3046360044437238 -0.38718987870667548 0 -0.29746666699145541 -0.38016074551718471 0 -0.3046360044437238 -0.38718987870667548 0 -0.29215413803300611 -0.38781276382173269 0 -0.3046360044437238 -0.38718987870667548 0 -0.29921579019080641 -0.39763547964874518 0 -0.30952619901890382 -0.39583992403434182 0 -0.3046360044437238 -0.38718987870667548 0 -0.29921579019080641 -0.39763547964874518 0 -0.29215413803300611 -0.38781276382173269 0 -0.31896252576856271 -0.38998604473009157 0 -0.3046360044437238 -0.38718987870667548 0 -0.30952619901890382 -0.39583992403434182 0 -0.29921579019080641 -0.39763547964874518 0 -0.30952619901890382 -0.39583992403434182 0 -0.31001403174684272 -0.40502274159019858 0 -0.31622299450641661 -0.40096807633612402 0 -0.30952619901890382 -0.39583992403434182 0 -0.31001403174684272 -0.40502274159019858 0 -0.29947458658657888 -0.409501558729158 0 -0.29921579019080641 -0.39763547964874518 0 -0.31001403174684272 -0.40502274159019858 0 -0.29022645416450482 -0.41518260632160919 0 -0.28921150574369342 -0.39910233570533682 0 -0.27688783986325372 -0.40317385161340519 0 -0.28921150574369342 -0.39910233570533682 0 -0.28107340006278742 -0.38213269719123089 0 -0.27688783986325372 -0.40317385161340519 0 -0.29947458658657888 -0.409501558729158 0 -0.29921579019080641 -0.39763547964874518 0 -0.28921150574369342 -0.39910233570533682 0 -0.29921579019080641 -0.39763547964874518 0 -0.28921150574369342 -0.39910233570533682 0 -0.29215413803300611 -0.38781276382173269 0 -0.28921150574369342 -0.39910233570533682 0 -0.29215413803300611 -0.38781276382173269 0 -0.28107340006278742 -0.38213269719123089 0 -0.29215413803300611 -0.38781276382173269 0 -0.28980214521317238 -0.38039508618489881 0 -0.28107340006278742 -0.38213269719123089 0 -0.29220560350421299 -0.3751358008765161 0 -0.28980214521317238 -0.38039508618489881 0 -0.28107340006278742 -0.38213269719123089 0 -0.29746666699145541 -0.38016074551718471 0 -0.29215413803300611 -0.38781276382173269 0 -0.28980214521317238 -0.38039508618489881 0 -0.29746666699145541 -0.38016074551718471 0 -0.29220560350421299 -0.3751358008765161 0 -0.28980214521317238 -0.38039508618489881 0 -0.27291372919560303 -0.37794620508329502 0 -0.26056849812888638 -0.39480086739753412 0 -0.27291372919560303 -0.37794620508329502 0 -0.27183096263335499 -0.39010160628249252 0 -0.26056849812888638 -0.39480086739753412 0 -0.28449688645340537 -0.36492255031166931 0 -0.27291372919560303 -0.37794620508329502 0 -0.28107340006278742 -0.38213269719123089 0 -0.26926203161365958 -0.37185306217428032 0 -0.27291372919560303 -0.37794620508329502 0 -0.26308015902417259 -0.3783684185991581 0 -0.27291372919560303 -0.37794620508329502 0 -0.28107340006278742 -0.38213269719123089 0 -0.27183096263335499 -0.39010160628249252 0 -0.27688783986325372 -0.40317385161340519 0 -0.26056849812888638 -0.39480086739753412 0 -0.2646043905352487 -0.4096637860243062 0 -0.27183096263335499 -0.39010160628249252 0 -0.27688783986325372 -0.40317385161340519 0 -0.26056849812888638 -0.39480086739753412 0 -0.28107340006278742 -0.38213269719123089 0 -0.27688783986325372 -0.40317385161340519 0 -0.28107340006278742 -0.38213269719123089 0 -0.27183096263335499 -0.39010160628249252 0 -0.27688783986325372 -0.40317385161340519 0 -0.26056849812888638 -0.39480086739753412 0 -0.24735420057158719 -0.40690508502721601 0 -0.24672253770409491 -0.39118784673066809 0 -0.26056849812888638 -0.39480086739753412 0 -0.2646043905352487 -0.4096637860243062 0 -0.24735420057158719 -0.40690508502721601 0 -0.26056849812888638 -0.39480086739753412 0 -0.25428875806993773 -0.38190232710019589 0 -0.26308015902417259 -0.3783684185991581 0 -0.27291372919560303 -0.37794620508329502 0 -0.26056849812888638 -0.39480086739753412 0 -0.26308015902417259 -0.3783684185991581 0 -0.26056849812888638 -0.39480086739753412 0 -0.25428875806993773 -0.38190232710019589 0 -0.24672253770409491 -0.39118784673066809 0 -0.25611156952797892 -0.37197391888178483 0 -0.25428875806993773 -0.38190232710019589 0 -0.26308015902417259 -0.3783684185991581 0 -0.25611156952797892 -0.37197391888178483 0 -0.25428875806993773 -0.38190232710019589 0 -0.24343557703179519 -0.37194162756017229 0 -0.28134155835358371 -0.43350377116314381 0 -0.26738357574095523 -0.42258018007420622 0 -0.26581449470900942 -0.44182579856545551 0 -0.27270227966372013 -0.42421500603557971 0 -0.26738357574095523 -0.42258018007420622 0 -0.27082783837155971 -0.42085894600917118 0 -0.28134155835358371 -0.43350377116314381 0 -0.26738357574095523 -0.42258018007420622 0 -0.28134155835358371 -0.43350377116314381 0 -0.27270227966372013 -0.42421500603557971 0 -0.26738357574095523 -0.42258018007420622 0 -0.28263344526792789 -0.42119767763215188 0 -0.28134155835358371 -0.43350377116314381 0 -0.27270227966372013 -0.42421500603557971 0 -0.27688783986325372 -0.40317385161340519 0 -0.27270227966372013 -0.42421500603557971 0 -0.27082783837155971 -0.42085894600917118 0 -0.27688783986325372 -0.40317385161340519 0 -0.27270227966372013 -0.42421500603557971 0 -0.28263344526792789 -0.42119767763215188 0 -0.27688783986325372 -0.40317385161340519 0 -0.27270227966372013 -0.42421500603557971 0 -0.27688783986325372 -0.40317385161340519 0 -0.27082783837155971 -0.42085894600917118 0 -0.2646043905352487 -0.4096637860243062 0 -0.26738357574095523 -0.42258018007420622 0 -0.27082783837155971 -0.42085894600917118 0 -0.2646043905352487 -0.4096637860243062 0 -0.26738357574095523 -0.42258018007420622 0 -0.27082783837155971 -0.42085894600917118 0 -0.26738357574095523 -0.42258018007420622 0 -0.2646043905352487 -0.4096637860243062 0 -0.24735420057158719 -0.40690508502721601 0 -0.26738357574095523 -0.42258018007420622 0 -0.24735420057158719 -0.40690508502721601 0 -0.24893359166915649 -0.43180036578294873 0 -0.26738357574095523 -0.42258018007420622 0 -0.24735420057158719 -0.40690508502721601 0 -0.26738357574095523 -0.42258018007420622 0 -0.24893359166915649 -0.43180036578294873 0 -0.26738357574095523 -0.42258018007420622 0 -0.26581449470900942 -0.44182579856545551 0 -0.24893359166915649 -0.43180036578294873 0 -0.26862954796670552 -0.46282709958193968 0 -0.26581449470900942 -0.44182579856545551 0 -0.24973974056574769 -0.44918793880630409 0 -0.26581449470900942 -0.44182579856545551 0 -0.24973974056574769 -0.44918793880630409 0 -0.24893359166915649 -0.43180036578294873 0 -0.26862954796670552 -0.46282709958193968 0 -0.24973974056574769 -0.44918793880630409 0 -0.2421914098786295 -0.46616944216276868 0 -0.26862954796670552 -0.46282709958193968 0 -0.28047148038710262 -0.44814519535813041 0 -0.29127225994000411 -0.45814194522802992 0 -0.26862954796670552 -0.46282709958193968 0 -0.26581449470900942 -0.44182579856545551 0 -0.28047148038710262 -0.44814519535813041 0 -0.28134155835358371 -0.43350377116314381 0 -0.26581449470900942 -0.44182579856545551 0 -0.28047148038710262 -0.44814519535813041 0 -0.28134155835358371 -0.43350377116314381 0 -0.29529954096621081 -0.44442736225208301 0 -0.28134155835358371 -0.43350377116314381 0 -0.28047148038710262 -0.44814519535813041 0 -0.29529954096621081 -0.44442736225208301 0 -0.28047148038710262 -0.44814519535813041 0 -0.29529954096621081 -0.44442736225208301 0 -0.29127225994000411 -0.45814194522802992 0 -0.26862954796670552 -0.46282709958193968 0 -0.29127225994000411 -0.45814194522802992 0 -0.29212769758461871 -0.47476374203364119 0 -0.29127225994000411 -0.45814194522802992 0 -0.30478760813217809 -0.46705162232754688 0 -0.29212769758461871 -0.47476374203364119 0 -0.29127225994000411 -0.45814194522802992 0 -0.31004507405123238 -0.45391909784596529 0 -0.30478760813217809 -0.46705162232754688 0 -0.32049323075785902 -0.46662239557187418 0 -0.31004507405123238 -0.45391909784596529 0 -0.30478760813217809 -0.46705162232754688 0 -0.29529954096621081 -0.44442736225208301 0 -0.31004507405123238 -0.45391909784596529 0 -0.31103488795350581 -0.43806579760096609 0 -0.29529954096621081 -0.44442736225208301 0 -0.29127225994000411 -0.45814194522802992 0 -0.31004507405123238 -0.45391909784596529 0 -0.31919532056843791 -0.5 0 -0.30999977832717701 -0.48181093095822358 0 -0.29138465797207003 -0.5 0 -0.30999977832717701 -0.48181093095822358 0 -0.29212769758461871 -0.47476374203364119 0 -0.29138465797207003 -0.5 0 -0.30478760813217809 -0.46705162232754688 0 -0.30999977832717701 -0.48181093095822358 0 -0.29212769758461871 -0.47476374203364119 0 -0.32049323075785902 -0.46662239557187418 0 -0.30478760813217809 -0.46705162232754688 0 -0.30999977832717701 -0.48181093095822358 0 -0.29212769758461871 -0.47476374203364119 0 -0.29138465797207003 -0.5 0 -0.27542373778128842 -0.48403464899953341 0 -0.29138465797207003 -0.5 0 -0.27542373778128842 -0.48403464899953341 0 -0.26357399537570197 -0.5 0 -0.26862954796670552 -0.46282709958193968 0 -0.29212769758461871 -0.47476374203364119 0 -0.27542373778128842 -0.48403464899953341 0 -0.26862954796670552 -0.46282709958193968 0 -0.25267229561647903 -0.48235503415021208 0 -0.2421914098786295 -0.46616944216276868 0 -0.26862954796670552 -0.46282709958193968 0 -0.27542373778128842 -0.48403464899953341 0 -0.25267229561647903 -0.48235503415021208 0 -0.27542373778128842 -0.48403464899953341 0 -0.25267229561647903 -0.48235503415021208 0 -0.26357399537570197 -0.5 0 -0.25267229561647903 -0.48235503415021208 0 -0.26357399537570197 -0.5 0 -0.23576333277933401 -0.5 0 -0.25267229561647903 -0.48235503415021208 0 -0.23576333277933401 -0.5 0 -0.22863289691911751 -0.48105164556705771 0 -0.25267229561647903 -0.48235503415021208 0 -0.22863289691911751 -0.48105164556705771 0 -0.2421914098786295 -0.46616944216276868 0 -0.22863289691911751 -0.48105164556705771 0 -0.2421914098786295 -0.46616944216276868 0 -0.22884068158998841 -0.4679023647233832 0 -0.22863289691911751 -0.48105164556705771 0 -0.22884068158998841 -0.4679023647233832 0 -0.21572338740244221 -0.46753253724784433 0 -0.23576333277933401 -0.5 0 -0.22863289691911751 -0.48105164556705771 0 -0.20795267018296601 -0.5 0 -0.24973974056574769 -0.44918793880630409 0 -0.23048360759735551 -0.44102055149168679 0 -0.24893359166915649 -0.43180036578294873 0 -0.24973974056574769 -0.44918793880630409 0 -0.2288150321597642 -0.4568558339158616 0 -0.23048360759735551 -0.44102055149168679 0 -0.24973974056574769 -0.44918793880630409 0 -0.2421914098786295 -0.46616944216276868 0 -0.2288150321597642 -0.4568558339158616 0 -0.2288150321597642 -0.4568558339158616 0 -0.21203362352555491 -0.45024073720042551 0 -0.21572338740244221 -0.46753253724784433 0 -0.2421914098786295 -0.46616944216276868 0 -0.22884068158998841 -0.4679023647233832 0 -0.2288150321597642 -0.4568558339158616 0 -0.22884068158998841 -0.4679023647233832 0 -0.2288150321597642 -0.4568558339158616 0 -0.21572338740244221 -0.46753253724784433 0 -0.23048360759735551 -0.44102055149168679 0 -0.21203362352555491 -0.45024073720042551 0 -0.23048360759735551 -0.44102055149168679 0 -0.21203362352555491 -0.45024073720042551 0 -0.2214376111819642 -0.429468587031826 0 -0.2288150321597642 -0.4568558339158616 0 -0.23048360759735551 -0.44102055149168679 0 -0.21203362352555491 -0.45024073720042551 0 -0.21203362352555491 -0.45024073720042551 0 -0.2071200025312275 -0.46032648859150299 0 -0.21572338740244221 -0.46753253724784433 0 -0.21203362352555491 -0.45024073720042551 0 -0.21572338740244221 -0.46753253724784433 0 -0.21203362352555491 -0.45024073720042551 0 -0.2071200025312275 -0.46032648859150299 0 -0.19876083087104629 -0.45687367588870931 0 -0.21203362352555491 -0.45024073720042551 0 -0.19876083087104629 -0.45687367588870931 0 -0.2071200025312275 -0.46032648859150299 0 -0.21572338740244221 -0.46753253724784433 0 -0.2019621683258673 -0.46665900402903382 0 -0.19876083087104629 -0.45687367588870931 0 -0.19215862867297651 -0.4715493517095582 0 -0.1781966942711779 -0.46715038711256879 0 -0.19876083087104629 -0.45687367588870931 0 -0.1781966942711779 -0.46715038711256879 0 -0.2019621683258673 -0.46665900402903382 0 -0.19876083087104629 -0.45687367588870931 0 -0.19215862867297651 -0.4715493517095582 0 -0.2071200025312275 -0.46032648859150299 0 -0.2019621683258673 -0.46665900402903382 0 -0.19876083087104629 -0.45687367588870931 0 -0.2019621683258673 -0.46665900402903382 0 -0.19876083087104629 -0.45687367588870931 0 -0.19876083087104629 -0.45687367588870931 0 -0.19227189952802759 -0.43703936495849488 0 -0.19876083087104629 -0.45687367588870931 0 -0.18016262934966179 -0.44939987430373068 0 -0.19227189952802759 -0.43703936495849488 0 -0.21203362352555491 -0.45024073720042551 0 -0.19876083087104629 -0.45687367588870931 0 -0.19227189952802759 -0.43703936495849488 0 -0.20795267018296601 -0.5 0 -0.20785758800700041 -0.48106482065851952 0 -0.19430366754947709 -0.48455994757954052 0 -0.22863289691911751 -0.48105164556705771 0 -0.20795267018296601 -0.5 0 -0.20785758800700041 -0.48106482065851952 0 -0.22863289691911751 -0.48105164556705771 0 -0.21572338740244221 -0.46753253724784433 0 -0.20785758800700041 -0.48106482065851952 0 -0.21572338740244221 -0.46753253724784433 0 -0.2019621683258673 -0.46665900402903382 0 -0.20785758800700041 -0.48106482065851952 0 -0.20785758800700041 -0.48106482065851952 0 -0.1989480559785792 -0.47612159544435229 0 -0.19430366754947709 -0.48455994757954052 0 -0.2019621683258673 -0.46665900402903382 0 -0.1989480559785792 -0.47612159544435229 0 -0.19215862867297651 -0.4715493517095582 0 -0.2019621683258673 -0.46665900402903382 0 -0.20785758800700041 -0.48106482065851952 0 -0.1989480559785792 -0.47612159544435229 0 -0.1989480559785792 -0.47612159544435229 0 -0.19215862867297651 -0.4715493517095582 0 -0.19430366754947709 -0.48455994757954052 0 -0.19215862867297651 -0.4715493517095582 0 -0.19430366754947709 -0.48455994757954052 0 -0.18303455222764831 -0.47994294855658859 0 -0.20795267018296601 -0.5 0 -0.19430366754947709 -0.48455994757954052 0 -0.18014200758659801 -0.50000000000000167 0 -0.18014200758659801 -0.50000000000000167 0 -0.17037176305801169 -0.47645505638127522 0 -0.18014200758659801 -0.50000000000000167 0 -0.17037176305801169 -0.47645505638127522 0 -0.18303455222764831 -0.47994294855658859 0 -0.19430366754947709 -0.48455994757954052 0 -0.18014200758659801 -0.50000000000000167 0 -0.18303455222764831 -0.47994294855658859 0 -0.18014200758659801 -0.50000000000000167 0 -0.1591842011942731 -0.5 0 -0.17037176305801169 -0.47645505638127522 0 -0.1591842011942731 -0.5 0 -0.17037176305801169 -0.47645505638127522 0 -0.15401894988334161 -0.4814203681155963 0 -0.17037176305801169 -0.47645505638127522 0 -0.15401894988334161 -0.4814203681155963 0 -0.15517595063513109 -0.4687761117614212 0 -0.17037176305801169 -0.47645505638127522 0 -0.18303455222764831 -0.47994294855658859 0 -0.1781966942711779 -0.46715038711256879 0 -0.19215862867297651 -0.4715493517095582 0 -0.18303455222764831 -0.47994294855658859 0 -0.1781966942711779 -0.46715038711256879 0 -0.19876083087104629 -0.45687367588870931 0 -0.1781966942711779 -0.46715038711256879 0 -0.18016262934966179 -0.44939987430373068 0 -0.1781966942711779 -0.46715038711256879 0 -0.18016262934966179 -0.44939987430373068 0 -0.16060151852942611 -0.45291011276254861 0 -0.18016262934966179 -0.44939987430373068 0 -0.1709822035486315 -0.43302583079633139 0 -0.19227189952802759 -0.43703936495849488 0 -0.18016262934966179 -0.44939987430373068 0 -0.16060151852942611 -0.45291011276254861 0 -0.1709822035486315 -0.43302583079633139 0 -0.17037176305801169 -0.47645505638127522 0 -0.1781966942711779 -0.46715038711256879 0 -0.16060151852942611 -0.45291011276254861 0 -0.17037176305801169 -0.47645505638127522 0 -0.16060151852942611 -0.45291011276254861 0 -0.15517595063513109 -0.4687761117614212 0 -0.17037176305801169 -0.47645505638127522 0 -0.16060151852942611 -0.45291011276254861 0 -0.16060151852942611 -0.45291011276254861 0 -0.1450447053264986 -0.460756219273463 0 -0.15517595063513109 -0.4687761117614212 0 -0.16060151852942611 -0.45291011276254861 0 -0.1450447053264986 -0.460756219273463 0 -0.1328040951874265 -0.4464027893759136 0 -0.1450447053264986 -0.460756219273463 0 -0.15517595063513109 -0.4687761117614212 0 -0.14391899904793279 -0.47338568012193649 0 -0.1450447053264986 -0.460756219273463 0 -0.13426002995501951 -0.46516129098961478 0 -0.14391899904793279 -0.47338568012193649 0 -0.16060151852942611 -0.45291011276254861 0 -0.1328040951874265 -0.4464027893759136 0 -0.14627890817614661 -0.42499554150774083 0 -0.1328040951874265 -0.4464027893759136 0 -0.13109159584479921 -0.43208083939514308 0 -0.12081934608704049 -0.44453384680592922 0 -0.1450447053264986 -0.460756219273463 0 -0.1328040951874265 -0.4464027893759136 0 -0.13426002995501951 -0.46516129098961478 0 -0.1328040951874265 -0.4464027893759136 0 -0.13426002995501951 -0.46516129098961478 0 -0.1193292821987061 -0.46781003724408632 0 -0.1328040951874265 -0.4464027893759136 0 -0.1193292821987061 -0.46781003724408632 0 -0.13426002995501951 -0.46516129098961478 0 -0.13020306801453321 -0.47745172893267429 0 -0.1193292821987061 -0.46781003724408632 0 -0.13426002995501951 -0.46516129098961478 0 -0.13020306801453321 -0.47745172893267429 0 -0.14391899904793279 -0.47338568012193649 0 -0.13020306801453321 -0.47745172893267429 0 -0.1421896815317378 -0.48747297058022909 0 -0.14391899904793279 -0.47338568012193649 0 -0.13020306801453321 -0.47745172893267429 0 -0.1292373336124012 -0.48976594362698839 0 -0.1182989353041643 -0.48390501862204172 0 -0.1292373336124012 -0.48976594362698839 0 -0.13822639480194801 -0.5 0 -0.117268588409623 -0.499999999999997 0 -0.1292373336124012 -0.48976594362698839 0 -0.13822639480194801 -0.5 0 -0.1421896815317378 -0.48747297058022909 0 -0.13020306801453321 -0.47745172893267429 0 -0.1292373336124012 -0.48976594362698839 0 -0.1421896815317378 -0.48747297058022909 0 -0.1591842011942731 -0.5 0 -0.13822639480194801 -0.5 0 -0.1421896815317378 -0.48747297058022909 0 -0.1591842011942731 -0.5 0 -0.1421896815317378 -0.48747297058022909 0 -0.15401894988334161 -0.4814203681155963 0 -0.15401894988334161 -0.4814203681155963 0 -0.15517595063513109 -0.4687761117614212 0 -0.14391899904793279 -0.47338568012193649 0 -0.1421896815317378 -0.48747297058022909 0 -0.15401894988334161 -0.4814203681155963 0 -0.14391899904793279 -0.47338568012193649 0 -0.148064333711902 -0.38513039319776271 0 -0.1393040639833274 -0.39613839068375162 0 -0.15975372116486741 -0.4035882936395685 0 -0.1393040639833274 -0.39613839068375162 0 -0.13298123547928989 -0.4121070548316822 0 -0.15975372116486741 -0.4035882936395685 0 -0.148064333711902 -0.38513039319776271 0 -0.15975372116486741 -0.4035882936395685 0 -0.15854026714919359 -0.37774970522561568 0 -0.148064333711902 -0.38513039319776271 0 -0.15854026714919359 -0.37774970522561568 0 -0.1419568264971198 -0.37096274944924601 0 -0.148064333711902 -0.38513039319776271 0 -0.130113141309744 -0.38345576005511828 0 -0.1393040639833274 -0.39613839068375162 0 -0.148064333711902 -0.38513039319776271 0 -0.130113141309744 -0.38345576005511828 0 -0.1419568264971198 -0.37096274944924601 0 -0.1393040639833274 -0.39613839068375162 0 -0.1286621073144901 -0.39872907988120437 0 -0.13298123547928989 -0.4121070548316822 0 -0.130113141309744 -0.38345576005511828 0 -0.1393040639833274 -0.39613839068375162 0 -0.1286621073144901 -0.39872907988120437 0 -0.1286621073144901 -0.39872907988120437 0 -0.13298123547928989 -0.4121070548316822 0 -0.1144549540970826 -0.40021248943529819 0 -0.13298123547928989 -0.4121070548316822 0 -0.1331884109200755 -0.42278287013780602 0 -0.12230940997537521 -0.42125765636777202 0 -0.13298123547928989 -0.4121070548316822 0 -0.1331884109200755 -0.42278287013780602 0 -0.14627890817614661 -0.42499554150774083 0 -0.1328040951874265 -0.4464027893759136 0 -0.14627890817614661 -0.42499554150774083 0 -0.1328040951874265 -0.4464027893759136 0 -0.13109159584479921 -0.43208083939514308 0 -0.14627890817614661 -0.42499554150774083 0 -0.13109159584479921 -0.43208083939514308 0 -0.1331884109200755 -0.42278287013780602 0 -0.12230940997537521 -0.42125765636777202 0 -0.13109159584479921 -0.43208083939514308 0 -0.1331884109200755 -0.42278287013780602 0 -0.14627890817614661 -0.42499554150774083 0 -0.14627890817614661 -0.42499554150774083 0 -0.15975372116486741 -0.4035882936395685 0 -0.13298123547928989 -0.4121070548316822 0 -0.14627890817614661 -0.42499554150774083 0 -0.15975372116486741 -0.4035882936395685 0 -0.13298123547928989 -0.4121070548316822 0 -0.15975372116486741 -0.4035882936395685 0 -0.14627890817614661 -0.42499554150774083 0 -0.1694433687520068 -0.41675256298548607 0 -0.15975372116486741 -0.4035882936395685 0 -0.16060151852942611 -0.45291011276254861 0 -0.14627890817614661 -0.42499554150774083 0 -0.1709822035486315 -0.43302583079633139 0 -0.14627890817614661 -0.42499554150774083 0 -0.1694433687520068 -0.41675256298548607 0 -0.1709822035486315 -0.43302583079633139 0 -0.1709822035486315 -0.43302583079633139 0 -0.18578296818500939 -0.41720505402828029 0 -0.19227189952802759 -0.43703936495849488 0 -0.1694433687520068 -0.41675256298548607 0 -0.1709822035486315 -0.43302583079633139 0 -0.18578296818500939 -0.41720505402828029 0 -0.18578296818500939 -0.41720505402828029 0 -0.17929403684199119 -0.3973707430980658 0 -0.1694433687520068 -0.41675256298548607 0 -0.18578296818500939 -0.41720505402828029 0 -0.17929403684199119 -0.3973707430980658 0 -0.18578296818500939 -0.41720505402828029 0 -0.17929403684199119 -0.3973707430980658 0 -0.18989581893903129 -0.39399735255987128 0 -0.17929403684199119 -0.3973707430980658 0 -0.18989581893903129 -0.39399735255987128 0 -0.17929403684199119 -0.3973707430980658 0 -0.1840187215466548 -0.38806500047335518 0 -0.18989581893903129 -0.39399735255987128 0 -0.17929403684199119 -0.3973707430980658 0 -0.15975372116486741 -0.4035882936395685 0 -0.1694433687520068 -0.41675256298548607 0 -0.17929403684199119 -0.3973707430980658 0 -0.15975372116486741 -0.4035882936395685 0 -0.17929403684199119 -0.3973707430980658 0 -0.15975372116486741 -0.4035882936395685 0 -0.17394976393017761 -0.38103523806258349 0 -0.15975372116486741 -0.4035882936395685 0 -0.17394976393017761 -0.38103523806258349 0 -0.15975372116486741 -0.4035882936395685 0 -0.15854026714919359 -0.37774970522561568 0 -0.17394976393017761 -0.38103523806258349 0 -0.15854026714919359 -0.37774970522561568 0 -0.17394976393017761 -0.38103523806258349 0 -0.17058404559306109 -0.37074745715183077 0 -0.17394976393017761 -0.38103523806258349 0 -0.17058404559306109 -0.37074745715183077 0 -0.17394976393017761 -0.38103523806258349 0 -0.17730248686443689 -0.37570881379627591 0 -0.1840187215466548 -0.38806500047335518 0 -0.17730248686443689 -0.37570881379627591 0 -0.1840187215466548 -0.38806500047335518 0 -0.1996515011576345 -0.39221285484998109 0 -0.17394976393017761 -0.38103523806258349 0 -0.17730248686443689 -0.37570881379627591 0 -0.17929403684199119 -0.3973707430980658 0 -0.17394976393017761 -0.38103523806258349 0 -0.1840187215466548 -0.38806500047335518 0 -0.17929403684199119 -0.3973707430980658 0 -0.17394976393017761 -0.38103523806258349 0 -0.17394976393017761 -0.38103523806258349 0 -0.17730248686443689 -0.37570881379627591 0 -0.17058404559306109 -0.37074745715183077 0 -0.17730248686443689 -0.37570881379627591 0 -0.1996515011576345 -0.39221285484998109 0 -0.17730248686443689 -0.37570881379627591 0 -0.19382692827250861 -0.37736461799183307 0 -0.1996515011576345 -0.39221285484998109 0 -0.19382692827250861 -0.37736461799183307 0 -0.2012602892219347 -0.38271414604132709 0 -0.20729545023284859 -0.37555489493323879 0 -0.19382692827250861 -0.37736461799183307 0 -0.2012602892219347 -0.38271414604132709 0 -0.1996515011576345 -0.39221285484998109 0 -0.2012602892219347 -0.38271414604132709 0 -0.1996515011576345 -0.39221285484998109 0 -0.20779414602455429 -0.38907021317930429 0 -0.1840187215466548 -0.38806500047335518 0 -0.18989581893903129 -0.39399735255987128 0 -0.1996515011576345 -0.39221285484998109 0 -0.18578296818500939 -0.41720505402828029 0 -0.18989581893903129 -0.39399735255987128 0 -0.1996515011576345 -0.39221285484998109 0 -0.2121932161400121 -0.40147451517369048 0 -0.20779414602455429 -0.38907021317930429 0 -0.22732482540221791 -0.3912299899802274 0 -0.1996515011576345 -0.39221285484998109 0 -0.2121932161400121 -0.40147451517369048 0 -0.2058425623415964 -0.42122679602520302 0 -0.1996515011576345 -0.39221285484998109 0 -0.2121932161400121 -0.40147451517369048 0 -0.20779414602455429 -0.38907021317930429 0 -0.1996515011576345 -0.39221285484998109 0 -0.2121932161400121 -0.40147451517369048 0 -0.2121932161400121 -0.40147451517369048 0 -0.2247349311223904 -0.41073617549739871 0 -0.20729545023284859 -0.37555489493323879 0 -0.20779414602455429 -0.38907021317930429 0 -0.22732482540221791 -0.3912299899802274 0 -0.20729545023284859 -0.37555489493323879 0 -0.22732482540221791 -0.3912299899802274 0 -0.2012602892219347 -0.38271414604132709 0 -0.20729545023284859 -0.37555489493323879 0 -0.20779414602455429 -0.38907021317930429 0 -0.18578296818500939 -0.41720505402828029 0 -0.19227189952802759 -0.43703936495849488 0 -0.2058425623415964 -0.42122679602520302 0 -0.18578296818500939 -0.41720505402828029 0 -0.19227189952802759 -0.43703936495849488 0 -0.1996515011576345 -0.39221285484998109 0 -0.2058425623415964 -0.42122679602520302 0 -0.18578296818500939 -0.41720505402828029 0 -0.1996515011576345 -0.39221285484998109 0 -0.2058425623415964 -0.42122679602520302 0 -0.2058425623415964 -0.42122679602520302 0 -0.2214376111819642 -0.429468587031826 0 -0.2247349311223904 -0.41073617549739871 0 -0.2121932161400121 -0.40147451517369048 0 -0.2058425623415964 -0.42122679602520302 0 -0.2247349311223904 -0.41073617549739871 0 -0.21203362352555491 -0.45024073720042551 0 -0.2058425623415964 -0.42122679602520302 0 -0.21203362352555491 -0.45024073720042551 0 -0.19227189952802759 -0.43703936495849488 0 -0.2058425623415964 -0.42122679602520302 0 -0.21203362352555491 -0.45024073720042551 0 -0.2058425623415964 -0.42122679602520302 0 -0.2214376111819642 -0.429468587031826 0 -0.23048360759735551 -0.44102055149168679 0 -0.23409333132292401 -0.4241186749444163 0 -0.2214376111819642 -0.429468587031826 0 -0.23409333132292401 -0.4241186749444163 0 -0.2214376111819642 -0.429468587031826 0 -0.2247349311223904 -0.41073617549739871 0 -0.23409333132292401 -0.4241186749444163 0 -0.24735420057158719 -0.40690508502721601 0 -0.24893359166915649 -0.43180036578294873 0 -0.23409333132292401 -0.4241186749444163 0 -0.2247349311223904 -0.41073617549739871 0 -0.24735420057158719 -0.40690508502721601 0 -0.23048360759735551 -0.44102055149168679 0 -0.23409333132292401 -0.4241186749444163 0 -0.24893359166915649 -0.43180036578294873 0 -0.23048360759735551 -0.44102055149168679 0 -0.24893359166915649 -0.43180036578294873 0 -0.22732482540221791 -0.3912299899802274 0 -0.24343557703179519 -0.37194162756017229 0 -0.22478356450949871 -0.36966841745395917 0 -0.20729545023284859 -0.37555489493323879 0 -0.22732482540221791 -0.3912299899802274 0 -0.22478356450949871 -0.36966841745395917 0 -0.2121932161400121 -0.40147451517369048 0 -0.2247349311223904 -0.41073617549739871 0 -0.22732482540221791 -0.3912299899802274 0 -0.2247349311223904 -0.41073617549739871 0 -0.24735420057158719 -0.40690508502721601 0 -0.22732482540221791 -0.3912299899802274 0 -0.24735420057158719 -0.40690508502721601 0 -0.22732482540221791 -0.3912299899802274 0 -0.24735420057158719 -0.40690508502721601 0 -0.22732482540221791 -0.3912299899802274 0 -0.24672253770409491 -0.39118784673066809 0 -0.25428875806993773 -0.38190232710019589 0 -0.24672253770409491 -0.39118784673066809 0 -0.24343557703179519 -0.37194162756017229 0 -0.22732482540221791 -0.3912299899802274 0 -0.24672253770409491 -0.39118784673066809 0 -0.24343557703179519 -0.37194162756017229 0 -0.24343557703179519 -0.37194162756017229 0 -0.22478356450949871 -0.36966841745395917 0 -0.23592482149968549 -0.35912383436073309 0 -0.25213775001602512 -0.36387883337385651 0 -0.24343557703179519 -0.37194162756017229 0 -0.24642239400577459 -0.3557809557026344 0 -0.24343557703179519 -0.37194162756017229 0 -0.23592482149968549 -0.35912383436073309 0 -0.24642239400577459 -0.3557809557026344 0 -0.2249371160999841 -0.34905982138124991 0 -0.24107239457191099 -0.34835458895418647 0 -0.23530185259589301 -0.33975723047303491 0 -0.22478356450949871 -0.36966841745395917 0 -0.2249371160999841 -0.34905982138124991 0 -0.20748941745378521 -0.35674983152527728 0 -0.2249371160999841 -0.34905982138124991 0 -0.24107239457191099 -0.34835458895418647 0 -0.23592482149968549 -0.35912383436073309 0 -0.22478356450949871 -0.36966841745395917 0 -0.2249371160999841 -0.34905982138124991 0 -0.23592482149968549 -0.35912383436073309 0 -0.24107239457191099 -0.34835458895418647 0 -0.23592482149968549 -0.35912383436073309 0 -0.24642239400577459 -0.3557809557026344 0 -0.24107239457191099 -0.34835458895418647 0 -0.24642239400577459 -0.3557809557026344 0 -0.2484532437441439 -0.34653965078355248 0 -0.24107239457191099 -0.34835458895418647 0 -0.2484532437441439 -0.34653965078355248 0 -0.24580149491983119 -0.33817239609924932 0 -0.25462839640928042 -0.34920478545609629 0 -0.24642239400577459 -0.3557809557026344 0 -0.2484532437441439 -0.34653965078355248 0 -0.25485850142864591 -0.34186581481566308 0 -0.2484532437441439 -0.34653965078355248 0 -0.24580149491983119 -0.33817239609924932 0 -0.24580149491983119 -0.33817239609924932 0 -0.23873176097479329 -0.32982141586783542 0 -0.24942821117417521 -0.32572181351697388 0 -0.25457171928039912 -0.33359119635171119 0 -0.24580149491983119 -0.33817239609924932 0 -0.24942821117417521 -0.32572181351697388 0 -0.24580149491983119 -0.33817239609924932 0 -0.23873176097479329 -0.32982141586783542 0 -0.23530185259589301 -0.33975723047303491 0 -0.24107239457191099 -0.34835458895418647 0 -0.24580149491983119 -0.33817239609924932 0 -0.23530185259589301 -0.33975723047303491 0 -0.25411182579487812 -0.31513474396981861 0 -0.24167970641581299 -0.32120496666514659 0 -0.235005200772612 -0.31120298145635678 0 -0.23873176097479329 -0.32982141586783542 0 -0.24942821117417521 -0.32572181351697388 0 -0.24167970641581299 -0.32120496666514659 0 -0.25411182579487812 -0.31513474396981861 0 -0.24942821117417521 -0.32572181351697388 0 -0.24167970641581299 -0.32120496666514659 0 -0.23873176097479329 -0.32982141586783542 0 -0.24167970641581299 -0.32120496666514659 0 -0.23112153336260641 -0.32414387851474841 0 -0.24167970641581299 -0.32120496666514659 0 -0.23112153336260641 -0.32414387851474841 0 -0.235005200772612 -0.31120298145635678 0 -0.22206168873602911 -0.31933770750580359 0 -0.235005200772612 -0.31120298145635678 0 -0.21714888067012009 -0.31240540249363519 0 -0.23112153336260641 -0.32414387851474841 0 -0.22206168873602911 -0.31933770750580359 0 -0.235005200772612 -0.31120298145635678 0 -0.23112153336260641 -0.32414387851474841 0 -0.22206168873602911 -0.31933770750580359 0 -0.22596649641294489 -0.33337793006265309 0 -0.22206168873602911 -0.31933770750580359 0 -0.21714888067012009 -0.31240540249363519 0 -0.2249371160999841 -0.34905982138124991 0 -0.23530185259589301 -0.33975723047303491 0 -0.22596649641294489 -0.33337793006265309 0 -0.23873176097479329 -0.32982141586783542 0 -0.23112153336260641 -0.32414387851474841 0 -0.22596649641294489 -0.33337793006265309 0 -0.23873176097479329 -0.32982141586783542 0 -0.23530185259589301 -0.33975723047303491 0 -0.22596649641294489 -0.33337793006265309 0 -0.22206168873602911 -0.31933770750580359 0 -0.22596649641294489 -0.33337793006265309 0 -0.20220747786680179 -0.33614260118994382 0 -0.20220747786680179 -0.33614260118994382 0 -0.18918177956687901 -0.30458500158740659 0 -0.1803540568608808 -0.3215621134528619 0 -0.20220747786680179 -0.33614260118994382 0 -0.21714888067012009 -0.31240540249363519 0 -0.18918177956687901 -0.30458500158740659 0 -0.2249371160999841 -0.34905982138124991 0 -0.22596649641294489 -0.33337793006265309 0 -0.20220747786680179 -0.33614260118994382 0 -0.22206168873602911 -0.31933770750580359 0 -0.20220747786680179 -0.33614260118994382 0 -0.21714888067012009 -0.31240540249363519 0 -0.20220747786680179 -0.33614260118994382 0 -0.21714888067012009 -0.31240540249363519 0 -0.20220747786680179 -0.33614260118994382 0 -0.1808782833589741 -0.3375139521817544 0 -0.1803540568608808 -0.3215621134528619 0 -0.20220747786680179 -0.33614260118994382 0 -0.20748941745378521 -0.35674983152527728 0 -0.1872660750634795 -0.35987979988625002 0 -0.20220747786680179 -0.33614260118994382 0 -0.1872660750634795 -0.35987979988625002 0 -0.1808782833589741 -0.3375139521817544 0 -0.20220747786680179 -0.33614260118994382 0 -0.1872660750634795 -0.35987979988625002 0 -0.20729545023284859 -0.37555489493323879 0 -0.1872660750634795 -0.35987979988625002 0 -0.19382692827250861 -0.37736461799183307 0 -0.20729545023284859 -0.37555489493323879 0 -0.1872660750634795 -0.35987979988625002 0 -0.20729545023284859 -0.37555489493323879 0 -0.20748941745378521 -0.35674983152527728 0 -0.1872660750634795 -0.35987979988625002 0 -0.20729545023284859 -0.37555489493323879 0 -0.22478356450949871 -0.36966841745395917 0 -0.20748941745378521 -0.35674983152527728 0 -0.2249371160999841 -0.34905982138124991 0 -0.20220747786680179 -0.33614260118994382 0 -0.20748941745378521 -0.35674983152527728 0 -0.21968326478218639 -0.26214761579319279 0 -0.24823463652209049 -0.26301989478753779 0 -0.21968326478218639 -0.26214761579319279 0 -0.24823463652209049 -0.26301989478753779 0 -0.2394845154813586 -0.2461751143873411 0 -0.26290989517439262 -0.28302934727630119 0 -0.24823463652209049 -0.26301989478753779 0 -0.23269175859610591 -0.28771264864058682 0 -0.24823463652209049 -0.26301989478753779 0 -0.23269175859610591 -0.28771264864058682 0 -0.21968326478218639 -0.26214761579319279 0 -0.24823463652209049 -0.26301989478753779 0 -0.22065820938435421 -0.27774365861666173 0 -0.24823463652209049 -0.26301989478753779 0 -0.22065820938435421 -0.27774365861666173 0 -0.23269175859610591 -0.28771264864058682 0 -0.25019827091422342 -0.29991895918425548 0 -0.26290989517439262 -0.28302934727630119 0 -0.23269175859610591 -0.28771264864058682 0 -0.25019827091422342 -0.29991895918425548 0 -0.23269175859610591 -0.28771264864058682 0 -0.235005200772612 -0.31120298145635678 0 -0.25411182579487812 -0.31513474396981861 0 -0.25019827091422342 -0.29991895918425548 0 -0.235005200772612 -0.31120298145635678 0 -0.23269175859610591 -0.28771264864058682 0 -0.21714888067012009 -0.31240540249363519 0 -0.23269175859610591 -0.28771264864058682 0 -0.235005200772612 -0.31120298145635678 0 -0.21714888067012009 -0.31240540249363519 0 -0.23269175859610591 -0.28771264864058682 0 -0.21714888067012009 -0.31240540249363519 0 -0.2021112732188616 -0.2911863196174368 0 -0.21714888067012009 -0.31240540249363519 0 -0.2021112732188616 -0.2911863196174368 0 -0.21714888067012009 -0.31240540249363519 0 -0.18918177956687901 -0.30458500158740659 0 -0.2021112732188616 -0.2911863196174368 0 -0.2021112732188616 -0.2911863196174368 0 -0.1870736657676029 -0.26996723674123851 0 -0.18231366411327851 -0.28727819729703957 0 -0.18918177956687901 -0.30458500158740659 0 -0.2021112732188616 -0.2911863196174368 0 -0.18231366411327851 -0.28727819729703957 0 -0.22065820938435421 -0.27774365861666173 0 -0.23269175859610591 -0.28771264864058682 0 -0.2021112732188616 -0.2911863196174368 0 -0.22065820938435421 -0.27774365861666173 0 -0.2021112732188616 -0.2911863196174368 0 -0.20562551493746489 -0.27347690734722629 0 -0.21968326478218639 -0.26214761579319279 0 -0.22065820938435421 -0.27774365861666173 0 -0.20562551493746489 -0.27347690734722629 0 -0.2021112732188616 -0.2911863196174368 0 -0.1870736657676029 -0.26996723674123851 0 -0.2021112732188616 -0.2911863196174368 0 -0.20562551493746489 -0.27347690734722629 0 -0.1870736657676029 -0.26996723674123851 0 -0.20562551493746489 -0.27347690734722629 0 -0.20541044462657931 -0.25542346106751462 0 -0.1870736657676029 -0.26996723674123851 0 -0.19015577972924749 -0.25523414723079002 0 -0.20541044462657931 -0.25542346106751462 0 -0.1870736657676029 -0.26996723674123851 0 -0.20541044462657931 -0.25542346106751462 0 -0.1870736657676029 -0.26996723674123851 0 -0.19015577972924749 -0.25523414723079002 0 -0.20541044462657931 -0.25542346106751462 0 -0.18791843881270229 -0.2404781741989081 0 -0.21968326478218639 -0.26214761579319279 0 -0.20562551493746489 -0.27347690734722629 0 -0.20541044462657931 -0.25542346106751462 0 -0.21968326478218639 -0.26214761579319279 0 -0.20541044462657931 -0.25542346106751462 0 -0.22374722348555789 -0.24087968539379359 0 -0.16332619592880879 -0.26385813448267159 0 -0.17037589399231701 -0.27275445733936482 0 -0.16890147676304629 -0.2443250469328194 0 -0.17037589399231701 -0.27275445733936482 0 -0.16890147676304629 -0.2443250469328194 0 -0.16332619592880879 -0.26385813448267159 0 -0.1601277389501545 -0.25797109783604438 0 -0.16890147676304629 -0.2443250469328194 0 -0.1601277389501545 -0.25797109783604438 0 -0.15440673418971329 -0.2517618124517611 0 -0.16890147676304629 -0.2443250469328194 0 -0.16332619592880879 -0.26385813448267159 0 -0.1601277389501545 -0.25797109783604438 0 -0.1481272833454686 -0.26233112476361198 0 -0.17798757126532419 -0.25714614183702922 0 -0.16890147676304629 -0.2443250469328194 0 -0.19015577972924749 -0.25523414723079002 0 -0.17798757126532419 -0.25714614183702922 0 -0.18791843881270229 -0.2404781741989081 0 -0.17798757126532419 -0.25714614183702922 0 -0.17037589399231701 -0.27275445733936482 0 -0.16890147676304629 -0.2443250469328194 0 -0.17798757126532419 -0.25714614183702922 0 -0.1799183938405384 -0.26883968912618439 0 -0.1870736657676029 -0.26996723674123851 0 -0.19015577972924749 -0.25523414723079002 0 -0.17798757126532419 -0.25714614183702922 0 -0.1870736657676029 -0.26996723674123851 0 -0.17798757126532419 -0.25714614183702922 0 -0.1870736657676029 -0.26996723674123851 0 -0.177332488543403 -0.27195803029103849 0 -0.1799183938405384 -0.26883968912618439 0 -0.17037589399231701 -0.27275445733936482 0 -0.17767923475678521 -0.2751386819211793 0 -0.16522047372937351 -0.27480466103032569 0 -0.18231366411327851 -0.28727819729703957 0 -0.17798757126532419 -0.25714614183702922 0 -0.1799183938405384 -0.26883968912618439 0 -0.17037589399231701 -0.27275445733936482 0 -0.16522047372937351 -0.27480466103032569 0 -0.18231366411327851 -0.28727819729703957 0 -0.1870736657676029 -0.26996723674123851 0 -0.17767923475678521 -0.2751386819211793 0 -0.18231366411327851 -0.28727819729703957 0 -0.177332488543403 -0.27195803029103849 0 -0.17767923475678521 -0.2751386819211793 0 -0.17037589399231701 -0.27275445733936482 0 -0.177332488543403 -0.27195803029103849 0 -0.1799183938405384 -0.26883968912618439 0 -0.18135643158397141 -0.2710992927774255 0 -0.177332488543403 -0.27195803029103849 0 -0.18135643158397141 -0.2710992927774255 0 -0.17767923475678521 -0.2751386819211793 0 -0.18135643158397141 -0.2710992927774255 0 -0.1870736657676029 -0.26996723674123851 0 -0.17767923475678521 -0.2751386819211793 0 -0.1799183938405384 -0.26883968912618439 0 -0.18135643158397141 -0.2710992927774255 0 -0.1870736657676029 -0.26996723674123851 0 -0.17767923475678521 -0.2751386819211793 0 -0.16522047372937351 -0.27480466103032569 0 -0.17037589399231701 -0.27275445733936482 0 -0.16332619592880879 -0.26385813448267159 0 -0.16522047372937351 -0.27480466103032569 0 -0.1481272833454686 -0.26233112476361198 0 -0.16522047372937351 -0.27480466103032569 0 -0.1481272833454686 -0.26233112476361198 0 -0.16332619592880879 -0.26385813448267159 0 -0.16522047372937351 -0.27480466103032569 0 -0.17037589399231701 -0.27275445733936482 0 -0.16522047372937351 -0.27480466103032569 0 -0.15924242004324829 -0.28426080492051953 0 -0.1515987399870718 -0.27552264154329359 0 -0.15924242004324829 -0.28426080492051953 0 -0.16760493604256671 -0.29398515101396677 0 -0.1456818549981907 -0.29463048734699282 0 -0.15924242004324829 -0.28426080492051953 0 -0.16760493604256671 -0.29398515101396677 0 -0.1685953734821167 -0.28508220356546288 0 -0.16522047372937351 -0.27480466103032569 0 -0.15924242004324829 -0.28426080492051953 0 -0.1685953734821167 -0.28508220356546288 0 -0.16760493604256671 -0.29398515101396677 0 -0.1685953734821167 -0.28508220356546288 0 -0.18231366411327851 -0.28727819729703957 0 -0.16522047372937351 -0.27480466103032569 0 -0.1685953734821167 -0.28508220356546288 0 -0.18231366411327851 -0.28727819729703957 0 -0.18918177956687901 -0.30458500158740659 0 -0.16760493604256671 -0.29398515101396677 0 -0.18231366411327851 -0.28727819729703957 0 -0.18918177956687901 -0.30458500158740659 0 -0.16760493604256671 -0.29398515101396677 0 -0.16744224119529799 -0.30993938688508998 0 -0.18918177956687901 -0.30458500158740659 0 -0.16744224119529799 -0.30993938688508998 0 -0.1803540568608808 -0.3215621134528619 0 -0.16760493604256671 -0.29398515101396677 0 -0.16744224119529799 -0.30993938688508998 0 -0.1456818549981907 -0.29463048734699282 0 -0.1456818549981907 -0.29463048734699282 0 -0.1530057360165025 -0.31701693677204168 0 -0.1392400397866371 -0.31256076427841389 0 -0.16744224119529799 -0.30993938688508998 0 -0.1456818549981907 -0.29463048734699282 0 -0.1530057360165025 -0.31701693677204168 0 -0.1456818549981907 -0.29463048734699282 0 -0.1530057360165025 -0.31701693677204168 0 -0.12902345651485009 -0.30070238569280128 0 -0.1456818549981907 -0.29463048734699282 0 -0.1392400397866371 -0.31256076427841389 0 -0.12902345651485009 -0.30070238569280128 0 -0.1392400397866371 -0.31256076427841389 0 -0.12740147534479851 -0.31565623619600858 0 -0.12902345651485009 -0.30070238569280128 0 -0.1312420988441256 -0.2873245030977295 0 -0.1456818549981907 -0.29463048734699282 0 -0.1312420988441256 -0.2873245030977295 0 -0.1456818549981907 -0.29463048734699282 0 -0.1383579739798789 -0.27224403792194413 0 -0.12902345651485009 -0.30070238569280128 0 -0.1312420988441256 -0.2873245030977295 0 -0.1196378656155571 -0.29025966204219572 0 -0.1312420988441256 -0.2873245030977295 0 -0.12833832673132239 -0.27673666288892379 0 -0.1196378656155571 -0.29025966204219572 0 -0.15924242004324829 -0.28426080492051953 0 -0.1456818549981907 -0.29463048734699282 0 -0.1515987399870718 -0.27552264154329359 0 -0.1456818549981907 -0.29463048734699282 0 -0.1383579739798789 -0.27224403792194413 0 -0.16522047372937351 -0.27480466103032569 0 -0.1515987399870718 -0.27552264154329359 0 -0.1481272833454686 -0.26233112476361198 0 -0.1456818549981907 -0.29463048734699282 0 -0.1515987399870718 -0.27552264154329359 0 -0.1383579739798789 -0.27224403792194413 0 -0.1515987399870718 -0.27552264154329359 0 -0.1383579739798789 -0.27224403792194413 0 -0.1481272833454686 -0.26233112476361198 0 -0.1312420988441256 -0.2873245030977295 0 -0.12833832673132239 -0.27673666288892379 0 -0.1383579739798789 -0.27224403792194413 0 -0.12833832673132239 -0.27673666288892379 0 -0.12658744337424291 -0.267001019816962 0 -0.1383579739798789 -0.27224403792194413 0 -0.1383579739798789 -0.27224403792194413 0 -0.1481272833454686 -0.26233112476361198 0 -0.13103409296156521 -0.24985758849689599 0 -0.12658744337424291 -0.267001019816962 0 -0.118500656309361 -0.26217529995396938 0 -0.13103409296156521 -0.24985758849689599 0 -0.12658744337424291 -0.267001019816962 0 -0.1383579739798789 -0.27224403792194413 0 -0.13103409296156521 -0.24985758849689599 0 -0.1481272833454686 -0.26233112476361198 0 -0.13103409296156521 -0.24985758849689599 0 -0.1383579739798789 -0.27224403792194413 0 -0.13103409296156521 -0.24985758849689599 0 -0.1481272833454686 -0.26233112476361198 0 -0.14442752643463519 -0.24906791804697001 0 -0.13103409296156521 -0.24985758849689599 0 -0.1601277389501545 -0.25797109783604438 0 -0.1481272833454686 -0.26233112476361198 0 -0.15440673418971329 -0.2517618124517611 0 -0.1481272833454686 -0.26233112476361198 0 -0.15440673418971329 -0.2517618124517611 0 -0.14442752643463519 -0.24906791804697001 0 -0.16545683131393921 -0.35507542167446021 0 -0.16811624423984189 -0.34501895375572528 0 -0.16032961703481161 -0.33940338619709137 0 -0.16545683131393921 -0.35507542167446021 0 -0.16032961703481161 -0.33940338619709137 0 -0.16545683131393921 -0.35507542167446021 0 -0.16032961703481161 -0.33940338619709137 0 -0.14736993813407001 -0.35360457212332669 0 -0.16545683131393921 -0.35507542167446021 0 -0.16811624423984189 -0.34501895375572528 0 -0.1757859156267528 -0.35089536633285279 0 -0.16545683131393921 -0.35507542167446021 0 -0.17058404559306109 -0.37074745715183077 0 -0.17487493073265181 -0.36204369074055759 0 -0.17058404559306109 -0.37074745715183077 0 -0.14736993813407001 -0.35360457212332669 0 -0.15854026714919359 -0.37774970522561568 0 -0.17058404559306109 -0.37074745715183077 0 -0.14736993813407001 -0.35360457212332669 0 -0.16545683131393921 -0.35507542167446021 0 -0.17058404559306109 -0.37074745715183077 0 -0.14736993813407001 -0.35360457212332669 0 -0.16545683131393921 -0.35507542167446021 0 -0.17058404559306109 -0.37074745715183077 0 -0.17730248686443689 -0.37570881379627591 0 -0.19382692827250861 -0.37736461799183307 0 -0.1872660750634795 -0.35987979988625002 0 -0.17730248686443689 -0.37570881379627591 0 -0.17487493073265181 -0.36204369074055759 0 -0.1872660750634795 -0.35987979988625002 0 -0.17730248686443689 -0.37570881379627591 0 -0.1872660750634795 -0.35987979988625002 0 -0.17730248686443689 -0.37570881379627591 0 -0.17058404559306109 -0.37074745715183077 0 -0.17487493073265181 -0.36204369074055759 0 -0.17730248686443689 -0.37570881379627591 0 -0.17058404559306109 -0.37074745715183077 0 -0.1872660750634795 -0.35987979988625002 0 -0.1757859156267528 -0.35089536633285279 0 -0.1808782833589741 -0.3375139521817544 0 -0.1872660750634795 -0.35987979988625002 0 -0.1757859156267528 -0.35089536633285279 0 -0.16545683131393921 -0.35507542167446021 0 -0.17487493073265181 -0.36204369074055759 0 -0.1757859156267528 -0.35089536633285279 0 -0.17487493073265181 -0.36204369074055759 0 -0.1872660750634795 -0.35987979988625002 0 -0.1757859156267528 -0.35089536633285279 0 -0.16811624423984189 -0.34501895375572528 0 -0.1757859156267528 -0.35089536633285279 0 -0.1808782833589741 -0.3375139521817544 0 -0.1808782833589741 -0.3375139521817544 0 -0.1803540568608808 -0.3215621134528619 0 -0.16838492938843611 -0.32837324554053388 0 -0.16811624423984189 -0.34501895375572528 0 -0.1808782833589741 -0.3375139521817544 0 -0.16838492938843611 -0.32837324554053388 0 -0.16744224119529799 -0.30993938688508998 0 -0.1803540568608808 -0.3215621134528619 0 -0.16838492938843611 -0.32837324554053388 0 -0.16744224119529799 -0.30993938688508998 0 -0.16838492938843611 -0.32837324554053388 0 -0.1530057360165025 -0.31701693677204168 0 -0.16032961703481161 -0.33940338619709137 0 -0.1530057360165025 -0.31701693677204168 0 -0.16838492938843611 -0.32837324554053388 0 -0.16032961703481161 -0.33940338619709137 0 -0.1530057360165025 -0.31701693677204168 0 -0.16811624423984189 -0.34501895375572528 0 -0.16838492938843611 -0.32837324554053388 0 -0.16032961703481161 -0.33940338619709137 0 -0.16811624423984189 -0.34501895375572528 0 -0.16032961703481161 -0.33940338619709137 0 -0.16032961703481161 -0.33940338619709137 0 -0.14386554618980399 -0.32752981119655139 0 -0.16032961703481161 -0.33940338619709137 0 -0.14393023300844229 -0.33924986415294711 0 -0.14386554618980399 -0.32752981119655139 0 -0.16032961703481161 -0.33940338619709137 0 -0.1530057360165025 -0.31701693677204168 0 -0.14386554618980399 -0.32752981119655139 0 -0.1530057360165025 -0.31701693677204168 0 -0.14386554618980399 -0.32752981119655139 0 -0.1392400397866371 -0.31256076427841389 0 -0.14386554618980399 -0.32752981119655139 0 -0.12740147534479851 -0.31565623619600858 0 -0.124155830675081 -0.33646168709481961 0 -0.14386554618980399 -0.32752981119655139 0 -0.1392400397866371 -0.31256076427841389 0 -0.12740147534479851 -0.31565623619600858 0 -0.14386554618980399 -0.32752981119655139 0 -0.12740147534479851 -0.31565623619600858 0 -0.14393023300844229 -0.33924986415294711 0 -0.14386554618980399 -0.32752981119655139 0 -0.124155830675081 -0.33646168709481961 0 -0.14393023300844229 -0.33924986415294711 0 -0.14736993813407001 -0.35360457212332669 0 -0.124155830675081 -0.33646168709481961 0 -0.14736993813407001 -0.35360457212332669 0 -0.124155830675081 -0.33646168709481961 0 -0.12596130536095559 -0.35830597772116102 0 -0.14736993813407001 -0.35360457212332669 0 -0.124155830675081 -0.33646168709481961 0 -0.16032961703481161 -0.33940338619709137 0 -0.14393023300844229 -0.33924986415294711 0 -0.14736993813407001 -0.35360457212332669 0 -0.15854026714919359 -0.37774970522561568 0 -0.14736993813407001 -0.35360457212332669 0 -0.1419568264971198 -0.37096274944924601 0 -0.12596130536095559 -0.35830597772116102 0 -0.14736993813407001 -0.35360457212332669 0 -0.1419568264971198 -0.37096274944924601 0 -0.130113141309744 -0.38345576005511828 0 -0.12596130536095559 -0.35830597772116102 0 -0.1419568264971198 -0.37096274944924601 0 -0.12596130536095559 -0.35830597772116102 0 -0.1041335038397074 -0.3603009345022431 0 -0.1130833258259943 -0.37815269808048041 0 -0.130113141309744 -0.38345576005511828 0 -0.12596130536095559 -0.35830597772116102 0 -0.1130833258259943 -0.37815269808048041 0 -0.1041335038397074 -0.3603009345022431 0 -0.095519653688441897 -0.38898047330923657 0 -0.1041335038397074 -0.3603009345022431 0 -0.1127473539909729 -0.33162139569524962 0 -0.087785636298201158 -0.3397671150791296 0 -0.1041335038397074 -0.3603009345022431 0 -0.1127473539909729 -0.33162139569524962 0 -0.12596130536095559 -0.35830597772116102 0 -0.1041335038397074 -0.3603009345022431 0 -0.124155830675081 -0.33646168709481961 0 -0.124155830675081 -0.33646168709481961 0 -0.1127473539909729 -0.33162139569524962 0 -0.1009417232160927 -0.31931880206631202 0 -0.1041335038397074 -0.3603009345022431 0 -0.124155830675081 -0.33646168709481961 0 -0.1127473539909729 -0.33162139569524962 0 -0.12740147534479851 -0.31565623619600858 0 -0.124155830675081 -0.33646168709481961 0 -0.1009417232160927 -0.31931880206631202 0 -0.124155830675081 -0.33646168709481961 0 -0.1009417232160927 -0.31931880206631202 0 -0.12740147534479851 -0.31565623619600858 0 -0.1009417232160927 -0.31931880206631202 0 -0.11093740449979179 -0.3037826611954676 0 -0.1009417232160927 -0.31931880206631202 0 -0.087785636298201158 -0.3397671150791296 0 -0.1127473539909729 -0.33162139569524962 0 -0.1009417232160927 -0.31931880206631202 0 -0.087785636298201158 -0.3397671150791296 0 -0.087785636298201158 -0.3397671150791296 0 -0.070643529425640852 -0.34155224657802419 0 -0.076323073244463316 -0.33188292940143371 0 -0.087785636298201158 -0.3397671150791296 0 -0.088018114498381844 -0.31873604986952941 0 -0.076323073244463316 -0.33188292940143371 0 -0.1009417232160927 -0.31931880206631202 0 -0.088018114498381844 -0.31873604986952941 0 -0.08317472447317685 -0.30619843475132907 0 -0.1009417232160927 -0.31931880206631202 0 -0.08317472447317685 -0.30619843475132907 0 -0.1009417232160927 -0.31931880206631202 0 -0.087785636298201158 -0.3397671150791296 0 -0.088018114498381844 -0.31873604986952941 0 -0.088018114498381844 -0.31873604986952941 0 -0.075500535498630283 -0.31652860950283668 0 -0.08317472447317685 -0.30619843475132907 0 -0.088018114498381844 -0.31873604986952941 0 -0.076323073244463316 -0.33188292940143371 0 -0.061716490979759731 -0.32740704575929241 0 -0.088018114498381844 -0.31873604986952941 0 -0.075500535498630283 -0.31652860950283668 0 -0.061716490979759731 -0.32740704575929241 0 -0.088018114498381844 -0.31873604986952941 0 -0.061716490979759731 -0.32740704575929241 0 -0.075500535498630283 -0.31652860950283668 0 -0.069092812043202737 -0.31377290763119592 0 -0.061716490979759731 -0.32740704575929241 0 -0.069092812043202737 -0.31377290763119592 0 -0.060524542558939111 -0.31797533311610537 0 -0.061716490979759731 -0.32740704575929241 0 -0.069092812043202737 -0.31377290763119592 0 -0.062618094936916863 -0.31150030062421308 0 -0.060524542558939111 -0.31797533311610537 0 -0.070643529425640852 -0.34155224657802419 0 -0.076323073244463316 -0.33188292940143371 0 -0.061716490979759731 -0.32740704575929241 0 -0.070643529425640852 -0.34155224657802419 0 -0.074629549380309565 -0.36021542809194718 0 -0.05276289722547052 -0.34848871455831798 0 -0.087785636298201158 -0.3397671150791296 0 -0.070643529425640852 -0.34155224657802419 0 -0.074629549380309565 -0.36021542809194718 0 -0.074629549380309565 -0.36021542809194718 0 -0.049466983883206223 -0.37107977267582498 0 -0.076054852772978521 -0.37868155459181568 0 -0.1041335038397074 -0.3603009345022431 0 -0.074629549380309565 -0.36021542809194718 0 -0.076054852772978521 -0.37868155459181568 0 -0.087785636298201158 -0.3397671150791296 0 -0.074629549380309565 -0.36021542809194718 0 -0.1041335038397074 -0.3603009345022431 0 -0.087785636298201158 -0.3397671150791296 0 -0.074629549380309565 -0.36021542809194718 0 -0.10170503774124059 -0.25700613689126628 0 -0.085378836045643169 -0.26151062602968289 0 -0.099649637769973848 -0.23895340762044859 0 -0.10170503774124059 -0.25700613689126628 0 -0.118500656309361 -0.26217529995396938 0 -0.1052266158298808 -0.27202727401405968 0 -0.10170503774124059 -0.25700613689126628 0 -0.086406536031276307 -0.27053699066509163 0 -0.11927957019769909 -0.25121100768721882 0 -0.118500656309361 -0.26217529995396938 0 -0.10885777792561049 -0.24771691873677501 0 -0.10170503774124059 -0.25700613689126628 0 -0.118500656309361 -0.26217529995396938 0 -0.10885777792561049 -0.24771691873677501 0 -0.11927957019769909 -0.25121100768721882 0 -0.118500656309361 -0.26217529995396938 0 -0.13103409296156521 -0.24985758849689599 0 -0.118500656309361 -0.26217529995396938 0 -0.116706166889085 -0.27399150982307707 0 -0.1052266158298808 -0.27202727401405968 0 -0.12833832673132239 -0.27673666288892379 0 -0.116706166889085 -0.27399150982307707 0 -0.1196378656155571 -0.29025966204219572 0 -0.12833832673132239 -0.27673666288892379 0 -0.12658744337424291 -0.267001019816962 0 -0.116706166889085 -0.27399150982307707 0 -0.12658744337424291 -0.267001019816962 0 -0.118500656309361 -0.26217529995396938 0 -0.116706166889085 -0.27399150982307707 0 -0.116706166889085 -0.27399150982307707 0 -0.1052266158298808 -0.27202727401405968 0 -0.10595246210109401 -0.28471336822606369 0 -0.1052266158298808 -0.27202727401405968 0 -0.094836530085505716 -0.2781188914519227 0 -0.10595246210109401 -0.28471336822606369 0 -0.10170503774124059 -0.25700613689126628 0 -0.097043679921975878 -0.26942232325558513 0 -0.086406536031276307 -0.27053699066509163 0 -0.1052266158298808 -0.27202727401405968 0 -0.097043679921975878 -0.26942232325558513 0 -0.094836530085505716 -0.2781188914519227 0 -0.10170503774124059 -0.25700613689126628 0 -0.1052266158298808 -0.27202727401405968 0 -0.097043679921975878 -0.26942232325558513 0 -0.10595246210109401 -0.28471336822606369 0 -0.11093740449979179 -0.3037826611954676 0 -0.090762916267557739 -0.289233203690205 0 -0.11093740449979179 -0.3037826611954676 0 -0.090762916267557739 -0.289233203690205 0 -0.094836530085505716 -0.2781188914519227 0 -0.10595246210109401 -0.28471336822606369 0 -0.090762916267557739 -0.289233203690205 0 -0.116706166889085 -0.27399150982307707 0 -0.10595246210109401 -0.28471336822606369 0 -0.1196378656155571 -0.29025966204219572 0 -0.10595246210109401 -0.28471336822606369 0 -0.1196378656155571 -0.29025966204219572 0 -0.11093740449979179 -0.3037826611954676 0 -0.12833832673132239 -0.27673666288892379 0 -0.1196378656155571 -0.29025966204219572 0 -0.12902345651485009 -0.30070238569280128 0 -0.1196378656155571 -0.29025966204219572 0 -0.11093740449979179 -0.3037826611954676 0 -0.1196378656155571 -0.29025966204219572 0 -0.11093740449979179 -0.3037826611954676 0 -0.12740147534479851 -0.31565623619600858 0 -0.11093740449979179 -0.3037826611954676 0 -0.12902345651485009 -0.30070238569280128 0 -0.12740147534479851 -0.31565623619600858 0 -0.11093740449979179 -0.3037826611954676 0 -0.1009417232160927 -0.31931880206631202 0 -0.11093740449979179 -0.3037826611954676 0 -0.096454192114154749 -0.30463327542582841 0 -0.11093740449979179 -0.3037826611954676 0 -0.096454192114154749 -0.30463327542582841 0 -0.090762916267557739 -0.289233203690205 0 -0.1009417232160927 -0.31931880206631202 0 -0.11093740449979179 -0.3037826611954676 0 -0.096454192114154749 -0.30463327542582841 0 -0.08317472447317685 -0.30619843475132907 0 -0.090762916267557739 -0.289233203690205 0 -0.1009417232160927 -0.31931880206631202 0 -0.096454192114154749 -0.30463327542582841 0 -0.08317472447317685 -0.30619843475132907 0 -0.08317472447317685 -0.30619843475132907 0 -0.065407725730264654 -0.29307806743634118 0 -0.075500535498630283 -0.31652860950283668 0 -0.069092812043202737 -0.31377290763119592 0 -0.08317472447317685 -0.30619843475132907 0 -0.08317472447317685 -0.30619843475132907 0 -0.066718170338485899 -0.30478426674029918 0 -0.065407725730264654 -0.29307806743634118 0 -0.069092812043202737 -0.31377290763119592 0 -0.08317472447317685 -0.30619843475132907 0 -0.066718170338485899 -0.30478426674029918 0 -0.069092812043202737 -0.31377290763119592 0 -0.066718170338485899 -0.30478426674029918 0 -0.062618094936916863 -0.31150030062421308 0 -0.066718170338485899 -0.30478426674029918 0 -0.065407725730264654 -0.29307806743634118 0 -0.056615256881723461 -0.30697592993938327 0 -0.065407725730264654 -0.29307806743634118 0 -0.071108034321311769 -0.28406784443891669 0 -0.078556773576784797 -0.2907839888496711 0 -0.08317472447317685 -0.30619843475132907 0 -0.065407725730264654 -0.29307806743634118 0 -0.078556773576784797 -0.2907839888496711 0 -0.062962417929692857 -0.29127228487251078 0 -0.065407725730264654 -0.29307806743634118 0 -0.071108034321311769 -0.28406784443891669 0 -0.062962417929692857 -0.29127228487251078 0 -0.065407725730264654 -0.29307806743634118 0 -0.062962417929692857 -0.29127228487251078 0 -0.071108034321311769 -0.28406784443891669 0 -0.059649876154770368 -0.28091948679081291 0 -0.062962417929692857 -0.29127228487251078 0 -0.071108034321311769 -0.28406784443891669 0 -0.065407725730264654 -0.29307806743634118 0 -0.071108034321311769 -0.28406784443891669 0 -0.071108034321311769 -0.28406784443891669 0 -0.083855612740324367 -0.28272158524705232 0 -0.078556773576784797 -0.2907839888496711 0 -0.083855612740324367 -0.28272158524705232 0 -0.078556773576784797 -0.2907839888496711 0 -0.090762916267557739 -0.289233203690205 0 -0.08317472447317685 -0.30619843475132907 0 -0.078556773576784797 -0.2907839888496711 0 -0.090762916267557739 -0.289233203690205 0 -0.094836530085505716 -0.2781188914519227 0 -0.083855612740324367 -0.28272158524705232 0 -0.090762916267557739 -0.289233203690205 0 -0.071108034321311769 -0.28406784443891669 0 -0.086406536031276307 -0.27053699066509163 0 -0.085378836045643169 -0.26151062602968289 0 -0.071108034321311769 -0.28406784443891669 0 -0.085378836045643169 -0.26151062602968289 0 -0.094836530085505716 -0.2781188914519227 0 -0.083855612740324367 -0.28272158524705232 0 -0.086406536031276307 -0.27053699066509163 0 -0.097043679921975878 -0.26942232325558513 0 -0.094836530085505716 -0.2781188914519227 0 -0.086406536031276307 -0.27053699066509163 0 -0.071108034321311769 -0.28406784443891669 0 -0.083855612740324367 -0.28272158524705232 0 -0.086406536031276307 -0.27053699066509163 0 -0.071108034321311769 -0.28406784443891669 0 -0.086406536031276307 -0.27053699066509163 0 -0.071108034321311769 -0.28406784443891669 0 -0.065919241318146596 -0.27266452910636529 0 -0.085378836045643169 -0.26151062602968289 0 -0.071108034321311769 -0.28406784443891669 0 -0.065919241318146596 -0.27266452910636529 0 -0.059649876154770368 -0.28091948679081291 0 -0.063532873079876137 -0.26076431754652518 0 -0.083808392022642772 -0.24480791735152541 0 -0.065919241318146596 -0.27266452910636529 0 -0.063532873079876137 -0.26076431754652518 0 -0.085378836045643169 -0.26151062602968289 0 -0.063532873079876137 -0.26076431754652518 0 -0.085378836045643169 -0.26151062602968289 0 -0.083808392022642772 -0.24480791735152541 0 -0.063532873079876137 -0.26076431754652518 0 -0.055894988052151262 -0.25512398073311621 0 -0.083808392022642772 -0.24480791735152541 0 -0.10170503774124059 -0.25700613689126628 0 -0.086406536031276307 -0.27053699066509163 0 -0.085378836045643169 -0.26151062602968289 0 -0.085378836045643169 -0.26151062602968289 0 -0.099649637769973848 -0.23895340762044859 0 -0.055894988052151262 -0.25512398073311621 0 -0.02798158408165909 -0.26544004411470529 0 -0.035282818355929703 -0.24730517570494159 0 -0.055894988052151262 -0.25512398073311621 0 -0.02798158408165909 -0.26544004411470529 0 -0.063532873079876137 -0.26076431754652518 0 -0.055894988052151262 -0.25512398073311621 0 -0.043257354137108822 -0.27672071774152412 0 -0.065919241318146596 -0.27266452910636529 0 -0.063532873079876137 -0.26076431754652518 0 -0.049926586989131827 -0.27606037072588951 0 -0.065919241318146596 -0.27266452910636529 0 -0.059649876154770368 -0.28091948679081291 0 -0.049926586989131827 -0.27606037072588951 0 -0.063532873079876137 -0.26076431754652518 0 -0.049926586989131827 -0.27606037072588951 0 -0.043257354137108822 -0.27672071774152412 0 -0.063532873079876137 -0.26076431754652518 0 -0.043257354137108822 -0.27672071774152412 0 -0.059649876154770368 -0.28091948679081291 0 -0.049926586989131827 -0.27606037072588951 0 -0.048780700811357887 -0.28079953477880443 0 -0.049926586989131827 -0.27606037072588951 0 -0.048780700811357887 -0.28079953477880443 0 -0.049926586989131827 -0.27606037072588951 0 -0.048780700811357887 -0.28079953477880443 0 -0.043257354137108822 -0.27672071774152412 0 -0.055894988052151262 -0.25512398073311621 0 -0.043257354137108822 -0.27672071774152412 0 -0.02798158408165909 -0.26544004411470529 0 -0.048780700811357887 -0.28079953477880443 0 -0.043257354137108822 -0.27672071774152412 0 -0.043257354137108822 -0.27672071774152412 0 -0.02946405120687294 -0.27728373967571252 0 -0.02798158408165909 -0.26544004411470529 0 -0.043257354137108822 -0.27672071774152412 0 -0.02798158408165909 -0.26544004411470529 0 -0.043257354137108822 -0.27672071774152412 0 -0.038293622010124873 -0.28981136064390278 0 -0.019712775885810298 -0.29524979776461968 0 -0.043257354137108822 -0.27672071774152412 0 -0.019712775885810298 -0.29524979776461968 0 -0.048780700811357887 -0.28079953477880443 0 -0.041807545386410308 -0.30998284178937757 0 -0.048780700811357887 -0.28079953477880443 0 -0.038293622010124873 -0.28981136064390278 0 -0.041807545386410308 -0.30998284178937757 0 -0.048780700811357887 -0.28079953477880443 0 -0.043257354137108822 -0.27672071774152412 0 -0.038293622010124873 -0.28981136064390278 0 -0.062962417929692857 -0.29127228487251078 0 -0.048780700811357887 -0.28079953477880443 0 -0.041807545386410308 -0.30998284178937757 0 -0.062962417929692857 -0.29127228487251078 0 -0.059649876154770368 -0.28091948679081291 0 -0.048780700811357887 -0.28079953477880443 0 -0.062962417929692857 -0.29127228487251078 0 -0.048780700811357887 -0.28079953477880443 0 -0.062962417929692857 -0.29127228487251078 0 -0.065407725730264654 -0.29307806743634118 0 -0.056615256881723461 -0.30697592993938327 0 -0.062962417929692857 -0.29127228487251078 0 -0.041807545386410308 -0.30998284178937757 0 -0.062962417929692857 -0.29127228487251078 0 -0.056615256881723461 -0.30697592993938327 0 -0.041807545386410308 -0.30998284178937757 0 -0.065407725730264654 -0.29307806743634118 0 -0.056615256881723461 -0.30697592993938327 0 -0.066718170338485899 -0.30478426674029918 0 -0.062618094936916863 -0.31150030062421308 0 -0.056615256881723461 -0.30697592993938327 0 -0.062618094936916863 -0.31150030062421308 0 -0.056615256881723461 -0.30697592993938327 0 -0.055634166091394467 -0.31428036046013358 0 -0.056615256881723461 -0.30697592993938327 0 -0.041807545386410308 -0.30998284178937757 0 -0.055634166091394467 -0.31428036046013358 0 -0.041807545386410308 -0.30998284178937757 0 -0.055634166091394467 -0.31428036046013358 0 -0.038293622010124873 -0.28981136064390278 0 -0.031806791510142693 -0.29613531939798482 0 -0.041807545386410308 -0.30998284178937757 0 -0.041807545386410308 -0.30998284178937757 0 -0.023720752627300019 -0.31006846223573709 0 -0.032315454375483478 -0.31337788493943192 0 -0.041807545386410308 -0.30998284178937757 0 -0.017275899038017722 -0.30120943209655532 0 -0.031806791510142693 -0.29613531939798482 0 -0.041807545386410308 -0.30998284178937757 0 -0.017275899038017722 -0.30120943209655532 0 -0.041807545386410308 -0.30998284178937757 0 -0.023720752627300019 -0.31006846223573709 0 -0.017275899038017722 -0.30120943209655532 0 -0.031806791510142693 -0.29613531939798482 0 -0.017275899038017722 -0.30120943209655532 0 -0.019712775885810298 -0.29524979776461968 0 -0.023720752627300019 -0.31006846223573709 0 -0.017275899038017722 -0.30120943209655532 0 -0.013214444536798349 -0.31344644115691622 0 -0.017275899038017722 -0.30120943209655532 0 -0.0016643215767601341 -0.30548924849953318 0 -0.013214444536798349 -0.31344644115691622 0 -0.017275899038017722 -0.30120943209655532 0 0.0072714615782653747 -0.29284469571042249 0 -0.017275899038017722 -0.30120943209655532 0 -0.0016643215767601341 -0.30548924849953318 0 0.0072714615782653747 -0.29284469571042249 0 -0.0016643215767601341 -0.30548924849953318 0 -0.013214444536798349 -0.31344644115691622 0 0.00079918170466464981 -0.31783493605041579 0 -0.017275899038017722 -0.30120943209655532 0 -0.010282064379378441 -0.28797535174292038 0 -0.01647814002885108 -0.28963396841454198 0 -0.017275899038017722 -0.30120943209655532 0 -0.010282064379378441 -0.28797535174292038 0 0.0072714615782653747 -0.29284469571042249 0 -0.010282064379378441 -0.28797535174292038 0 -0.0098779596341484685 -0.27966112795939102 0 0.0072714615782653747 -0.29284469571042249 0 -0.010282064379378441 -0.28797535174292038 0 -0.01474331566440795 -0.2828810118016154 0 -0.0098779596341484685 -0.27966112795939102 0 -0.010282064379378441 -0.28797535174292038 0 -0.01474331566440795 -0.2828810118016154 0 -0.01647814002885108 -0.28963396841454198 0 -0.01474331566440795 -0.2828810118016154 0 -0.020628470693508441 -0.28180996668391878 0 -0.01647814002885108 -0.28963396841454198 0 -0.043257354137108822 -0.27672071774152412 0 -0.019712775885810298 -0.29524979776461968 0 -0.02946405120687294 -0.27728373967571252 0 -0.020628470693508441 -0.28180996668391878 0 -0.019712775885810298 -0.29524979776461968 0 -0.02946405120687294 -0.27728373967571252 0 -0.038293622010124873 -0.28981136064390278 0 -0.031806791510142693 -0.29613531939798482 0 -0.019712775885810298 -0.29524979776461968 0 -0.020628470693508441 -0.28180996668391878 0 -0.019712775885810298 -0.29524979776461968 0 -0.01647814002885108 -0.28963396841454198 0 -0.017275899038017722 -0.30120943209655532 0 -0.019712775885810298 -0.29524979776461968 0 -0.01647814002885108 -0.28963396841454198 0 -0.020628470693508441 -0.28180996668391878 0 -0.02946405120687294 -0.27728373967571252 0 -0.02295837901510089 -0.27377346344422188 0 -0.02946405120687294 -0.27728373967571252 0 -0.02295837901510089 -0.27377346344422188 0 -0.02798158408165909 -0.26544004411470529 0 -0.02295837901510089 -0.27377346344422188 0 -0.0156118584181763 -0.27001157090134392 0 -0.02798158408165909 -0.26544004411470529 0 -0.0156118584181763 -0.27001157090134392 0 -0.02798158408165909 -0.26544004411470529 0 -0.0156118584181763 -0.27001157090134392 0 -0.013707436700195461 -0.26349013089444517 0 -0.02798158408165909 -0.26544004411470529 0 -0.020628470693508441 -0.28180996668391878 0 -0.016953594619888181 -0.2772360802411441 0 -0.02295837901510089 -0.27377346344422188 0 -0.016953594619888181 -0.2772360802411441 0 -0.02295837901510089 -0.27377346344422188 0 -0.0156118584181763 -0.27001157090134392 0 -0.01474331566440795 -0.2828810118016154 0 -0.020628470693508441 -0.28180996668391878 0 -0.016953594619888181 -0.2772360802411441 0 -0.01474331566440795 -0.2828810118016154 0 -0.016953594619888181 -0.2772360802411441 0 -0.0098779596341484685 -0.27966112795939102 0 -0.016953594619888181 -0.2772360802411441 0 -0.0098779596341484685 -0.27966112795939102 0 -0.0156118584181763 -0.27001157090134392 0 -0.0086003042226896267 -0.268474286159745 0 0.0072714615782653747 -0.29284469571042249 0 -0.0098779596341484685 -0.27966112795939102 0 -0.0086003042226896267 -0.268474286159745 0 0.0072714615782653747 -0.29284469571042249 0 -0.0086003042226896267 -0.268474286159745 0 -0.0058819999006187711 -0.26170431814745848 0 0.0042600240525320953 -0.27079245067264929 0 -0.0098779596341484685 -0.27966112795939102 0 -0.0086003042226896267 -0.268474286159745 0 -0.0156118584181763 -0.27001157090134392 0 -0.0086003042226896267 -0.268474286159745 0 -0.0156118584181763 -0.27001157090134392 0 -0.013707436700195461 -0.26349013089444517 0 -0.013707436700195461 -0.26349013089444517 0 -0.0058819999006187711 -0.26170431814745848 0 -0.01170177691843146 -0.25269818516498999 0 -0.0086003042226896267 -0.268474286159745 0 -0.013707436700195461 -0.26349013089444517 0 -0.0058819999006187711 -0.26170431814745848 0 -0.0058819999006187711 -0.26170431814745848 0 -0.01170177691843146 -0.25269818516498999 0 0.0034337031503280401 -0.25501455873174012 0 -0.01170177691843146 -0.25269818516498999 0 -0.008204940348495662 -0.24486262860356639 0 0.0034337031503280401 -0.25501455873174012 0 -0.01170177691843146 -0.25269818516498999 0 0.0034337031503280401 -0.25501455873174012 0 -0.01170177691843146 -0.25269818516498999 0 -0.021625914561241671 -0.25117936911130939 0 -0.02798158408165909 -0.26544004411470529 0 -0.021625914561241671 -0.25117936911130939 0 -0.02798158408165909 -0.26544004411470529 0 -0.035282818355929703 -0.24730517570494159 0 -0.013707436700195461 -0.26349013089444517 0 -0.01170177691843146 -0.25269818516498999 0 -0.02798158408165909 -0.26544004411470529 0 -0.01170177691843146 -0.25269818516498999 0 -0.021625914561241671 -0.25117936911130939 0 -0.01170177691843146 -0.25269818516498999 0 -0.02798158408165909 -0.26544004411470529 0 -0.05276289722547052 -0.34848871455831798 0 -0.035414867461137582 -0.33607804164905519 0 -0.0299195791727121 -0.35880549331227107 0 -0.035414867461137582 -0.33607804164905519 0 -0.0299195791727121 -0.35880549331227107 0 -0.049466983883206223 -0.37107977267582498 0 -0.05276289722547052 -0.34848871455831798 0 -0.0299195791727121 -0.35880549331227107 0 -0.049466983883206223 -0.37107977267582498 0 -0.0299195791727121 -0.35880549331227107 0 -0.024424290884286711 -0.38153294497548718 0 -0.074629549380309565 -0.36021542809194718 0 -0.049466983883206223 -0.37107977267582498 0 -0.05276289722547052 -0.34848871455831798 0 -0.061716490979759731 -0.32740704575929241 0 -0.035414867461137582 -0.33607804164905519 0 -0.061716490979759731 -0.32740704575929241 0 -0.044828708133710003 -0.32453377631370478 0 -0.035414867461137582 -0.33607804164905519 0 -0.05276289722547052 -0.34848871455831798 0 -0.061716490979759731 -0.32740704575929241 0 -0.035414867461137582 -0.33607804164905519 0 -0.070643529425640852 -0.34155224657802419 0 -0.05276289722547052 -0.34848871455831798 0 -0.061716490979759731 -0.32740704575929241 0 -0.061716490979759731 -0.32740704575929241 0 -0.053835030875010459 -0.32015323453511613 0 -0.044828708133710003 -0.32453377631370478 0 -0.062618094936916863 -0.31150030062421308 0 -0.055634166091394467 -0.31428036046013358 0 -0.060524542558939111 -0.31797533311610537 0 -0.055634166091394467 -0.31428036046013358 0 -0.060524542558939111 -0.31797533311610537 0 -0.053835030875010459 -0.32015323453511613 0 -0.060524542558939111 -0.31797533311610537 0 -0.061716490979759731 -0.32740704575929241 0 -0.053835030875010459 -0.32015323453511613 0 -0.053835030875010459 -0.32015323453511613 0 -0.046471246611248983 -0.31656965702634438 0 -0.044828708133710003 -0.32453377631370478 0 -0.041807545386410308 -0.30998284178937757 0 -0.055634166091394467 -0.31428036046013358 0 -0.046471246611248983 -0.31656965702634438 0 -0.055634166091394467 -0.31428036046013358 0 -0.053835030875010459 -0.32015323453511613 0 -0.046471246611248983 -0.31656965702634438 0 -0.041807545386410308 -0.30998284178937757 0 -0.044828708133710003 -0.32453377631370478 0 -0.035414867461137582 -0.33607804164905519 0 -0.041807545386410308 -0.30998284178937757 0 -0.035414867461137582 -0.33607804164905519 0 -0.041807545386410308 -0.30998284178937757 0 -0.032315454375483478 -0.31337788493943192 0 -0.035414867461137582 -0.33607804164905519 0 -0.041807545386410308 -0.30998284178937757 0 -0.046471246611248983 -0.31656965702634438 0 -0.044828708133710003 -0.32453377631370478 0 -0.035414867461137582 -0.33607804164905519 0 -0.01040279219592505 -0.34432390531848039 0 -0.035414867461137582 -0.33607804164905519 0 -0.01163755279138529 -0.32736491789025463 0 -0.01040279219592505 -0.34432390531848039 0 -0.035414867461137582 -0.33607804164905519 0 -0.023374195365108791 -0.31998913792225941 0 -0.01163755279138529 -0.32736491789025463 0 -0.032315454375483478 -0.31337788493943192 0 -0.035414867461137582 -0.33607804164905519 0 -0.023374195365108791 -0.31998913792225941 0 -0.023720752627300019 -0.31006846223573709 0 -0.032315454375483478 -0.31337788493943192 0 -0.023374195365108791 -0.31998913792225941 0 -0.023374195365108791 -0.31998913792225941 0 -0.013214444536798349 -0.31344644115691622 0 -0.01163755279138529 -0.32736491789025463 0 -0.023720752627300019 -0.31006846223573709 0 -0.023374195365108791 -0.31998913792225941 0 -0.013214444536798349 -0.31344644115691622 0 -0.013214444536798349 -0.31344644115691622 0 -0.01163755279138529 -0.32736491789025463 0 0.00079918170466464981 -0.31783493605041579 0 -0.01163755279138529 -0.32736491789025463 0 -0.01040279219592505 -0.34432390531848039 0 0.011781801105993389 -0.33251704524440068 0 -0.01040279219592505 -0.34432390531848039 0 -0.0299195791727121 -0.35880549331227107 0 -0.014413289446861139 -0.36708429626383532 0 -0.035414867461137582 -0.33607804164905519 0 -0.01040279219592505 -0.34432390531848039 0 -0.0299195791727121 -0.35880549331227107 0 -0.0299195791727121 -0.35880549331227107 0 -0.014413289446861139 -0.36708429626383532 0 -0.024424290884286711 -0.38153294497548718 0 -0.0299195791727121 -0.35880549331227107 0 -0.024424290884286711 -0.38153294497548718 0 -0.01040279219592505 -0.34432390531848039 0 -0.014413289446861139 -0.36708429626383532 0 0.002942391382764642 -0.36987068143337393 0 -0.014413289446861139 -0.36708429626383532 0 -0.0075537544394073692 -0.38135874763525868 0 0.002942391382764642 -0.36987068143337393 0 -0.014413289446861139 -0.36708429626383532 0 -0.0075537544394073692 -0.38135874763525868 0 -0.024424290884286711 -0.38153294497548718 0 -0.0075537544394073692 -0.38135874763525868 0 -0.0076677579998080704 -0.40070457706422502 0 0.005794174751154433 -0.38760123843937189 0 -0.0075537544394073692 -0.38135874763525868 0 -0.0076677579998080704 -0.40070457706422502 0 -0.024424290884286711 -0.38153294497548718 0 -0.0076677579998080704 -0.40070457706422502 0 -0.024424290884286711 -0.38153294497548718 0 -0.031938041465755178 -0.40902479306663547 0 -0.049466983883206223 -0.37107977267582498 0 -0.024424290884286711 -0.38153294497548718 0 -0.040489133186649331 -0.39174817774329451 0 -0.040489133186649331 -0.39174817774329451 0 -0.058141528338534892 -0.41465167133145342 0 -0.031938041465755178 -0.40902479306663547 0 -0.024424290884286711 -0.38153294497548718 0 -0.040489133186649331 -0.39174817774329451 0 -0.031938041465755178 -0.40902479306663547 0 -0.040489133186649331 -0.39174817774329451 0 -0.058458553987257807 -0.39003519295780031 0 -0.058141528338534892 -0.41465167133145342 0 -0.049466983883206223 -0.37107977267582498 0 -0.058458553987257807 -0.39003519295780031 0 -0.076054852772978521 -0.37868155459181568 0 -0.049466983883206223 -0.37107977267582498 0 -0.040489133186649331 -0.39174817774329451 0 -0.058458553987257807 -0.39003519295780031 0 -0.049252798506317592 -0.42944867860338592 0 -0.058141528338534892 -0.41465167133145342 0 -0.067652723998875078 -0.44310111422096871 0 -0.049252798506317592 -0.42944867860338592 0 -0.058141528338534892 -0.41465167133145342 0 -0.031938041465755178 -0.40902479306663547 0 -0.049252798506317592 -0.42944867860338592 0 -0.031938041465755178 -0.40902479306663547 0 -0.03396467267227616 -0.43155992398303861 0 -0.049252798506317592 -0.42944867860338592 0 -0.03396467267227616 -0.43155992398303861 0 -0.047361422953357817 -0.44708757588869408 0 -0.03396467267227616 -0.43155992398303861 0 -0.014453796194136651 -0.42114818746703131 0 -0.015115176492190151 -0.44120527228944018 0 -0.03396467267227616 -0.43155992398303861 0 -0.015115176492190151 -0.44120527228944018 0 -0.031938041465755178 -0.40902479306663547 0 -0.03396467267227616 -0.43155992398303861 0 -0.014453796194136651 -0.42114818746703131 0 -0.0076677579998080704 -0.40070457706422502 0 -0.031938041465755178 -0.40902479306663547 0 -0.014453796194136651 -0.42114818746703131 0 -0.0076677579998080704 -0.40070457706422502 0 -0.014453796194136651 -0.42114818746703131 0 0.00076786515994940675 -0.41588390697324201 0 -0.014453796194136651 -0.42114818746703131 0 0.00076786515994940675 -0.41588390697324201 0 0.0023886683407352421 -0.43205944146753561 0 -0.014453796194136651 -0.42114818746703131 0 -0.015115176492190151 -0.44120527228944018 0 0.0023886683407352421 -0.43205944146753561 0 -0.015115176492190151 -0.44120527228944018 0 0.0023886683407352421 -0.43205944146753561 0 0.003734319687895928 -0.4508506205958418 0 -0.015115176492190151 -0.44120527228944018 0 -0.0099026257976631074 -0.45686893690885511 0 0.003734319687895928 -0.4508506205958418 0 -0.015115176492190151 -0.44120527228944018 0 0.003734319687895928 -0.4508506205958418 0 -0.0099026257976631074 -0.45686893690885511 0 -0.01506381837672181 -0.47235001699058121 0 0.0042236857574974376 -0.46753925583388589 0 -0.0099026257976631074 -0.45686893690885511 0 0.003734319687895928 -0.4508506205958418 0 0.0042236857574974376 -0.46753925583388589 0 -0.0099026257976631074 -0.45686893690885511 0 -0.027292139564796949 -0.45239951883452628 0 -0.01506381837672181 -0.47235001699058121 0 -0.027292139564796949 -0.45239951883452628 0 -0.01506381837672181 -0.47235001699058121 0 -0.041134528507153233 -0.46556884833871048 0 -0.015115176492190151 -0.44120527228944018 0 -0.0099026257976631074 -0.45686893690885511 0 -0.027292139564796949 -0.45239951883452628 0 -0.03396467267227616 -0.43155992398303861 0 -0.015115176492190151 -0.44120527228944018 0 -0.027292139564796949 -0.45239951883452628 0 -0.01124759835667311 -0.5 0 -0.01506381837672181 -0.47235001699058121 0 0.0020093075809049662 -0.48402745145511827 0 -0.01506381837672181 -0.47235001699058121 0 0.0042236857574974376 -0.46753925583388589 0 0.0020093075809049662 -0.48402745145511827 0 -0.01506381837672181 -0.47235001699058121 0 -0.031240809734309691 -0.48273952339999848 0 -0.041134528507153233 -0.46556884833871048 0 -0.01124759835667311 -0.5 0 -0.01506381837672181 -0.47235001699058121 0 -0.031240809734309691 -0.48273952339999848 0 -0.01124759835667311 -0.5 0 -0.031240809734309691 -0.48273952339999848 0 -0.036390104010967039 -0.5 0 -0.031240809734309691 -0.48273952339999848 0 -0.036390104010967039 -0.5 0 -0.054605033908916328 -0.48084630703589493 0 -0.031240809734309691 -0.48273952339999848 0 -0.054605033908916328 -0.48084630703589493 0 -0.041134528507153233 -0.46556884833871048 0 -0.054605033908916328 -0.48084630703589493 0 -0.041134528507153233 -0.46556884833871048 0 -0.057583525805503522 -0.4616308805189504 0 -0.036390104010967039 -0.5 0 -0.054605033908916328 -0.48084630703589493 0 -0.061532609665260973 -0.5 0 -0.054605033908916328 -0.48084630703589493 0 -0.061532609665260973 -0.5 0 -0.069994169638236861 -0.48809921603659467 0 -0.03396467267227616 -0.43155992398303861 0 -0.027292139564796949 -0.45239951883452628 0 -0.047361422953357817 -0.44708757588869408 0 -0.027292139564796949 -0.45239951883452628 0 -0.041134528507153233 -0.46556884833871048 0 -0.047361422953357817 -0.44708757588869408 0 -0.041134528507153233 -0.46556884833871048 0 -0.057583525805503522 -0.4616308805189504 0 -0.047361422953357817 -0.44708757588869408 0 -0.049252798506317592 -0.42944867860338592 0 -0.047361422953357817 -0.44708757588869408 0 -0.067652723998875078 -0.44310111422096871 0 -0.057583525805503522 -0.4616308805189504 0 -0.047361422953357817 -0.44708757588869408 0 -0.067652723998875078 -0.44310111422096871 0 -0.067652723998875078 -0.44310111422096871 0 -0.078291953385910759 -0.44633955092322403 0 -0.071493860031129688 -0.4260023393853265 0 -0.067652723998875078 -0.44310111422096871 0 -0.081294969781399384 -0.45637577269124602 0 -0.078291953385910759 -0.44633955092322403 0 -0.057583525805503522 -0.4616308805189504 0 -0.067652723998875078 -0.44310111422096871 0 -0.077163919659215166 -0.47155055711048371 0 -0.067652723998875078 -0.44310111422096871 0 -0.077163919659215166 -0.47155055711048371 0 -0.067652723998875078 -0.44310111422096871 0 -0.081294969781399384 -0.45637577269124602 0 -0.077163919659215166 -0.47155055711048371 0 -0.081294969781399384 -0.45637577269124602 0 -0.092131058812436523 -0.46458392930998738 0 -0.077163919659215166 -0.47155055711048371 0 -0.081294969781399384 -0.45637577269124602 0 -0.092131058812436523 -0.46458392930998738 0 -0.091724509207182406 -0.45028637394465099 0 -0.091724509207182406 -0.45028637394465099 0 -0.078291953385910759 -0.44633955092322403 0 -0.090475466190093376 -0.4369347253601305 0 -0.081294969781399384 -0.45637577269124602 0 -0.091724509207182406 -0.45028637394465099 0 -0.078291953385910759 -0.44633955092322403 0 -0.061532609665260973 -0.5 0 -0.069994169638236861 -0.48809921603659467 0 -0.086675115319554949 -0.49999999999999878 0 -0.069994169638236861 -0.48809921603659467 0 -0.077163919659215166 -0.47155055711048371 0 -0.086675115319554949 -0.49999999999999878 0 -0.054605033908916328 -0.48084630703589493 0 -0.057583525805503522 -0.4616308805189504 0 -0.077163919659215166 -0.47155055711048371 0 -0.054605033908916328 -0.48084630703589493 0 -0.069994169638236861 -0.48809921603659467 0 -0.077163919659215166 -0.47155055711048371 0 -0.092131058812436523 -0.46458392930998738 0 -0.077163919659215166 -0.47155055711048371 0 -0.094207415258595051 -0.48252924355983412 0 -0.077163919659215166 -0.47155055711048371 0 -0.086675115319554949 -0.49999999999999878 0 -0.094207415258595051 -0.48252924355983412 0 -0.086675115319554949 -0.49999999999999878 0 -0.099067278837938588 -0.49999999999999639 0 -0.094207415258595051 -0.48252924355983412 0 -0.077163919659215166 -0.47155055711048371 0 -0.086675115319554949 -0.49999999999999878 0 -0.099067278837938588 -0.49999999999999639 0 -0.1091982805183216 -0.48390501862204088 0 -0.099067278837938588 -0.49999999999999639 0 -0.1091982805183216 -0.48390501862204088 0 -0.094207415258595051 -0.48252924355983412 0 -0.099067278837938588 -0.49999999999999639 0 -0.1091982805183216 -0.48390501862204088 0 -0.117268588409623 -0.499999999999997 0 -0.092131058812436523 -0.46458392930998738 0 -0.094207415258595051 -0.48252924355983412 0 -0.1046222044348038 -0.47073859391723621 0 -0.1091982805183216 -0.48390501862204088 0 -0.094207415258595051 -0.48252924355983412 0 -0.1046222044348038 -0.47073859391723621 0 -0.13020306801453321 -0.47745172893267429 0 -0.1182989353041643 -0.48390501862204172 0 -0.1193292821987061 -0.46781003724408632 0 -0.1182989353041643 -0.48390501862204172 0 -0.1193292821987061 -0.46781003724408632 0 -0.1091982805183216 -0.48390501862204088 0 -0.1046222044348038 -0.47073859391723621 0 -0.1193292821987061 -0.46781003724408632 0 -0.1091982805183216 -0.48390501862204088 0 -0.1193292821987061 -0.46781003724408632 0 -0.1091982805183216 -0.48390501862204088 0 -0.1182989353041643 -0.48390501862204172 0 -0.1193292821987061 -0.46781003724408632 0 -0.1182989353041643 -0.48390501862204172 0 -0.117268588409623 -0.499999999999997 0 -0.1292373336124012 -0.48976594362698839 0 -0.1182989353041643 -0.48390501862204172 0 -0.117268588409623 -0.499999999999997 0 -0.1091982805183216 -0.48390501862204088 0 -0.1182989353041643 -0.48390501862204172 0 -0.117268588409623 -0.499999999999997 0 -0.091724509207182406 -0.45028637394465099 0 -0.10001056255325801 -0.44136591246081208 0 -0.1082449853859595 -0.45486474085023221 0 -0.10001056255325801 -0.44136591246081208 0 -0.1082449853859595 -0.45486474085023221 0 -0.1100478980921136 -0.44417275097905362 0 -0.10001056255325801 -0.44136591246081208 0 -0.1100478980921136 -0.44417275097905362 0 -0.1097914587354992 -0.43353524571911389 0 -0.091724509207182406 -0.45028637394465099 0 -0.10001056255325801 -0.44136591246081208 0 -0.090475466190093376 -0.4369347253601305 0 -0.092131058812436523 -0.46458392930998738 0 -0.091724509207182406 -0.45028637394465099 0 -0.1082449853859595 -0.45486474085023221 0 -0.092131058812436523 -0.46458392930998738 0 -0.1046222044348038 -0.47073859391723621 0 -0.1082449853859595 -0.45486474085023221 0 -0.1193292821987061 -0.46781003724408632 0 -0.12081934608704049 -0.44453384680592922 0 -0.1046222044348038 -0.47073859391723621 0 -0.1082449853859595 -0.45486474085023221 0 -0.1193292821987061 -0.46781003724408632 0 -0.1082449853859595 -0.45486474085023221 0 -0.1193292821987061 -0.46781003724408632 0 -0.12081934608704049 -0.44453384680592922 0 -0.1328040951874265 -0.4464027893759136 0 -0.1193292821987061 -0.46781003724408632 0 -0.12081934608704049 -0.44453384680592922 0 -0.1082449853859595 -0.45486474085023221 0 -0.1100478980921136 -0.44417275097905362 0 -0.12081934608704049 -0.44453384680592922 0 -0.1100478980921136 -0.44417275097905362 0 -0.12081934608704049 -0.44453384680592922 0 -0.1097914587354992 -0.43353524571911389 0 -0.12081934608704049 -0.44453384680592922 0 -0.1097914587354992 -0.43353524571911389 0 -0.12230940997537521 -0.42125765636777202 0 -0.12081934608704049 -0.44453384680592922 0 -0.12230940997537521 -0.42125765636777202 0 -0.1097914587354992 -0.43353524571911389 0 -0.1062087497937121 -0.4206258160237954 0 -0.12230940997537521 -0.42125765636777202 0 -0.13109159584479921 -0.43208083939514308 0 -0.12081934608704049 -0.44453384680592922 0 -0.12230940997537521 -0.42125765636777202 0 -0.10001056255325801 -0.44136591246081208 0 -0.1097914587354992 -0.43353524571911389 0 -0.098071551674610194 -0.43024594575574371 0 -0.098071551674610194 -0.43024594575574371 0 -0.1062087497937121 -0.4206258160237954 0 -0.086905803537176307 -0.41766001211623038 0 -0.1097914587354992 -0.43353524571911389 0 -0.098071551674610194 -0.43024594575574371 0 -0.1062087497937121 -0.4206258160237954 0 -0.10001056255325801 -0.44136591246081208 0 -0.098071551674610194 -0.43024594575574371 0 -0.090475466190093376 -0.4369347253601305 0 -0.1062087497937121 -0.4206258160237954 0 -0.1144549540970826 -0.40021248943529819 0 -0.086905803537176307 -0.41766001211623038 0 -0.13298123547928989 -0.4121070548316822 0 -0.1062087497937121 -0.4206258160237954 0 -0.12230940997537521 -0.42125765636777202 0 -0.13298123547928989 -0.4121070548316822 0 -0.1062087497937121 -0.4206258160237954 0 -0.13298123547928989 -0.4121070548316822 0 -0.1062087497937121 -0.4206258160237954 0 -0.1144549540970826 -0.40021248943529819 0 -0.130113141309744 -0.38345576005511828 0 -0.1286621073144901 -0.39872907988120437 0 -0.1144549540970826 -0.40021248943529819 0 -0.130113141309744 -0.38345576005511828 0 -0.1144549540970826 -0.40021248943529819 0 -0.1130833258259943 -0.37815269808048041 0 -0.1041335038397074 -0.3603009345022431 0 -0.1130833258259943 -0.37815269808048041 0 -0.095519653688441897 -0.38898047330923657 0 -0.1144549540970826 -0.40021248943529819 0 -0.1130833258259943 -0.37815269808048041 0 -0.095519653688441897 -0.38898047330923657 0 -0.1144549540970826 -0.40021248943529819 0 -0.095519653688441897 -0.38898047330923657 0 -0.086905803537176307 -0.41766001211623038 0 -0.095519653688441897 -0.38898047330923657 0 -0.074120871858948265 -0.40147752601384229 0 -0.086905803537176307 -0.41766001211623038 0 -0.095519653688441897 -0.38898047330923657 0 -0.086905803537176307 -0.41766001211623038 0 -0.095519653688441897 -0.38898047330923657 0 -0.076054852772978521 -0.37868155459181568 0 -0.074120871858948265 -0.40147752601384229 0 -0.1041335038397074 -0.3603009345022431 0 -0.095519653688441897 -0.38898047330923657 0 -0.076054852772978521 -0.37868155459181568 0 -0.058458553987257807 -0.39003519295780031 0 -0.076054852772978521 -0.37868155459181568 0 -0.074120871858948265 -0.40147752601384229 0 -0.058458553987257807 -0.39003519295780031 0 -0.058141528338534892 -0.41465167133145342 0 -0.074120871858948265 -0.40147752601384229 0 -0.058141528338534892 -0.41465167133145342 0 -0.074120871858948265 -0.40147752601384229 0 -0.071493860031129688 -0.4260023393853265 0 -0.074120871858948265 -0.40147752601384229 0 -0.071493860031129688 -0.4260023393853265 0 -0.086905803537176307 -0.41766001211623038 0 -0.058141528338534892 -0.41465167133145342 0 -0.067652723998875078 -0.44310111422096871 0 -0.058141528338534892 -0.41465167133145342 0 -0.067652723998875078 -0.44310111422096871 0 -0.071493860031129688 -0.4260023393853265 0 -0.078291953385910759 -0.44633955092322403 0 -0.086905803537176307 -0.41766001211623038 0 -0.078291953385910759 -0.44633955092322403 0 -0.071493860031129688 -0.4260023393853265 0 -0.086905803537176307 -0.41766001211623038 0 -0.098071551674610194 -0.43024594575574371 0 -0.090475466190093376 -0.4369347253601305 0 -0.086905803537176307 -0.41766001211623038 0 -0.078291953385910759 -0.44633955092322403 0 -0.090475466190093376 -0.4369347253601305 0 -0.086905803537176307 -0.41766001211623038 0 -0.077552628123593703 -0.089445942142351464 0 -0.058573961637257303 -0.065421059965204559 0 -0.054096550683735659 -0.099502095668934046 0 -0.077552628123593703 -0.089445942142351464 0 -0.096902530143498949 -0.1046125605193523 0 -0.09857323188069661 -0.078334145072156136 0 -0.081080564273551883 -0.065495767475799632 0 -0.077552628123593703 -0.089445942142351464 0 -0.09857323188069661 -0.078334145072156136 0 -0.081080564273551883 -0.065495767475799632 0 -0.09857323188069661 -0.078334145072156136 0 -0.097531010956753053 -0.048542684261020062 0 -0.081080564273551883 -0.065495767475799632 0 -0.077552628123593703 -0.089445942142351464 0 -0.058573961637257303 -0.065421059965204559 0 -0.077552628123593703 -0.089445942142351464 0 -0.08012213178653349 -0.1209056926157564 0 -0.096902530143498949 -0.1046125605193523 0 -0.077552628123593703 -0.089445942142351464 0 -0.08012213178653349 -0.1209056926157564 0 -0.054096550683735659 -0.099502095668934046 0 -0.096902530143498949 -0.1046125605193523 0 -0.1065829120599789 -0.09614832167730597 0 -0.11190221795938481 -0.10766689193163601 0 -0.08012213178653349 -0.1209056926157564 0 -0.096902530143498949 -0.1046125605193523 0 -0.11028816210098499 -0.1239772438972393 0 -0.096902530143498949 -0.1046125605193523 0 -0.11028816210098499 -0.1239772438972393 0 -0.11190221795938481 -0.10766689193163601 0 -0.1235575050757495 -0.114640189982985 0 -0.11028816210098499 -0.1239772438972393 0 -0.11190221795938481 -0.10766689193163601 0 -0.1235575050757495 -0.114640189982985 0 -0.11028816210098499 -0.1239772438972393 0 -0.13049297557449319 -0.12722514746524721 0 -0.1235575050757495 -0.114640189982985 0 -0.11190221795938481 -0.10766689193163601 0 -0.1189536682563354 -0.093979689186079407 0 -0.1065829120599789 -0.09614832167730597 0 -0.11190221795938481 -0.10766689193163601 0 -0.1189536682563354 -0.093979689186079407 0 -0.1189536682563354 -0.093979689186079407 0 -0.12474258961423521 -0.087515228078019675 0 -0.115693845902888 -0.071420833401758393 0 -0.1189536682563354 -0.093979689186079407 0 -0.09857323188069661 -0.078334145072156136 0 -0.115693845902888 -0.071420833401758393 0 -0.1065829120599789 -0.09614832167730597 0 -0.1189536682563354 -0.093979689186079407 0 -0.09857323188069661 -0.078334145072156136 0 -0.096902530143498949 -0.1046125605193523 0 -0.1065829120599789 -0.09614832167730597 0 -0.09857323188069661 -0.078334145072156136 0 -0.1189536682563354 -0.093979689186079407 0 -0.09857323188069661 -0.078334145072156136 0 -0.09857323188069661 -0.078334145072156136 0 -0.115693845902888 -0.071420833401758393 0 -0.097531010956753053 -0.048542684261020062 0 -0.12474258961423521 -0.087515228078019675 0 -0.115693845902888 -0.071420833401758393 0 -0.13304354975710769 -0.065104419947923348 0 -0.115693845902888 -0.071420833401758393 0 -0.1207037492743083 -0.047985102855800828 0 -0.097531010956753053 -0.048542684261020062 0 -0.115693845902888 -0.071420833401758393 0 -0.1207037492743083 -0.047985102855800828 0 -0.13304354975710769 -0.065104419947923348 0 -0.1207037492743083 -0.047985102855800828 0 -0.1121121911679213 -0.031927008704186542 0 -0.097531010956753053 -0.048542684261020062 0 -0.1207037492743083 -0.047985102855800828 0 -0.1121121911679213 -0.031927008704186542 0 -0.1294373418687087 -0.024291535013460871 0 -0.1121121911679213 -0.031927008704186542 0 -0.097531010956753053 -0.048542684261020062 0 -0.1013669407948708 -0.023405692785217851 0 -0.097531010956753053 -0.048542684261020062 0 -0.1013669407948708 -0.023405692785217851 0 -0.087770015901660239 -0.026048951911327341 0 -0.11436129324992381 -0.0068139668628744857 0 -0.1023680430338617 -0.0063628978843887456 0 -0.1177058127232869 0.00098560458045950203 0 -0.11436129324992381 -0.0068139668628744857 0 -0.1235803972758617 -0.0078682168816956964 0 -0.1177058127232869 0.00098560458045950203 0 -0.1235803972758617 -0.0078682168816956964 0 -0.1267847382640489 0.0013257330363288431 0 -0.1177058127232869 0.00098560458045950203 0 -0.11436129324992381 -0.0068139668628744857 0 -0.1235803972758617 -0.0078682168816956964 0 -0.1132373035513852 -0.016157370385195571 0 -0.11436129324992381 -0.0068139668628744857 0 -0.1132373035513852 -0.016157370385195571 0 -0.1023680430338617 -0.0063628978843887456 0 -0.1235803972758617 -0.0078682168816956964 0 -0.1132373035513852 -0.016157370385195571 0 -0.1294373418687087 -0.024291535013460871 0 -0.1121121911679213 -0.031927008704186542 0 -0.1132373035513852 -0.016157370385195571 0 -0.1294373418687087 -0.024291535013460871 0 -0.1013669407948708 -0.023405692785217851 0 -0.1023680430338617 -0.0063628978843887456 0 -0.087770015901660239 -0.026048951911327341 0 -0.1121121911679213 -0.031927008704186542 0 -0.1132373035513852 -0.016157370385195571 0 -0.1013669407948708 -0.023405692785217851 0 -0.1023680430338617 -0.0063628978843887456 0 -0.087770015901660239 -0.026048951911327341 0 -0.1023680430338617 -0.0063628978843887456 0 -0.081071943426691204 -0.0087427124220753744 0 -0.09881147793708922 0.002346915287544553 0 -0.1132373035513852 -0.016157370385195571 0 -0.1013669407948708 -0.023405692785217851 0 -0.1023680430338617 -0.0063628978843887456 0 -0.1023680430338617 -0.0063628978843887456 0 -0.081071943426691204 -0.0087427124220753744 0 -0.087770015901660239 -0.026048951911327341 0 -0.081071943426691204 -0.0087427124220753744 0 -0.09881147793708922 0.002346915287544553 0 -0.081071943426691204 -0.0087427124220753744 0 -0.087770015901660239 -0.026048951911327341 0 -0.065673312719259025 -0.024216610033588781 0 -0.081071943426691204 -0.0087427124220753744 0 -0.065673312719259025 -0.024216610033588781 0 -0.059074438853090917 -0.0063262455694480932 0 -0.081071943426691204 -0.0087427124220753744 0 -0.059074438853090917 -0.0063262455694480932 0 -0.067863398352548732 0.010657354735749251 0 -0.081080564273551883 -0.065495767475799632 0 -0.097531010956753053 -0.048542684261020062 0 -0.073171988769458782 -0.045735005938265932 0 -0.097531010956753053 -0.048542684261020062 0 -0.087770015901660239 -0.026048951911327341 0 -0.073171988769458782 -0.045735005938265932 0 -0.087770015901660239 -0.026048951911327341 0 -0.073171988769458782 -0.045735005938265932 0 -0.065673312719259025 -0.024216610033588781 0 -0.073171988769458782 -0.045735005938265932 0 -0.054131554206376373 -0.041028100867971963 0 -0.087770015901660239 -0.026048951911327341 0 -0.065673312719259025 -0.024216610033588781 0 -0.073171988769458782 -0.045735005938265932 0 -0.073171988769458782 -0.045735005938265932 0 -0.058573961637257303 -0.065421059965204559 0 -0.081080564273551883 -0.065495767475799632 0 -0.073171988769458782 -0.045735005938265932 0 -0.058573961637257303 -0.065421059965204559 0 -0.073171988769458782 -0.045735005938265932 0 -0.054131554206376373 -0.041028100867971963 0 -0.058573961637257303 -0.065421059965204559 0 -0.054131554206376373 -0.041028100867971963 0 -0.029943867788298859 -0.049753023640995403 0 -0.058573961637257303 -0.065421059965204559 0 -0.054131554206376373 -0.041028100867971963 0 -0.043294640117607898 -0.020014804761805151 0 -0.029943867788298859 -0.049753023640995403 0 -0.065673312719259025 -0.024216610033588781 0 -0.059074438853090917 -0.0063262455694480932 0 -0.043294640117607898 -0.020014804761805151 0 -0.065673312719259025 -0.024216610033588781 0 -0.054131554206376373 -0.041028100867971963 0 -0.043294640117607898 -0.020014804761805151 0 -0.043294640117607898 -0.020014804761805151 0 -0.026836470112465469 -0.0099382006209004069 0 -0.037890332898761973 0.0083381448142095665 0 -0.059074438853090917 -0.0063262455694480932 0 -0.043294640117607898 -0.020014804761805151 0 -0.037890332898761973 0.0083381448142095665 0 -0.026836470112465469 -0.0099382006209004069 0 -0.0083105007237313025 -0.001840793044749302 0 -0.037890332898761973 0.0083381448142095665 0 -0.026836470112465469 -0.0099382006209004069 0 -0.01785040670976068 -0.026235349491256742 0 -0.0083105007237313025 -0.001840793044749302 0 -0.043294640117607898 -0.020014804761805151 0 -0.026836470112465469 -0.0099382006209004069 0 -0.01785040670976068 -0.026235349491256742 0 -0.01785040670976068 -0.026235349491256742 0 -0.0062540702358467254 -0.043593839414577888 0 0.0070688155495127634 -0.01806774124728449 0 -0.01785040670976068 -0.026235349491256742 0 -0.0083105007237313025 -0.001840793044749302 0 0.0070688155495127634 -0.01806774124728449 0 -0.01785040670976068 -0.026235349491256742 0 -0.029943867788298859 -0.049753023640995403 0 -0.0062540702358467254 -0.043593839414577888 0 -0.043294640117607898 -0.020014804761805151 0 -0.01785040670976068 -0.026235349491256742 0 -0.029943867788298859 -0.049753023640995403 0 -0.029943867788298859 -0.049753023640995403 0 -0.0062540702358467254 -0.043593839414577888 0 0.00050840658200911742 -0.071588872935494957 0 -0.031968780253846689 -0.080609850317450812 0 -0.01334899535835604 -0.098156587133310491 0 0.00050840658200911742 -0.071588872935494957 0 -0.029943867788298859 -0.049753023640995403 0 -0.031968780253846689 -0.080609850317450812 0 0.00050840658200911742 -0.071588872935494957 0 -0.01334899535835604 -0.098156587133310491 0 0.00050840658200911742 -0.071588872935494957 0 -0.01334899535835604 -0.098156587133310491 0 0.0070382975511950104 -0.092374413671730382 0 0.00050840658200911742 -0.071588872935494957 0 -0.029943867788298859 -0.049753023640995403 0 -0.031968780253846689 -0.080609850317450812 0 -0.058573961637257303 -0.065421059965204559 0 -0.031968780253846689 -0.080609850317450812 0 -0.058573961637257303 -0.065421059965204559 0 -0.054096550683735659 -0.099502095668934046 0 -0.08012213178653349 -0.1209056926157564 0 -0.054096550683735659 -0.099502095668934046 0 -0.051013144116322767 -0.1256696737424656 0 -0.031968780253846689 -0.080609850317450812 0 -0.054096550683735659 -0.099502095668934046 0 -0.034236937019460893 -0.1053052843619008 0 -0.034236937019460893 -0.1053052843619008 0 -0.027206397298721229 -0.12472430133112609 0 -0.051013144116322767 -0.1256696737424656 0 -0.054096550683735659 -0.099502095668934046 0 -0.034236937019460893 -0.1053052843619008 0 -0.051013144116322767 -0.1256696737424656 0 -0.027206397298721229 -0.12472430133112609 0 -0.01334899535835604 -0.098156587133310491 0 -0.0080899239004419213 -0.1230633723073452 0 -0.034236937019460893 -0.1053052843619008 0 -0.027206397298721229 -0.12472430133112609 0 -0.01334899535835604 -0.098156587133310491 0 -0.027206397298721229 -0.12472430133112609 0 -0.01334899535835604 -0.098156587133310491 0 -0.031968780253846689 -0.080609850317450812 0 -0.034236937019460893 -0.1053052843619008 0 -0.01334899535835604 -0.098156587133310491 0 -0.01334899535835604 -0.098156587133310491 0 -0.0080899239004419213 -0.1230633723073452 0 0.0077113208860084903 -0.1106855909522378 0 -0.0080899239004419213 -0.1230633723073452 0 -8.9064710683626341e-05 -0.13610607263457511 0 -0.01902281349009315 -0.14349546678767741 0 -0.027206397298721229 -0.12472430133112609 0 -0.0080899239004419213 -0.1230633723073452 0 -0.01902281349009315 -0.14349546678767741 0 -0.027206397298721229 -0.12472430133112609 0 -0.01902281349009315 -0.14349546678767741 0 -0.041063799239086367 -0.15129201552894159 0 -0.01902281349009315 -0.14349546678767741 0 -0.03255990943705666 -0.17108642734078139 0 -0.041063799239086367 -0.15129201552894159 0 -0.01902281349009315 -0.14349546678767741 0 -0.0092673078468807259 -0.16149984975947931 0 0.0019767011482468679 -0.15150133246779099 0 -8.9064710683626341e-05 -0.13610607263457511 0 -0.01902281349009315 -0.14349546678767741 0 0.0019767011482468679 -0.15150133246779099 0 -0.0092673078468807259 -0.16149984975947931 0 -0.01242196381539076 -0.1760747216969086 0 0.0020832655351234581 -0.1774751613748361 0 -0.01242196381539076 -0.1760747216969086 0 -0.0068146204434379708 -0.1906789143586739 0 0.0020832655351234581 -0.1774751613748361 0 -0.01242196381539076 -0.1760747216969086 0 -0.0068146204434379708 -0.1906789143586739 0 -0.018609096551411939 -0.1875031779501895 0 -0.03255990943705666 -0.17108642734078139 0 -0.032357891594396108 -0.18656642568679971 0 -0.018609096551411939 -0.1875031779501895 0 -0.01242196381539076 -0.1760747216969086 0 -0.03255990943705666 -0.17108642734078139 0 -0.018609096551411939 -0.1875031779501895 0 -0.01902281349009315 -0.14349546678767741 0 -0.0092673078468807259 -0.16149984975947931 0 -0.03255990943705666 -0.17108642734078139 0 -0.0092673078468807259 -0.16149984975947931 0 -0.01242196381539076 -0.1760747216969086 0 -0.03255990943705666 -0.17108642734078139 0 -0.03255990943705666 -0.17108642734078139 0 -0.054921201179451512 -0.1778597297267572 0 -0.041063799239086367 -0.15129201552894159 0 -0.03255990943705666 -0.17108642734078139 0 -0.054921201179451512 -0.1778597297267572 0 -0.046077558808865583 -0.18786164823955359 0 -0.03255990943705666 -0.17108642734078139 0 -0.032357891594396108 -0.18656642568679971 0 -0.046077558808865583 -0.18786164823955359 0 -0.054921201179451512 -0.1778597297267572 0 -0.041063799239086367 -0.15129201552894159 0 -0.070696628381581902 -0.15273367094475629 0 -0.054921201179451512 -0.1778597297267572 0 -0.041063799239086367 -0.15129201552894159 0 -0.051013144116322767 -0.1256696737424656 0 -0.041063799239086367 -0.15129201552894159 0 -0.070696628381581902 -0.15273367094475629 0 -0.027206397298721229 -0.12472430133112609 0 -0.051013144116322767 -0.1256696737424656 0 -0.041063799239086367 -0.15129201552894159 0 -0.027206397298721229 -0.12472430133112609 0 -0.041063799239086367 -0.15129201552894159 0 -0.021625914561241671 -0.25117936911130939 0 -0.023710928208714541 -0.2381417335353275 0 -0.035282818355929703 -0.24730517570494159 0 -0.023710928208714541 -0.2381417335353275 0 -0.034644447609111458 -0.23282517917288309 0 -0.035282818355929703 -0.24730517570494159 0 -0.023710928208714541 -0.2381417335353275 0 -0.016134655422528649 -0.2419239331251857 0 -0.01099683857166269 -0.23351200125053909 0 -0.021625914561241671 -0.25117936911130939 0 -0.023710928208714541 -0.2381417335353275 0 -0.016134655422528649 -0.2419239331251857 0 -0.021625914561241671 -0.25117936911130939 0 -0.016134655422528649 -0.2419239331251857 0 -0.008204940348495662 -0.24486262860356639 0 -0.01170177691843146 -0.25269818516498999 0 -0.021625914561241671 -0.25117936911130939 0 -0.008204940348495662 -0.24486262860356639 0 -0.008204940348495662 -0.24486262860356639 0 0.0034337031503280401 -0.25501455873174012 0 0.0042707322605524001 -0.2399886637588371 0 -0.008204940348495662 -0.24486262860356639 0 -0.01099683857166269 -0.23351200125053909 0 0.0042707322605524001 -0.2399886637588371 0 -0.016134655422528649 -0.2419239331251857 0 -0.008204940348495662 -0.24486262860356639 0 -0.01099683857166269 -0.23351200125053909 0 -0.01099683857166269 -0.23351200125053909 0 -0.01048555542437531 -0.22050476970884059 0 0.0054379178707140976 -0.22437727815153249 0 -0.01099683857166269 -0.23351200125053909 0 0.0042707322605524001 -0.2399886637588371 0 0.0054379178707140976 -0.22437727815153249 0 -0.01099683857166269 -0.23351200125053909 0 -0.01048555542437531 -0.22050476970884059 0 -0.021953912096829668 -0.22643722424713231 0 -0.01048555542437531 -0.22050476970884059 0 -0.021953912096829668 -0.22643722424713231 0 -0.021069449992953671 -0.21407173407725971 0 -0.023710928208714541 -0.2381417335353275 0 -0.01099683857166269 -0.23351200125053909 0 -0.021953912096829668 -0.22643722424713231 0 -0.023710928208714541 -0.2381417335353275 0 -0.021953912096829668 -0.22643722424713231 0 -0.034644447609111458 -0.23282517917288309 0 -0.021953912096829668 -0.22643722424713231 0 -0.021069449992953671 -0.21407173407725971 0 -0.033770614320438097 -0.21872628121239471 0 -0.021953912096829668 -0.22643722424713231 0 -0.033770614320438097 -0.21872628121239471 0 -0.034644447609111458 -0.23282517917288309 0 -0.021069449992953671 -0.21407173407725971 0 -0.032185001580250262 -0.19981444921667399 0 -0.033770614320438097 -0.21872628121239471 0 -0.021069449992953671 -0.21407173407725971 0 -0.016902855921229719 -0.20104703880586039 0 -0.032185001580250262 -0.19981444921667399 0 -0.01048555542437531 -0.22050476970884059 0 -0.0034982255341270128 -0.20899236195552789 0 0.0054379178707140976 -0.22437727815153249 0 -0.01048555542437531 -0.22050476970884059 0 -0.021069449992953671 -0.21407173407725971 0 -0.0034982255341270128 -0.20899236195552789 0 -0.021069449992953671 -0.21407173407725971 0 -0.0034982255341270128 -0.20899236195552789 0 -0.016902855921229719 -0.20104703880586039 0 -0.0034982255341270128 -0.20899236195552789 0 -0.0068146204434379708 -0.1906789143586739 0 0.0081104827930698481 -0.19388353839388359 0 -0.0034982255341270128 -0.20899236195552789 0 -0.0068146204434379708 -0.1906789143586739 0 -0.016902855921229719 -0.20104703880586039 0 -0.0068146204434379708 -0.1906789143586739 0 -0.018609096551411939 -0.1875031779501895 0 -0.016902855921229719 -0.20104703880586039 0 -0.018609096551411939 -0.1875031779501895 0 -0.016902855921229719 -0.20104703880586039 0 -0.032185001580250262 -0.19981444921667399 0 -0.032357891594396108 -0.18656642568679971 0 -0.018609096551411939 -0.1875031779501895 0 -0.032185001580250262 -0.19981444921667399 0 -0.032185001580250262 -0.19981444921667399 0 -0.046077558808865583 -0.18786164823955359 0 -0.048201287417660728 -0.20105801363689699 0 -0.032357891594396108 -0.18656642568679971 0 -0.032185001580250262 -0.19981444921667399 0 -0.046077558808865583 -0.18786164823955359 0 -0.054921201179451512 -0.1778597297267572 0 -0.068778603119816095 -0.20442744392457299 0 -0.054921201179451512 -0.1778597297267572 0 -0.046077558808865583 -0.18786164823955359 0 -0.068778603119816095 -0.20442744392457299 0 -0.046077558808865583 -0.18786164823955359 0 -0.068778603119816095 -0.20442744392457299 0 -0.046077558808865583 -0.18786164823955359 0 -0.048201287417660728 -0.20105801363689699 0 -0.068778603119816095 -0.20442744392457299 0 -0.045763986161711318 -0.2121285131667871 0 -0.062879593388979096 -0.21936413952558609 0 -0.068778603119816095 -0.20442744392457299 0 -0.048201287417660728 -0.20105801363689699 0 -0.045763986161711318 -0.2121285131667871 0 -0.068778603119816095 -0.20442744392457299 0 -0.032185001580250262 -0.19981444921667399 0 -0.045763986161711318 -0.2121285131667871 0 -0.033770614320438097 -0.21872628121239471 0 -0.032185001580250262 -0.19981444921667399 0 -0.048201287417660728 -0.20105801363689699 0 -0.045763986161711318 -0.2121285131667871 0 -0.033770614320438097 -0.21872628121239471 0 -0.034644447609111458 -0.23282517917288309 0 -0.047531515597810721 -0.225438876681094 0 -0.034644447609111458 -0.23282517917288309 0 -0.047531515597810721 -0.225438876681094 0 -0.049425551370052563 -0.23877907079712249 0 -0.045763986161711318 -0.2121285131667871 0 -0.033770614320438097 -0.21872628121239471 0 -0.047531515597810721 -0.225438876681094 0 -0.045763986161711318 -0.2121285131667871 0 -0.047531515597810721 -0.225438876681094 0 -0.062879593388979096 -0.21936413952558609 0 -0.047531515597810721 -0.225438876681094 0 -0.058704900736571843 -0.23081007621179039 0 -0.062879593388979096 -0.21936413952558609 0 -0.047531515597810721 -0.225438876681094 0 -0.058704900736571843 -0.23081007621179039 0 -0.049425551370052563 -0.23877907079712249 0 -0.055894988052151262 -0.25512398073311621 0 -0.049425551370052563 -0.23877907079712249 0 -0.065703022912409315 -0.23982430670839211 0 -0.058704900736571843 -0.23081007621179039 0 -0.049425551370052563 -0.23877907079712249 0 -0.065703022912409315 -0.23982430670839211 0 -0.055894988052151262 -0.25512398073311621 0 -0.049425551370052563 -0.23877907079712249 0 -0.035282818355929703 -0.24730517570494159 0 -0.034644447609111458 -0.23282517917288309 0 -0.049425551370052563 -0.23877907079712249 0 -0.035282818355929703 -0.24730517570494159 0 -0.083808392022642772 -0.24480791735152541 0 -0.099649637769973848 -0.23895340762044859 0 -0.085378836045643169 -0.26151062602968289 0 -0.083808392022642772 -0.24480791735152541 0 -0.099649637769973848 -0.23895340762044859 0 -0.088172046797567738 -0.24137381427884461 0 -0.083808392022642772 -0.24480791735152541 0 -0.099649637769973848 -0.23895340762044859 0 -0.088172046797567738 -0.24137381427884461 0 -0.083808392022642772 -0.24480791735152541 0 -0.077176793581045594 -0.23532344687569981 0 -0.088172046797567738 -0.24137381427884461 0 -0.083808392022642772 -0.24480791735152541 0 -0.083808392022642772 -0.24480791735152541 0 -0.065703022912409315 -0.23982430670839211 0 -0.077176793581045594 -0.23532344687569981 0 -0.055894988052151262 -0.25512398073311621 0 -0.083808392022642772 -0.24480791735152541 0 -0.065703022912409315 -0.23982430670839211 0 -0.055894988052151262 -0.25512398073311621 0 -0.083808392022642772 -0.24480791735152541 0 -0.065703022912409315 -0.23982430670839211 0 -0.077176793581045594 -0.23532344687569981 0 -0.068602012616078442 -0.22994468967445211 0 -0.077176793581045594 -0.23532344687569981 0 -0.068602012616078442 -0.22994468967445211 0 -0.07829346117142201 -0.2226695379646893 0 -0.058704900736571843 -0.23081007621179039 0 -0.065703022912409315 -0.23982430670839211 0 -0.068602012616078442 -0.22994468967445211 0 -0.058704900736571843 -0.23081007621179039 0 -0.068602012616078442 -0.22994468967445211 0 -0.062879593388979096 -0.21936413952558609 0 -0.068602012616078442 -0.22994468967445211 0 -0.062879593388979096 -0.21936413952558609 0 -0.07829346117142201 -0.2226695379646893 0 -0.088771067753388319 -0.22880700879238819 0 -0.08598967069668037 -0.21698699955972439 0 -0.10320073827354009 -0.2295465551948819 0 -0.088172046797567738 -0.24137381427884461 0 -0.07829346117142201 -0.2226695379646893 0 -0.088771067753388319 -0.22880700879238819 0 -0.088172046797567738 -0.24137381427884461 0 -0.077176793581045594 -0.23532344687569981 0 -0.07829346117142201 -0.2226695379646893 0 -0.088172046797567738 -0.24137381427884461 0 -0.07829346117142201 -0.2226695379646893 0 -0.07829346117142201 -0.2226695379646893 0 -0.088771067753388319 -0.22880700879238819 0 -0.08598967069668037 -0.21698699955972439 0 -0.088172046797567738 -0.24137381427884461 0 -0.088771067753388319 -0.22880700879238819 0 -0.10320073827354009 -0.2295465551948819 0 -0.09274464725829655 -0.20550988874417431 0 -0.08598967069668037 -0.21698699955972439 0 -0.084423973303920485 -0.20115882677451041 0 -0.09274464725829655 -0.20550988874417431 0 -0.08598967069668037 -0.21698699955972439 0 -0.10212554830416121 -0.21067013029503359 0 -0.08598967069668037 -0.21698699955972439 0 -0.068778603119816095 -0.20442744392457299 0 -0.084423973303920485 -0.20115882677451041 0 -0.062879593388979096 -0.21936413952558609 0 -0.07829346117142201 -0.2226695379646893 0 -0.068778603119816095 -0.20442744392457299 0 -0.07829346117142201 -0.2226695379646893 0 -0.068778603119816095 -0.20442744392457299 0 -0.08598967069668037 -0.21698699955972439 0 -0.068778603119816095 -0.20442744392457299 0 -0.07829346117142201 -0.2226695379646893 0 -0.08598967069668037 -0.21698699955972439 0 -0.068778603119816095 -0.20442744392457299 0 -0.054921201179451512 -0.1778597297267572 0 -0.068778603119816095 -0.20442744392457299 0 -0.076898656644231261 -0.18174604380110121 0 -0.068778603119816095 -0.20442744392457299 0 -0.084423973303920485 -0.20115882677451041 0 -0.076898656644231261 -0.18174604380110121 0 -0.084423973303920485 -0.20115882677451041 0 -0.098439396728424083 -0.19322359834742889 0 -0.076898656644231261 -0.18174604380110121 0 -0.09274464725829655 -0.20550988874417431 0 -0.084423973303920485 -0.20115882677451041 0 -0.098439396728424083 -0.19322359834742889 0 -0.098439396728424083 -0.19322359834742889 0 -0.1108023508207583 -0.197465867588899 0 -0.10212554830416121 -0.21067013029503359 0 -0.098439396728424083 -0.19322359834742889 0 -0.1108023508207583 -0.197465867588899 0 -0.1149845099989405 -0.18360818596048009 0 -0.12081351974811839 -0.19175935046544221 0 -0.1108023508207583 -0.197465867588899 0 -0.1149845099989405 -0.18360818596048009 0 -0.12081351974811839 -0.19175935046544221 0 -0.1108023508207583 -0.197465867588899 0 -0.1218159905690757 -0.20391604454273771 0 -0.1106811608071111 -0.20945920693562281 0 -0.1218159905690757 -0.20391604454273771 0 -0.10798075353445059 -0.22578478531582249 0 -0.10798075353445059 -0.22578478531582249 0 -0.1271833989848436 -0.21067271363597251 0 -0.1218159905690757 -0.20391604454273771 0 -0.10798075353445059 -0.22578478531582249 0 -0.1271833989848436 -0.21067271363597251 0 -0.1218159905690757 -0.20391604454273771 0 -0.10798075353445059 -0.22578478531582249 0 -0.1108023508207583 -0.197465867588899 0 -0.1106811608071111 -0.20945920693562281 0 -0.1218159905690757 -0.20391604454273771 0 -0.1106811608071111 -0.20945920693562281 0 -0.10212554830416121 -0.21067013029503359 0 -0.10798075353445059 -0.22578478531582249 0 -0.09274464725829655 -0.20550988874417431 0 -0.098439396728424083 -0.19322359834742889 0 -0.10212554830416121 -0.21067013029503359 0 -0.1108023508207583 -0.197465867588899 0 -0.1106811608071111 -0.20945920693562281 0 -0.10212554830416121 -0.21067013029503359 0 -0.08598967069668037 -0.21698699955972439 0 -0.10320073827354009 -0.2295465551948819 0 -0.10212554830416121 -0.21067013029503359 0 -0.10320073827354009 -0.2295465551948819 0 -0.10798075353445059 -0.22578478531582249 0 -0.08598967069668037 -0.21698699955972439 0 -0.10212554830416121 -0.21067013029503359 0 -0.10320073827354009 -0.2295465551948819 0 -0.10320073827354009 -0.2295465551948819 0 -0.1048427911469389 -0.23074482220109971 0 -0.099649637769973848 -0.23895340762044859 0 -0.10320073827354009 -0.2295465551948819 0 -0.1048427911469389 -0.23074482220109971 0 -0.10798075353445059 -0.22578478531582249 0 -0.10320073827354009 -0.2295465551948819 0 -0.1048427911469389 -0.23074482220109971 0 -0.1048427911469389 -0.23074482220109971 0 -0.10798075353445059 -0.22578478531582249 0 -0.10320073827354009 -0.2295465551948819 0 -0.10798075353445059 -0.22578478531582249 0 -0.10798075353445059 -0.22578478531582249 0 -0.1224443661505336 -0.22360190734240901 0 -0.1179384420542513 -0.24030120534899879 0 -0.10798075353445059 -0.22578478531582249 0 -0.1224443661505336 -0.22360190734240901 0 -0.1271833989848436 -0.21067271363597251 0 -0.1048427911469389 -0.23074482220109971 0 -0.10798075353445059 -0.22578478531582249 0 -0.1179384420542513 -0.24030120534899879 0 -0.1048427911469389 -0.23074482220109971 0 -0.1179384420542513 -0.24030120534899879 0 -0.107420943156825 -0.23608133658915401 0 -0.1179384420542513 -0.24030120534899879 0 -0.10885777792561049 -0.24771691873677501 0 -0.107420943156825 -0.23608133658915401 0 -0.1224443661505336 -0.22360190734240901 0 -0.1179384420542513 -0.24030120534899879 0 -0.13103409296156521 -0.24985758849689599 0 -0.1048427911469389 -0.23074482220109971 0 -0.1179384420542513 -0.24030120534899879 0 -0.11927957019769909 -0.25121100768721882 0 -0.1179384420542513 -0.24030120534899879 0 -0.13103409296156521 -0.24985758849689599 0 -0.1179384420542513 -0.24030120534899879 0 -0.13103409296156521 -0.24985758849689599 0 -0.11927957019769909 -0.25121100768721882 0 -0.1179384420542513 -0.24030120534899879 0 -0.10885777792561049 -0.24771691873677501 0 -0.10170503774124059 -0.25700613689126628 0 -0.10885777792561049 -0.24771691873677501 0 -0.099649637769973848 -0.23895340762044859 0 -0.1048427911469389 -0.23074482220109971 0 -0.099649637769973848 -0.23895340762044859 0 -0.1048427911469389 -0.23074482220109971 0 -0.107420943156825 -0.23608133658915401 0 -0.099649637769973848 -0.23895340762044859 0 -0.10885777792561049 -0.24771691873677501 0 -0.107420943156825 -0.23608133658915401 0 -0.099649637769973848 -0.23895340762044859 0 -0.107420943156825 -0.23608133658915401 0 -0.099649637769973848 -0.23895340762044859 0 -0.088172046797567738 -0.24137381427884461 0 -0.10320073827354009 -0.2295465551948819 0 -0.088172046797567738 -0.24137381427884461 0 -0.10320073827354009 -0.2295465551948819 0 -0.099649637769973848 -0.23895340762044859 0 -0.08012213178653349 -0.1209056926157564 0 -0.051013144116322767 -0.1256696737424656 0 -0.070696628381581902 -0.15273367094475629 0 -0.08012213178653349 -0.1209056926157564 0 -0.070696628381581902 -0.15273367094475629 0 -0.097056367865436102 -0.14272858119033269 0 -0.070696628381581902 -0.15273367094475629 0 -0.1009417380310277 -0.16635928861911839 0 -0.097056367865436102 -0.14272858119033269 0 -0.054921201179451512 -0.1778597297267572 0 -0.070696628381581902 -0.15273367094475629 0 -0.076898656644231261 -0.18174604380110121 0 -0.076898656644231261 -0.18174604380110121 0 -0.1009417380310277 -0.16635928861911839 0 -0.098439396728424083 -0.19322359834742889 0 -0.076898656644231261 -0.18174604380110121 0 -0.1009417380310277 -0.16635928861911839 0 -0.070696628381581902 -0.15273367094475629 0 -0.076898656644231261 -0.18174604380110121 0 -0.1009417380310277 -0.16635928861911839 0 -0.098439396728424083 -0.19322359834742889 0 -0.1009417380310277 -0.16635928861911839 0 -0.1149845099989405 -0.18360818596048009 0 -0.1149845099989405 -0.18360818596048009 0 -0.123722859081195 -0.16902418074897049 0 -0.13565122760369899 -0.18204730376965189 0 -0.1009417380310277 -0.16635928861911839 0 -0.1149845099989405 -0.18360818596048009 0 -0.123722859081195 -0.16902418074897049 0 -0.12081351974811839 -0.19175935046544221 0 -0.1149845099989405 -0.18360818596048009 0 -0.13565122760369899 -0.18204730376965189 0 -0.1009417380310277 -0.16635928861911839 0 -0.123722859081195 -0.16902418074897049 0 -0.12498481941782411 -0.1509725334371356 0 -0.1009417380310277 -0.16635928861911839 0 -0.12498481941782411 -0.1509725334371356 0 -0.1009417380310277 -0.16635928861911839 0 -0.12498481941782411 -0.1509725334371356 0 -0.097056367865436102 -0.14272858119033269 0 -0.08012213178653349 -0.1209056926157564 0 -0.11028816210098499 -0.1239772438972393 0 -0.097056367865436102 -0.14272858119033269 0 -0.11028816210098499 -0.1239772438972393 0 -0.12498481941782411 -0.1509725334371356 0 -0.097056367865436102 -0.14272858119033269 0 -0.11028816210098499 -0.1239772438972393 0 -0.12498481941782411 -0.1509725334371356 0 -0.13049297557449319 -0.12722514746524721 0 -0.12498481941782411 -0.1509725334371356 0 -0.13049297557449319 -0.12722514746524721 0 -0.14902790080462039 -0.13558577825515281 0 -0.14902790080462039 -0.13558577825515281 0 -0.14205200035448359 -0.16213359195846669 0 -0.16425829390426261 -0.1547961480128878 0 -0.12498481941782411 -0.1509725334371356 0 -0.14902790080462039 -0.13558577825515281 0 -0.14205200035448359 -0.16213359195846669 0 -0.12498481941782411 -0.1509725334371356 0 -0.14902790080462039 -0.13558577825515281 0 -0.123722859081195 -0.16902418074897049 0 -0.13565122760369899 -0.18204730376965189 0 -0.14205200035448359 -0.16213359195846669 0 -0.123722859081195 -0.16902418074897049 0 -0.12498481941782411 -0.1509725334371356 0 -0.14205200035448359 -0.16213359195846669 0 -0.13565122760369899 -0.18204730376965189 0 -0.15078725123666301 -0.17499725119468121 0 -0.14638604443523781 -0.19556064195612399 0 -0.13565122760369899 -0.18204730376965189 0 -0.15078725123666301 -0.17499725119468121 0 -0.14205200035448359 -0.16213359195846669 0 -0.15078725123666301 -0.17499725119468121 0 -0.16558868988563241 -0.18044857027627631 0 -0.14638604443523781 -0.19556064195612399 0 -0.15078725123666301 -0.17499725119468121 0 -0.14205200035448359 -0.16213359195846669 0 -0.16425829390426261 -0.1547961480128878 0 -0.15078725123666301 -0.17499725119468121 0 -0.16558868988563241 -0.18044857027627631 0 -0.16425829390426261 -0.1547961480128878 0 -0.16558868988563241 -0.18044857027627631 0 -0.16425829390426261 -0.1547961480128878 0 -0.16558868988563241 -0.18044857027627631 0 -0.18640390117756339 -0.16406744373371351 0 -0.18546208285269669 -0.1885323433531392 0 -0.16558868988563241 -0.18044857027627631 0 -0.18640390117756339 -0.16406744373371351 0 -0.16558868988563241 -0.18044857027627631 0 -0.18640390117756339 -0.16406744373371351 0 -0.16425829390426261 -0.1547961480128878 0 -0.18640390117756339 -0.16406744373371351 0 -0.18161468023616009 -0.14113764633774389 0 -0.16425829390426261 -0.1547961480128878 0 -0.18161468023616009 -0.14113764633774389 0 -0.16699296428411489 -0.13792964891973861 0 -0.1730709821914167 -0.1201990230731701 0 -0.18161468023616009 -0.14113764633774389 0 -0.19403502953290519 -0.12737050587666801 0 -0.1730709821914167 -0.1201990230731701 0 -0.14902790080462039 -0.13558577825515281 0 -0.1730709821914167 -0.1201990230731701 0 -0.14902790080462039 -0.13558577825515281 0 -0.16699296428411489 -0.13792964891973861 0 -0.1730709821914167 -0.1201990230731701 0 -0.14902790080462039 -0.13558577825515281 0 -0.1597145410076129 -0.12527077741392589 0 -0.1730709821914167 -0.1201990230731701 0 -0.14902790080462039 -0.13558577825515281 0 -0.16699296428411489 -0.13792964891973861 0 -0.16425829390426261 -0.1547961480128878 0 -0.18161468023616009 -0.14113764633774389 0 -0.16699296428411489 -0.13792964891973861 0 -0.16425829390426261 -0.1547961480128878 0 -0.15440673418971329 -0.2517618124517611 0 -0.15202244673911541 -0.24332675178538571 0 -0.14442752643463519 -0.24906791804697001 0 -0.15202244673911541 -0.24332675178538571 0 -0.13969267750501599 -0.23448806694924951 0 -0.14843306524699801 -0.23248172604143019 0 -0.15202244673911541 -0.24332675178538571 0 -0.14442752643463519 -0.24906791804697001 0 -0.13969267750501599 -0.23448806694924951 0 -0.14442752643463519 -0.24906791804697001 0 -0.13103409296156521 -0.24985758849689599 0 -0.13969267750501599 -0.23448806694924951 0 -0.1224443661505336 -0.22360190734240901 0 -0.13103409296156521 -0.24985758849689599 0 -0.13969267750501599 -0.23448806694924951 0 -0.1224443661505336 -0.22360190734240901 0 -0.13103409296156521 -0.24985758849689599 0 -0.1224443661505336 -0.22360190734240901 0 -0.13969267750501599 -0.23448806694924951 0 -0.13629818716285161 -0.21999088892071411 0 -0.13969267750501599 -0.23448806694924951 0 -0.13629818716285161 -0.21999088892071411 0 -0.14534368150389901 -0.22504160528698269 0 -0.15202244673911541 -0.24332675178538571 0 -0.14843306524699801 -0.23248172604143019 0 -0.15667345523996151 -0.2270704801441028 0 -0.14534368150389901 -0.22504160528698269 0 -0.14444543371687771 -0.20981591335538549 0 -0.15667345523996151 -0.2270704801441028 0 -0.13969267750501599 -0.23448806694924951 0 -0.14534368150389901 -0.22504160528698269 0 -0.14843306524699801 -0.23248172604143019 0 -0.14534368150389901 -0.22504160528698269 0 -0.14843306524699801 -0.23248172604143019 0 -0.15667345523996151 -0.2270704801441028 0 -0.14444543371687771 -0.20981591335538549 0 -0.15793852466477221 -0.2132137666258721 0 -0.15667345523996151 -0.2270704801441028 0 -0.14444543371687771 -0.20981591335538549 0 -0.14638604443523781 -0.19556064195612399 0 -0.15793852466477221 -0.2132137666258721 0 -0.14444543371687771 -0.20981591335538549 0 -0.15667345523996151 -0.2270704801441028 0 -0.13629818716285161 -0.21999088892071411 0 -0.14534368150389901 -0.22504160528698269 0 -0.14444543371687771 -0.20981591335538549 0 -0.1271833989848436 -0.21067271363597251 0 -0.14638604443523781 -0.19556064195612399 0 -0.1218159905690757 -0.20391604454273771 0 -0.1271833989848436 -0.21067271363597251 0 -0.14638604443523781 -0.19556064195612399 0 -0.13629818716285161 -0.21999088892071411 0 -0.14444543371687771 -0.20981591335538549 0 -0.1271833989848436 -0.21067271363597251 0 -0.14444543371687771 -0.20981591335538549 0 -0.1271833989848436 -0.21067271363597251 0 -0.14638604443523781 -0.19556064195612399 0 -0.1224443661505336 -0.22360190734240901 0 -0.13629818716285161 -0.21999088892071411 0 -0.1271833989848436 -0.21067271363597251 0 -0.1218159905690757 -0.20391604454273771 0 -0.13565122760369899 -0.18204730376965189 0 -0.14638604443523781 -0.19556064195612399 0 -0.12081351974811839 -0.19175935046544221 0 -0.1218159905690757 -0.20391604454273771 0 -0.13565122760369899 -0.18204730376965189 0 -0.1218159905690757 -0.20391604454273771 0 -0.13565122760369899 -0.18204730376965189 0 -0.16558868988563241 -0.18044857027627631 0 -0.14638604443523781 -0.19556064195612399 0 -0.16558868988563241 -0.18044857027627631 0 -0.14638604443523781 -0.19556064195612399 0 -0.16669295217810531 -0.20174072916179059 0 -0.16558868988563241 -0.18044857027627631 0 -0.16669295217810531 -0.20174072916179059 0 -0.16669295217810531 -0.20174072916179059 0 -0.18546208285269669 -0.1885323433531392 0 -0.187060059704482 -0.2059805378524299 0 -0.16558868988563241 -0.18044857027627631 0 -0.16669295217810531 -0.20174072916179059 0 -0.18546208285269669 -0.1885323433531392 0 -0.187060059704482 -0.2059805378524299 0 -0.16779721447057649 -0.22303288804730489 0 -0.186892155903607 -0.22426422962041709 0 -0.16669295217810531 -0.20174072916179059 0 -0.187060059704482 -0.2059805378524299 0 -0.16779721447057649 -0.22303288804730489 0 -0.16669295217810531 -0.20174072916179059 0 -0.16779721447057649 -0.22303288804730489 0 -0.14638604443523781 -0.19556064195612399 0 -0.16669295217810531 -0.20174072916179059 0 -0.15793852466477221 -0.2132137666258721 0 -0.16669295217810531 -0.20174072916179059 0 -0.15793852466477221 -0.2132137666258721 0 -0.16779721447057649 -0.22303288804730489 0 -0.16779721447057649 -0.22303288804730489 0 -0.16890147676304629 -0.2443250469328194 0 -0.15667345523996151 -0.2270704801441028 0 -0.16779721447057649 -0.22303288804730489 0 -0.16890147676304629 -0.2443250469328194 0 -0.16779721447057649 -0.22303288804730489 0 -0.17750075937278839 -0.23309025387470331 0 -0.16890147676304629 -0.2443250469328194 0 -0.15793852466477221 -0.2132137666258721 0 -0.15667345523996151 -0.2270704801441028 0 -0.16779721447057649 -0.22303288804730489 0 -0.16779721447057649 -0.22303288804730489 0 -0.186892155903607 -0.22426422962041709 0 -0.17750075937278839 -0.23309025387470331 0 -0.186892155903607 -0.22426422962041709 0 -0.17750075937278839 -0.23309025387470331 0 -0.18791843881270229 -0.2404781741989081 0 -0.17798757126532419 -0.25714614183702922 0 -0.16890147676304629 -0.2443250469328194 0 -0.18791843881270229 -0.2404781741989081 0 -0.17750075937278839 -0.23309025387470331 0 -0.16890147676304629 -0.2443250469328194 0 -0.18791843881270229 -0.2404781741989081 0 -0.15202244673911541 -0.24332675178538571 0 -0.15667345523996151 -0.2270704801441028 0 -0.16890147676304629 -0.2443250469328194 0 -0.15440673418971329 -0.2517618124517611 0 -0.15202244673911541 -0.24332675178538571 0 -0.16890147676304629 -0.2443250469328194 0 -0.15667345523996151 -0.2270704801441028 0 -0.16890147676304629 -0.2443250469328194 0 -0.20541044462657931 -0.25542346106751462 0 -0.21243677147882231 -0.23989197410095961 0 -0.22374722348555789 -0.24087968539379359 0 -0.20541044462657931 -0.25542346106751462 0 -0.22374722348555789 -0.24087968539379359 0 -0.20541044462657931 -0.25542346106751462 0 -0.21243677147882231 -0.23989197410095961 0 -0.2030511180563255 -0.2324835911488827 0 -0.21243677147882231 -0.23989197410095961 0 -0.2030511180563255 -0.2324835911488827 0 -0.21753829974682651 -0.23078115879364741 0 -0.21243677147882231 -0.23989197410095961 0 -0.21753829974682651 -0.23078115879364741 0 -0.22374722348555789 -0.24087968539379359 0 -0.20541044462657931 -0.25542346106751462 0 -0.18791843881270229 -0.2404781741989081 0 -0.2030511180563255 -0.2324835911488827 0 -0.186892155903607 -0.22426422962041709 0 -0.2030511180563255 -0.2324835911488827 0 -0.2009672547161262 -0.2150787828089325 0 -0.186892155903607 -0.22426422962041709 0 -0.18791843881270229 -0.2404781741989081 0 -0.2030511180563255 -0.2324835911488827 0 -0.2030511180563255 -0.2324835911488827 0 -0.21050571782155131 -0.22245123483065449 0 -0.2009672547161262 -0.2150787828089325 0 -0.2030511180563255 -0.2324835911488827 0 -0.21050571782155131 -0.22245123483065449 0 -0.21753829974682651 -0.23078115879364741 0 -0.21050571782155131 -0.22245123483065449 0 -0.21753829974682651 -0.23078115879364741 0 -0.22050277224885151 -0.21931417147833421 0 -0.2128461675285846 -0.2084579105586985 0 -0.2009672547161262 -0.2150787828089325 0 -0.20117101478677721 -0.198339298956383 0 -0.21050571782155131 -0.22245123483065449 0 -0.2128461675285846 -0.2084579105586985 0 -0.22050277224885151 -0.21931417147833421 0 -0.21050571782155131 -0.22245123483065449 0 -0.2128461675285846 -0.2084579105586985 0 -0.2009672547161262 -0.2150787828089325 0 -0.187060059704482 -0.2059805378524299 0 -0.2009672547161262 -0.2150787828089325 0 -0.20117101478677721 -0.198339298956383 0 -0.187060059704482 -0.2059805378524299 0 -0.186892155903607 -0.22426422962041709 0 -0.2009672547161262 -0.2150787828089325 0 -0.18546208285269669 -0.1885323433531392 0 -0.187060059704482 -0.2059805378524299 0 -0.20117101478677721 -0.198339298956383 0 -0.18546208285269669 -0.1885323433531392 0 -0.20117101478677721 -0.198339298956383 0 -0.20116156560342699 -0.18217346970861781 0 -0.20117101478677721 -0.198339298956383 0 -0.21682017332412501 -0.1907134312151163 0 -0.20116156560342699 -0.18217346970861781 0 -0.2128461675285846 -0.2084579105586985 0 -0.21682017332412501 -0.1907134312151163 0 -0.2252918452298226 -0.2050736616039032 0 -0.2128461675285846 -0.2084579105586985 0 -0.20117101478677721 -0.198339298956383 0 -0.21682017332412501 -0.1907134312151163 0 -0.23055255219422921 -0.1881374002471253 0 -0.23873198509700411 -0.21178856903821969 0 -0.2252918452298226 -0.2050736616039032 0 -0.21682017332412501 -0.1907134312151163 0 -0.23055255219422921 -0.1881374002471253 0 -0.2252918452298226 -0.2050736616039032 0 -0.2496875283280427 -0.2060649062827731 0 -0.23873198509700411 -0.21178856903821969 0 -0.25040094365246929 -0.18566452696556651 0 -0.23055255219422921 -0.1881374002471253 0 -0.23873198509700411 -0.21178856903821969 0 -0.25040094365246929 -0.18566452696556651 0 -0.23873198509700411 -0.21178856903821969 0 -0.25040094365246929 -0.18566452696556651 0 -0.2496875283280427 -0.2060649062827731 0 -0.24508389947968889 -0.21798481106461701 0 -0.23873198509700411 -0.21178856903821969 0 -0.24508389947968889 -0.21798481106461701 0 -0.23873198509700411 -0.21178856903821969 0 -0.23949880325959971 -0.22488023938974669 0 -0.23873198509700411 -0.21178856903821969 0 -0.22790043276378619 -0.21555269078596401 0 -0.2270751284794667 -0.22603436102339911 0 -0.23873198509700411 -0.21178856903821969 0 -0.22790043276378619 -0.21555269078596401 0 -0.2252918452298226 -0.2050736616039032 0 -0.22790043276378619 -0.21555269078596401 0 -0.2252918452298226 -0.2050736616039032 0 -0.22050277224885151 -0.21931417147833421 0 -0.2128461675285846 -0.2084579105586985 0 -0.2252918452298226 -0.2050736616039032 0 -0.22050277224885151 -0.21931417147833421 0 -0.23873198509700411 -0.21178856903821969 0 -0.2270751284794667 -0.22603436102339911 0 -0.2272271750960401 -0.23811956945590221 0 -0.23873198509700411 -0.21178856903821969 0 -0.2272271750960401 -0.23811956945590221 0 -0.22790043276378619 -0.21555269078596401 0 -0.22050277224885151 -0.21931417147833421 0 -0.2270751284794667 -0.22603436102339911 0 -0.21753829974682651 -0.23078115879364741 0 -0.22050277224885151 -0.21931417147833421 0 -0.2270751284794667 -0.22603436102339911 0 -0.2239238278273285 -0.23230286805795561 0 -0.2270751284794667 -0.22603436102339911 0 -0.2272271750960401 -0.23811956945590221 0 -0.21753829974682651 -0.23078115879364741 0 -0.2239238278273285 -0.23230286805795561 0 -0.2270751284794667 -0.22603436102339911 0 -0.23873198509700411 -0.21178856903821969 0 -0.23949880325959971 -0.22488023938974669 0 -0.2272271750960401 -0.23811956945590221 0 -0.24508389947968889 -0.21798481106461701 0 -0.23949880325959971 -0.22488023938974669 0 -0.24208400234453659 -0.2263359097200727 0 -0.23949880325959971 -0.22488023938974669 0 -0.24208400234453659 -0.2263359097200727 0 -0.24508389947968889 -0.21798481106461701 0 -0.24208400234453659 -0.2263359097200727 0 -0.25574268991950477 -0.21405092432772141 0 -0.24208400234453659 -0.2263359097200727 0 -0.25745340696169311 -0.21414570037580211 0 -0.23949880325959971 -0.22488023938974669 0 -0.24208400234453659 -0.2263359097200727 0 -0.2272271750960401 -0.23811956945590221 0 -0.24208400234453659 -0.2263359097200727 0 -0.2272271750960401 -0.23811956945590221 0 -0.24208400234453659 -0.2263359097200727 0 -0.2394845154813586 -0.2461751143873411 0 -0.2272271750960401 -0.23811956945590221 0 -0.24208400234453659 -0.2263359097200727 0 -0.2394845154813586 -0.2461751143873411 0 -0.26367345027242062 -0.23849246624210821 0 -0.2394845154813586 -0.2461751143873411 0 -0.2272271750960401 -0.23811956945590221 0 -0.22374722348555789 -0.24087968539379359 0 -0.21968326478218639 -0.26214761579319279 0 -0.2394845154813586 -0.2461751143873411 0 -0.22374722348555789 -0.24087968539379359 0 -0.21753829974682651 -0.23078115879364741 0 -0.2239238278273285 -0.23230286805795561 0 -0.22374722348555789 -0.24087968539379359 0 -0.2239238278273285 -0.23230286805795561 0 -0.2272271750960401 -0.23811956945590221 0 -0.22374722348555789 -0.24087968539379359 0 -0.2272271750960401 -0.23811956945590221 0 -0.22374722348555789 -0.24087968539379359 0 -0.20721911246949479 -0.14768631719115149 0 -0.22803432376142591 -0.13130519064858889 0 -0.21115630918924111 -0.1230172748900871 0 -0.20721911246949479 -0.14768631719115149 0 -0.19403502953290519 -0.12737050587666801 0 -0.21115630918924111 -0.1230172748900871 0 -0.20721911246949479 -0.14768631719115149 0 -0.22803432376142591 -0.13130519064858889 0 -0.18161468023616009 -0.14113764633774389 0 -0.20721911246949479 -0.14768631719115149 0 -0.19403502953290519 -0.12737050587666801 0 -0.18640390117756339 -0.16406744373371351 0 -0.20721911246949479 -0.14768631719115149 0 -0.18640390117756339 -0.16406744373371351 0 -0.18161468023616009 -0.14113764633774389 0 -0.20721911246949479 -0.14768631719115149 0 -0.18640390117756339 -0.16406744373371351 0 -0.20721911246949479 -0.14768631719115149 0 -0.21595065587597251 -0.1692148312847368 0 -0.18640390117756339 -0.16406744373371351 0 -0.20116156560342699 -0.18217346970861781 0 -0.21595065587597251 -0.1692148312847368 0 -0.18640390117756339 -0.16406744373371351 0 -0.18546208285269669 -0.1885323433531392 0 -0.20116156560342699 -0.18217346970861781 0 -0.21682017332412501 -0.1907134312151163 0 -0.20116156560342699 -0.18217346970861781 0 -0.21595065587597251 -0.1692148312847368 0 -0.20721911246949479 -0.14768631719115149 0 -0.21595065587597251 -0.1692148312847368 0 -0.22609284849466529 -0.1543828208528891 0 -0.21595065587597251 -0.1692148312847368 0 -0.23611970998598231 -0.1663693813752094 0 -0.22609284849466529 -0.1543828208528891 0 -0.23055255219422921 -0.1881374002471253 0 -0.21595065587597251 -0.1692148312847368 0 -0.23611970998598231 -0.1663693813752094 0 -0.21682017332412501 -0.1907134312151163 0 -0.23055255219422921 -0.1881374002471253 0 -0.21595065587597251 -0.1692148312847368 0 -0.23055255219422921 -0.1881374002471253 0 -0.23611970998598231 -0.1663693813752094 0 -0.25040094365246929 -0.18566452696556651 0 -0.23611970998598231 -0.1663693813752094 0 -0.2413156107081324 -0.1492328336553464 0 -0.22609284849466529 -0.1543828208528891 0 -0.23611970998598231 -0.1663693813752094 0 -0.24908195067715769 -0.1622072390654917 0 -0.25040094365246929 -0.18566452696556651 0 -0.23611970998598231 -0.1663693813752094 0 -0.24908195067715769 -0.1622072390654917 0 -0.2413156107081324 -0.1492328336553464 0 -0.24908195067715769 -0.1622072390654917 0 -0.2413156107081324 -0.1492328336553464 0 -0.25515468045755269 -0.15050057120607691 0 -0.2413156107081324 -0.1492328336553464 0 -0.25515468045755269 -0.15050057120607691 0 -0.25322522312095491 -0.13844117171989689 0 -0.20721911246949479 -0.14768631719115149 0 -0.22609284849466529 -0.1543828208528891 0 -0.22985915343374469 -0.13941074075800139 0 -0.2413156107081324 -0.1492328336553464 0 -0.22609284849466529 -0.1543828208528891 0 -0.22985915343374469 -0.13941074075800139 0 -0.20721911246949479 -0.14768631719115149 0 -0.22985915343374469 -0.13941074075800139 0 -0.22803432376142591 -0.13130519064858889 0 -0.22985915343374469 -0.13941074075800139 0 -0.22803432376142591 -0.13130519064858889 0 -0.22985915343374469 -0.13941074075800139 0 -0.22803432376142591 -0.13130519064858889 0 -0.24105851337413209 -0.13263120123964561 0 -0.2413156107081324 -0.1492328336553464 0 -0.22985915343374469 -0.13941074075800139 0 -0.24105851337413209 -0.13263120123964561 0 -0.2413156107081324 -0.1492328336553464 0 -0.24105851337413209 -0.13263120123964561 0 -0.25322522312095491 -0.13844117171989689 0 -0.22803432376142591 -0.13130519064858889 0 -0.24105851337413209 -0.13263120123964561 0 -0.24479988253022569 -0.11811105411561459 0 -0.24105851337413209 -0.13263120123964561 0 -0.24479988253022569 -0.11811105411561459 0 -0.25231952184791723 -0.12683335823062611 0 -0.24105851337413209 -0.13263120123964561 0 -0.25231952184791723 -0.12683335823062611 0 -0.25322522312095491 -0.13844117171989689 0 -0.22803432376142591 -0.13130519064858889 0 -0.24479988253022569 -0.11811105411561459 0 -0.24479988253022569 -0.11811105411561459 0 -0.24282962163959201 -0.092017886001201768 0 -0.26156544129902509 -0.1049169175826398 0 -0.24479988253022569 -0.11811105411561459 0 -0.22285418164444989 -0.1082959738762299 0 -0.24282962163959201 -0.092017886001201768 0 -0.22285418164444989 -0.1082959738762299 0 -0.24282962163959201 -0.092017886001201768 0 -0.21767403952747419 -0.085286757103870792 0 -0.22285418164444989 -0.1082959738762299 0 -0.21767403952747419 -0.085286757103870792 0 -0.22803432376142591 -0.13130519064858889 0 -0.22285418164444989 -0.1082959738762299 0 -0.22803432376142591 -0.13130519064858889 0 -0.24479988253022569 -0.11811105411561459 0 -0.22285418164444989 -0.1082959738762299 0 -0.22803432376142591 -0.13130519064858889 0 -0.22285418164444989 -0.1082959738762299 0 -0.21115630918924111 -0.1230172748900871 0 -0.2310599657762086 -0.059316754883187758 0 -0.25565807610896252 -0.06831244978886053 0 -0.23285199238553619 -0.076675242211641695 0 -0.2310599657762086 -0.059316754883187758 0 -0.25565807610896252 -0.06831244978886053 0 -0.24282962163959201 -0.092017886001201768 0 -0.23285199238553619 -0.076675242211641695 0 -0.25565807610896252 -0.06831244978886053 0 -0.24282962163959201 -0.092017886001201768 0 -0.23285199238553619 -0.076675242211641695 0 -0.21767403952747419 -0.085286757103870792 0 -0.23285199238553619 -0.076675242211641695 0 -0.21767403952747419 -0.085286757103870792 0 -0.21249389741049859 -0.062277540331511672 0 -0.23285199238553619 -0.076675242211641695 0 -0.21249389741049859 -0.062277540331511672 0 -0.2310599657762086 -0.059316754883187758 0 -0.21767403952747419 -0.085286757103870792 0 -0.21249389741049859 -0.062277540331511672 0 -0.20528392205361151 -0.074049519805616706 0 -0.21767403952747419 -0.085286757103870792 0 -0.21249389741049859 -0.062277540331511672 0 -0.20528392205361151 -0.074049519805616706 0 -0.1937078157412592 -0.064255292642492925 0 -0.21249389741049859 -0.062277540331511672 0 -0.20528392205361151 -0.074049519805616706 0 -0.21767403952747419 -0.085286757103870792 0 -0.19725993553521379 -0.084378489144591465 0 -0.21767403952747419 -0.085286757103870792 0 -0.19725993553521379 -0.084378489144591465 0 -0.19711406357821301 -0.1048122678911874 0 -0.19725993553521379 -0.084378489144591465 0 -0.1937078157412592 -0.064255292642492925 0 -0.1739600231662225 -0.070959991035680556 0 -0.20528392205361151 -0.074049519805616706 0 -0.19725993553521379 -0.084378489144591465 0 -0.1937078157412592 -0.064255292642492925 0 -0.22285418164444989 -0.1082959738762299 0 -0.21115630918924111 -0.1230172748900871 0 -0.19711406357821301 -0.1048122678911874 0 -0.22285418164444989 -0.1082959738762299 0 -0.21767403952747419 -0.085286757103870792 0 -0.19711406357821301 -0.1048122678911874 0 -0.19725993553521379 -0.084378489144591465 0 -0.19711406357821301 -0.1048122678911874 0 -0.17391654387008709 -0.096166061953841531 0 -0.19403502953290519 -0.12737050587666801 0 -0.21115630918924111 -0.1230172748900871 0 -0.19711406357821301 -0.1048122678911874 0 -0.19403502953290519 -0.12737050587666801 0 -0.19711406357821301 -0.1048122678911874 0 -0.1730709821914167 -0.1201990230731701 0 -0.19711406357821301 -0.1048122678911874 0 -0.1730709821914167 -0.1201990230731701 0 -0.1597145410076129 -0.12527077741392589 0 -0.1730709821914167 -0.1201990230731701 0 -0.15775741468647461 -0.1060997872852583 0 -0.1730709821914167 -0.1201990230731701 0 -0.15775741468647461 -0.1060997872852583 0 -0.17391654387008709 -0.096166061953841531 0 -0.15775741468647461 -0.1060997872852583 0 -0.17391654387008709 -0.096166061953841531 0 -0.15500876543008221 -0.085529894640122783 0 -0.19711406357821301 -0.1048122678911874 0 -0.1730709821914167 -0.1201990230731701 0 -0.17391654387008709 -0.096166061953841531 0 -0.19725993553521379 -0.084378489144591465 0 -0.17391654387008709 -0.096166061953841531 0 -0.1739600231662225 -0.070959991035680556 0 -0.1937078157412592 -0.064255292642492925 0 -0.1739600231662225 -0.070959991035680556 0 -0.1822100874533896 -0.052573550489462717 0 -0.1739600231662225 -0.070959991035680556 0 -0.15161032133231961 -0.065577860426916379 0 -0.16475356823368381 -0.051368546750298692 0 -0.1739600231662225 -0.070959991035680556 0 -0.15500876543008221 -0.085529894640122783 0 -0.15161032133231961 -0.065577860426916379 0 -0.17391654387008709 -0.096166061953841531 0 -0.1739600231662225 -0.070959991035680556 0 -0.15500876543008221 -0.085529894640122783 0 -0.15500876543008221 -0.085529894640122783 0 -0.1404764090000459 -0.079675706953951972 0 -0.13797681886648491 -0.094651131676777647 0 -0.15500876543008221 -0.085529894640122783 0 -0.15161032133231961 -0.065577860426916379 0 -0.1404764090000459 -0.079675706953951972 0 -0.15161032133231961 -0.065577860426916379 0 -0.13304354975710769 -0.065104419947923348 0 -0.1404764090000459 -0.079675706953951972 0 -0.12474258961423521 -0.087515228078019675 0 -0.13304354975710769 -0.065104419947923348 0 -0.12474258961423521 -0.087515228078019675 0 -0.13304354975710769 -0.065104419947923348 0 -0.1404764090000459 -0.079675706953951972 0 -0.12474258961423521 -0.087515228078019675 0 -0.1404764090000459 -0.079675706953951972 0 -0.13797681886648491 -0.094651131676777647 0 -0.1189536682563354 -0.093979689186079407 0 -0.12474258961423521 -0.087515228078019675 0 -0.13797681886648491 -0.094651131676777647 0 -0.1235575050757495 -0.114640189982985 0 -0.1189536682563354 -0.093979689186079407 0 -0.1393341046319741 -0.10962523330000271 0 -0.1189536682563354 -0.093979689186079407 0 -0.13797681886648491 -0.094651131676777647 0 -0.1393341046319741 -0.10962523330000271 0 -0.1189536682563354 -0.093979689186079407 0 -0.1393341046319741 -0.10962523330000271 0 -0.1235575050757495 -0.114640189982985 0 -0.13049297557449319 -0.12722514746524721 0 -0.1393341046319741 -0.10962523330000271 0 -0.13049297557449319 -0.12722514746524721 0 -0.14902790080462039 -0.13558577825515281 0 -0.1393341046319741 -0.10962523330000271 0 -0.1597145410076129 -0.12527077741392589 0 -0.15775741468647461 -0.1060997872852583 0 -0.1393341046319741 -0.10962523330000271 0 -0.1597145410076129 -0.12527077741392589 0 -0.1393341046319741 -0.10962523330000271 0 -0.14902790080462039 -0.13558577825515281 0 -0.1597145410076129 -0.12527077741392589 0 -0.1393341046319741 -0.10962523330000271 0 -0.15775741468647461 -0.1060997872852583 0 -0.13797681886648491 -0.094651131676777647 0 -0.1393341046319741 -0.10962523330000271 0 -0.15775741468647461 -0.1060997872852583 0 -0.15500876543008221 -0.085529894640122783 0 -0.13797681886648491 -0.094651131676777647 0 -0.14964547004285281 -0.0202828036877305 0 -0.1382151609791393 -0.0075374589521259132 0 -0.15794643018571891 0.0021280044423683392 0 -0.14964547004285281 -0.0202828036877305 0 -0.15794643018571891 0.0021280044423683392 0 -0.1235803972758617 -0.0078682168816956964 0 -0.1382151609791393 -0.0075374589521259132 0 -0.1294373418687087 -0.024291535013460871 0 -0.1235803972758617 -0.0078682168816956964 0 -0.1382151609791393 -0.0075374589521259132 0 -0.1267847382640489 0.0013257330363288431 0 -0.14964547004285281 -0.0202828036877305 0 -0.1294373418687087 -0.024291535013460871 0 -0.14134450989998029 -0.042693611817826937 0 -0.14964547004285281 -0.0202828036877305 0 -0.1382151609791393 -0.0075374589521259132 0 -0.1294373418687087 -0.024291535013460871 0 -0.1207037492743083 -0.047985102855800828 0 -0.1294373418687087 -0.024291535013460871 0 -0.14134450989998029 -0.042693611817826937 0 -0.13304354975710769 -0.065104419947923348 0 -0.14134450989998029 -0.042693611817826937 0 -0.1207037492743083 -0.047985102855800828 0 -0.13304354975710769 -0.065104419947923348 0 -0.14134450989998029 -0.042693611817826937 0 -0.15161032133231961 -0.065577860426916379 0 -0.14134450989998029 -0.042693611817826937 0 -0.16475356823368381 -0.051368546750298692 0 -0.15161032133231961 -0.065577860426916379 0 -0.13304354975710769 -0.065104419947923348 0 -0.14134450989998029 -0.042693611817826937 0 -0.14964547004285281 -0.0202828036877305 0 -0.14134450989998029 -0.042693611817826937 0 -0.1686817320876012 -0.03226435788119543 0 -0.14964547004285281 -0.0202828036877305 0 -0.14134450989998029 -0.042693611817826937 0 -0.14134450989998029 -0.042693611817826937 0 -0.1686817320876012 -0.03226435788119543 0 -0.16475356823368381 -0.051368546750298692 0 -0.1686817320876012 -0.03226435788119543 0 -0.16475356823368381 -0.051368546750298692 0 -0.1822100874533896 -0.052573550489462717 0 -0.1739600231662225 -0.070959991035680556 0 -0.16475356823368381 -0.051368546750298692 0 -0.1822100874533896 -0.052573550489462717 0 -0.1686817320876012 -0.03226435788119543 0 -0.1822100874533896 -0.052573550489462717 0 -0.18892578900582341 -0.037621620574893308 0 -0.1686817320876012 -0.03226435788119543 0 -0.18483693460912801 -0.015579837470580071 0 -0.18892578900582341 -0.037621620574893308 0 -0.1686817320876012 -0.03226435788119543 0 -0.18483693460912801 -0.015579837470580071 0 -0.16610296773455641 -0.0134340670045565 0 -0.14964547004285281 -0.0202828036877305 0 -0.1686817320876012 -0.03226435788119543 0 -0.16610296773455641 -0.0134340670045565 0 -0.16610296773455641 -0.0134340670045565 0 -0.17762949461814681 -0.0032490808770314589 0 -0.15794643018571891 0.0021280044423683392 0 -0.17762949461814681 -0.0032490808770314589 0 -0.15794643018571891 0.0021280044423683392 0 -0.14964547004285281 -0.0202828036877305 0 -0.16610296773455641 -0.0134340670045565 0 -0.15794643018571891 0.0021280044423683392 0 -0.18483693460912801 -0.015579837470580071 0 -0.17762949461814681 -0.0032490808770314589 0 -0.19731255905057449 -0.0086261661964318476 0 -0.18483693460912801 -0.015579837470580071 0 -0.16610296773455641 -0.0134340670045565 0 -0.17762949461814681 -0.0032490808770314589 0 -0.17762949461814681 -0.0032490808770314589 0 -0.19731255905057449 -0.0086261661964318476 0 -0.19731255905057449 -0.0086261661964318476 0 -0.1990800420029703 -0.01664221271521173 0 -0.2092342950001175 0.0043371951444698227 0 -0.17762949461814681 -0.0032490808770314589 0 -0.19731255905057449 -0.0086261661964318476 0 -0.19037188188568099 0.0060461956171917134 0 -0.18483693460912801 -0.015579837470580071 0 -0.19731255905057449 -0.0086261661964318476 0 -0.1990800420029703 -0.01664221271521173 0 -0.18483693460912801 -0.015579837470580071 0 -0.1990800420029703 -0.01664221271521173 0 -0.18892578900582341 -0.037621620574893308 0 -0.20228417153615039 -0.030446007836870549 0 -0.1990800420029703 -0.01664221271521173 0 -0.18892578900582341 -0.037621620574893308 0 -0.1990800420029703 -0.01664221271521173 0 -0.18892578900582341 -0.037621620574893308 0 -0.21225235734000489 -0.01754997469725714 0 -0.2150403661238946 -0.032282933937273148 0 -0.2266098999041691 -0.015672113449150819 0 -0.20228417153615039 -0.030446007836870549 0 -0.1990800420029703 -0.01664221271521173 0 -0.21225235734000489 -0.01754997469725714 0 -0.20228417153615039 -0.030446007836870549 0 -0.21225235734000489 -0.01754997469725714 0 -0.2150403661238946 -0.032282933937273148 0 -0.1990800420029703 -0.01664221271521173 0 -0.21225235734000489 -0.01754997469725714 0 -0.2092342950001175 0.0043371951444698227 0 -0.21225235734000489 -0.01754997469725714 0 -0.2266098999041691 -0.015672113449150819 0 -0.2092342950001175 0.0043371951444698227 0 -0.2266098999041691 -0.015672113449150819 0 -0.2092342950001175 0.0043371951444698227 0 -0.1990800420029703 -0.01664221271521173 0 -0.2092342950001175 0.0043371951444698227 0 -0.1822100874533896 -0.052573550489462717 0 -0.18892578900582341 -0.037621620574893308 0 -0.2064618554434548 -0.050321059977515029 0 -0.1937078157412592 -0.064255292642492925 0 -0.1822100874533896 -0.052573550489462717 0 -0.2064618554434548 -0.050321059977515029 0 -0.20228417153615039 -0.030446007836870549 0 -0.18892578900582341 -0.037621620574893308 0 -0.2064618554434548 -0.050321059977515029 0 -0.20228417153615039 -0.030446007836870549 0 -0.2150403661238946 -0.032282933937273148 0 -0.2064618554434548 -0.050321059977515029 0 -0.2150403661238946 -0.032282933937273148 0 -0.2064618554434548 -0.050321059977515029 0 -0.2213121294151997 -0.045145540102669787 0 -0.1937078157412592 -0.064255292642492925 0 -0.2064618554434548 -0.050321059977515029 0 -0.21249389741049859 -0.062277540331511672 0 -0.2064618554434548 -0.050321059977515029 0 -0.21249389741049859 -0.062277540331511672 0 -0.2310599657762086 -0.059316754883187758 0 -0.2064618554434548 -0.050321059977515029 0 -0.2310599657762086 -0.059316754883187758 0 -0.2310599657762086 -0.059316754883187758 0 -0.2213121294151997 -0.045145540102669787 0 -0.23268633031724081 -0.038661411612703221 0 -0.2064618554434548 -0.050321059977515029 0 -0.2310599657762086 -0.059316754883187758 0 -0.2213121294151997 -0.045145540102669787 0 -0.2150403661238946 -0.032282933937273148 0 -0.2213121294151997 -0.045145540102669787 0 -0.23268633031724081 -0.038661411612703221 0 -0.23268633031724081 -0.038661411612703221 0 -0.24852346597764799 -0.051925242414302998 0 -0.25486292011483769 -0.035609899195970317 0 -0.2310599657762086 -0.059316754883187758 0 -0.23268633031724081 -0.038661411612703221 0 -0.24852346597764799 -0.051925242414302998 0 -0.2310599657762086 -0.059316754883187758 0 -0.24852346597764799 -0.051925242414302998 0 -0.25565807610896252 -0.06831244978886053 0 -0.2266098999041691 -0.015672113449150819 0 -0.2442186544452267 -0.01555988529363043 0 -0.226875588672417 0.0021075384307831881 0 -0.2266098999041691 -0.015672113449150819 0 -0.2092342950001175 0.0043371951444698227 0 -0.226875588672417 0.0021075384307831881 0 -0.2150403661238946 -0.032282933937273148 0 -0.23268633031724081 -0.038661411612703221 0 -0.2266098999041691 -0.015672113449150819 0 -0.23268633031724081 -0.038661411612703221 0 -0.2442186544452267 -0.01555988529363043 0 -0.25486292011483769 -0.035609899195970317 0 -0.23268633031724081 -0.038661411612703221 0 -0.2266098999041691 -0.015672113449150819 0 -0.2442186544452267 -0.01555988529363043 0 -0.2442186544452267 -0.01555988529363043 0 -0.226875588672417 0.0021075384307831881 0 -0.24271989440526179 0.010178758124073159 0 -0.2442186544452267 -0.01555988529363043 0 -0.26502549739201658 -0.0070783455138550564 0 -0.24271989440526179 0.010178758124073159 0 -0.26502549739201658 -0.0070783455138550564 0 -0.27223912834895703 -0.035799200629730958 0 -0.25486292011483769 -0.035609899195970317 0 -0.2442186544452267 -0.01555988529363043 0 -0.26502549739201658 -0.0070783455138550564 0 -0.25486292011483769 -0.035609899195970317 0 -0.26502549739201658 -0.0070783455138550564 0 -0.2873311003787728 -0.024335449151781641 0 -0.27223912834895703 -0.035799200629730958 0 -0.26502549739201658 -0.0070783455138550564 0 -0.2873311003787728 -0.024335449151781641 0 -0.26502549739201658 -0.0070783455138550564 0 -0.28959146889289672 -0.0074111707537560124 0 -0.2873311003787728 -0.024335449151781641 0 -0.26502549739201658 -0.0070783455138550564 0 -0.28959146889289672 -0.0074111707537560124 0 -0.27813716162916918 0.0029973473128752418 0 -0.28959146889289672 -0.0074111707537560124 0 -0.30344887476686622 -0.0030365834359725192 0 -0.29185183740701631 0.0095131076442702411 0 -0.28959146889289672 -0.0074111707537560124 0 -0.2873311003787728 -0.024335449151781641 0 -0.28959146889289672 -0.0074111707537560124 0 -0.2873311003787728 -0.024335449151781641 0 -0.30457719538041061 -0.0184526869976144 0 -0.30457719538041061 -0.0184526869976144 0 -0.30858033629816728 -0.040775276701190959 0 -0.32445775404132859 -0.029767661561946272 0 -0.2873311003787728 -0.024335449151781641 0 -0.30457719538041061 -0.0184526869976144 0 -0.30858033629816728 -0.040775276701190959 0 -0.30344887476686622 -0.0030365834359725192 0 -0.31917495546688313 -0.0079344111633256626 0 -0.3120489166871242 0.0091022440905632329 0 -0.30457719538041061 -0.0184526869976144 0 -0.30344887476686622 -0.0030365834359725192 0 -0.31917495546688313 -0.0079344111633256626 0 -0.28959146889289672 -0.0074111707537560124 0 -0.30457719538041061 -0.0184526869976144 0 -0.30344887476686622 -0.0030365834359725192 0 -0.30408036267115812 -0.055599645868065262 0 -0.30858033629816728 -0.040775276701190959 0 -0.28379364341024721 -0.050821796923157719 0 -0.2873311003787728 -0.024335449151781641 0 -0.30858033629816728 -0.040775276701190959 0 -0.2873311003787728 -0.024335449151781641 0 -0.28379364341024721 -0.050821796923157719 0 -0.2873311003787728 -0.024335449151781641 0 -0.30858033629816728 -0.040775276701190959 0 -0.28379364341024721 -0.050821796923157719 0 -0.30408036267115812 -0.055599645868065262 0 -0.28379364341024721 -0.050821796923157719 0 -0.29356068183248529 -0.066354792265609142 0 -0.28379364341024721 -0.050821796923157719 0 -0.26835003757099068 -0.057725696590793199 0 -0.28025618644171629 -0.077308144694533135 0 -0.28379364341024721 -0.050821796923157719 0 -0.26835003757099068 -0.057725696590793199 0 -0.27223912834895703 -0.035799200629730958 0 -0.2873311003787728 -0.024335449151781641 0 -0.28379364341024721 -0.050821796923157719 0 -0.27223912834895703 -0.035799200629730958 0 -0.26835003757099068 -0.057725696590793199 0 -0.27223912834895703 -0.035799200629730958 0 -0.25486292011483769 -0.035609899195970317 0 -0.24852346597764799 -0.051925242414302998 0 -0.26835003757099068 -0.057725696590793199 0 -0.25486292011483769 -0.035609899195970317 0 -0.24852346597764799 -0.051925242414302998 0 -0.26835003757099068 -0.057725696590793199 0 -0.25565807610896252 -0.06831244978886053 0 -0.24282962163959201 -0.092017886001201768 0 -0.25565807610896252 -0.06831244978886053 0 -0.26372806511142421 -0.086855635823380073 0 -0.26372806511142421 -0.086855635823380073 0 -0.27833100006782829 -0.091722781049669813 0 -0.28025618644171629 -0.077308144694533135 0 -0.26372806511142421 -0.086855635823380073 0 -0.27833100006782829 -0.091722781049669813 0 -0.27045013337528179 -0.097924854751685553 0 -0.27833100006782829 -0.091722781049669813 0 -0.28025618644171629 -0.077308144694533135 0 -0.26835003757099068 -0.057725696590793199 0 -0.25565807610896252 -0.06831244978886053 0 -0.28025618644171629 -0.077308144694533135 0 -0.25565807610896252 -0.06831244978886053 0 -0.26372806511142421 -0.086855635823380073 0 -0.28025618644171629 -0.077308144694533135 0 -0.25565807610896252 -0.06831244978886053 0 -0.28025618644171629 -0.077308144694533135 0 -0.24479988253022569 -0.11811105411561459 0 -0.26060792640329411 -0.1164846759281527 0 -0.25231952184791723 -0.12683335823062611 0 -0.24479988253022569 -0.11811105411561459 0 -0.26060792640329411 -0.1164846759281527 0 -0.26156544129902509 -0.1049169175826398 0 -0.24479988253022569 -0.11811105411561459 0 -0.26156544129902509 -0.1049169175826398 0 -0.26060792640329411 -0.1164846759281527 0 -0.25231952184791723 -0.12683335823062611 0 -0.26344430667949609 -0.12670066377130279 0 -0.26060792640329411 -0.1164846759281527 0 -0.26156544129902509 -0.1049169175826398 0 -0.26765492759648601 -0.1080049391330978 0 -0.24282962163959201 -0.092017886001201768 0 -0.26372806511142421 -0.086855635823380073 0 -0.26156544129902509 -0.1049169175826398 0 -0.26372806511142421 -0.086855635823380073 0 -0.26156544129902509 -0.1049169175826398 0 -0.27045013337528179 -0.097924854751685553 0 -0.27045013337528179 -0.097924854751685553 0 -0.27463259990087302 -0.11344211054637569 0 -0.29019688339974142 -0.1145295976321045 0 -0.27045013337528179 -0.097924854751685553 0 -0.27717118067196178 -0.1004068103239257 0 -0.29019688339974142 -0.1145295976321045 0 -0.27045013337528179 -0.097924854751685553 0 -0.29019688339974142 -0.1145295976321045 0 -0.26156544129902509 -0.1049169175826398 0 -0.27045013337528179 -0.097924854751685553 0 -0.27833100006782829 -0.091722781049669813 0 -0.27045013337528179 -0.097924854751685553 0 -0.27717118067196178 -0.1004068103239257 0 -0.27833100006782829 -0.091722781049669813 0 -0.27045013337528179 -0.097924854751685553 0 -0.27833100006782829 -0.091722781049669813 0 -0.27717118067196178 -0.1004068103239257 0 -0.27833100006782829 -0.091722781049669813 0 -0.27717118067196178 -0.1004068103239257 0 -0.2872023536932623 -0.097270628736185652 0 -0.27045013337528179 -0.097924854751685553 0 -0.26765492759648601 -0.1080049391330978 0 -0.27463259990087302 -0.11344211054637569 0 -0.26156544129902509 -0.1049169175826398 0 -0.27045013337528179 -0.097924854751685553 0 -0.26765492759648601 -0.1080049391330978 0 -0.27463259990087302 -0.11344211054637569 0 -0.26344430667949609 -0.12670066377130279 0 -0.27825538007388478 -0.13359774949314049 0 -0.27463259990087302 -0.11344211054637569 0 -0.29019688339974142 -0.1145295976321045 0 -0.27825538007388478 -0.13359774949314049 0 -0.26060792640329411 -0.1164846759281527 0 -0.26765492759648601 -0.1080049391330978 0 -0.27463259990087302 -0.11344211054637569 0 -0.26060792640329411 -0.1164846759281527 0 -0.27463259990087302 -0.11344211054637569 0 -0.26344430667949609 -0.12670066377130279 0 -0.27717118067196178 -0.1004068103239257 0 -0.29019688339974142 -0.1145295976321045 0 -0.2872023536932623 -0.097270628736185652 0 -0.29019688339974142 -0.1145295976321045 0 -0.2872023536932623 -0.097270628736185652 0 -0.29544942619979542 -0.10129743553062059 0 -0.2872023536932623 -0.097270628736185652 0 -0.29544942619979542 -0.10129743553062059 0 -0.29363938808972961 -0.091889107895603686 0 -0.29019688339974142 -0.1145295976321045 0 -0.29544942619979542 -0.10129743553062059 0 -0.30667309632314921 -0.10873229612718049 0 -0.29544942619979542 -0.10129743553062059 0 -0.30380327352618652 -0.094182538561099288 0 -0.29363938808972961 -0.091889107895603686 0 -0.29544942619979542 -0.10129743553062059 0 -0.30380327352618652 -0.094182538561099288 0 -0.30667309632314921 -0.10873229612718049 0 -0.30380327352618652 -0.094182538561099288 0 -0.30667309632314921 -0.10873229612718049 0 -0.31931732203193541 -0.096802316172937081 0 -0.29019688339974142 -0.1145295976321045 0 -0.30962752487991702 -0.13073266690824689 0 -0.29019688339974142 -0.1145295976321045 0 -0.30667309632314921 -0.10873229612718049 0 -0.30962752487991702 -0.13073266690824689 0 -0.28379364341024721 -0.050821796923157719 0 -0.28025618644171629 -0.077308144694533135 0 -0.28379364341024721 -0.050821796923157719 0 -0.28025618644171629 -0.077308144694533135 0 -0.29356068183248529 -0.066354792265609142 0 -0.29012777444583637 -0.075741841909284943 0 -0.29356068183248529 -0.066354792265609142 0 -0.30318136502568149 -0.075684120372887007 0 -0.28025618644171629 -0.077308144694533135 0 -0.29012777444583637 -0.075741841909284943 0 -0.29356068183248529 -0.066354792265609142 0 -0.27833100006782829 -0.091722781049669813 0 -0.28025618644171629 -0.077308144694533135 0 -0.2884262437305215 -0.083778039985194494 0 -0.28025618644171629 -0.077308144694533135 0 -0.29012777444583637 -0.075741841909284943 0 -0.29665989244783197 -0.083307090652462432 0 -0.28025618644171629 -0.077308144694533135 0 -0.2884262437305215 -0.083778039985194494 0 -0.29665989244783197 -0.083307090652462432 0 -0.28025618644171629 -0.077308144694533135 0 -0.29665989244783197 -0.083307090652462432 0 -0.27833100006782829 -0.091722781049669813 0 -0.2884262437305215 -0.083778039985194494 0 -0.27833100006782829 -0.091722781049669813 0 -0.2872023536932623 -0.097270628736185652 0 -0.2884262437305215 -0.083778039985194494 0 -0.2872023536932623 -0.097270628736185652 0 -0.2884262437305215 -0.083778039985194494 0 -0.29363938808972961 -0.091889107895603686 0 -0.2884262437305215 -0.083778039985194494 0 -0.29363938808972961 -0.091889107895603686 0 -0.29665989244783197 -0.083307090652462432 0 -0.29012777444583637 -0.075741841909284943 0 -0.29665989244783197 -0.083307090652462432 0 -0.30318136502568149 -0.075684120372887007 0 -0.30380327352618652 -0.094182538561099288 0 -0.29665989244783197 -0.083307090652462432 0 -0.31265559088866018 -0.083011427659303014 0 -0.29665989244783197 -0.083307090652462432 0 -0.30318136502568149 -0.075684120372887007 0 -0.31265559088866018 -0.083011427659303014 0 -0.30380327352618652 -0.094182538561099288 0 -0.29363938808972961 -0.091889107895603686 0 -0.29665989244783197 -0.083307090652462432 0 -0.30380327352618652 -0.094182538561099288 0 -0.31265559088866018 -0.083011427659303014 0 -0.31931732203193541 -0.096802316172937081 0 -0.30318136502568149 -0.075684120372887007 0 -0.31119601065773173 -0.067965248062698908 0 -0.31265559088866018 -0.083011427659303014 0 -0.29356068183248529 -0.066354792265609142 0 -0.30318136502568149 -0.075684120372887007 0 -0.31119601065773173 -0.067965248062698908 0 -0.30408036267115812 -0.055599645868065262 0 -0.29356068183248529 -0.066354792265609142 0 -0.31119601065773173 -0.067965248062698908 0 -0.31119601065773173 -0.067965248062698908 0 -0.31265559088866018 -0.083011427659303014 0 -0.32827904667519642 -0.079567967988915522 0 -0.31119601065773173 -0.067965248062698908 0 -0.32827904667519642 -0.079567967988915522 0 -0.32982957221756298 -0.057215104250598517 0 -0.31265559088866018 -0.083011427659303014 0 -0.32827904667519642 -0.079567967988915522 0 -0.31931732203193541 -0.096802316172937081 0 -0.32827904667519642 -0.079567967988915522 0 -0.31931732203193541 -0.096802316172937081 0 -0.34305687208094188 -0.098508265059657374 0 -0.32827904667519642 -0.079567967988915522 0 -0.34305687208094188 -0.098508265059657374 0 -0.35005622494136179 -0.074294529497291512 0 -0.35005622494136179 -0.074294529497291512 0 -0.32982957221756298 -0.057215104250598517 0 -0.32827904667519642 -0.079567967988915522 0 -0.35005622494136179 -0.074294529497291512 0 -0.32982957221756298 -0.057215104250598517 0 -0.30667309632314921 -0.10873229612718049 0 -0.3216441479013199 -0.1148492219580749 0 -0.30962752487991702 -0.13073266690824689 0 -0.3216441479013199 -0.1148492219580749 0 -0.33605751922052191 -0.12272200062202319 0 -0.32460088440045221 -0.1325287871405311 0 -0.30667309632314921 -0.10873229612718049 0 -0.3216441479013199 -0.1148492219580749 0 -0.31931732203193541 -0.096802316172937081 0 -0.3216441479013199 -0.1148492219580749 0 -0.31931732203193541 -0.096802316172937081 0 -0.34305687208094188 -0.098508265059657374 0 -0.3216441479013199 -0.1148492219580749 0 -0.34305687208094188 -0.098508265059657374 0 -0.33605751922052191 -0.12272200062202319 0 -0.34305687208094188 -0.098508265059657374 0 -0.33605751922052191 -0.12272200062202319 0 -0.34305687208094188 -0.098508265059657374 0 -0.33605751922052191 -0.12272200062202319 0 -0.35817178244558712 -0.11398458349951859 0 -0.33605751922052191 -0.12272200062202319 0 -0.35817178244558712 -0.11398458349951859 0 -0.34633486566969351 -0.13509274037055399 0 -0.34305687208094188 -0.098508265059657374 0 -0.35817178244558712 -0.11398458349951859 0 -0.35622502774731091 -0.089196219978310134 0 -0.35817178244558712 -0.11398458349951859 0 -0.35622502774731091 -0.089196219978310134 0 -0.37232804405635472 -0.090094759349413772 0 -0.35817178244558712 -0.11398458349951859 0 -0.37232804405635472 -0.090094759349413772 0 -0.37647302270424171 -0.1191226018827146 0 -0.35817178244558712 -0.11398458349951859 0 -0.36246602913887882 -0.1301386387225496 0 -0.37647302270424171 -0.1191226018827146 0 -0.35005622494136179 -0.074294529497291512 0 -0.36933359795143372 -0.067188100955412874 0 -0.35446413570799379 -0.053172535506150732 0 -0.34305687208094188 -0.098508265059657374 0 -0.35005622494136179 -0.074294529497291512 0 -0.34305687208094188 -0.098508265059657374 0 -0.35005622494136179 -0.074294529497291512 0 -0.35622502774731091 -0.089196219978310134 0 -0.35005622494136179 -0.074294529497291512 0 -0.35622502774731091 -0.089196219978310134 0 -0.37232804405635472 -0.090094759349413772 0 -0.35005622494136179 -0.074294529497291512 0 -0.37232804405635472 -0.090094759349413772 0 -0.35005622494136179 -0.074294529497291512 0 -0.37232804405635472 -0.090094759349413772 0 -0.36933359795143372 -0.067188100955412874 0 -0.36933359795143372 -0.067188100955412874 0 -0.37240979630777749 -0.0503623684697838 0 -0.35446413570799379 -0.053172535506150732 0 -0.35005622494136179 -0.074294529497291512 0 -0.35446413570799379 -0.053172535506150732 0 -0.32982957221756298 -0.057215104250598517 0 -0.35446413570799379 -0.053172535506150732 0 -0.36094505459355442 -0.036652637796375967 0 -0.3431879850406756 -0.033962069764727112 0 -0.37240979630777749 -0.0503623684697838 0 -0.35446413570799379 -0.053172535506150732 0 -0.36094505459355442 -0.036652637796375967 0 -0.37240979630777749 -0.0503623684697838 0 -0.36094505459355442 -0.036652637796375967 0 -0.37494807423128568 -0.037518934848756909 0 -0.36094505459355442 -0.036652637796375967 0 -0.37494807423128568 -0.037518934848756909 0 -0.37176733212919311 -0.026708944135735879 0 -0.37176733212919311 -0.026708944135735879 0 -0.35328623314727958 -0.0081695706399240436 0 -0.36094505459355442 -0.036652637796375967 0 -0.37176733212919311 -0.026708944135735879 0 -0.35328623314727958 -0.0081695706399240436 0 -0.37176733212919311 -0.026708944135735879 0 -0.36657771537407402 -0.0014408962769119999 0 -0.35328623314727958 -0.0081695706399240436 0 -0.37176733212919311 -0.026708944135735879 0 -0.36657771537407402 -0.0014408962769119999 0 -0.37964144693450369 -0.0074506478669849599 0 -0.36657771537407402 -0.0014408962769119999 0 -0.35328623314727958 -0.0081695706399240436 0 -0.35241148569575781 0.0086663335579918177 0 -0.35328623314727958 -0.0081695706399240436 0 -0.33588399199042762 -0.015152213082720139 0 -0.3431879850406756 -0.033962069764727112 0 -0.36094505459355442 -0.036652637796375967 0 -0.35328623314727958 -0.0081695706399240436 0 -0.3431879850406756 -0.033962069764727112 0 -0.33588399199042762 -0.015152213082720139 0 -0.32445775404132859 -0.029767661561946272 0 -0.3431879850406756 -0.033962069764727112 0 -0.35328623314727958 -0.0081695706399240436 0 -0.33588399199042762 -0.015152213082720139 0 -0.334805134165366 0.01036980285588779 0 -0.33588399199042762 -0.015152213082720139 0 -0.31917495546688313 -0.0079344111633256626 0 -0.334805134165366 0.01036980285588779 0 -0.33588399199042762 -0.015152213082720139 0 -0.31917495546688313 -0.0079344111633256626 0 -0.32445775404132859 -0.029767661561946272 0 -0.30457719538041061 -0.0184526869976144 0 -0.31917495546688313 -0.0079344111633256626 0 -0.32445775404132859 -0.029767661561946272 0 -0.30858033629816728 -0.040775276701190959 0 -0.32445775404132859 -0.029767661561946272 0 -0.32982957221756298 -0.057215104250598517 0 -0.30858033629816728 -0.040775276701190959 0 -0.32982957221756298 -0.057215104250598517 0 -0.30408036267115812 -0.055599645868065262 0 -0.31119601065773173 -0.067965248062698908 0 -0.32982957221756298 -0.057215104250598517 0 -0.30408036267115812 -0.055599645868065262 0 -0.30858033629816728 -0.040775276701190959 0 -0.32982957221756298 -0.057215104250598517 0 -0.35446413570799379 -0.053172535506150732 0 -0.32982957221756298 -0.057215104250598517 0 -0.3431879850406756 -0.033962069764727112 0 -0.32445775404132859 -0.029767661561946272 0 -0.32982957221756298 -0.057215104250598517 0 -0.3431879850406756 -0.033962069764727112 0 -0.29755551426531668 -0.25757073204069098 0 -0.30518519645733821 -0.2333252279129707 0 -0.29178909568440531 -0.23882263516812999 0 -0.31853060179945469 -0.25503139173680628 0 -0.30518519645733821 -0.2333252279129707 0 -0.29755551426531668 -0.25757073204069098 0 -0.30518519645733821 -0.2333252279129707 0 -0.31853060179945469 -0.25503139173680628 0 -0.29755551426531668 -0.25757073204069098 0 -0.30518519645733821 -0.2333252279129707 0 -0.30518519645733821 -0.2333252279129707 0 -0.29178909568440531 -0.23882263516812999 0 -0.2946605674340903 -0.21620702761052021 0 -0.30518519645733821 -0.2333252279129707 0 -0.2946605674340903 -0.21620702761052021 0 -0.30112892843479688 -0.2165653835969881 0 -0.30518519645733821 -0.2333252279129707 0 -0.31029938104260463 -0.2170734391291807 0 -0.30518519645733821 -0.2333252279129707 0 -0.30112892843479688 -0.2165653835969881 0 -0.31029938104260463 -0.2170734391291807 0 -0.30518519645733821 -0.2333252279129707 0 -0.31029938104260463 -0.2170734391291807 0 -0.31695214086557388 -0.23650691393263759 0 -0.30518519645733821 -0.2333252279129707 0 -0.2946605674340903 -0.21620702761052021 0 -0.27998431525071471 -0.22915168282769369 0 -0.27605698719789162 -0.21517636399316259 0 -0.2946605674340903 -0.21620702761052021 0 -0.29178909568440531 -0.23882263516812999 0 -0.27998431525071471 -0.22915168282769369 0 -0.2946605674340903 -0.21620702761052021 0 -0.29755551426531668 -0.25757073204069098 0 -0.29178909568440531 -0.23882263516812999 0 -0.28061448226886848 -0.24803159914139999 0 -0.29178909568440531 -0.23882263516812999 0 -0.28061448226886848 -0.24803159914139999 0 -0.27998431525071471 -0.22915168282769369 0 -0.28061448226886848 -0.24803159914139999 0 -0.26367345027242062 -0.23849246624210821 0 -0.27057671907819608 -0.2321351965860578 0 -0.28061448226886848 -0.24803159914139999 0 -0.27057671907819608 -0.2321351965860578 0 -0.27998431525071471 -0.22915168282769369 0 -0.28061448226886848 -0.24803159914139999 0 -0.26367345027242062 -0.23849246624210821 0 -0.26608339949288501 -0.25332103557671998 0 -0.28061448226886848 -0.24803159914139999 0 -0.26367345027242062 -0.23849246624210821 0 -0.24823463652209049 -0.26301989478753779 0 -0.2394845154813586 -0.2461751143873411 0 -0.26367345027242062 -0.23849246624210821 0 -0.24208400234453659 -0.2263359097200727 0 -0.26367345027242062 -0.23849246624210821 0 -0.25801084667845792 -0.22613589540447249 0 -0.24208400234453659 -0.2263359097200727 0 -0.25801084667845792 -0.22613589540447249 0 -0.25745340696169311 -0.21414570037580211 0 -0.24208400234453659 -0.2263359097200727 0 -0.26367345027242062 -0.23849246624210821 0 -0.26367345027242062 -0.23849246624210821 0 -0.26373092362527928 -0.23101649533955351 0 -0.25801084667845792 -0.22613589540447249 0 -0.26373092362527928 -0.23101649533955351 0 -0.25801084667845792 -0.22613589540447249 0 -0.26728760367483267 -0.22432396726140841 0 -0.25801084667845792 -0.22613589540447249 0 -0.26728760367483267 -0.22432396726140841 0 -0.25745340696169311 -0.21414570037580211 0 -0.26728760367483267 -0.22432396726140841 0 -0.27057671907819608 -0.2321351965860578 0 -0.27998431525071471 -0.22915168282769369 0 -0.26367345027242062 -0.23849246624210821 0 -0.26373092362527928 -0.23101649533955351 0 -0.27057671907819608 -0.2321351965860578 0 -0.26373092362527928 -0.23101649533955351 0 -0.26728760367483267 -0.22432396726140841 0 -0.27057671907819608 -0.2321351965860578 0 -0.26728760367483267 -0.22432396726140841 0 -0.27998431525071471 -0.22915168282769369 0 -0.27605698719789162 -0.21517636399316259 0 -0.27605698719789162 -0.21517636399316259 0 -0.25745340696169311 -0.21414570037580211 0 -0.27605698719789162 -0.21517636399316259 0 -0.25745340696169311 -0.21414570037580211 0 -0.27511162464124428 -0.20014012400362419 0 -0.26728760367483267 -0.22432396726140841 0 -0.27605698719789162 -0.21517636399316259 0 -0.25745340696169311 -0.21414570037580211 0 -0.25745340696169311 -0.21414570037580211 0 -0.27511162464124428 -0.20014012400362419 0 -0.27605698719789162 -0.21517636399316259 0 -0.27511162464124428 -0.20014012400362419 0 -0.28324457860757551 -0.21039166201299439 0 -0.25745340696169311 -0.21414570037580211 0 -0.25847812349154659 -0.20083570001774129 0 -0.27511162464124428 -0.20014012400362419 0 -0.25745340696169311 -0.21414570037580211 0 -0.25574268991950477 -0.21405092432772141 0 -0.25847812349154659 -0.20083570001774129 0 -0.2496875283280427 -0.2060649062827731 0 -0.25574268991950477 -0.21405092432772141 0 -0.25847812349154659 -0.20083570001774129 0 -0.2496875283280427 -0.2060649062827731 0 -0.24508389947968889 -0.21798481106461701 0 -0.25574268991950477 -0.21405092432772141 0 -0.24208400234453659 -0.2263359097200727 0 -0.25745340696169311 -0.21414570037580211 0 -0.25574268991950477 -0.21405092432772141 0 -0.25745340696169311 -0.21414570037580211 0 -0.25574268991950477 -0.21405092432772141 0 -0.2496875283280427 -0.2060649062827731 0 -0.25847812349154659 -0.20083570001774129 0 -0.25040094365246929 -0.18566452696556651 0 -0.25847812349154659 -0.20083570001774129 0 -0.25040094365246929 -0.18566452696556651 0 -0.26438433370286152 -0.18214145484636371 0 -0.25847812349154659 -0.20083570001774129 0 -0.27511162464124428 -0.20014012400362419 0 -0.26438433370286152 -0.18214145484636371 0 -0.27511162464124428 -0.20014012400362419 0 -0.27856087636715432 -0.1813231767362839 0 -0.26438433370286152 -0.18214145484636371 0 -0.28739860192820049 -0.20198371741301269 0 -0.29695340350955218 -0.20127743793862751 0 -0.29276984232079722 -0.18613454763144829 0 -0.27511162464124428 -0.20014012400362419 0 -0.28739860192820049 -0.20198371741301269 0 -0.29276984232079722 -0.18613454763144829 0 -0.27511162464124428 -0.20014012400362419 0 -0.29276984232079722 -0.18613454763144829 0 -0.27856087636715432 -0.1813231767362839 0 -0.27511162464124428 -0.20014012400362419 0 -0.29276984232079722 -0.18613454763144829 0 -0.29695340350955218 -0.20127743793862751 0 -0.29276984232079722 -0.18613454763144829 0 -0.27511162464124428 -0.20014012400362419 0 -0.28739860192820049 -0.20198371741301269 0 -0.28324457860757551 -0.21039166201299439 0 -0.28739860192820049 -0.20198371741301269 0 -0.28324457860757551 -0.21039166201299439 0 -0.2918003722590129 -0.2115549497270213 0 -0.27605698719789162 -0.21517636399316259 0 -0.2946605674340903 -0.21620702761052021 0 -0.27605698719789162 -0.21517636399316259 0 -0.28324457860757551 -0.21039166201299439 0 -0.2946605674340903 -0.21620702761052021 0 -0.2918003722590129 -0.2115549497270213 0 -0.2946605674340903 -0.21620702761052021 0 -0.30112892843479688 -0.2165653835969881 0 -0.28324457860757551 -0.21039166201299439 0 -0.2918003722590129 -0.2115549497270213 0 -0.2946605674340903 -0.21620702761052021 0 -0.2918003722590129 -0.2115549497270213 0 -0.2946605674340903 -0.21620702761052021 0 -0.2918003722590129 -0.2115549497270213 0 -0.30112892843479688 -0.2165653835969881 0 -0.29695340350955218 -0.20127743793862751 0 -0.28739860192820049 -0.20198371741301269 0 -0.2918003722590129 -0.2115549497270213 0 -0.29695340350955218 -0.20127743793862751 0 -0.30112892843479688 -0.2165653835969881 0 -0.3066230447132493 -0.20290766900054749 0 -0.29695340350955218 -0.20127743793862751 0 -0.30112892843479688 -0.2165653835969881 0 -0.29695340350955218 -0.20127743793862751 0 -0.2946605674340903 -0.21620702761052021 0 -0.30112892843479688 -0.2165653835969881 0 -0.30112892843479688 -0.2165653835969881 0 -0.31029938104260463 -0.2170734391291807 0 -0.3066230447132493 -0.20290766900054749 0 -0.30112892843479688 -0.2165653835969881 0 -0.31029938104260463 -0.2170734391291807 0 -0.31029938104260463 -0.2170734391291807 0 -0.3066230447132493 -0.20290766900054749 0 -0.31912483067302128 -0.18902804089920811 0 -0.3066230447132493 -0.20290766900054749 0 -0.30560064364276379 -0.1907390987899141 0 -0.31912483067302128 -0.18902804089920811 0 -0.30560064364276379 -0.1907390987899141 0 -0.29695340350955218 -0.20127743793862751 0 -0.29276984232079722 -0.18613454763144829 0 -0.3066230447132493 -0.20290766900054749 0 -0.30560064364276379 -0.1907390987899141 0 -0.29695340350955218 -0.20127743793862751 0 -0.30560064364276379 -0.1907390987899141 0 -0.31189298324447212 -0.17096707062200309 0 -0.29276984232079722 -0.18613454763144829 0 -0.31189298324447212 -0.17096707062200309 0 -0.28827458297998099 -0.16986342931163989 0 -0.29276984232079722 -0.18613454763144829 0 -0.31189298324447212 -0.17096707062200309 0 -0.29276984232079722 -0.18613454763144829 0 -0.30560064364276379 -0.1907390987899141 0 -0.31189298324447212 -0.17096707062200309 0 -0.31912483067302128 -0.18902804089920811 0 -0.29932531367030712 -0.15705199146557861 0 -0.31189298324447212 -0.17096707062200309 0 -0.31274415525176857 -0.14674731878347699 0 -0.29932531367030712 -0.15705199146557861 0 -0.31189298324447212 -0.17096707062200309 0 -0.28827458297998099 -0.16986342931163989 0 -0.31189298324447212 -0.17096707062200309 0 -0.28827458297998099 -0.16986342931163989 0 -0.29932531367030712 -0.15705199146557861 0 -0.28827458297998099 -0.16986342931163989 0 -0.28326498152693291 -0.1517305894023902 0 -0.28827458297998099 -0.16986342931163989 0 -0.27368698284943971 -0.15822326391425101 0 -0.28326498152693291 -0.1517305894023902 0 -0.28827458297998099 -0.16986342931163989 0 -0.28326498152693291 -0.1517305894023902 0 -0.28827458297998099 -0.16986342931163989 0 -0.29276984232079722 -0.18613454763144829 0 -0.27856087636715432 -0.1813231767362839 0 -0.28827458297998099 -0.16986342931163989 0 -0.29276984232079722 -0.18613454763144829 0 -0.28827458297998099 -0.16986342931163989 0 -0.27856087636715432 -0.1813231767362839 0 -0.27038156676850411 -0.1690273239176717 0 -0.27856087636715432 -0.1813231767362839 0 -0.26438433370286152 -0.18214145484636371 0 -0.27038156676850411 -0.1690273239176717 0 -0.25040094365246929 -0.18566452696556651 0 -0.26438433370286152 -0.18214145484636371 0 -0.26206990220793458 -0.15954048489291309 0 -0.25040094365246929 -0.18566452696556651 0 -0.26206990220793458 -0.15954048489291309 0 -0.26438433370286152 -0.18214145484636371 0 -0.26206990220793458 -0.15954048489291309 0 -0.27038156676850411 -0.1690273239176717 0 -0.24908195067715769 -0.1622072390654917 0 -0.25040094365246929 -0.18566452696556651 0 -0.26206990220793458 -0.15954048489291309 0 -0.24908195067715769 -0.1622072390654917 0 -0.26206990220793458 -0.15954048489291309 0 -0.25515468045755269 -0.15050057120607691 0 -0.26206990220793458 -0.15954048489291309 0 -0.27038156676850411 -0.1690273239176717 0 -0.27368698284943971 -0.15822326391425101 0 -0.28827458297998099 -0.16986342931163989 0 -0.27038156676850411 -0.1690273239176717 0 -0.28827458297998099 -0.16986342931163989 0 -0.27038156676850411 -0.1690273239176717 0 -0.27368698284943971 -0.15822326391425101 0 -0.27825538007388478 -0.13359774949314049 0 -0.28326498152693291 -0.1517305894023902 0 -0.27368698284943971 -0.15822326391425101 0 -0.26703825199477299 -0.1454495028306782 0 -0.28326498152693291 -0.1517305894023902 0 -0.26703825199477299 -0.1454495028306782 0 -0.27825538007388478 -0.13359774949314049 0 -0.28326498152693291 -0.1517305894023902 0 -0.26206990220793458 -0.15954048489291309 0 -0.27368698284943971 -0.15822326391425101 0 -0.26703825199477299 -0.1454495028306782 0 -0.26206990220793458 -0.15954048489291309 0 -0.26703825199477299 -0.1454495028306782 0 -0.25515468045755269 -0.15050057120607691 0 -0.26703825199477299 -0.1454495028306782 0 -0.25515468045755269 -0.15050057120607691 0 -0.25322522312095491 -0.13844117171989689 0 -0.26703825199477299 -0.1454495028306782 0 -0.25322522312095491 -0.13844117171989689 0 -0.26344430667949609 -0.12670066377130279 0 -0.25231952184791723 -0.12683335823062611 0 -0.25322522312095491 -0.13844117171989689 0 -0.26344430667949609 -0.12670066377130279 0 -0.26703825199477299 -0.1454495028306782 0 -0.26344430667949609 -0.12670066377130279 0 -0.27825538007388478 -0.13359774949314049 0 -0.29019688339974142 -0.1145295976321045 0 -0.27825538007388478 -0.13359774949314049 0 -0.29455229188971388 -0.13885379114522839 0 -0.29932531367030712 -0.15705199146557861 0 -0.29455229188971388 -0.13885379114522839 0 -0.28326498152693291 -0.1517305894023902 0 -0.27825538007388478 -0.13359774949314049 0 -0.29455229188971388 -0.13885379114522839 0 -0.28326498152693291 -0.1517305894023902 0 -0.29932531367030712 -0.15705199146557861 0 -0.29455229188971388 -0.13885379114522839 0 -0.31274415525176857 -0.14674731878347699 0 -0.29455229188971388 -0.13885379114522839 0 -0.30962752487991702 -0.13073266690824689 0 -0.31274415525176857 -0.14674731878347699 0 -0.29019688339974142 -0.1145295976321045 0 -0.29455229188971388 -0.13885379114522839 0 -0.30962752487991702 -0.13073266690824689 0 -0.3216441479013199 -0.1148492219580749 0 -0.30962752487991702 -0.13073266690824689 0 -0.32460088440045221 -0.1325287871405311 0 -0.30962752487991702 -0.13073266690824689 0 -0.32460088440045221 -0.1325287871405311 0 -0.32905816636009461 -0.14693573618438699 0 -0.30962752487991702 -0.13073266690824689 0 -0.32905816636009461 -0.14693573618438699 0 -0.30962752487991702 -0.13073266690824689 0 -0.31274415525176857 -0.14674731878347699 0 -0.32905816636009461 -0.14693573618438699 0 -0.31274415525176857 -0.14674731878347699 0 -0.32664258131105189 -0.15529227124877401 0 -0.32905816636009461 -0.14693573618438699 0 -0.32664258131105189 -0.15529227124877401 0 -0.32905816636009461 -0.14693573618438699 0 -0.32905816636009461 -0.14693573618438699 0 -0.33904723356170979 -0.14942973692565081 0 -0.34633486566969351 -0.13509274037055399 0 -0.32664258131105189 -0.15529227124877401 0 -0.32905816636009461 -0.14693573618438699 0 -0.3354604702095999 -0.15227457036062281 0 -0.32905816636009461 -0.14693573618438699 0 -0.3354604702095999 -0.15227457036062281 0 -0.33904723356170979 -0.14942973692565081 0 -0.32905816636009461 -0.14693573618438699 0 -0.3354604702095999 -0.15227457036062281 0 -0.3354604702095999 -0.15227457036062281 0 -0.34767385528365791 -0.15208724804871471 0 -0.34803329282900541 -0.16275895483689981 0 -0.3354604702095999 -0.15227457036062281 0 -0.33904723356170979 -0.14942973692565081 0 -0.34767385528365791 -0.15208724804871471 0 -0.3354604702095999 -0.15227457036062281 0 -0.33904723356170979 -0.14942973692565081 0 -0.33605751922052191 -0.12272200062202319 0 -0.32905816636009461 -0.14693573618438699 0 -0.33605751922052191 -0.12272200062202319 0 -0.32905816636009461 -0.14693573618438699 0 -0.34633486566969351 -0.13509274037055399 0 -0.33605751922052191 -0.12272200062202319 0 -0.32460088440045221 -0.1325287871405311 0 -0.32905816636009461 -0.14693573618438699 0 -0.35817178244558712 -0.11398458349951859 0 -0.34633486566969351 -0.13509274037055399 0 -0.36246602913887882 -0.1301386387225496 0 -0.34633486566969351 -0.13509274037055399 0 -0.36246602913887882 -0.1301386387225496 0 -0.35818768355438813 -0.1455302269898136 0 -0.36246602913887882 -0.1301386387225496 0 -0.37316279132048369 -0.13696304087014721 0 -0.37647302270424171 -0.1191226018827146 0 -0.36246602913887882 -0.1301386387225496 0 -0.37316279132048369 -0.13696304087014721 0 -0.35818768355438813 -0.1455302269898136 0 -0.37316279132048369 -0.13696304087014721 0 -0.35818768355438813 -0.1455302269898136 0 -0.37299775532560892 -0.15694654324212359 0 -0.35818768355438813 -0.1455302269898136 0 -0.35874883548344971 -0.15841613586676989 0 -0.37299775532560892 -0.15694654324212359 0 -0.35818768355438813 -0.1455302269898136 0 -0.34767385528365791 -0.15208724804871471 0 -0.35874883548344971 -0.15841613586676989 0 -0.34633486566969351 -0.13509274037055399 0 -0.35818768355438813 -0.1455302269898136 0 -0.34732951866382938 -0.14509849943238751 0 -0.35818768355438813 -0.1455302269898136 0 -0.34732951866382938 -0.14509849943238751 0 -0.34767385528365791 -0.15208724804871471 0 -0.33904723356170979 -0.14942973692565081 0 -0.34633486566969351 -0.13509274037055399 0 -0.34732951866382938 -0.14509849943238751 0 -0.33904723356170979 -0.14942973692565081 0 -0.34732951866382938 -0.14509849943238751 0 -0.34767385528365791 -0.15208724804871471 0 -0.34767385528365791 -0.15208724804871471 0 -0.34803329282900541 -0.16275895483689981 0 -0.35874883548344971 -0.15841613586676989 0 -0.34803329282900541 -0.16275895483689981 0 -0.36060611544840998 -0.1732433393131779 0 -0.33624954934644102 -0.17210520496759271 0 -0.34803329282900541 -0.16275895483689981 0 -0.36060611544840998 -0.1732433393131779 0 -0.34803329282900541 -0.16275895483689981 0 -0.35874883548344971 -0.15841613586676989 0 -0.36060611544840998 -0.1732433393131779 0 -0.35874883548344971 -0.15841613586676989 0 -0.37299775532560892 -0.15694654324212359 0 -0.36060611544840998 -0.1732433393131779 0 -0.37299775532560892 -0.15694654324212359 0 -0.36060611544840998 -0.1732433393131779 0 -0.38572544792035618 -0.1744171162283982 0 -0.36060611544840998 -0.1732433393131779 0 -0.36216504151048151 -0.19848183994982599 0 -0.38056658739048221 -0.18988823032163241 0 -0.36060611544840998 -0.1732433393131779 0 -0.38056658739048221 -0.18988823032163241 0 -0.36060611544840998 -0.1732433393131779 0 -0.38572544792035618 -0.1744171162283982 0 -0.36060611544840998 -0.1732433393131779 0 -0.33624954934644102 -0.17210520496759271 0 -0.36060611544840998 -0.1732433393131779 0 -0.33624954934644102 -0.17210520496759271 0 -0.34011826194715139 -0.19294288761277201 0 -0.33624954934644102 -0.17210520496759271 0 -0.31912483067302128 -0.18902804089920811 0 -0.34011826194715139 -0.19294288761277201 0 -0.3354604702095999 -0.15227457036062281 0 -0.34803329282900541 -0.16275895483689981 0 -0.33624954934644102 -0.17210520496759271 0 -0.3354604702095999 -0.15227457036062281 0 -0.34803329282900541 -0.16275895483689981 0 -0.31189298324447212 -0.17096707062200309 0 -0.3354604702095999 -0.15227457036062281 0 -0.31189298324447212 -0.17096707062200309 0 -0.31274415525176857 -0.14674731878347699 0 -0.32664258131105189 -0.15529227124877401 0 -0.31189298324447212 -0.17096707062200309 0 -0.3354604702095999 -0.15227457036062281 0 -0.33624954934644102 -0.17210520496759271 0 -0.31189298324447212 -0.17096707062200309 0 -0.32664258131105189 -0.15529227124877401 0 -0.3354604702095999 -0.15227457036062281 0 -0.31189298324447212 -0.17096707062200309 0 -0.33624954934644102 -0.17210520496759271 0 -0.31189298324447212 -0.17096707062200309 0 -0.33624954934644102 -0.17210520496759271 0 -0.31912483067302128 -0.18902804089920811 0 -0.31912483067302128 -0.18902804089920811 0 -0.32471761610394467 -0.20619931811530631 0 -0.34011826194715139 -0.19294288761277201 0 -0.31029938104260463 -0.2170734391291807 0 -0.31912483067302128 -0.18902804089920811 0 -0.31029938104260463 -0.2170734391291807 0 -0.32471761610394467 -0.20619931811530631 0 -0.33784641860060971 -0.2185995824315215 0 -0.31029938104260463 -0.2170734391291807 0 -0.33784641860060971 -0.2185995824315215 0 -0.31029938104260463 -0.2170734391291807 0 -0.31912483067302128 -0.18902804089920811 0 -0.32471761610394467 -0.20619931811530631 0 -0.32471761610394467 -0.20619931811530631 0 -0.33784641860060971 -0.2185995824315215 0 -0.34011826194715139 -0.19294288761277201 0 -0.36060611544840998 -0.1732433393131779 0 -0.34011826194715139 -0.19294288761277201 0 -0.36216504151048151 -0.19848183994982599 0 -0.36216504151048151 -0.19848183994982599 0 -0.38018629205970078 -0.20765645089504531 0 -0.38056658739048221 -0.18988823032163241 0 -0.36216504151048151 -0.19848183994982599 0 -0.3653934561586149 -0.22012572573386269 0 -0.38018629205970078 -0.20765645089504531 0 -0.33784641860060971 -0.2185995824315215 0 -0.34011826194715139 -0.19294288761277201 0 -0.36216504151048151 -0.19848183994982599 0 -0.33784641860060971 -0.2185995824315215 0 -0.36216504151048151 -0.19848183994982599 0 -0.3653934561586149 -0.22012572573386269 0 -0.34689692093160629 -0.23389232152188821 0 -0.3653934561586149 -0.22012572573386269 0 -0.36285249048315238 -0.24154690764458531 0 -0.33784641860060971 -0.2185995824315215 0 -0.3653934561586149 -0.22012572573386269 0 -0.33784641860060971 -0.2185995824315215 0 -0.34689692093160629 -0.23389232152188821 0 -0.3653934561586149 -0.22012572573386269 0 -0.3653934561586149 -0.22012572573386269 0 -0.36285249048315238 -0.24154690764458531 0 -0.3788360468448605 -0.23453704632174971 0 -0.37825059063582961 -0.25078147603813578 0 -0.36285249048315238 -0.24154690764458531 0 -0.3788360468448605 -0.23453704632174971 0 -0.34632554738986171 -0.25125444355949739 0 -0.34689692093160629 -0.23389232152188821 0 -0.36285249048315238 -0.24154690764458531 0 -0.34689692093160629 -0.23389232152188821 0 -0.33263985886390068 -0.24449966060984951 0 -0.32892694406085909 -0.2301143835250154 0 -0.34632554738986171 -0.25125444355949739 0 -0.34689692093160629 -0.23389232152188821 0 -0.33263985886390068 -0.24449966060984951 0 -0.33784641860060971 -0.2185995824315215 0 -0.34689692093160629 -0.23389232152188821 0 -0.32892694406085909 -0.2301143835250154 0 -0.31029938104260463 -0.2170734391291807 0 -0.32892694406085909 -0.2301143835250154 0 -0.31695214086557388 -0.23650691393263759 0 -0.31029938104260463 -0.2170734391291807 0 -0.33784641860060971 -0.2185995824315215 0 -0.32892694406085909 -0.2301143835250154 0 -0.33263985886390068 -0.24449966060984951 0 -0.32892694406085909 -0.2301143835250154 0 -0.31695214086557388 -0.23650691393263759 0 -0.31853060179945469 -0.25503139173680628 0 -0.31695214086557388 -0.23650691393263759 0 -0.31853060179945469 -0.25503139173680628 0 -0.30518519645733821 -0.2333252279129707 0 -0.31695214086557388 -0.23650691393263759 0 -0.31853060179945469 -0.25503139173680628 0 -0.33263985886390068 -0.24449966060984951 0 -0.31695214086557388 -0.23650691393263759 0 -0.41721034388375311 -0.25972651116994921 0 -0.42435665366912823 -0.2404167469176143 0 -0.43627010288686729 -0.2445603647363345 0 -0.42435665366912823 -0.2404167469176143 0 -0.43627010288686729 -0.2445603647363345 0 -0.43384313579081379 -0.23431515289158811 0 -0.43384313579081379 -0.23431515289158811 0 -0.43442781650399798 -0.22481675587016919 0 -0.427958240354537 -0.22359189977025301 0 -0.43384313579081379 -0.23431515289158811 0 -0.43442781650399798 -0.22481675587016919 0 -0.44138967589406619 -0.2231971951259385 0 -0.42435665366912823 -0.2404167469176143 0 -0.43384313579081379 -0.23431515289158811 0 -0.42048753127462518 -0.22317801233854351 0 -0.43442781650399798 -0.22481675587016919 0 -0.43452021397657492 -0.21816277569289741 0 -0.44138967589406619 -0.2231971951259385 0 -0.43442781650399798 -0.22481675587016919 0 -0.427958240354537 -0.22359189977025301 0 -0.43452021397657492 -0.21816277569289741 0 -0.427958240354537 -0.22359189977025301 0 -0.42048753127462518 -0.22317801233854351 0 -0.42985520809724881 -0.21103728580030121 0 -0.427958240354537 -0.22359189977025301 0 -0.42048753127462518 -0.22317801233854351 0 -0.43384313579081379 -0.23431515289158811 0 -0.42048753127462518 -0.22317801233854351 0 -0.43384313579081379 -0.23431515289158811 0 -0.427958240354537 -0.22359189977025301 0 -0.42048753127462518 -0.22317801233854351 0 -0.42048753127462518 -0.22317801233854351 0 -0.39294049371661999 -0.22165186903620379 0 -0.42048753127462518 -0.22317801233854351 0 -0.4139721545095808 -0.24030369345165711 0 -0.39294049371661999 -0.22165186903620379 0 -0.41721034388375311 -0.25972651116994921 0 -0.42435665366912823 -0.2404167469176143 0 -0.4139721545095808 -0.24030369345165711 0 -0.42435665366912823 -0.2404167469176143 0 -0.42048753127462518 -0.22317801233854351 0 -0.4139721545095808 -0.24030369345165711 0 -0.39923731037318688 -0.25095687761448998 0 -0.4139721545095808 -0.24030369345165711 0 -0.39294049371661999 -0.22165186903620379 0 -0.37825059063582961 -0.25078147603813578 0 -0.39923731037318688 -0.25095687761448998 0 -0.3788360468448605 -0.23453704632174971 0 -0.39923731037318688 -0.25095687761448998 0 -0.3788360468448605 -0.23453704632174971 0 -0.39294049371661999 -0.22165186903620379 0 -0.3653934561586149 -0.22012572573386269 0 -0.39294049371661999 -0.22165186903620379 0 -0.3653934561586149 -0.22012572573386269 0 -0.3788360468448605 -0.23453704632174971 0 -0.39294049371661999 -0.22165186903620379 0 -0.42048753127462518 -0.22317801233854351 0 -0.39294049371661999 -0.22165186903620379 0 -0.40052705933255411 -0.20653312133008739 0 -0.39294049371661999 -0.22165186903620379 0 -0.40052705933255411 -0.20653312133008739 0 -0.38018629205970078 -0.20765645089504531 0 -0.3653934561586149 -0.22012572573386269 0 -0.39294049371661999 -0.22165186903620379 0 -0.38018629205970078 -0.20765645089504531 0 -0.40052705933255411 -0.20653312133008739 0 -0.38056658739048221 -0.18988823032163241 0 -0.40052705933255411 -0.20653312133008739 0 -0.38018629205970078 -0.20765645089504531 0 -0.38056658739048221 -0.18988823032163241 0 -0.40052705933255411 -0.20653312133008739 0 -0.38056658739048221 -0.18988823032163241 0 -0.39977387834733402 -0.18869990234451109 0 -0.40052705933255411 -0.20653312133008739 0 -0.39977387834733402 -0.18869990234451109 0 -0.42120551670097522 -0.1970701506988197 0 -0.42048753127462518 -0.22317801233854351 0 -0.40052705933255411 -0.20653312133008739 0 -0.42048753127462518 -0.22317801233854351 0 -0.40052705933255411 -0.20653312133008739 0 -0.42120551670097522 -0.1970701506988197 0 -0.42985520809724881 -0.21103728580030121 0 -0.43970286567385458 -0.1951380825007826 0 -0.44249241491095859 -0.20980528640950069 0 -0.42048753127462518 -0.22317801233854351 0 -0.42120551670097522 -0.1970701506988197 0 -0.42985520809724881 -0.21103728580030121 0 -0.427958240354537 -0.22359189977025301 0 -0.42985520809724881 -0.21103728580030121 0 -0.43452021397657492 -0.21816277569289741 0 -0.42985520809724881 -0.21103728580030121 0 -0.43452021397657492 -0.21816277569289741 0 -0.44249241491095859 -0.20980528640950069 0 -0.42120551670097522 -0.1970701506988197 0 -0.43596411286424841 -0.17676467005883739 0 -0.43970286567385458 -0.1951380825007826 0 -0.42120551670097522 -0.1970701506988197 0 -0.42985520809724881 -0.21103728580030121 0 -0.43970286567385458 -0.1951380825007826 0 -0.43596411286424841 -0.17676467005883739 0 -0.41084478039230232 -0.17559089314361781 0 -0.42120551670097522 -0.1970701506988197 0 -0.43596411286424841 -0.17676467005883739 0 -0.41084478039230232 -0.17559089314361781 0 -0.43596411286424841 -0.17676467005883739 0 -0.42191268279339661 -0.15454434053914379 0 -0.43957602516046962 -0.1596950609916081 0 -0.43596411286424841 -0.17676467005883739 0 -0.41084478039230232 -0.17559089314361781 0 -0.42191268279339661 -0.15454434053914379 0 -0.41084478039230232 -0.17559089314361781 0 -0.4017915847677227 -0.148103581051413 0 -0.42191268279339661 -0.15454434053914379 0 -0.39977387834733402 -0.18869990234451109 0 -0.42120551670097522 -0.1970701506988197 0 -0.41084478039230232 -0.17559089314361781 0 -0.41084478039230232 -0.17559089314361781 0 -0.38572544792035618 -0.1744171162283982 0 -0.39977387834733402 -0.18869990234451109 0 -0.41084478039230232 -0.17559089314361781 0 -0.38572544792035618 -0.1744171162283982 0 -0.38056658739048221 -0.18988823032163241 0 -0.39977387834733402 -0.18869990234451109 0 -0.38572544792035618 -0.1744171162283982 0 -0.36060611544840998 -0.1732433393131779 0 -0.38056658739048221 -0.18988823032163241 0 -0.38572544792035618 -0.1744171162283982 0 -0.37299775532560892 -0.15694654324212359 0 -0.38572544792035618 -0.1744171162283982 0 -0.39078282565623268 -0.1603789177313783 0 -0.41084478039230232 -0.17559089314361781 0 -0.39078282565623268 -0.1603789177313783 0 -0.4017915847677227 -0.148103581051413 0 -0.41084478039230232 -0.17559089314361781 0 -0.38572544792035618 -0.1744171162283982 0 -0.39078282565623268 -0.1603789177313783 0 -0.39078282565623268 -0.1603789177313783 0 -0.4017915847677227 -0.148103581051413 0 -0.38491741107499861 -0.14660158961281439 0 -0.4017915847677227 -0.148103581051413 0 -0.38491741107499861 -0.14660158961281439 0 -0.39057780070459469 -0.13014613441196021 0 -0.37316279132048369 -0.13696304087014721 0 -0.37299775532560892 -0.15694654324212359 0 -0.38491741107499861 -0.14660158961281439 0 -0.37299775532560892 -0.15694654324212359 0 -0.39078282565623268 -0.1603789177313783 0 -0.38491741107499861 -0.14660158961281439 0 -0.37316279132048369 -0.13696304087014721 0 -0.39057780070459469 -0.13014613441196021 0 -0.37647302270424171 -0.1191226018827146 0 -0.37316279132048369 -0.13696304087014721 0 -0.38491741107499861 -0.14660158961281439 0 -0.39057780070459469 -0.13014613441196021 0 -0.4017915847677227 -0.148103581051413 0 -0.39057780070459469 -0.13014613441196021 0 -0.41482651589514652 -0.1229744144482291 0 -0.4017915847677227 -0.148103581051413 0 -0.42191268279339661 -0.15454434053914379 0 -0.41482651589514652 -0.1229744144482291 0 -0.42191268279339661 -0.15454434053914379 0 -0.43607575181454222 -0.13941424199763669 0 -0.41482651589514652 -0.1229744144482291 0 -0.42191268279339661 -0.15454434053914379 0 -0.43607575181454222 -0.13941424199763669 0 -0.43957602516046962 -0.1596950609916081 0 -0.43607575181454222 -0.13941424199763669 0 -0.41482651589514652 -0.1229744144482291 0 -0.43607575181454222 -0.13941424199763669 0 -0.41482651589514652 -0.1229744144482291 0 -0.43539440333282903 -0.12369198652972641 0 -0.4562656277957145 -0.14160367949938729 0 -0.43539440333282903 -0.12369198652972641 0 -0.43607575181454222 -0.13941424199763669 0 -0.4562656277957145 -0.14160367949938729 0 -0.43539440333282903 -0.12369198652972641 0 -0.45008151432448601 -0.1276938632765533 0 -0.4562656277957145 -0.14160367949938729 0 -0.43539440333282903 -0.12369198652972641 0 -0.43607575181454222 -0.13941424199763669 0 -0.45732498773393798 -0.15585406954704431 0 -0.43607575181454222 -0.13941424199763669 0 -0.45732498773393798 -0.15585406954704431 0 -0.43957602516046962 -0.1596950609916081 0 -0.43607575181454222 -0.13941424199763669 0 -0.4562656277957145 -0.14160367949938729 0 -0.45732498773393798 -0.15585406954704431 0 -0.4562656277957145 -0.14160367949938729 0 -0.45732498773393798 -0.15585406954704431 0 -0.46420022622701451 -0.14800152806927139 0 -0.45732498773393798 -0.15585406954704431 0 -0.46420022622701451 -0.14800152806927139 0 -0.47164632494547598 -0.15475268819857671 0 -0.4562656277957145 -0.14160367949938729 0 -0.46420022622701451 -0.14800152806927139 0 -0.47156396443292953 -0.13979567503207749 0 -0.45008151432448601 -0.1276938632765533 0 -0.47156396443292953 -0.13979567503207749 0 -0.45782281941710001 -0.1145866727979989 0 -0.45008151432448601 -0.1276938632765533 0 -0.4562656277957145 -0.14160367949938729 0 -0.47156396443292953 -0.13979567503207749 0 -0.47156396443292953 -0.13979567503207749 0 -0.45782281941710001 -0.1145866727979989 0 -0.47156396443292953 -0.13979567503207749 0 -0.48614075241928201 -0.13348592823932171 0 -0.47708364674219772 -0.1204373846676467 0 -0.47156396443292953 -0.13979567503207749 0 -0.48614075241928201 -0.13348592823932171 0 -0.48575245657524208 -0.146844277667976 0 -0.48614075241928201 -0.13348592823932171 0 -0.49999999999999878 -0.14909083013434929 0 -0.5 -0.1199730540125719 0 -0.49999999999999878 -0.14909083013434929 0 -0.48575245657524208 -0.146844277667976 0 -0.48530510944875882 -0.1650046772661562 0 -0.48614075241928201 -0.13348592823932171 0 -0.49999999999999878 -0.14909083013434929 0 -0.48575245657524208 -0.146844277667976 0 -0.47156396443292953 -0.13979567503207749 0 -0.48530510944875882 -0.1650046772661562 0 -0.47156396443292953 -0.13979567503207749 0 -0.48575245657524208 -0.146844277667976 0 -0.48530510944875882 -0.1650046772661562 0 -0.47156396443292953 -0.13979567503207749 0 -0.47164632494547598 -0.15475268819857671 0 -0.48530510944875882 -0.1650046772661562 0 -0.46420022622701451 -0.14800152806927139 0 -0.47156396443292953 -0.13979567503207749 0 -0.47164632494547598 -0.15475268819857671 0 -0.45732498773393798 -0.15585406954704431 0 -0.4732126614453766 -0.16197633302705719 0 -0.47857422365333407 -0.17229389709645171 0 -0.4732126614453766 -0.16197633302705719 0 -0.48530510944875882 -0.1650046772661562 0 -0.47857422365333407 -0.17229389709645171 0 -0.48530510944875882 -0.1650046772661562 0 -0.47857422365333407 -0.17229389709645171 0 -0.47164632494547598 -0.15475268819857671 0 -0.4732126614453766 -0.16197633302705719 0 -0.48530510944875882 -0.1650046772661562 0 -0.49999999999999878 -0.14909083013434929 0 -0.5 -0.16898056912046919 0 -0.48530510944875882 -0.1650046772661562 0 -0.49999999999999878 -0.14909083013434929 0 -0.48530510944875882 -0.1650046772661562 0 -0.49708446811710838 -0.18661465799515531 0 -0.47857422365333407 -0.17229389709645171 0 -0.48530510944875882 -0.1650046772661562 0 -0.49708446811710838 -0.18661465799515531 0 -0.49708446811710838 -0.18661465799515531 0 -0.482096464106683 -0.18533123477438621 0 -0.47857422365333407 -0.17229389709645171 0 -0.48530510944875882 -0.1650046772661562 0 -0.49708446811710838 -0.18661465799515531 0 -0.47857422365333407 -0.17229389709645171 0 -0.5 -0.16898056912046919 0 -0.49708446811710838 -0.18661465799515531 0 -0.49999999999999722 -0.188870308106589 0 -0.5 -0.16898056912046919 0 -0.48530510944875882 -0.1650046772661562 0 -0.49708446811710838 -0.18661465799515531 0 -0.47857422365333407 -0.17229389709645171 0 -0.46770862946706532 -0.18406080371433509 0 -0.482096464106683 -0.18533123477438621 0 -0.47857422365333407 -0.17229389709645171 0 -0.46770862946706532 -0.18406080371433509 0 -0.45732498773393798 -0.15585406954704431 0 -0.46770862946706532 -0.18406080371433509 0 -0.44942204497523558 -0.17768898956746829 0 -0.46770862946706532 -0.18406080371433509 0 -0.44942204497523558 -0.17768898956746829 0 -0.45684303528079923 -0.19582771033222121 0 -0.45732498773393798 -0.15585406954704431 0 -0.47857422365333407 -0.17229389709645171 0 -0.45732498773393798 -0.15585406954704431 0 -0.47857422365333407 -0.17229389709645171 0 -0.46770862946706532 -0.18406080371433509 0 -0.45732498773393798 -0.15585406954704431 0 -0.47164632494547598 -0.15475268819857671 0 -0.4732126614453766 -0.16197633302705719 0 -0.45732498773393798 -0.15585406954704431 0 -0.43957602516046962 -0.1596950609916081 0 -0.44942204497523558 -0.17768898956746829 0 -0.43596411286424841 -0.17676467005883739 0 -0.43957602516046962 -0.1596950609916081 0 -0.44942204497523558 -0.17768898956746829 0 -0.43596411286424841 -0.17676467005883739 0 -0.44942204497523558 -0.17768898956746829 0 -0.43970286567385458 -0.1951380825007826 0 -0.44942204497523558 -0.17768898956746829 0 -0.43970286567385458 -0.1951380825007826 0 -0.45684303528079923 -0.19582771033222121 0 -0.43970286567385458 -0.1951380825007826 0 -0.44249241491095859 -0.20980528640950069 0 -0.45684303528079923 -0.19582771033222121 0 -0.44249241491095859 -0.20980528640950069 0 -0.45878117564315202 -0.2128897888633581 0 -0.45684303528079923 -0.19582771033222121 0 -0.44249241491095859 -0.20980528640950069 0 -0.45878117564315202 -0.2128897888633581 0 -0.44138967589406619 -0.2231971951259385 0 -0.43452021397657492 -0.21816277569289741 0 -0.44249241491095859 -0.20980528640950069 0 -0.44138967589406619 -0.2231971951259385 0 -0.45878117564315202 -0.2128897888633581 0 -0.46847598140502628 -0.2016093129945187 0 -0.45684303528079923 -0.19582771033222121 0 -0.45878117564315202 -0.2128897888633581 0 -0.46847598140502628 -0.2016093129945187 0 -0.47402853144489138 -0.21691268177107631 0 -0.46770862946706532 -0.18406080371433509 0 -0.46847598140502628 -0.2016093129945187 0 -0.45684303528079923 -0.19582771033222121 0 -0.46770862946706532 -0.18406080371433509 0 -0.45684303528079923 -0.19582771033222121 0 -0.46770862946706532 -0.18406080371433509 0 -0.46847598140502628 -0.2016093129945187 0 -0.48501853518922361 -0.19835558029160269 0 -0.482096464106683 -0.18533123477438621 0 -0.46770862946706532 -0.18406080371433509 0 -0.48501853518922361 -0.19835558029160269 0 -0.49708446811710838 -0.18661465799515531 0 -0.482096464106683 -0.18533123477438621 0 -0.48501853518922361 -0.19835558029160269 0 -0.49708446811710838 -0.18661465799515531 0 -0.48501853518922361 -0.19835558029160269 0 -0.50000000000000089 -0.1919633861880895 0 -0.49708446811710838 -0.18661465799515531 0 -0.50000000000000089 -0.1919633861880895 0 -0.49708446811710838 -0.18661465799515531 0 -0.50000000000000089 -0.1919633861880895 0 -0.49999999999999722 -0.188870308106589 0 -0.49708446811710838 -0.18661465799515531 0 -0.49999999999999722 -0.188870308106589 0 -0.48501853518922361 -0.19835558029160269 0 -0.50000000000000089 -0.1919633861880895 0 -0.5 -0.219335600794619 0 -0.48501853518922361 -0.19835558029160269 0 -0.47402853144489138 -0.21691268177107631 0 -0.5 -0.219335600794619 0 -0.46847598140502628 -0.2016093129945187 0 -0.48501853518922361 -0.19835558029160269 0 -0.47402853144489138 -0.21691268177107631 0 -0.47402853144489138 -0.21691268177107631 0 -0.5 -0.219335600794619 0 -0.47665605152286777 -0.2387320218547713 0 -0.48189917680180622 -0.25820868803071712 0 -0.5 -0.2467078154011485 0 -0.47665605152286777 -0.2387320218547713 0 -0.5 -0.219335600794619 0 -0.5 -0.2467078154011485 0 -0.47665605152286777 -0.2387320218547713 0 -0.44864830593964822 -0.2500334732373703 0 -0.46008992279147271 -0.24262754790179211 0 -0.45532986188998148 -0.2293942183027198 0 -0.46208935328757689 -0.25642578960946882 0 -0.47665605152286777 -0.2387320218547713 0 -0.46008992279147271 -0.24262754790179211 0 -0.47665605152286777 -0.2387320218547713 0 -0.46008992279147271 -0.24262754790179211 0 -0.45532986188998148 -0.2293942183027198 0 -0.44864830593964822 -0.2500334732373703 0 -0.46208935328757689 -0.25642578960946882 0 -0.46008992279147271 -0.24262754790179211 0 -0.45878117564315202 -0.2128897888633581 0 -0.47402853144489138 -0.21691268177107631 0 -0.45532986188998148 -0.2293942183027198 0 -0.47402853144489138 -0.21691268177107631 0 -0.47665605152286777 -0.2387320218547713 0 -0.45532986188998148 -0.2293942183027198 0 -0.45878117564315202 -0.2128897888633581 0 -0.45532986188998148 -0.2293942183027198 0 -0.44138967589406619 -0.2231971951259385 0 -0.43384313579081379 -0.23431515289158811 0 -0.45532986188998148 -0.2293942183027198 0 -0.44138967589406619 -0.2231971951259385 0 -0.44864830593964822 -0.2500334732373703 0 -0.43627010288686729 -0.2445603647363345 0 -0.45532986188998148 -0.2293942183027198 0 -0.43627010288686729 -0.2445603647363345 0 -0.43384313579081379 -0.23431515289158811 0 -0.45532986188998148 -0.2293942183027198 0 -0.43627010288686729 -0.2445603647363345 0 -0.45532986188998148 -0.2293942183027198 0 -0.41659938436961219 -0.038959666095762818 0 -0.40080922777923811 -0.035712047031462753 0 -0.41659938436961219 -0.038959666095762818 0 -0.40781723167671419 -0.02284824986369257 0 -0.40080922777923811 -0.035712047031462753 0 -0.41659938436961219 -0.038959666095762818 0 -0.40080922777923811 -0.035712047031462753 0 -0.40189377369588331 -0.053046994719456293 0 -0.41659938436961219 -0.038959666095762818 0 -0.41359181083115221 -0.062118036201547627 0 -0.43034052938544098 -0.064168668329841638 0 -0.41659938436961219 -0.038959666095762818 0 -0.41359181083115221 -0.062118036201547627 0 -0.40189377369588331 -0.053046994719456293 0 -0.41659938436961219 -0.038959666095762818 0 -0.43034052938544098 -0.064168668329841638 0 -0.44025400172577089 -0.043824797473331317 0 -0.41659938436961219 -0.038959666095762818 0 -0.43034052938544098 -0.064168668329841638 0 -0.41659938436961219 -0.038959666095762818 0 -0.44025400172577089 -0.043824797473331317 0 -0.41659938436961219 -0.038959666095762818 0 -0.43332157196953119 -0.029710746417465201 0 -0.44025400172577089 -0.043824797473331317 0 -0.41659938436961219 -0.038959666095762818 0 -0.43332157196953119 -0.029710746417465201 0 -0.42278762662381009 -0.022762367233453481 0 -0.43332157196953119 -0.029710746417465201 0 -0.42278762662381009 -0.022762367233453481 0 -0.43547288136350942 -0.015573127990927251 0 -0.43547288136350942 -0.015573127990927251 0 -0.417688274761572 -0.0063401953291074946 0 -0.43184279369704071 0.0039503429479802368 0 -0.42278762662381009 -0.022762367233453481 0 -0.43547288136350942 -0.015573127990927251 0 -0.417688274761572 -0.0063401953291074946 0 -0.417688274761572 -0.0063401953291074946 0 -0.40781723167671419 -0.02284824986369257 0 -0.39903507898381679 -0.006736833631622044 0 -0.417688274761572 -0.0063401953291074946 0 -0.39903507898381679 -0.006736833631622044 0 -0.40455382236095622 0.0087036601158644172 0 -0.41659938436961219 -0.038959666095762818 0 -0.40781723167671419 -0.02284824986369257 0 -0.42278762662381009 -0.022762367233453481 0 -0.417688274761572 -0.0063401953291074946 0 -0.40781723167671419 -0.02284824986369257 0 -0.41659938436961219 -0.038959666095762818 0 -0.42278762662381009 -0.022762367233453481 0 -0.40781723167671419 -0.02284824986369257 0 -0.39645760847237932 -0.024347563505288911 0 -0.3850190711888638 -0.032464427967163541 0 -0.40080922777923811 -0.035712047031462753 0 -0.39645760847237932 -0.024347563505288911 0 -0.39903507898381679 -0.006736833631622044 0 -0.38812781424765791 -0.01747637193567066 0 -0.40781723167671419 -0.02284824986369257 0 -0.39645760847237932 -0.024347563505288911 0 -0.40080922777923811 -0.035712047031462753 0 -0.40781723167671419 -0.02284824986369257 0 -0.39645760847237932 -0.024347563505288911 0 -0.39903507898381679 -0.006736833631622044 0 -0.40781723167671419 -0.02284824986369257 0 -0.39903507898381679 -0.006736833631622044 0 -0.36657771537407402 -0.0014408962769119999 0 -0.37964144693450369 -0.0074506478669849599 0 -0.38346250326252601 0.0086969794092609867 0 -0.39903507898381679 -0.006736833631622044 0 -0.37964144693450369 -0.0074506478669849599 0 -0.38812781424765791 -0.01747637193567066 0 -0.39903507898381679 -0.006736833631622044 0 -0.37964144693450369 -0.0074506478669849599 0 -0.38346250326252601 0.0086969794092609867 0 -0.37176733212919311 -0.026708944135735879 0 -0.37964144693450369 -0.0074506478669849599 0 -0.38812781424765791 -0.01747637193567066 0 -0.37176733212919311 -0.026708944135735879 0 -0.38812781424765791 -0.01747637193567066 0 -0.3850190711888638 -0.032464427967163541 0 -0.39645760847237932 -0.024347563505288911 0 -0.38812781424765791 -0.01747637193567066 0 -0.3850190711888638 -0.032464427967163541 0 -0.37494807423128568 -0.037518934848756909 0 -0.37176733212919311 -0.026708944135735879 0 -0.3850190711888638 -0.032464427967163541 0 -0.37494807423128568 -0.037518934848756909 0 -0.38795350019526992 -0.0452596203459701 0 -0.3850190711888638 -0.032464427967163541 0 -0.37240979630777749 -0.0503623684697838 0 -0.37494807423128568 -0.037518934848756909 0 -0.38795350019526992 -0.0452596203459701 0 -0.38795350019526992 -0.0452596203459701 0 -0.40080922777923811 -0.035712047031462753 0 -0.40189377369588331 -0.053046994719456293 0 -0.3850190711888638 -0.032464427967163541 0 -0.40080922777923811 -0.035712047031462753 0 -0.38795350019526992 -0.0452596203459701 0 -0.3850190711888638 -0.032464427967163541 0 -0.40080922777923811 -0.035712047031462753 0 -0.41359181083115221 -0.062118036201547627 0 -0.40189377369588331 -0.053046994719456293 0 -0.40156549214094039 -0.07169075055001653 0 -0.40189377369588331 -0.053046994719456293 0 -0.38665926205892392 -0.06046251071107004 0 -0.40156549214094039 -0.07169075055001653 0 -0.38795350019526992 -0.0452596203459701 0 -0.40189377369588331 -0.053046994719456293 0 -0.38665926205892392 -0.06046251071107004 0 -0.36933359795143372 -0.067188100955412874 0 -0.37240979630777749 -0.0503623684697838 0 -0.38665926205892392 -0.06046251071107004 0 -0.37240979630777749 -0.0503623684697838 0 -0.38795350019526992 -0.0452596203459701 0 -0.38665926205892392 -0.06046251071107004 0 -0.36933359795143372 -0.067188100955412874 0 -0.38665926205892392 -0.06046251071107004 0 -0.38381631322768439 -0.075670071559628557 0 -0.38665926205892392 -0.06046251071107004 0 -0.38381631322768439 -0.075670071559628557 0 -0.40156549214094039 -0.07169075055001653 0 -0.37232804405635472 -0.090094759349413772 0 -0.36933359795143372 -0.067188100955412874 0 -0.38381631322768439 -0.075670071559628557 0 -0.37232804405635472 -0.090094759349413772 0 -0.38381631322768439 -0.075670071559628557 0 -0.39365195440705769 -0.087868600590404411 0 -0.39365195440705769 -0.087868600590404411 0 -0.40156549214094039 -0.07169075055001653 0 -0.41755987456388383 -0.082724101312660947 0 -0.38381631322768439 -0.075670071559628557 0 -0.39365195440705769 -0.087868600590404411 0 -0.40156549214094039 -0.07169075055001653 0 -0.39057780070459469 -0.13014613441196021 0 -0.37647302270424171 -0.1191226018827146 0 -0.39357727997575048 -0.10653458689882141 0 -0.37232804405635472 -0.090094759349413772 0 -0.39357727997575048 -0.10653458689882141 0 -0.37232804405635472 -0.090094759349413772 0 -0.39365195440705769 -0.087868600590404411 0 -0.39357727997575048 -0.10653458689882141 0 -0.37232804405635472 -0.090094759349413772 0 -0.37647302270424171 -0.1191226018827146 0 -0.39357727997575048 -0.10653458689882141 0 -0.39365195440705769 -0.087868600590404411 0 -0.39357727997575048 -0.10653458689882141 0 -0.41452317886994339 -0.10578029356006551 0 -0.39365195440705769 -0.087868600590404411 0 -0.41452317886994339 -0.10578029356006551 0 -0.39357727997575048 -0.10653458689882141 0 -0.41482651589514652 -0.1229744144482291 0 -0.39057780070459469 -0.13014613441196021 0 -0.39357727997575048 -0.10653458689882141 0 -0.41482651589514652 -0.1229744144482291 0 -0.41482651589514652 -0.1229744144482291 0 -0.41452317886994339 -0.10578029356006551 0 -0.43539440333282903 -0.12369198652972641 0 -0.39357727997575048 -0.10653458689882141 0 -0.41482651589514652 -0.1229744144482291 0 -0.41452317886994339 -0.10578029356006551 0 -0.41452317886994339 -0.10578029356006551 0 -0.42780593236351011 -0.0958830825975127 0 -0.41755987456388383 -0.082724101312660947 0 -0.43505900161894268 -0.1056502649534041 0 -0.42780593236351011 -0.0958830825975127 0 -0.44408167440127061 -0.08937767056392032 0 -0.41452317886994339 -0.10578029356006551 0 -0.43505900161894268 -0.1056502649534041 0 -0.42780593236351011 -0.0958830825975127 0 -0.41452317886994339 -0.10578029356006551 0 -0.43505900161894268 -0.1056502649534041 0 -0.43539440333282903 -0.12369198652972641 0 -0.41452317886994339 -0.10578029356006551 0 -0.43539440333282903 -0.12369198652972641 0 -0.41359181083115221 -0.062118036201547627 0 -0.41755987456388383 -0.082724101312660947 0 -0.43034052938544098 -0.064168668329841638 0 -0.41359181083115221 -0.062118036201547627 0 -0.40156549214094039 -0.07169075055001653 0 -0.41755987456388383 -0.082724101312660947 0 -0.39365195440705769 -0.087868600590404411 0 -0.41452317886994339 -0.10578029356006551 0 -0.41755987456388383 -0.082724101312660947 0 -0.42780593236351011 -0.0958830825975127 0 -0.41755987456388383 -0.082724101312660947 0 -0.44408167440127061 -0.08937767056392032 0 -0.41755987456388383 -0.082724101312660947 0 -0.43034052938544098 -0.064168668329841638 0 -0.44408167440127061 -0.08937767056392032 0 -0.43034052938544098 -0.064168668329841638 0 -0.44408167440127061 -0.08937767056392032 0 -0.43034052938544098 -0.064168668329841638 0 -0.45275260049136817 -0.064646771821648089 0 -0.44408167440127061 -0.08937767056392032 0 -0.44408167440127061 -0.08937767056392032 0 -0.46655734434553559 -0.077302516116467712 0 -0.47635548978188452 -0.098318541636210829 0 -0.45275260049136817 -0.064646771821648089 0 -0.44408167440127061 -0.08937767056392032 0 -0.46655734434553559 -0.077302516116467712 0 -0.45275260049136817 -0.064646771821648089 0 -0.46655734434553559 -0.077302516116467712 0 -0.47096710976955508 -0.063574799151892944 0 -0.44408167440127061 -0.08937767056392032 0 -0.45782281941710001 -0.1145866727979989 0 -0.47635548978188452 -0.098318541636210829 0 -0.43505900161894268 -0.1056502649534041 0 -0.43539440333282903 -0.12369198652972641 0 -0.45782281941710001 -0.1145866727979989 0 -0.45008151432448601 -0.1276938632765533 0 -0.43539440333282903 -0.12369198652972641 0 -0.45782281941710001 -0.1145866727979989 0 -0.44408167440127061 -0.08937767056392032 0 -0.45782281941710001 -0.1145866727979989 0 -0.43505900161894268 -0.1056502649534041 0 -0.44408167440127061 -0.08937767056392032 0 -0.45782281941710001 -0.1145866727979989 0 -0.47156396443292953 -0.13979567503207749 0 -0.45782281941710001 -0.1145866727979989 0 -0.47708364674219772 -0.1204373846676467 0 -0.45782281941710001 -0.1145866727979989 0 -0.47708364674219772 -0.1204373846676467 0 -0.47635548978188452 -0.098318541636210829 0 -0.47635548978188452 -0.098318541636210829 0 -0.5 -0.1199730540125719 0 -0.5 -0.090855277890794284 0 -0.48614075241928201 -0.13348592823932171 0 -0.47708364674219772 -0.1204373846676467 0 -0.5 -0.1199730540125719 0 -0.47708364674219772 -0.1204373846676467 0 -0.47635548978188452 -0.098318541636210829 0 -0.5 -0.1199730540125719 0 -0.48405374849085442 -0.073679718741978303 0 -0.47096710976955508 -0.063574799151892944 0 -0.48756323643808791 -0.053555060228470001 0 -0.46655734434553559 -0.077302516116467712 0 -0.48405374849085442 -0.073679718741978303 0 -0.47096710976955508 -0.063574799151892944 0 -0.46655734434553559 -0.077302516116467712 0 -0.47635548978188452 -0.098318541636210829 0 -0.48405374849085442 -0.073679718741978303 0 -0.47635548978188452 -0.098318541636210829 0 -0.48405374849085442 -0.073679718741978303 0 -0.5 -0.090855277890794284 0 -0.48405374849085442 -0.073679718741978303 0 -0.5 -0.061737501769016823 0 -0.48756323643808791 -0.053555060228470001 0 -0.48405374849085442 -0.073679718741978303 0 -0.5 -0.090855277890794284 0 -0.5 -0.061737501769016823 0 -0.5 -0.061737501769016823 0 -0.48756323643808791 -0.053555060228470001 0 -0.5 -0.03261972564723925 0 -0.48756323643808791 -0.053555060228470001 0 -0.5 -0.03261972564723925 0 -0.47770773882917439 -0.033498035119173937 0 -0.48756323643808791 -0.053555060228470001 0 -0.47770773882917439 -0.033498035119173937 0 -0.46390861908192937 -0.048689928850900663 0 -0.48756323643808791 -0.053555060228470001 0 -0.46390861908192937 -0.048689928850900663 0 -0.47096710976955508 -0.063574799151892944 0 -0.48756323643808791 -0.053555060228470001 0 -0.46390861908192937 -0.048689928850900663 0 -0.45275260049136817 -0.064646771821648089 0 -0.47096710976955508 -0.063574799151892944 0 -0.46390861908192937 -0.048689928850900663 0 -0.47770773882917439 -0.033498035119173937 0 -0.46390861908192937 -0.048689928850900663 0 -0.45149396576495332 -0.027433773293851091 0 -0.46390861908192937 -0.048689928850900663 0 -0.44025400172577089 -0.043824797473331317 0 -0.45149396576495332 -0.027433773293851091 0 -0.46390861908192937 -0.048689928850900663 0 -0.44025400172577089 -0.043824797473331317 0 -0.43332157196953119 -0.029710746417465201 0 -0.44025400172577089 -0.043824797473331317 0 -0.45149396576495332 -0.027433773293851091 0 -0.43034052938544098 -0.064168668329841638 0 -0.45275260049136817 -0.064646771821648089 0 -0.44025400172577089 -0.043824797473331317 0 -0.45275260049136817 -0.064646771821648089 0 -0.46390861908192937 -0.048689928850900663 0 -0.44025400172577089 -0.043824797473331317 0 -0.43547288136350942 -0.015573127990927251 0 -0.45176754476613079 -0.0081978237872440875 0 -0.43184279369704071 0.0039503429479802368 0 -0.43332157196953119 -0.029710746417465201 0 -0.43547288136350942 -0.015573127990927251 0 -0.45149396576495332 -0.027433773293851091 0 -0.43547288136350942 -0.015573127990927251 0 -0.45176754476613079 -0.0081978237872440875 0 -0.45149396576495332 -0.027433773293851091 0 -0.45176754476613079 -0.0081978237872440875 0 -0.45149396576495332 -0.027433773293851091 0 -0.46796772986642471 -0.01631542982085599 0 -0.47770773882917439 -0.033498035119173937 0 -0.45149396576495332 -0.027433773293851091 0 -0.46796772986642471 -0.01631542982085599 0 -0.45176754476613079 -0.0081978237872440875 0 -0.46796772986642471 -0.01631542982085599 0 -0.47351699325595009 0.005119813871112858 0 -0.46796772986642471 -0.01631542982085599 0 -0.48532365955397883 -0.01663445046656568 0 -0.47351699325595009 0.005119813871112858 0 -0.47770773882917439 -0.033498035119173937 0 -0.46796772986642471 -0.01631542982085599 0 -0.48532365955397883 -0.01663445046656568 0 -0.5 -0.03261972564723925 0 -0.47770773882917439 -0.033498035119173937 0 -0.48532365955397883 -0.01663445046656568 0 -0.5 -0.03261972564723925 0 -0.48532365955397883 -0.01663445046656568 0 -0.5 -0.003501949525461789 0 -0.48532365955397883 -0.01663445046656568 0 -0.5 -0.003501949525461789 0 -0.47351699325595009 0.005119813871112858 0 -0.5 -0.003501949525461789 0 -0.5 0.025615826596315731 0 -0.47351699325595009 0.005119813871112858 0 -0.5 0.025615826596315731 0 -0.46947364651915102 0.03015353437985864 0 -0.47351699325595009 0.005119813871112858 0 -0.5 0.054733602718093237 0 -0.48239019544196338 0.045777500081343993 0 -0.47763208638161081 0.064775821667537981 0 -0.5 0.025615826596315731 0 -0.5 0.054733602718093237 0 -0.48239019544196338 0.045777500081343993 0 -0.5 0.025615826596315731 0 -0.46947364651915102 0.03015353437985864 0 -0.48239019544196338 0.045777500081343993 0 -0.46947364651915102 0.03015353437985864 0 -0.48239019544196338 0.045777500081343993 0 -0.46304099692097228 0.048267971785670737 0 -0.48239019544196338 0.045777500081343993 0 -0.46304099692097228 0.048267971785670737 0 -0.47763208638161081 0.064775821667537981 0 -0.46304099692097228 0.048267971785670737 0 -0.45611358846225492 0.067011144107833931 0 -0.47763208638161081 0.064775821667537981 0 -0.46304099692097228 0.048267971785670737 0 -0.44462658055137982 0.049334092409586763 0 -0.45611358846225492 0.067011144107833931 0 -0.46947364651915102 0.03015353437985864 0 -0.46304099692097228 0.048267971785670737 0 -0.44788289603686732 0.032179841160540318 0 -0.46304099692097228 0.048267971785670737 0 -0.44788289603686732 0.032179841160540318 0 -0.44462658055137982 0.049334092409586763 0 -0.44788289603686732 0.032179841160540318 0 -0.44462658055137982 0.049334092409586763 0 -0.4276700428038907 0.03547936536772224 0 -0.44462658055137982 0.049334092409586763 0 -0.43133621824615648 0.055473856001693411 0 -0.43852073745123271 0.068523384402863041 0 -0.44462658055137982 0.049334092409586763 0 -0.43852073745123271 0.068523384402863041 0 -0.45611358846225492 0.067011144107833931 0 -0.46947364651915102 0.03015353437985864 0 -0.47351699325595009 0.005119813871112858 0 -0.44806640231489431 0.0095403573358693143 0 -0.45176754476613079 -0.0081978237872440875 0 -0.47351699325595009 0.005119813871112858 0 -0.44806640231489431 0.0095403573358693143 0 -0.46947364651915102 0.03015353437985864 0 -0.44788289603686732 0.032179841160540318 0 -0.44806640231489431 0.0095403573358693143 0 -0.44788289603686732 0.032179841160540318 0 -0.44806640231489431 0.0095403573358693143 0 -0.43477780298086738 0.019362785373568982 0 -0.45176754476613079 -0.0081978237872440875 0 -0.44806640231489431 0.0095403573358693143 0 -0.43184279369704071 0.0039503429479802368 0 -0.44806640231489431 0.0095403573358693143 0 -0.43184279369704071 0.0039503429479802368 0 -0.43477780298086738 0.019362785373568982 0 -0.417688274761572 -0.0063401953291074946 0 -0.43184279369704071 0.0039503429479802368 0 -0.41953618063505888 0.0150537467075224 0 -0.43184279369704071 0.0039503429479802368 0 -0.41953618063505888 0.0150537467075224 0 -0.43477780298086738 0.019362785373568982 0 -0.417688274761572 -0.0063401953291074946 0 -0.41953618063505888 0.0150537467075224 0 -0.40455382236095622 0.0087036601158644172 0 -0.41953618063505888 0.0150537467075224 0 -0.40886739286436902 0.027405794508625 0 -0.40455382236095622 0.0087036601158644172 0 -0.41953618063505888 0.0150537467075224 0 -0.40886739286436902 0.027405794508625 0 -0.4276700428038907 0.03547936536772224 0 -0.41953618063505888 0.0150537467075224 0 -0.43477780298086738 0.019362785373568982 0 -0.4276700428038907 0.03547936536772224 0 -0.44788289603686732 0.032179841160540318 0 -0.43477780298086738 0.019362785373568982 0 -0.4276700428038907 0.03547936536772224 0 -0.44462658055137982 0.049334092409586763 0 -0.4276700428038907 0.03547936536772224 0 -0.43133621824615648 0.055473856001693411 0 -0.4276700428038907 0.03547936536772224 0 -0.43133621824615648 0.055473856001693411 0 -0.41992926590905189 0.049722385251877617 0 -0.43133621824615648 0.055473856001693411 0 -0.4200868548592025 0.060740928134985731 0 -0.41992926590905189 0.049722385251877617 0 -0.43133621824615648 0.055473856001693411 0 -0.4200868548592025 0.060740928134985731 0 -0.427036748388749 0.067984029776446686 0 -0.4200868548592025 0.060740928134985731 0 -0.41992926590905189 0.049722385251877617 0 -0.41157538036573882 0.054851644539261502 0 -0.41992926590905189 0.049722385251877617 0 -0.41157538036573882 0.054851644539261502 0 -0.40885773019085347 0.043181071413580407 0 -0.4200868548592025 0.060740928134985731 0 -0.41157538036573882 0.054851644539261502 0 -0.41027143430888358 0.064012280175861594 0 -0.41157538036573882 0.054851644539261502 0 -0.39849141040186808 0.058831436115712649 0 -0.41027143430888358 0.064012280175861594 0 -0.4276700428038907 0.03547936536772224 0 -0.41992926590905189 0.049722385251877617 0 -0.40885773019085347 0.043181071413580407 0 -0.40886739286436902 0.027405794508625 0 -0.4276700428038907 0.03547936536772224 0 -0.40885773019085347 0.043181071413580407 0 -0.40885773019085347 0.043181071413580407 0 -0.39304163358286809 0.043789052104785217 0 -0.39837862366001642 0.033109187500728991 0 -0.40886739286436902 0.027405794508625 0 -0.40885773019085347 0.043181071413580407 0 -0.39837862366001642 0.033109187500728991 0 -0.40885773019085347 0.043181071413580407 0 -0.39304163358286809 0.043789052104785217 0 -0.39304163358286809 0.043789052104785217 0 -0.39837862366001642 0.033109187500728991 0 -0.38622811202129048 0.031728043507430012 0 -0.41157538036573882 0.054851644539261502 0 -0.40885773019085347 0.043181071413580407 0 -0.39849141040186808 0.058831436115712649 0 -0.40885773019085347 0.043181071413580407 0 -0.39304163358286809 0.043789052104785217 0 -0.39849141040186808 0.058831436115712649 0 -0.39849141040186808 0.058831436115712649 0 -0.37722553697488281 0.044397032795990499 0 -0.38494642594616801 0.070826159333228222 0 -0.39304163358286809 0.043789052104785217 0 -0.39849141040186808 0.058831436115712649 0 -0.37722553697488281 0.044397032795990499 0 -0.37722553697488281 0.044397032795990499 0 -0.38494642594616801 0.070826159333228222 0 -0.36872059240698812 0.055469446300106431 0 -0.37722553697488281 0.044397032795990499 0 -0.38494642594616801 0.070826159333228222 0 -0.39304163358286809 0.043789052104785217 0 -0.37722553697488281 0.044397032795990499 0 -0.38622811202129048 0.031728043507430012 0 -0.37722553697488281 0.044397032795990499 0 -0.38622811202129048 0.031728043507430012 0 -0.37259585609841578 0.028549321196182292 0 -0.39304163358286809 0.043789052104785217 0 -0.37722553697488281 0.044397032795990499 0 -0.38622811202129048 0.031728043507430012 0 -0.38130041726254071 0.020413739290956232 0 -0.37259585609841578 0.028549321196182292 0 -0.38622811202129048 0.031728043507430012 0 -0.38130041726254071 0.020413739290956232 0 -0.39482660454901958 0.02010992815593687 0 -0.38130041726254071 0.020413739290956232 0 -0.38346250326252601 0.0086969794092609867 0 -0.39482660454901958 0.02010992815593687 0 -0.38130041726254071 0.020413739290956232 0 -0.38346250326252601 0.0086969794092609867 0 -0.36796617522195069 0.01270160959637354 0 -0.39903507898381679 -0.006736833631622044 0 -0.38346250326252601 0.0086969794092609867 0 -0.40455382236095622 0.0087036601158644172 0 -0.38346250326252601 0.0086969794092609867 0 -0.40455382236095622 0.0087036601158644172 0 -0.39482660454901958 0.02010992815593687 0 -0.40886739286436902 0.027405794508625 0 -0.40455382236095622 0.0087036601158644172 0 -0.39482660454901958 0.02010992815593687 0 -0.40886739286436902 0.027405794508625 0 -0.39837862366001642 0.033109187500728991 0 -0.39482660454901958 0.02010992815593687 0 -0.39837862366001642 0.033109187500728991 0 -0.38622811202129048 0.031728043507430012 0 -0.39482660454901958 0.02010992815593687 0 -0.39439046986610432 0.1030277774923171 0 -0.39978569618221599 0.1131574205127046 0 -0.39143773841360519 0.110118417613217 0 -0.39699130641373032 0.096976462711670208 0 -0.38712311750082501 0.097693680258282067 0 -0.39264783568369482 0.089347809857065905 0 -0.39439046986610432 0.1030277774923171 0 -0.39699130641373032 0.096976462711670208 0 -0.38712311750082501 0.097693680258282067 0 -0.39439046986610432 0.1030277774923171 0 -0.39699130641373032 0.096976462711670208 0 -0.40153786221464588 0.1019509733845687 0 -0.4057219031625165 0.094003547540098292 0 -0.40153786221464588 0.1019509733845687 0 -0.40955306066806879 0.1061519430635335 0 -0.39699130641373032 0.096976462711670208 0 -0.4057219031625165 0.094003547540098292 0 -0.40153786221464588 0.1019509733845687 0 -0.40153786221464588 0.1019509733845687 0 -0.39978569618221599 0.1131574205127046 0 -0.40955306066806879 0.1061519430635335 0 -0.39439046986610432 0.1030277774923171 0 -0.40153786221464588 0.1019509733845687 0 -0.39978569618221599 0.1131574205127046 0 -0.39978569618221599 0.1131574205127046 0 -0.40955306066806879 0.1061519430635335 0 -0.40775396127719599 0.1178257259097257 0 -0.40775396127719599 0.1178257259097257 0 -0.41036022460081489 0.1277645019201927 0 -0.39790763153684888 0.12525818849253559 0 -0.39978569618221599 0.1131574205127046 0 -0.40775396127719599 0.1178257259097257 0 -0.39790763153684888 0.12525818849253559 0 -0.39978569618221599 0.1131574205127046 0 -0.38940769435873002 0.1169908267986373 0 -0.39790763153684888 0.12525818849253559 0 -0.39978569618221599 0.1131574205127046 0 -0.39143773841360519 0.110118417613217 0 -0.38940769435873002 0.1169908267986373 0 -0.39143773841360519 0.110118417613217 0 -0.38940769435873002 0.1169908267986373 0 -0.3821670932473708 0.10729764564920879 0 -0.38940769435873002 0.1169908267986373 0 -0.38153996922560701 0.1197687610433652 0 -0.3821670932473708 0.10729764564920879 0 -0.38940769435873002 0.1169908267986373 0 -0.38153996922560701 0.1197687610433652 0 -0.38370860634669912 0.12822188724573511 0 -0.38940769435873002 0.1169908267986373 0 -0.39790763153684888 0.12525818849253559 0 -0.38370860634669912 0.12822188724573511 0 -0.38153996922560701 0.1197687610433652 0 -0.38370860634669912 0.12822188724573511 0 -0.37445208051336337 0.12522755155137669 0 -0.38153996922560701 0.1197687610433652 0 -0.37445208051336337 0.12522755155137669 0 -0.37384713584128149 0.11692942080371251 0 -0.38153996922560701 0.1197687610433652 0 -0.3821670932473708 0.10729764564920879 0 -0.37384713584128149 0.11692942080371251 0 -0.3821670932473708 0.10729764564920879 0 -0.38712311750082501 0.097693680258282067 0 -0.36862374080581423 0.09381544474314385 0 -0.39439046986610432 0.1030277774923171 0 -0.39143773841360519 0.110118417613217 0 -0.3821670932473708 0.10729764564920879 0 -0.39439046986610432 0.1030277774923171 0 -0.3821670932473708 0.10729764564920879 0 -0.38712311750082501 0.097693680258282067 0 -0.37539600603989948 0.080149573010943553 0 -0.39015890847987911 0.088668840528210474 0 -0.36862374080581423 0.09381544474314385 0 -0.38712311750082501 0.097693680258282067 0 -0.39264783568369482 0.089347809857065905 0 -0.36862374080581423 0.09381544474314385 0 -0.37539600603989948 0.080149573010943553 0 -0.39015890847987911 0.088668840528210474 0 -0.38494642594616801 0.070826159333228222 0 -0.39015890847987911 0.088668840528210474 0 -0.39264783568369482 0.089347809857065905 0 -0.36862374080581423 0.09381544474314385 0 -0.39015890847987911 0.088668840528210474 0 -0.38494642594616801 0.070826159333228222 0 -0.39264783568369482 0.089347809857065905 0 -0.36862374080581423 0.09381544474314385 0 -0.38494642594616801 0.070826159333228222 0 -0.37153134697181572 0.067638709251129817 0 -0.37539600603989948 0.080149573010943553 0 -0.38494642594616801 0.070826159333228222 0 -0.37153134697181572 0.067638709251129817 0 -0.39849141040186808 0.058831436115712649 0 -0.40560934478558108 0.075735710926403396 0 -0.41027143430888358 0.064012280175861594 0 -0.39849141040186808 0.058831436115712649 0 -0.38494642594616801 0.070826159333228222 0 -0.40560934478558108 0.075735710926403396 0 -0.38494642594616801 0.070826159333228222 0 -0.40560934478558108 0.075735710926403396 0 -0.4057219031625165 0.094003547540098292 0 -0.39264783568369482 0.089347809857065905 0 -0.41667193056157531 0.084880174970987987 0 -0.39264783568369482 0.089347809857065905 0 -0.41667193056157531 0.084880174970987987 0 -0.40560934478558108 0.075735710926403396 0 -0.39264783568369482 0.089347809857065905 0 -0.41667193056157531 0.084880174970987987 0 -0.39015890847987911 0.088668840528210474 0 -0.38494642594616801 0.070826159333228222 0 -0.40560934478558108 0.075735710926403396 0 -0.39699130641373032 0.096976462711670208 0 -0.4057219031625165 0.094003547540098292 0 -0.39264783568369482 0.089347809857065905 0 -0.39015890847987911 0.088668840528210474 0 -0.40560934478558108 0.075735710926403396 0 -0.39264783568369482 0.089347809857065905 0 -0.40560934478558108 0.075735710926403396 0 -0.42627226362499437 0.080645262519577973 0 -0.4057219031625165 0.094003547540098292 0 -0.41667193056157531 0.084880174970987987 0 -0.41673726226936569 0.097326093092041432 0 -0.40560934478558108 0.075735710926403396 0 -0.41667193056157531 0.084880174970987987 0 -0.42627226362499437 0.080645262519577973 0 -0.41667193056157531 0.084880174970987987 0 -0.42487805448756111 0.091758675995525354 0 -0.41673726226936569 0.097326093092041432 0 -0.40560934478558108 0.075735710926403396 0 -0.41774958647913252 0.070315813437538663 0 -0.42627226362499437 0.080645262519577973 0 -0.40560934478558108 0.075735710926403396 0 -0.41027143430888358 0.064012280175861594 0 -0.41774958647913252 0.070315813437538663 0 -0.4200868548592025 0.060740928134985731 0 -0.41027143430888358 0.064012280175861594 0 -0.41774958647913252 0.070315813437538663 0 -0.4200868548592025 0.060740928134985731 0 -0.41774958647913252 0.070315813437538663 0 -0.427036748388749 0.067984029776446686 0 -0.41774958647913252 0.070315813437538663 0 -0.427036748388749 0.067984029776446686 0 -0.42627226362499437 0.080645262519577973 0 -0.427036748388749 0.067984029776446686 0 -0.42627226362499437 0.080645262519577973 0 -0.43852073745123271 0.068523384402863041 0 -0.43133621824615648 0.055473856001693411 0 -0.427036748388749 0.067984029776446686 0 -0.43852073745123271 0.068523384402863041 0 -0.42627226362499437 0.080645262519577973 0 -0.43766950748941369 0.094648168019565604 0 -0.44693518246440772 0.08555481411275255 0 -0.42627226362499437 0.080645262519577973 0 -0.44693518246440772 0.08555481411275255 0 -0.42627226362499437 0.080645262519577973 0 -0.43852073745123271 0.068523384402863041 0 -0.44693518246440772 0.08555481411275255 0 -0.42487805448756111 0.091758675995525354 0 -0.42627226362499437 0.080645262519577973 0 -0.43766950748941369 0.094648168019565604 0 -0.41667193056157531 0.084880174970987987 0 -0.42487805448756111 0.091758675995525354 0 -0.42627226362499437 0.080645262519577973 0 -0.42487805448756111 0.091758675995525354 0 -0.42724613010602103 0.1049911949388288 0 -0.43766950748941369 0.094648168019565604 0 -0.42724613010602103 0.1049911949388288 0 -0.44699212399271809 0.1122636051086626 0 -0.43766950748941369 0.094648168019565604 0 -0.42487805448756111 0.091758675995525354 0 -0.42724613010602103 0.1049911949388288 0 -0.41673726226936569 0.097326093092041432 0 -0.41673726226936569 0.097326093092041432 0 -0.41785664133346628 0.1058400954724838 0 -0.40955306066806879 0.1061519430635335 0 -0.41785664133346628 0.1058400954724838 0 -0.40955306066806879 0.1061519430635335 0 -0.41789011229040968 0.1148911507955316 0 -0.42724613010602103 0.1049911949388288 0 -0.41785664133346628 0.1058400954724838 0 -0.41789011229040968 0.1148911507955316 0 -0.42724613010602103 0.1049911949388288 0 -0.41673726226936569 0.097326093092041432 0 -0.41785664133346628 0.1058400954724838 0 -0.4057219031625165 0.094003547540098292 0 -0.41673726226936569 0.097326093092041432 0 -0.40955306066806879 0.1061519430635335 0 -0.41789011229040968 0.1148911507955316 0 -0.41036022460081489 0.1277645019201927 0 -0.42280218493160032 0.13212860364228099 0 -0.40775396127719599 0.1178257259097257 0 -0.41789011229040968 0.1148911507955316 0 -0.41036022460081489 0.1277645019201927 0 -0.40955306066806879 0.1061519430635335 0 -0.40775396127719599 0.1178257259097257 0 -0.41789011229040968 0.1148911507955316 0 -0.41789011229040968 0.1148911507955316 0 -0.43106443372161007 0.1217857045131384 0 -0.42280218493160032 0.13212860364228099 0 -0.42724613010602103 0.1049911949388288 0 -0.43106443372161007 0.1217857045131384 0 -0.44699212399271809 0.1122636051086626 0 -0.42724613010602103 0.1049911949388288 0 -0.41789011229040968 0.1148911507955316 0 -0.43106443372161007 0.1217857045131384 0 -0.44699212399271809 0.1122636051086626 0 -0.4438294899296284 0.12821492768571399 0 -0.45924383884424502 0.12645145554920811 0 -0.43106443372161007 0.1217857045131384 0 -0.44699212399271809 0.1122636051086626 0 -0.4438294899296284 0.12821492768571399 0 -0.44699212399271809 0.1122636051086626 0 -0.43766950748941369 0.094648168019565604 0 -0.45510635667516169 0.097508435430998158 0 -0.44699212399271809 0.1122636051086626 0 -0.45510635667516169 0.097508435430998158 0 -0.47213429209919761 0.10609499442894831 0 -0.45510635667516169 0.097508435430998158 0 -0.46813465383219349 0.084363018871451173 0 -0.47213429209919761 0.10609499442894831 0 -0.44699212399271809 0.1122636051086626 0 -0.47213429209919761 0.10609499442894831 0 -0.45924383884424502 0.12645145554920811 0 -0.43852073745123271 0.068523384402863041 0 -0.44693518246440772 0.08555481411275255 0 -0.45611358846225492 0.067011144107833931 0 -0.43766950748941369 0.094648168019565604 0 -0.45510635667516169 0.097508435430998158 0 -0.44693518246440772 0.08555481411275255 0 -0.44693518246440772 0.08555481411275255 0 -0.46813465383219349 0.084363018871451173 0 -0.45611358846225492 0.067011144107833931 0 -0.45510635667516169 0.097508435430998158 0 -0.44693518246440772 0.08555481411275255 0 -0.46813465383219349 0.084363018871451173 0 -0.46813465383219349 0.084363018871451173 0 -0.45611358846225492 0.067011144107833931 0 -0.47763208638161081 0.064775821667537981 0 -0.46813465383219349 0.084363018871451173 0 -0.47763208638161081 0.064775821667537981 0 -0.5 0.08385137883987076 0 -0.46813465383219349 0.084363018871451173 0 -0.5 0.08385137883987076 0 -0.47213429209919761 0.10609499442894831 0 -0.5 0.054733602718093237 0 -0.47763208638161081 0.064775821667537981 0 -0.5 0.08385137883987076 0 -0.47213429209919761 0.10609499442894831 0 -0.5 0.1129691549616483 0 -0.47946059014533471 0.12570187731542981 0 -0.47213429209919761 0.10609499442894831 0 -0.47946059014533471 0.12570187731542981 0 -0.45924383884424502 0.12645145554920811 0 -0.5 0.08385137883987076 0 -0.47213429209919761 0.10609499442894831 0 -0.5 0.1129691549616483 0 -0.5 0.1129691549616483 0 -0.47946059014533471 0.12570187731542981 0 -0.5 0.1420869310834259 0 -0.47946059014533471 0.12570187731542981 0 -0.47088216869478089 0.14578174550527301 0 -0.45924383884424502 0.12645145554920811 0 -0.47946059014533471 0.12570187731542981 0 -0.47088216869478089 0.14578174550527301 0 -0.5 0.1420869310834259 0 -0.47088216869478089 0.14578174550527301 0 -0.5 0.1420869310834259 0 -0.48541682928678492 0.15824574636998631 0 -0.48541682928678492 0.15824574636998631 0 -0.5 0.1712047072052035 0 -0.47079106973603391 0.17115889307577231 0 -0.5 0.1420869310834259 0 -0.48541682928678492 0.15824574636998631 0 -0.5 0.1712047072052035 0 -0.5 0.1712047072052035 0 -0.49999999999999972 0.20032248332698099 0 -0.47828468068122582 0.19087317665953149 0 -0.5 0.1712047072052035 0 -0.47079106973603391 0.17115889307577231 0 -0.47828468068122582 0.19087317665953149 0 -0.47079106973603391 0.17115889307577231 0 -0.46401497428003491 0.18682764447703401 0 -0.47828468068122582 0.19087317665953149 0 -0.47079106973603391 0.17115889307577231 0 -0.47828468068122582 0.19087317665953149 0 -0.47088216869478089 0.14578174550527301 0 -0.48541682928678492 0.15824574636998631 0 -0.47079106973603391 0.17115889307577231 0 -0.47079106973603391 0.17115889307577231 0 -0.45323316782213402 0.17098507153456441 0 -0.45573375777800379 0.15611848914474441 0 -0.47088216869478089 0.14578174550527301 0 -0.47079106973603391 0.17115889307577231 0 -0.45573375777800379 0.15611848914474441 0 -0.45323316782213402 0.17098507153456441 0 -0.46401497428003491 0.18682764447703401 0 -0.45106828250432962 0.18426600782548239 0 -0.47079106973603391 0.17115889307577231 0 -0.45323316782213402 0.17098507153456441 0 -0.46401497428003491 0.18682764447703401 0 -0.45323316782213402 0.17098507153456441 0 -0.45106828250432962 0.18426600782548239 0 -0.43835620652503959 0.1743851543963503 0 -0.45106828250432962 0.18426600782548239 0 -0.43835620652503959 0.1743851543963503 0 -0.4400719427793553 0.18489881541620171 0 -0.45323316782213402 0.17098507153456441 0 -0.45573375777800379 0.15611848914474441 0 -0.43656877316969872 0.15647880305391321 0 -0.45323316782213402 0.17098507153456441 0 -0.43835620652503959 0.1743851543963503 0 -0.43656877316969872 0.15647880305391321 0 -0.44801147033113681 0.14142708059260309 0 -0.43383558275843198 0.1391467926649578 0 -0.43656877316969872 0.15647880305391321 0 -0.44801147033113681 0.14142708059260309 0 -0.45573375777800379 0.15611848914474441 0 -0.43656877316969872 0.15647880305391321 0 -0.44801147033113681 0.14142708059260309 0 -0.4438294899296284 0.12821492768571399 0 -0.43383558275843198 0.1391467926649578 0 -0.44801147033113681 0.14142708059260309 0 -0.4438294899296284 0.12821492768571399 0 -0.45924383884424502 0.12645145554920811 0 -0.47088216869478089 0.14578174550527301 0 -0.44801147033113681 0.14142708059260309 0 -0.45924383884424502 0.12645145554920811 0 -0.47088216869478089 0.14578174550527301 0 -0.44801147033113681 0.14142708059260309 0 -0.45573375777800379 0.15611848914474441 0 -0.47853621108143518 0.23981335592749151 0 -0.48535760801269517 0.25414444603534703 0 -0.46168574506785059 0.25580287241962341 0 -0.47853621108143518 0.23981335592749151 0 -0.50009478002707675 0.24825145351949771 0 -0.50009478002707675 0.24825145351949771 0 -0.4929365358267479 0.22941945688139401 0 -0.47853621108143518 0.23981335592749151 0 -0.50009478002707675 0.24825145351949771 0 -0.4929365358267479 0.22941945688139401 0 -0.47853621108143518 0.23981335592749151 0 -0.50009478002707675 0.24825145351949771 0 -0.48535760801269517 0.25414444603534703 0 -0.50009478002707675 0.24825145351949771 0 -0.4929365358267479 0.22941945688139401 0 -0.5 0.22428696842323939 0 -0.4929365358267479 0.22941945688139401 0 -0.5 0.22428696842323939 0 -0.48577829162641972 0.21058746024328989 0 -0.4929365358267479 0.22941945688139401 0 -0.48577829162641972 0.21058746024328989 0 -0.47853621108143518 0.23981335592749151 0 -0.4929365358267479 0.22941945688139401 0 -0.47137796688110728 0.2209813592893857 0 -0.47853621108143518 0.23981335592749151 0 -0.47137796688110728 0.2209813592893857 0 -0.45697764213579511 0.23137525833548181 0 -0.4929365358267479 0.22941945688139401 0 -0.47137796688110728 0.2209813592893857 0 -0.48577829162641972 0.21058746024328989 0 -0.47137796688110728 0.2209813592893857 0 -0.47043640646724011 0.20393805169736531 0 -0.48577829162641972 0.21058746024328989 0 -0.47137796688110728 0.2209813592893857 0 -0.48577829162641972 0.21058746024328989 0 -0.5 0.22428696842323939 0 -0.48577829162641972 0.21058746024328989 0 -0.49999999999999972 0.20032248332698099 0 -0.48577829162641972 0.21058746024328989 0 -0.49999999999999972 0.20032248332698099 0 -0.48577829162641972 0.21058746024328989 0 -0.49999999999999972 0.20032248332698099 0 -0.47828468068122582 0.19087317665953149 0 -0.48577829162641972 0.21058746024328989 0 -0.47828468068122582 0.19087317665953149 0 -0.46401497428003491 0.18682764447703401 0 -0.47043640646724011 0.20393805169736531 0 -0.47828468068122582 0.19087317665953149 0 -0.47043640646724011 0.20393805169736531 0 -0.48577829162641972 0.21058746024328989 0 -0.47828468068122582 0.19087317665953149 0 -0.46401497428003491 0.18682764447703401 0 -0.47043640646724011 0.20393805169736531 0 -0.45579732921743749 0.19822527082508179 0 -0.46401497428003491 0.18682764447703401 0 -0.45106828250432962 0.18426600782548239 0 -0.45579732921743749 0.19822527082508179 0 -0.45106828250432962 0.18426600782548239 0 -0.45579732921743749 0.19822527082508179 0 -0.44104595929651408 0.1953182317586574 0 -0.45106828250432962 0.18426600782548239 0 -0.4400719427793553 0.18489881541620171 0 -0.44104595929651408 0.1953182317586574 0 -0.44104595929651408 0.1953182317586574 0 -0.44683932950814698 0.20592681100157831 0 -0.43700821174173321 0.20590263928567851 0 -0.45579732921743749 0.19822527082508179 0 -0.44104595929651408 0.1953182317586574 0 -0.44683932950814698 0.20592681100157831 0 -0.44683932950814698 0.20592681100157831 0 -0.44822882284291871 0.21371174138585619 0 -0.4574727512547182 0.2116545118957836 0 -0.44683932950814698 0.20592681100157831 0 -0.44190219893635002 0.21203554475449529 0 -0.44822882284291871 0.21371174138585619 0 -0.44683932950814698 0.20592681100157831 0 -0.44190219893635002 0.21203554475449529 0 -0.43700821174173321 0.20590263928567851 0 -0.44190219893635002 0.21203554475449529 0 -0.43565211163124312 0.21444873019745081 0 -0.43700821174173321 0.20590263928567851 0 -0.44005884448978849 0.21649381344693699 0 -0.43849866556621109 0.2215191580981902 0 -0.43565211163124312 0.21444873019745081 0 -0.44005884448978849 0.21649381344693699 0 -0.44418240182535002 0.21797182073761159 0 -0.43849866556621109 0.2215191580981902 0 -0.44005884448978849 0.21649381344693699 0 -0.44190219893635002 0.21203554475449529 0 -0.43565211163124312 0.21444873019745081 0 -0.44190219893635002 0.21203554475449529 0 -0.44418240182535002 0.21797182073761159 0 -0.44822882284291871 0.21371174138585619 0 -0.44005884448978849 0.21649381344693699 0 -0.44190219893635002 0.21203554475449529 0 -0.44418240182535002 0.21797182073761159 0 -0.44418240182535002 0.21797182073761159 0 -0.44822882284291871 0.21371174138585619 0 -0.4486469147175508 0.22036449920032239 0 -0.44822882284291871 0.21371174138585619 0 -0.45284172632757119 0.21807139822850691 0 -0.4574727512547182 0.2116545118957836 0 -0.44822882284291871 0.21371174138585619 0 -0.45284172632757119 0.21807139822850691 0 -0.4486469147175508 0.22036449920032239 0 -0.47137796688110728 0.2209813592893857 0 -0.47043640646724011 0.20393805169736531 0 -0.4574727512547182 0.2116545118957836 0 -0.45284172632757119 0.21807139822850691 0 -0.4574727512547182 0.2116545118957836 0 -0.45787379581000548 0.22266841056050679 0 -0.45579732921743749 0.19822527082508179 0 -0.44683932950814698 0.20592681100157831 0 -0.4574727512547182 0.2116545118957836 0 -0.47043640646724011 0.20393805169736531 0 -0.45579732921743749 0.19822527082508179 0 -0.4574727512547182 0.2116545118957836 0 -0.47137796688110728 0.2209813592893857 0 -0.4574727512547182 0.2116545118957836 0 -0.45787379581000548 0.22266841056050679 0 -0.47137796688110728 0.2209813592893857 0 -0.45697764213579511 0.23137525833548181 0 -0.47137796688110728 0.2209813592893857 0 -0.45697764213579511 0.23137525833548181 0 -0.45787379581000548 0.22266841056050679 0 -0.45697764213579511 0.23137525833548181 0 -0.45531344743857682 0.2307238868412699 0 -0.45787379581000548 0.22266841056050679 0 -0.45552822889805628 0.2324214191086281 0 -0.45697764213579511 0.23137525833548181 0 -0.45697764213579511 0.23137525833548181 0 -0.45531344743857682 0.2307238868412699 0 -0.45552822889805628 0.2324214191086281 0 -0.45697764213579511 0.23137525833548181 0 -0.45531344743857682 0.2307238868412699 0 -0.45531344743857682 0.2307238868412699 0 -0.45359977669585438 0.2317002785427483 0 -0.45209265121868991 0.23059510068254219 0 -0.45552822889805628 0.2324214191086281 0 -0.45531344743857682 0.2307238868412699 0 -0.45359977669585438 0.2317002785427483 0 -0.45552822889805628 0.2324214191086281 0 -0.45359977669585438 0.2317002785427483 0 -0.45316132951603511 0.23526057256981189 0 -0.45531344743857682 0.2307238868412699 0 -0.45339572042629123 0.2239466920811306 0 -0.45212437149978069 0.22800325402500859 0 -0.45531344743857682 0.2307238868412699 0 -0.45339572042629123 0.2239466920811306 0 -0.45787379581000548 0.22266841056050679 0 -0.45284172632757119 0.21807139822850691 0 -0.45339572042629123 0.2239466920811306 0 -0.45787379581000548 0.22266841056050679 0 -0.45284172632757119 0.21807139822850691 0 -0.45339572042629123 0.2239466920811306 0 -0.4486469147175508 0.22036449920032239 0 -0.45339572042629123 0.2239466920811306 0 -0.44954070645232241 0.2247022355175094 0 -0.45212437149978069 0.22800325402500859 0 -0.45339572042629123 0.2239466920811306 0 -0.44954070645232241 0.2247022355175094 0 -0.4486469147175508 0.22036449920032239 0 -0.44954070645232241 0.2247022355175094 0 -0.44654729181184383 0.22619683269769689 0 -0.44499494597032019 0.22279354949605901 0 -0.44954070645232241 0.2247022355175094 0 -0.44654729181184383 0.22619683269769689 0 -0.44933759877571922 0.22743809835073289 0 -0.44954070645232241 0.2247022355175094 0 -0.4486469147175508 0.22036449920032239 0 -0.44499494597032019 0.22279354949605901 0 -0.44418240182535002 0.21797182073761159 0 -0.4486469147175508 0.22036449920032239 0 -0.44499494597032019 0.22279354949605901 0 -0.44418240182535002 0.21797182073761159 0 -0.44499494597032019 0.22279354949605901 0 -0.43849866556621109 0.2215191580981902 0 -0.44257134140506987 0.22645707062411199 0 -0.44499494597032019 0.22279354949605901 0 -0.43849866556621109 0.2215191580981902 0 -0.44654729181184383 0.22619683269769689 0 -0.44257134140506987 0.22645707062411199 0 -0.44499494597032019 0.22279354949605901 0 -0.44257134140506987 0.22645707062411199 0 -0.43849866556621109 0.2215191580981902 0 -0.43781035442504379 0.22889490933098369 0 -0.43861943095388389 0.23419925853822479 0 -0.43781035442504379 0.22889490933098369 0 -0.44247717151299959 0.23118506814802109 0 -0.44257134140506987 0.22645707062411199 0 -0.43781035442504379 0.22889490933098369 0 -0.44247717151299959 0.23118506814802109 0 -0.44257134140506987 0.22645707062411199 0 -0.44487389911521069 0.22866756390096671 0 -0.44247717151299959 0.23118506814802109 0 -0.44654729181184383 0.22619683269769689 0 -0.44257134140506987 0.22645707062411199 0 -0.44487389911521069 0.22866756390096671 0 -0.44247717151299959 0.23118506814802109 0 -0.44699641039048671 0.23226048800003879 0 -0.4440032162171153 0.23678927794935459 0 -0.44487389911521069 0.22866756390096671 0 -0.44247717151299959 0.23118506814802109 0 -0.44699641039048671 0.23226048800003879 0 -0.43861943095388389 0.23419925853822479 0 -0.44247717151299959 0.23118506814802109 0 -0.4440032162171153 0.23678927794935459 0 -0.44699641039048671 0.23226048800003879 0 -0.45129081326768639 0.23280132494121719 0 -0.44936952438788169 0.2360471927734083 0 -0.44654729181184383 0.22619683269769689 0 -0.44487389911521069 0.22866756390096671 0 -0.44767677025661728 0.22871760463160759 0 -0.44487389911521069 0.22866756390096671 0 -0.44699641039048671 0.23226048800003879 0 -0.44767677025661728 0.22871760463160759 0 -0.44699641039048671 0.23226048800003879 0 -0.44767677025661728 0.22871760463160759 0 -0.44970151267719222 0.23026000575219591 0 -0.44767677025661728 0.22871760463160759 0 -0.44933759877571922 0.22743809835073289 0 -0.44970151267719222 0.23026000575219591 0 -0.44654729181184383 0.22619683269769689 0 -0.44767677025661728 0.22871760463160759 0 -0.44933759877571922 0.22743809835073289 0 -0.44954070645232241 0.2247022355175094 0 -0.44933759877571922 0.22743809835073289 0 -0.45212437149978069 0.22800325402500859 0 -0.44933759877571922 0.22743809835073289 0 -0.44970151267719222 0.23026000575219591 0 -0.45212437149978069 0.22800325402500859 0 -0.45531344743857682 0.2307238868412699 0 -0.45212437149978069 0.22800325402500859 0 -0.45209265121868991 0.23059510068254219 0 -0.44970151267719222 0.23026000575219591 0 -0.45212437149978069 0.22800325402500859 0 -0.45209265121868991 0.23059510068254219 0 -0.44699641039048671 0.23226048800003879 0 -0.44970151267719222 0.23026000575219591 0 -0.45129081326768639 0.23280132494121719 0 -0.44970151267719222 0.23026000575219591 0 -0.45209265121868991 0.23059510068254219 0 -0.45129081326768639 0.23280132494121719 0 -0.45359977669585438 0.2317002785427483 0 -0.45209265121868991 0.23059510068254219 0 -0.45129081326768639 0.23280132494121719 0 -0.45359977669585438 0.2317002785427483 0 -0.45129081326768639 0.23280132494121719 0 -0.45316132951603511 0.23526057256981189 0 -0.45129081326768639 0.23280132494121719 0 -0.45316132951603511 0.23526057256981189 0 -0.44936952438788169 0.2360471927734083 0 -0.45316132951603511 0.23526057256981189 0 -0.44936952438788169 0.2360471927734083 0 -0.45294208793216861 0.23888223985361609 0 -0.45294208793216861 0.23888223985361609 0 -0.44855100085734412 0.24024192425372171 0 -0.4516149235019718 0.24661780746676021 0 -0.44936952438788169 0.2360471927734083 0 -0.45294208793216861 0.23888223985361609 0 -0.44855100085734412 0.24024192425372171 0 -0.44855100085734412 0.24024192425372171 0 -0.4440032162171153 0.23678927794935459 0 -0.4448252522475829 0.2428731032254694 0 -0.44936952438788169 0.2360471927734083 0 -0.44855100085734412 0.24024192425372171 0 -0.4440032162171153 0.23678927794935459 0 -0.44699641039048671 0.23226048800003879 0 -0.44936952438788169 0.2360471927734083 0 -0.4440032162171153 0.23678927794935459 0 -0.4440032162171153 0.23678927794935459 0 -0.4448252522475829 0.2428731032254694 0 -0.437576354503034 0.2408073734210455 0 -0.43861943095388389 0.23419925853822479 0 -0.4440032162171153 0.23678927794935459 0 -0.437576354503034 0.2408073734210455 0 -0.44254823024265633 0.24989972484555631 0 -0.4448252522475829 0.2428731032254694 0 -0.437576354503034 0.2408073734210455 0 -0.44254823024265633 0.24989972484555631 0 -0.4329587794777483 0.24907817605776861 0 -0.437576354503034 0.2408073734210455 0 -0.44254823024265633 0.24989972484555631 0 -0.4448252522475829 0.2428731032254694 0 -0.4516149235019718 0.24661780746676021 0 -0.44855100085734412 0.24024192425372171 0 -0.4448252522475829 0.2428731032254694 0 -0.4516149235019718 0.24661780746676021 0 -0.4516149235019718 0.24661780746676021 0 -0.45953344690596137 0.2408922677685309 0 -0.46168574506785059 0.25580287241962341 0 -0.47853621108143518 0.23981335592749151 0 -0.45697764213579511 0.23137525833548181 0 -0.45953344690596137 0.2408922677685309 0 -0.47853621108143518 0.23981335592749151 0 -0.45953344690596137 0.2408922677685309 0 -0.46168574506785059 0.25580287241962341 0 -0.47853621108143518 0.23981335592749151 0 -0.45697764213579511 0.23137525833548181 0 -0.45552822889805628 0.2324214191086281 0 -0.45294208793216861 0.23888223985361609 0 -0.45953344690596137 0.2408922677685309 0 -0.45294208793216861 0.23888223985361609 0 -0.4516149235019718 0.24661780746676021 0 -0.45953344690596137 0.2408922677685309 0 -0.45552822889805628 0.2324214191086281 0 -0.45697764213579511 0.23137525833548181 0 -0.45953344690596137 0.2408922677685309 0 -0.45552822889805628 0.2324214191086281 0 -0.45316132951603511 0.23526057256981189 0 -0.45294208793216861 0.23888223985361609 0 -0.41880654819146801 0.24586784036794659 0 -0.40160426689049339 0.23945011311059669 0 -0.40565295106499438 0.25282850190815509 0 -0.41226184092851309 0.23480205841774041 0 -0.41880654819146801 0.24586784036794659 0 -0.40160426689049339 0.23945011311059669 0 -0.41226184092851309 0.23480205841774041 0 -0.42154582462687301 0.2358587127973335 0 -0.41880654819146801 0.24586784036794659 0 -0.41880654819146801 0.24586784036794659 0 -0.4329587794777483 0.24907817605776861 0 -0.42892406532686722 0.24113847626257831 0 -0.4329587794777483 0.24907817605776861 0 -0.437576354503034 0.2408073734210455 0 -0.42892406532686722 0.24113847626257831 0 -0.437576354503034 0.2408073734210455 0 -0.42892406532686722 0.24113847626257831 0 -0.4318713151030662 0.23344231548484401 0 -0.43861943095388389 0.23419925853822479 0 -0.437576354503034 0.2408073734210455 0 -0.4318713151030662 0.23344231548484401 0 -0.42154582462687301 0.2358587127973335 0 -0.41880654819146801 0.24586784036794659 0 -0.42892406532686722 0.24113847626257831 0 -0.42154582462687301 0.2358587127973335 0 -0.42892406532686722 0.24113847626257831 0 -0.4318713151030662 0.23344231548484401 0 -0.42154582462687301 0.2358587127973335 0 -0.42525768538620939 0.22675620605210561 0 -0.4318713151030662 0.23344231548484401 0 -0.42525768538620939 0.22675620605210561 0 -0.4318713151030662 0.23344231548484401 0 -0.4328242020090316 0.22656658509250999 0 -0.43781035442504379 0.22889490933098369 0 -0.4318713151030662 0.23344231548484401 0 -0.4328242020090316 0.22656658509250999 0 -0.43861943095388389 0.23419925853822479 0 -0.43781035442504379 0.22889490933098369 0 -0.4318713151030662 0.23344231548484401 0 -0.43849866556621109 0.2215191580981902 0 -0.4328242020090316 0.22656658509250999 0 -0.43048407166950758 0.21994902981722761 0 -0.43849866556621109 0.2215191580981902 0 -0.43781035442504379 0.22889490933098369 0 -0.4328242020090316 0.22656658509250999 0 -0.42525768538620939 0.22675620605210561 0 -0.43048407166950758 0.21994902981722761 0 -0.42050910387579948 0.21615979569400839 0 -0.42525768538620939 0.22675620605210561 0 -0.4328242020090316 0.22656658509250999 0 -0.43048407166950758 0.21994902981722761 0 -0.4151095363930366 0.22634296523549799 0 -0.40741864924467108 0.2155188982255295 0 -0.42050910387579948 0.21615979569400839 0 -0.42525768538620939 0.22675620605210561 0 -0.4151095363930366 0.22634296523549799 0 -0.42050910387579948 0.21615979569400839 0 -0.42154582462687301 0.2358587127973335 0 -0.42525768538620939 0.22675620605210561 0 -0.4151095363930366 0.22634296523549799 0 -0.41226184092851309 0.23480205841774041 0 -0.42154582462687301 0.2358587127973335 0 -0.4151095363930366 0.22634296523549799 0 -0.41226184092851309 0.23480205841774041 0 -0.4151095363930366 0.22634296523549799 0 -0.40424302854069483 0.2264906605773267 0 -0.4151095363930366 0.22634296523549799 0 -0.40741864924467108 0.2155188982255295 0 -0.40424302854069483 0.2264906605773267 0 -0.40741864924467108 0.2155188982255295 0 -0.41243527953610282 0.2059132335767182 0 -0.42050910387579948 0.21615979569400839 0 -0.40741864924467108 0.2155188982255295 0 -0.41243527953610282 0.2059132335767182 0 -0.39918015354383918 0.2044827398837453 0 -0.41243527953610282 0.2059132335767182 0 -0.42197979708308958 0.2072667237390779 0 -0.41763364246075629 0.19828272642833741 0 -0.41243527953610282 0.2059132335767182 0 -0.42050910387579948 0.21615979569400839 0 -0.42197979708308958 0.2072667237390779 0 -0.43048407166950758 0.21994902981722761 0 -0.42050910387579948 0.21615979569400839 0 -0.42962658281052019 0.2105045268101714 0 -0.42050910387579948 0.21615979569400839 0 -0.42197979708308958 0.2072667237390779 0 -0.42962658281052019 0.2105045268101714 0 -0.43048407166950758 0.21994902981722761 0 -0.43565211163124312 0.21444873019745081 0 -0.42962658281052019 0.2105045268101714 0 -0.43849866556621109 0.2215191580981902 0 -0.43048407166950758 0.21994902981722761 0 -0.43565211163124312 0.21444873019745081 0 -0.43565211163124312 0.21444873019745081 0 -0.43700821174173321 0.20590263928567851 0 -0.42962658281052019 0.2105045268101714 0 -0.43700821174173321 0.20590263928567851 0 -0.42962658281052019 0.2105045268101714 0 -0.42830497665448219 0.19908358149030039 0 -0.42197979708308958 0.2072667237390779 0 -0.42962658281052019 0.2105045268101714 0 -0.42830497665448219 0.19908358149030039 0 -0.42197979708308958 0.2072667237390779 0 -0.42830497665448219 0.19908358149030039 0 -0.41763364246075629 0.19828272642833741 0 -0.44104595929651408 0.1953182317586574 0 -0.43700821174173321 0.20590263928567851 0 -0.42830497665448219 0.19908358149030039 0 -0.4400719427793553 0.18489881541620171 0 -0.44104595929651408 0.1953182317586574 0 -0.43118517822003311 0.18898879029101209 0 -0.44104595929651408 0.1953182317586574 0 -0.42830497665448219 0.19908358149030039 0 -0.43118517822003311 0.18898879029101209 0 -0.42830497665448219 0.19908358149030039 0 -0.43118517822003311 0.18898879029101209 0 -0.41965546496872941 0.18732143211916799 0 -0.41763364246075629 0.19828272642833741 0 -0.40789033100846123 0.19376851748961091 0 -0.41965546496872941 0.18732143211916799 0 -0.42830497665448219 0.19908358149030039 0 -0.41763364246075629 0.19828272642833741 0 -0.41965546496872941 0.18732143211916799 0 -0.41243527953610282 0.2059132335767182 0 -0.40789033100846123 0.19376851748961091 0 -0.39918015354383918 0.2044827398837453 0 -0.41243527953610282 0.2059132335767182 0 -0.41763364246075629 0.19828272642833741 0 -0.40789033100846123 0.19376851748961091 0 -0.40789033100846123 0.19376851748961091 0 -0.41965546496872941 0.18732143211916799 0 -0.40975091599236879 0.18230604120445121 0 -0.40789033100846123 0.19376851748961091 0 -0.39686342452692491 0.19345134507074421 0 -0.40002657486740878 0.1840350698188247 0 -0.40789033100846123 0.19376851748961091 0 -0.39686342452692491 0.19345134507074421 0 -0.39918015354383918 0.2044827398837453 0 -0.39686342452692491 0.19345134507074421 0 -0.3881481829560543 0.1978333725583987 0 -0.39918015354383918 0.2044827398837453 0 -0.39686342452692491 0.19345134507074421 0 -0.40002657486740878 0.1840350698188247 0 -0.39002605187657868 0.18730907701301999 0 -0.39686342452692491 0.19345134507074421 0 -0.3881481829560543 0.1978333725583987 0 -0.39002605187657868 0.18730907701301999 0 -0.38102012472863989 0.19131442156134501 0 -0.3881481829560543 0.1978333725583987 0 -0.39002605187657868 0.18730907701301999 0 -0.38102012472863989 0.19131442156134501 0 -0.37476350189728408 0.1839429115206658 0 -0.37134332356350708 0.1927726732827573 0 -0.38102012472863989 0.19131442156134501 0 -0.3780755243690973 0.2009756264410836 0 -0.37134332356350708 0.1927726732827573 0 -0.38102012472863989 0.19131442156134501 0 -0.3780755243690973 0.2009756264410836 0 -0.3881481829560543 0.1978333725583987 0 -0.3780755243690973 0.2009756264410836 0 -0.3881481829560543 0.1978333725583987 0 -0.38541720259702278 0.20975268589873661 0 -0.3780755243690973 0.2009756264410836 0 -0.38541720259702278 0.20975268589873661 0 -0.37474530682861212 0.2106092740556996 0 -0.38541720259702278 0.20975268589873661 0 -0.38306108719338949 0.2199976367621056 0 -0.37474530682861212 0.2106092740556996 0 -0.38306108719338949 0.2199976367621056 0 -0.36946768431802862 0.2195118169698192 0 -0.37474530682861212 0.2106092740556996 0 -0.38541720259702278 0.20975268589873661 0 -0.39521416602343512 0.21648789109080999 0 -0.38306108719338949 0.2199976367621056 0 -0.3881481829560543 0.1978333725583987 0 -0.38541720259702278 0.20975268589873661 0 -0.39918015354383918 0.2044827398837453 0 -0.38541720259702278 0.20975268589873661 0 -0.39521416602343512 0.21648789109080999 0 -0.39918015354383918 0.2044827398837453 0 -0.40741864924467108 0.2155188982255295 0 -0.39521416602343512 0.21648789109080999 0 -0.39918015354383918 0.2044827398837453 0 -0.40741864924467108 0.2155188982255295 0 -0.39521416602343512 0.21648789109080999 0 -0.40424302854069483 0.2264906605773267 0 -0.40424302854069483 0.2264906605773267 0 -0.39287276164480889 0.22799772789996431 0 -0.40160426689049339 0.23945011311059669 0 -0.41226184092851309 0.23480205841774041 0 -0.40424302854069483 0.2264906605773267 0 -0.40160426689049339 0.23945011311059669 0 -0.39521416602343512 0.21648789109080999 0 -0.40424302854069483 0.2264906605773267 0 -0.39287276164480889 0.22799772789996431 0 -0.39521416602343512 0.21648789109080999 0 -0.39287276164480889 0.22799772789996431 0 -0.38306108719338949 0.2199976367621056 0 -0.38174460742763211 0.23779753494053771 0 -0.36946768431802862 0.2195118169698192 0 -0.38306108719338949 0.2199976367621056 0 -0.38174460742763211 0.23779753494053771 0 -0.36946768431802862 0.2195118169698192 0 -0.39287276164480889 0.22799772789996431 0 -0.38306108719338949 0.2199976367621056 0 -0.38174460742763211 0.23779753494053771 0 -0.38174460742763211 0.23779753494053771 0 -0.37234913497993982 0.24839321364142691 0 -0.39402153053723538 0.25608325291125628 0 -0.38174460742763211 0.23779753494053771 0 -0.39402153053723538 0.25608325291125628 0 -0.38174460742763211 0.23779753494053771 0 -0.40160426689049339 0.23945011311059669 0 -0.39402153053723538 0.25608325291125628 0 -0.39287276164480889 0.22799772789996431 0 -0.38174460742763211 0.23779753494053771 0 -0.40160426689049339 0.23945011311059669 0 -0.40160426689049339 0.23945011311059669 0 -0.39402153053723538 0.25608325291125628 0 -0.40565295106499438 0.25282850190815509 0 -0.41123222595427 0.14153472490153521 0 -0.41501975903089278 0.15798986068702339 0 -0.39903558196150318 0.15182529404923081 0 -0.41123222595427 0.14153472490153521 0 -0.42249453238421403 0.1449886911951703 0 -0.41501975903089278 0.15798986068702339 0 -0.41123222595427 0.14153472490153521 0 -0.41036022460081489 0.1277645019201927 0 -0.40207137617543393 0.13686887697438141 0 -0.41123222595427 0.14153472490153521 0 -0.41036022460081489 0.1277645019201927 0 -0.42280218493160032 0.13212860364228099 0 -0.41123222595427 0.14153472490153521 0 -0.42280218493160032 0.13212860364228099 0 -0.42249453238421403 0.1449886911951703 0 -0.43106443372161007 0.1217857045131384 0 -0.4438294899296284 0.12821492768571399 0 -0.43383558275843198 0.1391467926649578 0 -0.42280218493160032 0.13212860364228099 0 -0.43383558275843198 0.1391467926649578 0 -0.42249453238421403 0.1449886911951703 0 -0.43106443372161007 0.1217857045131384 0 -0.42280218493160032 0.13212860364228099 0 -0.43383558275843198 0.1391467926649578 0 -0.42249453238421403 0.1449886911951703 0 -0.43656877316969872 0.15647880305391321 0 -0.41501975903089278 0.15798986068702339 0 -0.43383558275843198 0.1391467926649578 0 -0.42249453238421403 0.1449886911951703 0 -0.43656877316969872 0.15647880305391321 0 -0.43656877316969872 0.15647880305391321 0 -0.42555407768891979 0.1684666878932207 0 -0.41501975903089278 0.15798986068702339 0 -0.43835620652503959 0.1743851543963503 0 -0.43656877316969872 0.15647880305391321 0 -0.42555407768891979 0.1684666878932207 0 -0.4400719427793553 0.18489881541620171 0 -0.43118517822003311 0.18898879029101209 0 -0.42808580104520388 0.1794962076946926 0 -0.43835620652503959 0.1743851543963503 0 -0.42555407768891979 0.1684666878932207 0 -0.42808580104520388 0.1794962076946926 0 -0.43835620652503959 0.1743851543963503 0 -0.4400719427793553 0.18489881541620171 0 -0.42808580104520388 0.1794962076946926 0 -0.42555407768891979 0.1684666878932207 0 -0.42808580104520388 0.1794962076946926 0 -0.41589187259457011 0.17354484120174021 0 -0.43118517822003311 0.18898879029101209 0 -0.42808580104520388 0.1794962076946926 0 -0.41965546496872941 0.18732143211916799 0 -0.41965546496872941 0.18732143211916799 0 -0.41589187259457011 0.17354484120174021 0 -0.40975091599236879 0.18230604120445121 0 -0.42808580104520388 0.1794962076946926 0 -0.41965546496872941 0.18732143211916799 0 -0.41589187259457011 0.17354484120174021 0 -0.41589187259457011 0.17354484120174021 0 -0.40975091599236879 0.18230604120445121 0 -0.40435869389784612 0.16754169937530461 0 -0.42555407768891979 0.1684666878932207 0 -0.41589187259457011 0.17354484120174021 0 -0.41501975903089278 0.15798986068702339 0 -0.41589187259457011 0.17354484120174021 0 -0.41501975903089278 0.15798986068702339 0 -0.40435869389784612 0.16754169937530461 0 -0.40435869389784612 0.16754169937530461 0 -0.39394745769261252 0.16660163783282059 0 -0.39903558196150318 0.15182529404923081 0 -0.41501975903089278 0.15798986068702339 0 -0.40435869389784612 0.16754169937530461 0 -0.39903558196150318 0.15182529404923081 0 -0.39394745769261252 0.16660163783282059 0 -0.3927746273839226 0.1767985771309922 0 -0.3855379228716278 0.1713572591537095 0 -0.40435869389784612 0.16754169937530461 0 -0.39394745769261252 0.16660163783282059 0 -0.3927746273839226 0.1767985771309922 0 -0.39394745769261252 0.16660163783282059 0 -0.38681333546344698 0.1599714791812703 0 -0.39903558196150318 0.15182529404923081 0 -0.40435869389784612 0.16754169937530461 0 -0.40002657486740878 0.1840350698188247 0 -0.3927746273839226 0.1767985771309922 0 -0.40975091599236879 0.18230604120445121 0 -0.40435869389784612 0.16754169937530461 0 -0.40002657486740878 0.1840350698188247 0 -0.40789033100846123 0.19376851748961091 0 -0.40975091599236879 0.18230604120445121 0 -0.40002657486740878 0.1840350698188247 0 -0.40002657486740878 0.1840350698188247 0 -0.3927746273839226 0.1767985771309922 0 -0.39002605187657868 0.18730907701301999 0 -0.3927746273839226 0.1767985771309922 0 -0.39002605187657868 0.18730907701301999 0 -0.38301302354289279 0.18087165249922929 0 -0.38102012472863989 0.19131442156134501 0 -0.39002605187657868 0.18730907701301999 0 -0.38301302354289279 0.18087165249922929 0 -0.3927746273839226 0.1767985771309922 0 -0.38301302354289279 0.18087165249922929 0 -0.3855379228716278 0.1713572591537095 0 -0.38301302354289279 0.18087165249922929 0 -0.3855379228716278 0.1713572591537095 0 -0.37395591249930421 0.17450766861564329 0 -0.38102012472863989 0.19131442156134501 0 -0.38301302354289279 0.18087165249922929 0 -0.37476350189728408 0.1839429115206658 0 -0.38301302354289279 0.18087165249922929 0 -0.37476350189728408 0.1839429115206658 0 -0.37395591249930421 0.17450766861564329 0 -0.39394745769261252 0.16660163783282059 0 -0.38681333546344698 0.1599714791812703 0 -0.3855379228716278 0.1713572591537095 0 -0.3855379228716278 0.1713572591537095 0 -0.37249016313882871 0.1598040704675954 0 -0.37395591249930421 0.17450766861564329 0 -0.38681333546344698 0.1599714791812703 0 -0.3855379228716278 0.1713572591537095 0 -0.37249016313882871 0.1598040704675954 0 -0.38681333546344698 0.1599714791812703 0 -0.37776812388177478 0.14815183564299109 0 -0.37249016313882871 0.1598040704675954 0 -0.37776812388177478 0.14815183564299109 0 -0.38817387662763458 0.14882386212862611 0 -0.38232063029782659 0.13833491422685151 0 -0.38817387662763458 0.14882386212862611 0 -0.39182121682373261 0.1379616755084129 0 -0.38232063029782659 0.13833491422685151 0 -0.38681333546344698 0.1599714791812703 0 -0.37776812388177478 0.14815183564299109 0 -0.38817387662763458 0.14882386212862611 0 -0.38681333546344698 0.1599714791812703 0 -0.38817387662763458 0.14882386212862611 0 -0.39903558196150318 0.15182529404923081 0 -0.38817387662763458 0.14882386212862611 0 -0.39903558196150318 0.15182529404923081 0 -0.39182121682373261 0.1379616755084129 0 -0.39903558196150318 0.15182529404923081 0 -0.40207137617543393 0.13686887697438141 0 -0.39182121682373261 0.1379616755084129 0 -0.41123222595427 0.14153472490153521 0 -0.39903558196150318 0.15182529404923081 0 -0.40207137617543393 0.13686887697438141 0 -0.41036022460081489 0.1277645019201927 0 -0.40207137617543393 0.13686887697438141 0 -0.39790763153684888 0.12525818849253559 0 -0.40207137617543393 0.13686887697438141 0 -0.39182121682373261 0.1379616755084129 0 -0.39790763153684888 0.12525818849253559 0 -0.39182121682373261 0.1379616755084129 0 -0.39790763153684888 0.12525818849253559 0 -0.38370860634669912 0.12822188724573511 0 -0.39182121682373261 0.1379616755084129 0 -0.38370860634669912 0.12822188724573511 0 -0.38232063029782659 0.13833491422685151 0 -0.37776812388177478 0.14815183564299109 0 -0.38232063029782659 0.13833491422685151 0 -0.36982770216559491 0.13426229609357651 0 -0.38370860634669912 0.12822188724573511 0 -0.38232063029782659 0.13833491422685151 0 -0.36982770216559491 0.13426229609357651 0 -0.38370860634669912 0.12822188724573511 0 -0.37445208051336337 0.12522755155137669 0 -0.36982770216559491 0.13426229609357651 0 -0.37445208051336337 0.12522755155137669 0 -0.36982770216559491 0.13426229609357651 0 -0.36655199793732868 0.122973777482161 0 -0.36982770216559491 0.13426229609357651 0 -0.35735620730826828 0.1268035283319158 0 -0.366226322797435 0.14595511749250861 0 -0.36982770216559491 0.13426229609357651 0 -0.35735620730826828 0.1268035283319158 0 -0.36982770216559491 0.13426229609357651 0 -0.35735620730826828 0.1268035283319158 0 -0.36655199793732868 0.122973777482161 0 -0.35735620730826828 0.1268035283319158 0 -0.35350134645410958 0.14935402173146151 0 -0.35735620730826828 0.1268035283319158 0 -0.35350134645410958 0.14935402173146151 0 -0.3369252872360825 0.1343223229849069 0 -0.35735620730826828 0.1268035283319158 0 -0.3369252872360825 0.1343223229849069 0 -0.33873511242385368 0.1156668984571739 0 -0.35735620730826828 0.1268035283319158 0 -0.35350134645410958 0.14935402173146151 0 -0.366226322797435 0.14595511749250861 0 -0.35350134645410958 0.14935402173146151 0 -0.366226322797435 0.14595511749250861 0 -0.37249016313882871 0.1598040704675954 0 -0.37776812388177478 0.14815183564299109 0 -0.36982770216559491 0.13426229609357651 0 -0.366226322797435 0.14595511749250861 0 -0.37776812388177478 0.14815183564299109 0 -0.366226322797435 0.14595511749250861 0 -0.37249016313882871 0.1598040704675954 0 -0.35350134645410958 0.14935402173146151 0 -0.37249016313882871 0.1598040704675954 0 -0.36305810671140698 0.16908582394323121 0 -0.37249016313882871 0.1598040704675954 0 -0.36305810671140698 0.16908582394323121 0 -0.37395591249930421 0.17450766861564329 0 -0.37476350189728408 0.1839429115206658 0 -0.36426717452949109 0.18232869514708941 0 -0.37134332356350708 0.1927726732827573 0 -0.37476350189728408 0.1839429115206658 0 -0.37395591249930421 0.17450766861564329 0 -0.36426717452949109 0.18232869514708941 0 -0.36305810671140698 0.16908582394323121 0 -0.37395591249930421 0.17450766861564329 0 -0.36426717452949109 0.18232869514708941 0 -0.34964648559995182 0.17190451513100721 0 -0.34579162474579439 0.1944550085305532 0 -0.36426717452949109 0.18232869514708941 0 -0.34964648559995182 0.17190451513100721 0 -0.35453776995577102 0.18848306121835989 0 -0.34964648559995182 0.17190451513100721 0 -0.35453776995577102 0.18848306121835989 0 -0.34579162474579439 0.1944550085305532 0 -0.36305810671140698 0.16908582394323121 0 -0.36426717452949109 0.18232869514708941 0 -0.34964648559995182 0.17190451513100721 0 -0.35350134645410958 0.14935402173146151 0 -0.36305810671140698 0.16908582394323121 0 -0.34964648559995182 0.17190451513100721 0 -0.35350134645410958 0.14935402173146151 0 -0.34964648559995182 0.17190451513100721 0 -0.35350134645410958 0.14935402173146151 0 -0.34964648559995182 0.17190451513100721 0 -0.33260685545502061 0.15603665587226029 0 -0.34964648559995182 0.17190451513100721 0 -0.32900949611863822 0.1821965670678419 0 -0.33260685545502061 0.15603665587226029 0 -0.34964648559995182 0.17190451513100721 0 -0.32900949611863822 0.1821965670678419 0 -0.34579162474579439 0.1944550085305532 0 -0.32900949611863822 0.1821965670678419 0 -0.30404634981595041 0.1915184345496424 0 -0.30844072223106922 0.16717218510401649 0 -0.32900949611863822 0.1821965670678419 0 -0.30844072223106922 0.16717218510401649 0 -0.32900949611863822 0.1821965670678419 0 -0.33260685545502061 0.15603665587226029 0 -0.31077553575349443 0.16038867638163859 0 -0.32900949611863822 0.1821965670678419 0 -0.30844072223106922 0.16717218510401649 0 -0.31077553575349443 0.16038867638163859 0 -0.32900949611863822 0.1821965670678419 0 -0.31077553575349443 0.16038867638163859 0 -0.31578298156784651 0.13805383193670631 0 -0.33260685545502061 0.15603665587226029 0 -0.31077553575349443 0.16038867638163859 0 -0.31578298156784651 0.13805383193670631 0 -0.3369252872360825 0.1343223229849069 0 -0.32366273309872112 0.1197327025851555 0 -0.31578298156784651 0.13805383193670631 0 -0.31072320763212441 0.1253378277345136 0 -0.32366273309872112 0.1197327025851555 0 -0.31578298156784651 0.13805383193670631 0 -0.3369252872360825 0.1343223229849069 0 -0.33260685545502061 0.15603665587226029 0 -0.35350134645410958 0.14935402173146151 0 -0.3369252872360825 0.1343223229849069 0 -0.33260685545502061 0.15603665587226029 0 -0.3514423206569553 0.23542588110307819 0 -0.36034699027475531 0.24330560597054929 0 -0.35353764805182769 0.25371442138078493 0 -0.3514423206569553 0.23542588110307819 0 -0.33901101573273829 0.23412079273879299 0 -0.35353764805182769 0.25371442138078493 0 -0.3514423206569553 0.23542588110307819 0 -0.36034699027475531 0.24330560597054929 0 -0.36530452495311377 0.23496320844263119 0 -0.38174460742763211 0.23779753494053771 0 -0.37234913497993982 0.24839321364142691 0 -0.36530452495311377 0.23496320844263119 0 -0.36034699027475531 0.24330560597054929 0 -0.37234913497993982 0.24839321364142691 0 -0.35353764805182769 0.25371442138078493 0 -0.36034699027475531 0.24330560597054929 0 -0.37234913497993982 0.24839321364142691 0 -0.36530452495311377 0.23496320844263119 0 -0.36530452495311377 0.23496320844263119 0 -0.36946768431802862 0.2195118169698192 0 -0.35657749389524968 0.22597383744252181 0 -0.38174460742763211 0.23779753494053771 0 -0.36530452495311377 0.23496320844263119 0 -0.36946768431802862 0.2195118169698192 0 -0.36946768431802862 0.2195118169698192 0 -0.35657749389524968 0.22597383744252181 0 -0.35615501692490442 0.21466272025169489 0 -0.35657749389524968 0.22597383744252181 0 -0.35615501692490442 0.21466272025169489 0 -0.34051792262324682 0.22530556044538549 0 -0.3514423206569553 0.23542588110307819 0 -0.35657749389524968 0.22597383744252181 0 -0.34051792262324682 0.22530556044538549 0 -0.3514423206569553 0.23542588110307819 0 -0.36530452495311377 0.23496320844263119 0 -0.35657749389524968 0.22597383744252181 0 -0.3514423206569553 0.23542588110307819 0 -0.34051792262324682 0.22530556044538549 0 -0.35615501692490442 0.21466272025169489 0 -0.34468274376700109 0.20094183493990569 0 -0.34051792262324682 0.22530556044538549 0 -0.35615501692490442 0.21466272025169489 0 -0.36031778486453142 0.20436153715945951 0 -0.35163960770066721 0.19872664524123859 0 -0.35615501692490442 0.21466272025169489 0 -0.35163960770066721 0.19872664524123859 0 -0.34468274376700109 0.20094183493990569 0 -0.35615501692490442 0.21466272025169489 0 -0.34468274376700109 0.20094183493990569 0 -0.36946768431802862 0.2195118169698192 0 -0.35615501692490442 0.21466272025169489 0 -0.36576391042621292 0.21035257698984461 0 -0.36946768431802862 0.2195118169698192 0 -0.37474530682861212 0.2106092740556996 0 -0.36576391042621292 0.21035257698984461 0 -0.37474530682861212 0.2106092740556996 0 -0.36576391042621292 0.21035257698984461 0 -0.36813375919498809 0.20261753651254949 0 -0.3780755243690973 0.2009756264410836 0 -0.37474530682861212 0.2106092740556996 0 -0.36813375919498809 0.20261753651254949 0 -0.36576391042621292 0.21035257698984461 0 -0.36031778486453142 0.20436153715945951 0 -0.36813375919498809 0.20261753651254949 0 -0.35615501692490442 0.21466272025169489 0 -0.36576391042621292 0.21035257698984461 0 -0.36031778486453142 0.20436153715945951 0 -0.36031778486453142 0.20436153715945951 0 -0.36813375919498809 0.20261753651254949 0 -0.36134395720295059 0.1950004420419115 0 -0.36813375919498809 0.20261753651254949 0 -0.37134332356350708 0.1927726732827573 0 -0.36134395720295059 0.1950004420419115 0 -0.3780755243690973 0.2009756264410836 0 -0.36813375919498809 0.20261753651254949 0 -0.37134332356350708 0.1927726732827573 0 -0.36426717452949109 0.18232869514708941 0 -0.37134332356350708 0.1927726732827573 0 -0.36134395720295059 0.1950004420419115 0 -0.36426717452949109 0.18232869514708941 0 -0.36134395720295059 0.1950004420419115 0 -0.35453776995577102 0.18848306121835989 0 -0.36134395720295059 0.1950004420419115 0 -0.35453776995577102 0.18848306121835989 0 -0.35163960770066721 0.19872664524123859 0 -0.36031778486453142 0.20436153715945951 0 -0.36134395720295059 0.1950004420419115 0 -0.35163960770066721 0.19872664524123859 0 -0.35163960770066721 0.19872664524123859 0 -0.34579162474579439 0.1944550085305532 0 -0.35163960770066721 0.19872664524123859 0 -0.34468274376700109 0.20094183493990569 0 -0.34579162474579439 0.1944550085305532 0 -0.34468274376700109 0.20094183493990569 0 -0.34579162474579439 0.1944550085305532 0 -0.35453776995577102 0.18848306121835989 0 -0.35163960770066721 0.19872664524123859 0 -0.34579162474579439 0.1944550085305532 0 -0.32900949611863822 0.1821965670678419 0 -0.34468274376700109 0.20094183493990569 0 -0.32900949611863822 0.1821965670678419 0 -0.34468274376700109 0.20094183493990569 0 -0.34579162474579439 0.1944550085305532 0 -0.32900949611863822 0.1821965670678419 0 -0.34579162474579439 0.1944550085305532 0 -0.32900949611863822 0.1821965670678419 0 -0.34468274376700109 0.20094183493990569 0 -0.32956456736749901 0.19913980217189001 0 -0.34468274376700109 0.20094183493990569 0 -0.32956456736749901 0.19913980217189001 0 -0.33473829704843427 0.2084428263727067 0 -0.32228213621959789 0.20841199749751449 0 -0.3136531849334141 0.20636840537853829 0 -0.30404634981595041 0.1915184345496424 0 -0.32228213621959789 0.20841199749751449 0 -0.30404634981595041 0.1915184345496424 0 -0.32900949611863822 0.1821965670678419 0 -0.32122563738042148 0.1953167003217221 0 -0.30404634981595041 0.1915184345496424 0 -0.32900949611863822 0.1821965670678419 0 -0.32956456736749901 0.19913980217189001 0 -0.32122563738042148 0.1953167003217221 0 -0.32122563738042148 0.1953167003217221 0 -0.32228213621959789 0.20841199749751449 0 -0.30404634981595041 0.1915184345496424 0 -0.32956456736749901 0.19913980217189001 0 -0.32122563738042148 0.1953167003217221 0 -0.32228213621959789 0.20841199749751449 0 -0.32228213621959789 0.20841199749751449 0 -0.3136531849334141 0.20636840537853829 0 -0.31570533742056589 0.21837280950932991 0 -0.32228213621959789 0.20841199749751449 0 -0.31570533742056589 0.21837280950932991 0 -0.32656158480160558 0.22136830408713601 0 -0.32228213621959789 0.20841199749751449 0 -0.33473829704843427 0.2084428263727067 0 -0.34051792262324682 0.22530556044538549 0 -0.32228213621959789 0.20841199749751449 0 -0.34051792262324682 0.22530556044538549 0 -0.32656158480160558 0.22136830408713601 0 -0.34468274376700109 0.20094183493990569 0 -0.33473829704843427 0.2084428263727067 0 -0.34051792262324682 0.22530556044538549 0 -0.34468274376700109 0.20094183493990569 0 -0.34051792262324682 0.22530556044538549 0 -0.32228213621959789 0.20841199749751449 0 -0.34051792262324682 0.22530556044538549 0 -0.32956456736749901 0.19913980217189001 0 -0.32228213621959789 0.20841199749751449 0 -0.33473829704843427 0.2084428263727067 0 -0.3514423206569553 0.23542588110307819 0 -0.34051792262324682 0.22530556044538549 0 -0.33901101573273829 0.23412079273879299 0 -0.34051792262324682 0.22530556044538549 0 -0.33901101573273829 0.23412079273879299 0 -0.34051792262324682 0.22530556044538549 0 -0.33901101573273829 0.23412079273879299 0 -0.33152918293910583 0.2285802840453765 0 -0.34051792262324682 0.22530556044538549 0 -0.33152918293910583 0.2285802840453765 0 -0.32656158480160558 0.22136830408713601 0 -0.33152918293910583 0.2285802840453765 0 -0.32277334480551179 0.22617086893807339 0 -0.32715724525432183 0.2433871466301907 0 -0.33152918293910583 0.2285802840453765 0 -0.32277334480551179 0.22617086893807339 0 -0.32656158480160558 0.22136830408713601 0 -0.32277334480551179 0.22617086893807339 0 -0.31510593093797701 0.22969086693265831 0 -0.32715724525432183 0.2433871466301907 0 -0.31570533742056589 0.21837280950932991 0 -0.32277334480551179 0.22617086893807339 0 -0.32656158480160558 0.22136830408713601 0 -0.31570533742056589 0.21837280950932991 0 -0.32277334480551179 0.22617086893807339 0 -0.31510593093797701 0.22969086693265831 0 -0.31510593093797701 0.22969086693265831 0 -0.32715724525432183 0.2433871466301907 0 -0.3007768424568163 0.23305987187959509 0 -0.32715724525432183 0.2433871466301907 0 -0.3007768424568163 0.23305987187959509 0 -0.33901101573273829 0.23412079273879299 0 -0.32715724525432183 0.2433871466301907 0 -0.35353764805182769 0.25371442138078493 0 -0.32715724525432183 0.2433871466301907 0 -0.35353764805182769 0.25371442138078493 0 -0.33901101573273829 0.23412079273879299 0 -0.33152918293910583 0.2285802840453765 0 -0.32715724525432183 0.2433871466301907 0 -0.28717948597543608 0.23790356307423269 0 -0.27283497257657618 0.2393422478864117 0 -0.2912629174561272 0.25278135807887753 0 -0.3007768424568163 0.23305987187959509 0 -0.2912629174561272 0.25278135807887753 0 -0.28717948597543608 0.23790356307423269 0 -0.3007768424568163 0.23305987187959509 0 -0.2912629174561272 0.25278135807887753 0 -0.3007768424568163 0.23305987187959509 0 -0.30902289457263238 0.25013057913845832 0 -0.2912629174561272 0.25278135807887753 0 -0.32715724525432183 0.2433871466301907 0 -0.3007768424568163 0.23305987187959509 0 -0.30902289457263238 0.25013057913845832 0 -0.3136531849334141 0.20636840537853829 0 -0.3007768424568163 0.23305987187959509 0 -0.3136531849334141 0.20636840537853829 0 -0.31570533742056589 0.21837280950932991 0 -0.3007768424568163 0.23305987187959509 0 -0.31570533742056589 0.21837280950932991 0 -0.31510593093797701 0.22969086693265831 0 -0.3007768424568163 0.23305987187959509 0 -0.3007768424568163 0.23305987187959509 0 -0.28384321141222491 0.22643077445204629 0 -0.3007768424568163 0.23305987187959509 0 -0.28384321141222491 0.22643077445204629 0 -0.29362758445585918 0.20879104883245519 0 -0.28717948597543608 0.23790356307423269 0 -0.3007768424568163 0.23305987187959509 0 -0.28384321141222491 0.22643077445204629 0 -0.28384321141222491 0.22643077445204629 0 -0.29362758445585918 0.20879104883245519 0 -0.27954534712174062 0.20876652425927791 0 -0.29362758445585918 0.20879104883245519 0 -0.28139759817522569 0.19929868147047319 0 -0.27954534712174062 0.20876652425927791 0 -0.3136531849334141 0.20636840537853829 0 -0.3007768424568163 0.23305987187959509 0 -0.29362758445585918 0.20879104883245519 0 -0.3136531849334141 0.20636840537853829 0 -0.29362758445585918 0.20879104883245519 0 -0.30121459129258488 0.20073708355038561 0 -0.3136531849334141 0.20636840537853829 0 -0.30121459129258488 0.20073708355038561 0 -0.30404634981595041 0.1915184345496424 0 -0.30121459129258488 0.20073708355038561 0 -0.30404634981595041 0.1915184345496424 0 -0.29059533855857472 0.19313658993305971 0 -0.29059533855857472 0.19313658993305971 0 -0.28139759817522569 0.19929868147047319 0 -0.27702451912644921 0.18366365226581441 0 -0.29362758445585918 0.20879104883245519 0 -0.30121459129258488 0.20073708355038561 0 -0.29059533855857472 0.19313658993305971 0 -0.29362758445585918 0.20879104883245519 0 -0.29059533855857472 0.19313658993305971 0 -0.28139759817522569 0.19929868147047319 0 -0.26912600433749728 0.20661179928057991 0 -0.27702451912644921 0.18366365226581441 0 -0.28139759817522569 0.19929868147047319 0 -0.26912600433749728 0.20661179928057991 0 -0.27702451912644921 0.18366365226581441 0 -0.26385701600403222 0.188502415721783 0 -0.26912600433749728 0.20661179928057991 0 -0.27702451912644921 0.18366365226581441 0 -0.26385701600403222 0.188502415721783 0 -0.25264687929878737 0.19482073075254741 0 -0.2480363399378111 0.18163070299945519 0 -0.26385701600403222 0.188502415721783 0 -0.25264687929878737 0.19482073075254741 0 -0.25570716630413948 0.20731964723451229 0 -0.26385701600403222 0.188502415721783 0 -0.25570716630413948 0.20731964723451229 0 -0.26385701600403222 0.188502415721783 0 -0.25570716630413948 0.20731964723451229 0 -0.26912600433749728 0.20661179928057991 0 -0.25264687929878737 0.19482073075254741 0 -0.25570716630413948 0.20731964723451229 0 -0.24905124876195489 0.20434550487399289 0 -0.25570716630413948 0.20731964723451229 0 -0.26196632031916728 0.21449975902701951 0 -0.26912600433749728 0.20661179928057991 0 -0.25570716630413948 0.20731964723451229 0 -0.24790925345420239 0.21837968884635159 0 -0.24905124876195489 0.20434550487399289 0 -0.25570716630413948 0.20731964723451229 0 -0.26196632031916728 0.21449975902701951 0 -0.24790925345420239 0.21837968884635159 0 -0.26196632031916728 0.21449975902701951 0 -0.27204211206675111 0.21591975999374011 0 -0.26912600433749728 0.20661179928057991 0 -0.26196632031916728 0.21449975902701951 0 -0.27204211206675111 0.21591975999374011 0 -0.26504706543324652 0.2242678997799136 0 -0.28384321141222491 0.22643077445204629 0 -0.27204211206675111 0.21591975999374011 0 -0.27954534712174062 0.20876652425927791 0 -0.27204211206675111 0.21591975999374011 0 -0.26912600433749728 0.20661179928057991 0 -0.27954534712174062 0.20876652425927791 0 -0.28139759817522569 0.19929868147047319 0 -0.26912600433749728 0.20661179928057991 0 -0.27954534712174062 0.20876652425927791 0 -0.28384321141222491 0.22643077445204629 0 -0.27204211206675111 0.21591975999374011 0 -0.26504706543324652 0.2242678997799136 0 -0.28384321141222491 0.22643077445204629 0 -0.26504706543324652 0.2242678997799136 0 -0.27283497257657618 0.2393422478864117 0 -0.26504706543324652 0.2242678997799136 0 -0.26433127378721522 0.23645084613065481 0 -0.27283497257657618 0.2393422478864117 0 -0.26196632031916728 0.21449975902701951 0 -0.26504706543324652 0.2242678997799136 0 -0.24790925345420239 0.21837968884635159 0 -0.26504706543324652 0.2242678997799136 0 -0.26433127378721522 0.23645084613065481 0 -0.25587681091771458 0.2398974250301425 0 -0.26504706543324652 0.2242678997799136 0 -0.25587681091771458 0.2398974250301425 0 -0.24790925345420239 0.21837968884635159 0 -0.25587681091771458 0.2398974250301425 0 -0.24790925345420239 0.21837968884635159 0 -0.26433127378721522 0.23645084613065481 0 -0.25587681091771458 0.2398974250301425 0 -0.26416949623414848 0.244388656034211 0 -0.25587681091771458 0.2398974250301425 0 -0.2498792106054224 0.24711269659082949 0 -0.2453003038310721 0.23157970323543309 0 -0.25587681091771458 0.2398974250301425 0 -0.25933040692563208 0.2497837237144076 0 -0.2498792106054224 0.24711269659082949 0 -0.25587681091771458 0.2398974250301425 0 -0.26416949623414848 0.244388656034211 0 -0.25933040692563208 0.2497837237144076 0 -0.26416949623414848 0.244388656034211 0 -0.27283497257657618 0.2393422478864117 0 -0.26847401696360412 0.25646903740943849 0 -0.27283497257657618 0.2393422478864117 0 -0.2912629174561272 0.25278135807887753 0 -0.26847401696360412 0.25646903740943849 0 -0.26433127378721522 0.23645084613065481 0 -0.26416949623414848 0.244388656034211 0 -0.27283497257657618 0.2393422478864117 0 -0.28717948597543608 0.23790356307423269 0 -0.28384321141222491 0.22643077445204629 0 -0.27283497257657618 0.2393422478864117 0 -0.28787194834349877 0.15214780314019299 0 -0.28836442793581418 0.1415341986879535 0 -0.29254157538834968 0.1385807856954363 0 -0.28787194834349877 0.15214780314019299 0 -0.29254157538834968 0.1385807856954363 0 -0.28787194834349877 0.15214780314019299 0 -0.28492303391539542 0.16071550525104711 0 -0.28015671540382031 0.15086795269632569 0 -0.28492303391539542 0.16071550525104711 0 -0.28015671540382031 0.15086795269632569 0 -0.28787194834349877 0.15214780314019299 0 -0.28158982106655239 0.1475590473752568 0 -0.28015671540382031 0.15086795269632569 0 -0.28787194834349877 0.15214780314019299 0 -0.28158982106655239 0.1475590473752568 0 -0.28787194834349877 0.15214780314019299 0 -0.28836442793581418 0.1415341986879535 0 -0.28158982106655239 0.1475590473752568 0 -0.28158982106655239 0.1475590473752568 0 -0.28180524027652237 0.137903481556821 0 -0.28831142917134972 0.13203949051183619 0 -0.29254157538834968 0.1385807856954363 0 -0.29914996183776832 0.1193809452414091 0 -0.28836442793581418 0.1415341986879535 0 -0.28158982106655239 0.1475590473752568 0 -0.28831142917134972 0.13203949051183619 0 -0.28831142917134972 0.13203949051183619 0 -0.29254157538834968 0.1385807856954363 0 -0.29914996183776832 0.1193809452414091 0 -0.28158982106655239 0.1475590473752568 0 -0.28831142917134972 0.13203949051183619 0 -0.28180524027652237 0.137903481556821 0 -0.28309210795707301 0.1314299701659285 0 -0.28831142917134972 0.13203949051183619 0 -0.28512961275383097 0.12707405766378499 0 -0.28831142917134972 0.13203949051183619 0 -0.28865981725843898 0.12293226207121211 0 -0.28512961275383097 0.12707405766378499 0 -0.28309210795707301 0.1314299701659285 0 -0.28076766583346657 0.12767759084214131 0 -0.28512961275383097 0.12707405766378499 0 -0.28076766583346657 0.12767759084214131 0 -0.28167604605800339 0.1206632922401967 0 -0.28512961275383097 0.12707405766378499 0 -0.28309210795707301 0.1314299701659285 0 -0.28831142917134972 0.13203949051183619 0 -0.28836442793581418 0.1415341986879535 0 -0.28831142917134972 0.13203949051183619 0 -0.29254157538834968 0.1385807856954363 0 -0.29254157538834968 0.1385807856954363 0 -0.30067321156606241 0.13064242138980431 0 -0.29914996183776832 0.1193809452414091 0 -0.31578298156784651 0.13805383193670631 0 -0.29254157538834968 0.1385807856954363 0 -0.30067321156606241 0.13064242138980431 0 -0.30067321156606241 0.13064242138980431 0 -0.31072320763212441 0.1253378277345136 0 -0.30415306350079191 0.12244722200879481 0 -0.31578298156784651 0.13805383193670631 0 -0.30067321156606241 0.13064242138980431 0 -0.31072320763212441 0.1253378277345136 0 -0.31578298156784651 0.13805383193670631 0 -0.29254157538834968 0.1385807856954363 0 -0.31077553575349443 0.16038867638163859 0 -0.29254157538834968 0.1385807856954363 0 -0.31077553575349443 0.16038867638163859 0 -0.28787194834349877 0.15214780314019299 0 -0.29254157538834968 0.1385807856954363 0 -0.31077553575349443 0.16038867638163859 0 -0.28787194834349877 0.15214780314019299 0 -0.30844072223106922 0.16717218510401649 0 -0.30844072223106922 0.16717218510401649 0 -0.2976823814802978 0.17258907098724779 0 -0.28753153943895299 0.1661048629220076 0 -0.28787194834349877 0.15214780314019299 0 -0.30844072223106922 0.16717218510401649 0 -0.31077553575349443 0.16038867638163859 0 -0.30404634981595041 0.1915184345496424 0 -0.30844072223106922 0.16717218510401649 0 -0.2976823814802978 0.17258907098724779 0 -0.30404634981595041 0.1915184345496424 0 -0.28581056341230271 0.1746248716017702 0 -0.30404634981595041 0.1915184345496424 0 -0.2976823814802978 0.17258907098724779 0 -0.28581056341230271 0.1746248716017702 0 -0.30404634981595041 0.1915184345496424 0 -0.29059533855857472 0.19313658993305971 0 -0.28581056341230271 0.1746248716017702 0 -0.29059533855857472 0.19313658993305971 0 -0.28581056341230271 0.1746248716017702 0 -0.27702451912644921 0.18366365226581441 0 -0.28581056341230271 0.1746248716017702 0 -0.28492303391539542 0.16071550525104711 0 -0.27702451912644921 0.18366365226581441 0 -0.28787194834349877 0.15214780314019299 0 -0.30844072223106922 0.16717218510401649 0 -0.28753153943895299 0.1661048629220076 0 -0.2976823814802978 0.17258907098724779 0 -0.28581056341230271 0.1746248716017702 0 -0.28753153943895299 0.1661048629220076 0 -0.28581056341230271 0.1746248716017702 0 -0.28753153943895299 0.1661048629220076 0 -0.28492303391539542 0.16071550525104711 0 -0.28787194834349877 0.15214780314019299 0 -0.28492303391539542 0.16071550525104711 0 -0.28787194834349877 0.15214780314019299 0 -0.28753153943895299 0.1661048629220076 0 -0.28492303391539542 0.16071550525104711 0 -0.28753153943895299 0.1661048629220076 0 -0.28492303391539542 0.16071550525104711 0 -0.27200686570392479 0.16968518420905379 0 -0.28015671540382031 0.15086795269632569 0 -0.28492303391539542 0.16071550525104711 0 -0.27200686570392479 0.16968518420905379 0 -0.28015671540382031 0.15086795269632569 0 -0.27200686570392479 0.16968518420905379 0 -0.27224372080698622 0.15472493042383309 0 -0.28015671540382031 0.15086795269632569 0 -0.28492303391539542 0.16071550525104711 0 -0.27200686570392479 0.16968518420905379 0 -0.27702451912644921 0.18366365226581441 0 -0.27200686570392479 0.16968518420905379 0 -0.26020704674407602 0.16337445554073241 0 -0.26584789378534968 0.15542944644362849 0 -0.27200686570392479 0.16968518420905379 0 -0.27224372080698622 0.15472493042383309 0 -0.26584789378534968 0.15542944644362849 0 -0.26385701600403222 0.188502415721783 0 -0.27200686570392479 0.16968518420905379 0 -0.28492303391539542 0.16071550525104711 0 -0.27702451912644921 0.18366365226581441 0 -0.26385701600403222 0.188502415721783 0 -0.27200686570392479 0.16968518420905379 0 -0.27702451912644921 0.18366365226581441 0 -0.26385701600403222 0.188502415721783 0 -0.27200686570392479 0.16968518420905379 0 -0.25871826799088488 0.17304260125938431 0 -0.26385701600403222 0.188502415721783 0 -0.25871826799088488 0.17304260125938431 0 -0.2480363399378111 0.18163070299945519 0 -0.25871826799088488 0.17304260125938431 0 -0.24358627092022719 0.17108314681701589 0 -0.2480363399378111 0.18163070299945519 0 -0.26020704674407602 0.16337445554073241 0 -0.25559483276929412 0.15270395497579789 0 -0.26584789378534968 0.15542944644362849 0 -0.27200686570392479 0.16968518420905379 0 -0.25871826799088488 0.17304260125938431 0 -0.26020704674407602 0.16337445554073241 0 -0.25871826799088488 0.17304260125938431 0 -0.26020704674407602 0.16337445554073241 0 -0.25051315415332509 0.1620637495279168 0 -0.25871826799088488 0.17304260125938431 0 -0.25051315415332509 0.1620637495279168 0 -0.24358627092022719 0.17108314681701589 0 -0.26020704674407602 0.16337445554073241 0 -0.25051315415332509 0.1620637495279168 0 -0.25559483276929412 0.15270395497579789 0 -0.25559483276929412 0.15270395497579789 0 -0.25287529608627263 0.14142201146885999 0 -0.24336733059640939 0.1515311308089351 0 -0.25559483276929412 0.15270395497579789 0 -0.25287529608627263 0.14142201146885999 0 -0.26161559968995962 0.14548313126727969 0 -0.26161559968995962 0.14548313126727969 0 -0.26843591231478769 0.14379035302114709 0 -0.26121302750081687 0.13459146347226911 0 -0.26161559968995962 0.14548313126727969 0 -0.26584789378534968 0.15542944644362849 0 -0.26843591231478769 0.14379035302114709 0 -0.25559483276929412 0.15270395497579789 0 -0.26161559968995962 0.14548313126727969 0 -0.26584789378534968 0.15542944644362849 0 -0.27224372080698622 0.15472493042383309 0 -0.26584789378534968 0.15542944644362849 0 -0.26843591231478769 0.14379035302114709 0 -0.28158982106655239 0.1475590473752568 0 -0.28180524027652237 0.137903481556821 0 -0.27752254365059759 0.1454255667720388 0 -0.26843591231478769 0.14379035302114709 0 -0.27752254365059759 0.1454255667720388 0 -0.28015671540382031 0.15086795269632569 0 -0.28158982106655239 0.1475590473752568 0 -0.27752254365059759 0.1454255667720388 0 -0.28158982106655239 0.1475590473752568 0 -0.27752254365059759 0.1454255667720388 0 -0.28015671540382031 0.15086795269632569 0 -0.27752254365059759 0.1454255667720388 0 -0.28015671540382031 0.15086795269632569 0 -0.28158982106655239 0.1475590473752568 0 -0.28015671540382031 0.15086795269632569 0 -0.27224372080698622 0.15472493042383309 0 -0.26843591231478769 0.14379035302114709 0 -0.28015671540382031 0.15086795269632569 0 -0.27752254365059759 0.1454255667720388 0 -0.27787609300478372 0.132141389011254 0 -0.26718457623445452 0.1240665918750827 0 -0.26843591231478769 0.14379035302114709 0 -0.27752254365059759 0.1454255667720388 0 -0.26718457623445452 0.1240665918750827 0 -0.27752254365059759 0.1454255667720388 0 -0.26718457623445452 0.1240665918750827 0 -0.27787609300478372 0.132141389011254 0 -0.26718457623445452 0.1240665918750827 0 -0.27639297713961097 0.1245033366516019 0 -0.28076766583346657 0.12767759084214131 0 -0.27787609300478372 0.132141389011254 0 -0.27639297713961097 0.1245033366516019 0 -0.28309210795707301 0.1314299701659285 0 -0.28076766583346657 0.12767759084214131 0 -0.27787609300478372 0.132141389011254 0 -0.28180524027652237 0.137903481556821 0 -0.28309210795707301 0.1314299701659285 0 -0.27787609300478372 0.132141389011254 0 -0.28180524027652237 0.137903481556821 0 -0.27752254365059759 0.1454255667720388 0 -0.27787609300478372 0.132141389011254 0 -0.25287529608627263 0.14142201146885999 0 -0.26121302750081687 0.13459146347226911 0 -0.25563846361954728 0.12487276542759269 0 -0.26843591231478769 0.14379035302114709 0 -0.26121302750081687 0.13459146347226911 0 -0.26718457623445452 0.1240665918750827 0 -0.26121302750081687 0.13459146347226911 0 -0.25563846361954728 0.12487276542759269 0 -0.26718457623445452 0.1240665918750827 0 -0.25287529608627263 0.14142201146885999 0 -0.26161559968995962 0.14548313126727969 0 -0.26121302750081687 0.13459146347226911 0 -0.2537267757006092 0.111130914015088 0 -0.25421243706508739 0.097265231053840218 0 -0.26718457623445452 0.1240665918750827 0 -0.25563846361954728 0.12487276542759269 0 -0.2537267757006092 0.111130914015088 0 -0.24629320844866159 0.11844477249865901 0 -0.25421243706508739 0.097265231053840218 0 -0.26779389209635479 0.1087062600307359 0 -0.26718457623445452 0.1240665918750827 0 -0.25421243706508739 0.097265231053840218 0 -0.26718457623445452 0.1240665918750827 0 -0.25563846361954728 0.12487276542759269 0 -0.2537267757006092 0.111130914015088 0 -0.26718457623445452 0.1240665918750827 0 -0.25421243706508739 0.097265231053840218 0 -0.26640429107853242 0.09142417853720626 0 -0.25224170890718989 0.093193566716078646 0 -0.25421243706508739 0.097265231053840218 0 -0.24854138921333119 0.096905554240497016 0 -0.25421243706508739 0.097265231053840218 0 -0.25224170890718989 0.093193566716078646 0 -0.24854138921333119 0.096905554240497016 0 -0.25421243706508739 0.097265231053840218 0 -0.25224170890718989 0.093193566716078646 0 -0.25224170890718989 0.093193566716078646 0 -0.24854138921333119 0.096905554240497016 0 -0.25421243706508739 0.097265231053840218 0 -0.2507319401646525 0.099061980299433444 0 -0.24854138921333119 0.096905554240497016 0 -0.25421243706508739 0.097265231053840218 0 -0.2507319401646525 0.099061980299433444 0 -0.25103706506111162 0.102443799532785 0 -0.2537267757006092 0.111130914015088 0 -0.25103706506111162 0.102443799532785 0 -0.24887979200759811 0.10686338059467219 0 -0.2537267757006092 0.111130914015088 0 -0.25421243706508739 0.097265231053840218 0 -0.25103706506111162 0.102443799532785 0 -0.25421243706508739 0.097265231053840218 0 -0.27776050435485961 0.098758728203668766 0 -0.25421243706508739 0.097265231053840218 0 -0.27776050435485961 0.098758728203668766 0 -0.26640429107853242 0.09142417853720626 0 -0.25421243706508739 0.097265231053840218 0 -0.26779389209635479 0.1087062600307359 0 -0.27776050435485961 0.098758728203668766 0 -0.26779389209635479 0.1087062600307359 0 -0.27776050435485961 0.098758728203668766 0 -0.28109867950238498 0.1108932489579504 0 -0.26718457623445452 0.1240665918750827 0 -0.27446050456734722 0.1179678192893351 0 -0.27639297713961097 0.1245033366516019 0 -0.26779389209635479 0.1087062600307359 0 -0.26718457623445452 0.1240665918750827 0 -0.27446050456734722 0.1179678192893351 0 -0.28109867950238498 0.1108932489579504 0 -0.27446050456734722 0.1179678192893351 0 -0.28167604605800339 0.1206632922401967 0 -0.26779389209635479 0.1087062600307359 0 -0.28109867950238498 0.1108932489579504 0 -0.27446050456734722 0.1179678192893351 0 -0.27446050456734722 0.1179678192893351 0 -0.27639297713961097 0.1245033366516019 0 -0.28167604605800339 0.1206632922401967 0 -0.28076766583346657 0.12767759084214131 0 -0.27639297713961097 0.1245033366516019 0 -0.28167604605800339 0.1206632922401967 0 -0.28512961275383097 0.12707405766378499 0 -0.28167604605800339 0.1206632922401967 0 -0.28865981725843898 0.12293226207121211 0 -0.28167604605800339 0.1206632922401967 0 -0.28865981725843898 0.12293226207121211 0 -0.28731759565482212 0.11607280620215869 0 -0.28831142917134972 0.13203949051183619 0 -0.29503303727614738 0.1165199336484157 0 -0.29914996183776832 0.1193809452414091 0 -0.28831142917134972 0.13203949051183619 0 -0.28865981725843898 0.12293226207121211 0 -0.29503303727614738 0.1165199336484157 0 -0.28831142917134972 0.13203949051183619 0 -0.29503303727614738 0.1165199336484157 0 -0.28865981725843898 0.12293226207121211 0 -0.29503303727614738 0.1165199336484157 0 -0.28731759565482212 0.11607280620215869 0 -0.29564401367086618 0.11387826735430411 0 -0.29102834962131341 0.11153707670308061 0 -0.29736470594823589 0.1080751138243112 0 -0.29503303727614738 0.1165199336484157 0 -0.29564401367086618 0.11387826735430411 0 -0.29102834962131341 0.11153707670308061 0 -0.29503303727614738 0.1165199336484157 0 -0.29564401367086618 0.11387826735430411 0 -0.29914996183776832 0.1193809452414091 0 -0.29503303727614738 0.1165199336484157 0 -0.29102834962131341 0.11153707670308061 0 -0.28731759565482212 0.11607280620215869 0 -0.28109867950238498 0.1108932489579504 0 -0.29102834962131341 0.11153707670308061 0 -0.28731759565482212 0.11607280620215869 0 -0.28109867950238498 0.1108932489579504 0 -0.28167604605800339 0.1206632922401967 0 -0.28731759565482212 0.11607280620215869 0 -0.27776050435485961 0.098758728203668766 0 -0.30130857164463182 0.10025222535349861 0 -0.30149292265502159 0.093393638707694709 0 -0.27776050435485961 0.098758728203668766 0 -0.28953057192584958 0.1054669220864895 0 -0.30130857164463182 0.10025222535349861 0 -0.28109867950238498 0.1108932489579504 0 -0.29102834962131341 0.11153707670308061 0 -0.28953057192584958 0.1054669220864895 0 -0.27776050435485961 0.098758728203668766 0 -0.28109867950238498 0.1108932489579504 0 -0.28953057192584958 0.1054669220864895 0 -0.27776050435485961 0.098758728203668766 0 -0.30130857164463182 0.10025222535349861 0 -0.28953057192584958 0.1054669220864895 0 -0.29736470594823589 0.1080751138243112 0 -0.30130857164463182 0.10025222535349861 0 -0.29102834962131341 0.11153707670308061 0 -0.28953057192584958 0.1054669220864895 0 -0.29736470594823589 0.1080751138243112 0 -0.29736470594823589 0.1080751138243112 0 -0.30130857164463182 0.10025222535349861 0 -0.30575834828718718 0.1001811047873821 0 -0.29736470594823589 0.1080751138243112 0 -0.30575834828718718 0.1001811047873821 0 -0.29914996183776832 0.1193809452414091 0 -0.31034744341611942 0.10184486676437431 0 -0.30149292265502159 0.093393638707694709 0 -0.32011401753943758 0.1045302685824343 0 -0.30149292265502159 0.093393638707694709 0 -0.32011401753943758 0.1045302685824343 0 -0.30149292265502159 0.093393638707694709 0 -0.32011401753943758 0.1045302685824343 0 -0.31458668527383621 0.096697085618475065 0 -0.30130857164463182 0.10025222535349861 0 -0.30575834828718718 0.1001811047873821 0 -0.30149292265502159 0.093393638707694709 0 -0.30575834828718718 0.1001811047873821 0 -0.31034744341611942 0.10184486676437431 0 -0.30149292265502159 0.093393638707694709 0 -0.30575834828718718 0.1001811047873821 0 -0.30791286228677389 0.10859490200190799 0 -0.30528554150353637 0.1142550575721563 0 -0.30575834828718718 0.1001811047873821 0 -0.30791286228677389 0.10859490200190799 0 -0.30887339141920589 0.1053401431257525 0 -0.30575834828718718 0.1001811047873821 0 -0.30887339141920589 0.1053401431257525 0 -0.31034744341611942 0.10184486676437431 0 -0.30887339141920589 0.1053401431257525 0 -0.31034744341611942 0.10184486676437431 0 -0.31140279993116049 0.10524300066794411 0 -0.31034744341611942 0.10184486676437431 0 -0.31140279993116049 0.10524300066794411 0 -0.31469790523404739 0.1051385694767171 0 -0.31140279993116049 0.10524300066794411 0 -0.3109143895341841 0.1086658276177712 0 -0.31451447761790452 0.1077895947037865 0 -0.30887339141920589 0.1053401431257525 0 -0.31140279993116049 0.10524300066794411 0 -0.3109143895341841 0.1086658276177712 0 -0.30791286228677389 0.10859490200190799 0 -0.30887339141920589 0.1053401431257525 0 -0.3109143895341841 0.1086658276177712 0 -0.3109143895341841 0.1086658276177712 0 -0.30990923904321849 0.1123469877928662 0 -0.31372785897970051 0.1117760879494076 0 -0.30575834828718718 0.1001811047873821 0 -0.30528554150353637 0.1142550575721563 0 -0.29914996183776832 0.1193809452414091 0 -0.30575834828718718 0.1001811047873821 0 -0.29914996183776832 0.1193809452414091 0 -0.30791286228677389 0.10859490200190799 0 -0.3109143895341841 0.1086658276177712 0 -0.30990923904321849 0.1123469877928662 0 -0.30791286228677389 0.10859490200190799 0 -0.30990923904321849 0.1123469877928662 0 -0.30528554150353637 0.1142550575721563 0 -0.30528554150353637 0.1142550575721563 0 -0.30867303827271902 0.1159075683456182 0 -0.30739946205352858 0.1193366648103648 0 -0.30990923904321849 0.1123469877928662 0 -0.30528554150353637 0.1142550575721563 0 -0.30867303827271902 0.1159075683456182 0 -0.30990923904321849 0.1123469877928662 0 -0.30867303827271902 0.1159075683456182 0 -0.31358675754627152 0.11799148313160771 0 -0.30990923904321849 0.1123469877928662 0 -0.31372785897970051 0.1117760879494076 0 -0.31358675754627152 0.11799148313160771 0 -0.30867303827271902 0.1159075683456182 0 -0.30739946205352858 0.1193366648103648 0 -0.31358675754627152 0.11799148313160771 0 -0.31072320763212441 0.1253378277345136 0 -0.30739946205352858 0.1193366648103648 0 -0.31358675754627152 0.11799148313160771 0 -0.31072320763212441 0.1253378277345136 0 -0.30739946205352858 0.1193366648103648 0 -0.30415306350079191 0.12244722200879481 0 -0.30528554150353637 0.1142550575721563 0 -0.30739946205352858 0.1193366648103648 0 -0.30399700722390632 0.1188549724081812 0 -0.30739946205352858 0.1193366648103648 0 -0.30399700722390632 0.1188549724081812 0 -0.30415306350079191 0.12244722200879481 0 -0.30399700722390632 0.1188549724081812 0 -0.30415306350079191 0.12244722200879481 0 -0.29914996183776832 0.1193809452414091 0 -0.30528554150353637 0.1142550575721563 0 -0.30399700722390632 0.1188549724081812 0 -0.29914996183776832 0.1193809452414091 0 -0.30067321156606241 0.13064242138980431 0 -0.30415306350079191 0.12244722200879481 0 -0.29914996183776832 0.1193809452414091 0 -0.29564401367086618 0.11387826735430411 0 -0.29736470594823589 0.1080751138243112 0 -0.29914996183776832 0.1193809452414091 0 -0.30008697304324211 0.074644296232603852 0 -0.31225361328428342 0.068462934169472828 0 -0.30064471995799991 0.061039477390939331 0 -0.31225361328428342 0.068462934169472828 0 -0.30064471995799991 0.061039477390939331 0 -0.31277578444338189 0.058647531493481203 0 -0.30008697304324211 0.074644296232603852 0 -0.31225361328428342 0.068462934169472828 0 -0.31365778634404529 0.079039918684124355 0 -0.30586803532858697 0.084534559181279945 0 -0.31410575875943281 0.087072438942322833 0 -0.31365778634404529 0.079039918684124355 0 -0.30008697304324211 0.074644296232603852 0 -0.30586803532858697 0.084534559181279945 0 -0.31365778634404529 0.079039918684124355 0 -0.30859781949761961 0.090643456721649057 0 -0.30149292265502159 0.093393638707694709 0 -0.31458668527383621 0.096697085618475065 0 -0.30586803532858697 0.084534559181279945 0 -0.30859781949761961 0.090643456721649057 0 -0.30149292265502159 0.093393638707694709 0 -0.30586803532858697 0.084534559181279945 0 -0.30859781949761961 0.090643456721649057 0 -0.31410575875943281 0.087072438942322833 0 -0.30859781949761961 0.090643456721649057 0 -0.31458668527383621 0.096697085618475065 0 -0.31383705487361702 0.091867431621538875 0 -0.30859781949761961 0.090643456721649057 0 -0.31383705487361702 0.091867431621538875 0 -0.31410575875943281 0.087072438942322833 0 -0.30586803532858697 0.084534559181279945 0 -0.30149292265502159 0.093393638707694709 0 -0.29366955941467471 0.086665072084026434 0 -0.30008697304324211 0.074644296232603852 0 -0.30586803532858697 0.084534559181279945 0 -0.29366955941467471 0.086665072084026434 0 -0.30008697304324211 0.074644296232603852 0 -0.28313936169166293 0.081994138094884844 0 -0.29366955941467471 0.086665072084026434 0 -0.27776050435485961 0.098758728203668766 0 -0.30149292265502159 0.093393638707694709 0 -0.29366955941467471 0.086665072084026434 0 -0.27776050435485961 0.098758728203668766 0 -0.28313936169166293 0.081994138094884844 0 -0.29366955941467471 0.086665072084026434 0 -0.30008697304324211 0.074644296232603852 0 -0.28264252710342302 0.062696888803701084 0 -0.30064471995799991 0.061039477390939331 0 -0.30008697304324211 0.074644296232603852 0 -0.28313936169166293 0.081994138094884844 0 -0.28264252710342302 0.062696888803701084 0 -0.28313936169166293 0.081994138094884844 0 -0.28264252710342302 0.062696888803701084 0 -0.26744211800530721 0.077945227759890587 0 -0.28264252710342302 0.062696888803701084 0 -0.26744211800530721 0.077945227759890587 0 -0.26421109027106821 0.061939002248435293 0 -0.28264252710342302 0.062696888803701084 0 -0.26744211800530721 0.077945227759890587 0 -0.28313936169166293 0.081994138094884844 0 -0.26744211800530721 0.077945227759890587 0 -0.26640429107853242 0.09142417853720626 0 -0.27776050435485961 0.098758728203668766 0 -0.28313936169166293 0.081994138094884844 0 -0.26640429107853242 0.09142417853720626 0 -0.26744211800530721 0.077945227759890587 0 -0.25224170890718989 0.093193566716078646 0 -0.24178985965075289 0.071599303849051804 0 -0.26744211800530721 0.077945227759890587 0 -0.26640429107853242 0.09142417853720626 0 -0.25224170890718989 0.093193566716078646 0 -0.26744211800530721 0.077945227759890587 0 -0.25224170890718989 0.093193566716078646 0 -0.26744211800530721 0.077945227759890587 0 -0.26421109027106821 0.061939002248435293 0 -0.24178985965075289 0.071599303849051804 0 -0.25350631899672538 0.049152877270517432 0 -0.27567462759913269 0.048300713559015537 0 -0.25350631899672538 0.049152877270517432 0 -0.26421109027106821 0.061939002248435293 0 -0.24178985965075289 0.071599303849051804 0 -0.25350631899672538 0.049152877270517432 0 -0.26421109027106821 0.061939002248435293 0 -0.27567462759913269 0.048300713559015537 0 -0.25350631899672538 0.049152877270517432 0 -0.25675325607999722 0.03198146301353641 0 -0.27567462759913269 0.048300713559015537 0 -0.25350631899672538 0.049152877270517432 0 -0.25675325607999722 0.03198146301353641 0 -0.2409563751068213 0.034101165506869868 0 -0.25675325607999722 0.03198146301353641 0 -0.27567462759913269 0.048300713559015537 0 -0.2709090642920447 0.018173800607206081 0 -0.27567462759913269 0.048300713559015537 0 -0.2709090642920447 0.018173800607206081 0 -0.28684333354403979 0.029744899257626151 0 -0.28264252710342302 0.062696888803701084 0 -0.26421109027106821 0.061939002248435293 0 -0.27567462759913269 0.048300713559015537 0 -0.26502549739201658 -0.0070783455138550564 0 -0.2709090642920447 0.018173800607206081 0 -0.24271989440526179 0.010178758124073159 0 -0.26502549739201658 -0.0070783455138550564 0 -0.24271989440526179 0.010178758124073159 0 -0.25675325607999722 0.03198146301353641 0 -0.2709090642920447 0.018173800607206081 0 -0.24271989440526179 0.010178758124073159 0 -0.26502549739201658 -0.0070783455138550564 0 -0.2709090642920447 0.018173800607206081 0 -0.27813716162916918 0.0029973473128752418 0 -0.2709090642920447 0.018173800607206081 0 -0.27813716162916918 0.0029973473128752418 0 -0.29185183740701631 0.0095131076442702411 0 -0.28959146889289672 -0.0074111707537560124 0 -0.29185183740701631 0.0095131076442702411 0 -0.28959146889289672 -0.0074111707537560124 0 -0.27813716162916918 0.0029973473128752418 0 -0.29185183740701631 0.0095131076442702411 0 -0.29185183740701631 0.0095131076442702411 0 -0.28684333354403979 0.029744899257626151 0 -0.30098221180463453 0.02494359543833459 0 -0.2709090642920447 0.018173800607206081 0 -0.29185183740701631 0.0095131076442702411 0 -0.28684333354403979 0.029744899257626151 0 -0.30098221180463453 0.02494359543833459 0 -0.3120489166871242 0.0091022440905632329 0 -0.31632403518345248 0.028909176351699671 0 -0.30344887476686622 -0.0030365834359725192 0 -0.29185183740701631 0.0095131076442702411 0 -0.3120489166871242 0.0091022440905632329 0 -0.29185183740701631 0.0095131076442702411 0 -0.30098221180463453 0.02494359543833459 0 -0.3120489166871242 0.0091022440905632329 0 -0.28264252710342302 0.062696888803701084 0 -0.2978429362015399 0.047448549847512601 0 -0.30064471995799991 0.061039477390939331 0 -0.28264252710342302 0.062696888803701084 0 -0.27567462759913269 0.048300713559015537 0 -0.2978429362015399 0.047448549847512601 0 -0.27567462759913269 0.048300713559015537 0 -0.2978429362015399 0.047448549847512601 0 -0.28264252710342302 0.062696888803701084 0 -0.2978429362015399 0.047448549847512601 0 -0.27567462759913269 0.048300713559015537 0 -0.28684333354403979 0.029744899257626151 0 -0.2978429362015399 0.047448549847512601 0 -0.28684333354403979 0.029744899257626151 0 -0.30098221180463453 0.02494359543833459 0 -0.2978429362015399 0.047448549847512601 0 -0.2978429362015399 0.047448549847512601 0 -0.31632403518345248 0.028909176351699671 0 -0.30098221180463453 0.02494359543833459 0 -0.2978429362015399 0.047448549847512601 0 -0.31632403518345248 0.028909176351699671 0 -0.2978429362015399 0.047448549847512601 0 -0.3243038031259875 0.046431377497005787 0 -0.2978429362015399 0.047448549847512601 0 -0.31277578444338189 0.058647531493481203 0 -0.3243038031259875 0.046431377497005787 0 -0.2978429362015399 0.047448549847512601 0 -0.30064471995799991 0.061039477390939331 0 -0.31277578444338189 0.058647531493481203 0 -0.31277578444338189 0.058647531493481203 0 -0.3243038031259875 0.046431377497005787 0 -0.32374000529095009 0.063683274579122914 0 -0.3243038031259875 0.046431377497005787 0 -0.33511558099450828 0.057600483665431003 0 -0.32374000529095009 0.063683274579122914 0 -0.3243038031259875 0.046431377497005787 0 -0.33583051479556453 0.031362318681132102 0 -0.31632403518345248 0.028909176351699671 0 -0.2978429362015399 0.047448549847512601 0 -0.3243038031259875 0.046431377497005787 0 -0.31632403518345248 0.028909176351699671 0 -0.3243038031259875 0.046431377497005787 0 -0.3507646700504351 0.04541420514649791 0 -0.3243038031259875 0.046431377497005787 0 -0.33583051479556453 0.031362318681132102 0 -0.3507646700504351 0.04541420514649791 0 -0.3243038031259875 0.046431377497005787 0 -0.33511558099450828 0.057600483665431003 0 -0.3507646700504351 0.04541420514649791 0 -0.31917495546688313 -0.0079344111633256626 0 -0.3120489166871242 0.0091022440905632329 0 -0.334805134165366 0.01036980285588779 0 -0.3120489166871242 0.0091022440905632329 0 -0.31632403518345248 0.028909176351699671 0 -0.334805134165366 0.01036980285588779 0 -0.31632403518345248 0.028909176351699671 0 -0.334805134165366 0.01036980285588779 0 -0.33583051479556453 0.031362318681132102 0 -0.31632403518345248 0.028909176351699671 0 -0.334805134165366 0.01036980285588779 0 -0.33583051479556453 0.031362318681132102 0 -0.334805134165366 0.01036980285588779 0 -0.35295493145258161 0.025687031554569299 0 -0.35328623314727958 -0.0081695706399240436 0 -0.334805134165366 0.01036980285588779 0 -0.334805134165366 0.01036980285588779 0 -0.35241148569575781 0.0086663335579918177 0 -0.35295493145258161 0.025687031554569299 0 -0.35328623314727958 -0.0081695706399240436 0 -0.334805134165366 0.01036980285588779 0 -0.35241148569575781 0.0086663335579918177 0 -0.35241148569575781 0.0086663335579918177 0 -0.35295493145258161 0.025687031554569299 0 -0.36796617522195069 0.01270160959637354 0 -0.35295493145258161 0.025687031554569299 0 -0.37259585609841578 0.028549321196182292 0 -0.36796617522195069 0.01270160959637354 0 -0.37259585609841578 0.028549321196182292 0 -0.36796617522195069 0.01270160959637354 0 -0.38130041726254071 0.020413739290956232 0 -0.37259585609841578 0.028549321196182292 0 -0.36796617522195069 0.01270160959637354 0 -0.36657771537407402 -0.0014408962769119999 0 -0.38346250326252601 0.0086969794092609867 0 -0.36796617522195069 0.01270160959637354 0 -0.36657771537407402 -0.0014408962769119999 0 -0.35241148569575781 0.0086663335579918177 0 -0.36796617522195069 0.01270160959637354 0 -0.33511558099450828 0.057600483665431003 0 -0.34574844300881352 0.062326906904746592 0 -0.3507646700504351 0.04541420514649791 0 -0.35695901398218399 0.060440672589105897 0 -0.34574844300881352 0.062326906904746592 0 -0.3507646700504351 0.04541420514649791 0 -0.35695901398218399 0.060440672589105897 0 -0.3507646700504351 0.04541420514649791 0 -0.36872059240698812 0.055469446300106431 0 -0.35295493145258161 0.025687031554569299 0 -0.37259585609841578 0.028549321196182292 0 -0.3507646700504351 0.04541420514649791 0 -0.33583051479556453 0.031362318681132102 0 -0.35295493145258161 0.025687031554569299 0 -0.3507646700504351 0.04541420514649791 0 -0.37722553697488281 0.044397032795990499 0 -0.3507646700504351 0.04541420514649791 0 -0.37722553697488281 0.044397032795990499 0 -0.37259585609841578 0.028549321196182292 0 -0.37722553697488281 0.044397032795990499 0 -0.37259585609841578 0.028549321196182292 0 -0.3507646700504351 0.04541420514649791 0 -0.37722553697488281 0.044397032795990499 0 -0.3507646700504351 0.04541420514649791 0 -0.36872059240698812 0.055469446300106431 0 -0.35695901398218399 0.060440672589105897 0 -0.36872059240698812 0.055469446300106431 0 -0.37153134697181572 0.067638709251129817 0 -0.38494642594616801 0.070826159333228222 0 -0.36872059240698812 0.055469446300106431 0 -0.37153134697181572 0.067638709251129817 0 -0.35695901398218399 0.060440672589105897 0 -0.37153134697181572 0.067638709251129817 0 -0.36065075025171778 0.076799839735086084 0 -0.37539600603989948 0.080149573010943553 0 -0.37153134697181572 0.067638709251129817 0 -0.36065075025171778 0.076799839735086084 0 -0.35695901398218399 0.060440672589105897 0 -0.36065075025171778 0.076799839735086084 0 -0.34600020008718102 0.072892549501987924 0 -0.35695901398218399 0.060440672589105897 0 -0.34574844300881352 0.062326906904746592 0 -0.34600020008718102 0.072892549501987924 0 -0.34736925781227879 0.085492966483714933 0 -0.36862374080581423 0.09381544474314385 0 -0.34459964592793357 0.098283079629221767 0 -0.36065075025171778 0.076799839735086084 0 -0.34736925781227879 0.085492966483714933 0 -0.36862374080581423 0.09381544474314385 0 -0.36065075025171778 0.076799839735086084 0 -0.34600020008718102 0.072892549501987924 0 -0.34736925781227879 0.085492966483714933 0 -0.37539600603989948 0.080149573010943553 0 -0.36065075025171778 0.076799839735086084 0 -0.36862374080581423 0.09381544474314385 0 -0.3821670932473708 0.10729764564920879 0 -0.36862374080581423 0.09381544474314385 0 -0.36701552233908552 0.1079089569189202 0 -0.36862374080581423 0.09381544474314385 0 -0.36701552233908552 0.1079089569189202 0 -0.35673853215274992 0.1060110240781782 0 -0.37445208051336337 0.12522755155137669 0 -0.37384713584128149 0.11692942080371251 0 -0.36655199793732868 0.122973777482161 0 -0.37384713584128149 0.11692942080371251 0 -0.36662188007882518 0.11614335945816991 0 -0.36655199793732868 0.122973777482161 0 -0.36701552233908552 0.1079089569189202 0 -0.37384713584128149 0.11692942080371251 0 -0.36662188007882518 0.11614335945816991 0 -0.3821670932473708 0.10729764564920879 0 -0.36701552233908552 0.1079089569189202 0 -0.37384713584128149 0.11692942080371251 0 -0.36701552233908552 0.1079089569189202 0 -0.3590728641976052 0.11676128262788581 0 -0.35673853215274992 0.1060110240781782 0 -0.36701552233908552 0.1079089569189202 0 -0.36662188007882518 0.11614335945816991 0 -0.3590728641976052 0.11676128262788581 0 -0.35735620730826828 0.1268035283319158 0 -0.36655199793732868 0.122973777482161 0 -0.3590728641976052 0.11676128262788581 0 -0.36662188007882518 0.11614335945816991 0 -0.36655199793732868 0.122973777482161 0 -0.3590728641976052 0.11676128262788581 0 -0.35735620730826828 0.1268035283319158 0 -0.33873511242385368 0.1156668984571739 0 -0.35735620730826828 0.1268035283319158 0 -0.35064486785207533 0.11316683014428359 0 -0.33873511242385368 0.1156668984571739 0 -0.35735620730826828 0.1268035283319158 0 -0.3590728641976052 0.11676128262788581 0 -0.35064486785207533 0.11316683014428359 0 -0.35735620730826828 0.1268035283319158 0 -0.3590728641976052 0.11676128262788581 0 -0.3590728641976052 0.11676128262788581 0 -0.35064486785207533 0.11316683014428359 0 -0.35673853215274992 0.1060110240781782 0 -0.36862374080581423 0.09381544474314385 0 -0.34459964592793357 0.098283079629221767 0 -0.35064486785207533 0.11316683014428359 0 -0.34459964592793357 0.098283079629221767 0 -0.33873511242385368 0.1156668984571739 0 -0.36862374080581423 0.09381544474314385 0 -0.35673853215274992 0.1060110240781782 0 -0.34459964592793357 0.098283079629221767 0 -0.35064486785207533 0.11316683014428359 0 -0.35673853215274992 0.1060110240781782 0 -0.34459964592793357 0.098283079629221767 0 -0.33100608173531948 0.1053077402960324 0 -0.33873511242385368 0.1156668984571739 0 -0.32011401753943758 0.1045302685824343 0 -0.34459964592793357 0.098283079629221767 0 -0.33100608173531948 0.1053077402960324 0 -0.32057555105005309 0.1027507145152997 0 -0.34459964592793357 0.098283079629221767 0 -0.32057555105005309 0.1027507145152997 0 -0.33088546730053692 0.09136391966725807 0 -0.34459964592793357 0.098283079629221767 0 -0.32057555105005309 0.1027507145152997 0 -0.34459964592793357 0.098283079629221767 0 -0.33100608173531948 0.1053077402960324 0 -0.33873511242385368 0.1156668984571739 0 -0.33873511242385368 0.1156668984571739 0 -0.32011401753943758 0.1045302685824343 0 -0.3369252872360825 0.1343223229849069 0 -0.33873511242385368 0.1156668984571739 0 -0.32366273309872112 0.1197327025851555 0 -0.33873511242385368 0.1156668984571739 0 -0.32366273309872112 0.1197327025851555 0 -0.32108222602811859 0.11105512777585901 0 -0.33873511242385368 0.1156668984571739 0 -0.32108222602811859 0.11105512777585901 0 -0.32011401753943758 0.1045302685824343 0 -0.32366273309872112 0.1197327025851555 0 -0.32108222602811859 0.11105512777585901 0 -0.317200935929074 0.1136764096000448 0 -0.32366273309872112 0.1197327025851555 0 -0.317200935929074 0.1136764096000448 0 -0.31358675754627152 0.11799148313160771 0 -0.32108222602811859 0.11105512777585901 0 -0.31663137463869939 0.1110743050072745 0 -0.31451447761790452 0.1077895947037865 0 -0.32108222602811859 0.11105512777585901 0 -0.31663137463869939 0.1110743050072745 0 -0.317200935929074 0.1136764096000448 0 -0.31663137463869939 0.1110743050072745 0 -0.31372785897970051 0.1117760879494076 0 -0.31451447761790452 0.1077895947037865 0 -0.31663137463869939 0.1110743050072745 0 -0.31372785897970051 0.1117760879494076 0 -0.317200935929074 0.1136764096000448 0 -0.31372785897970051 0.1117760879494076 0 -0.317200935929074 0.1136764096000448 0 -0.31358675754627152 0.11799148313160771 0 -0.31072320763212441 0.1253378277345136 0 -0.32366273309872112 0.1197327025851555 0 -0.31358675754627152 0.11799148313160771 0 -0.32288280724038781 0.094478929683142046 0 -0.32057555105005309 0.1027507145152997 0 -0.33088546730053692 0.09136391966725807 0 -0.32288280724038781 0.094478929683142046 0 -0.32057555105005309 0.1027507145152997 0 -0.31896933498986219 0.096542194322883135 0 -0.33100608173531948 0.1053077402960324 0 -0.32057555105005309 0.1027507145152997 0 -0.32011401753943758 0.1045302685824343 0 -0.32011401753943758 0.1045302685824343 0 -0.31721320340566678 0.10613238687618411 0 -0.31469790523404739 0.1051385694767171 0 -0.31034744341611942 0.10184486676437431 0 -0.32011401753943758 0.1045302685824343 0 -0.31469790523404739 0.1051385694767171 0 -0.32108222602811859 0.11105512777585901 0 -0.31721320340566678 0.10613238687618411 0 -0.31451447761790452 0.1077895947037865 0 -0.32108222602811859 0.11105512777585901 0 -0.32011401753943758 0.1045302685824343 0 -0.31721320340566678 0.10613238687618411 0 -0.3109143895341841 0.1086658276177712 0 -0.31372785897970051 0.1117760879494076 0 -0.31451447761790452 0.1077895947037865 0 -0.31721320340566678 0.10613238687618411 0 -0.31451447761790452 0.1077895947037865 0 -0.31469790523404739 0.1051385694767171 0 -0.31140279993116049 0.10524300066794411 0 -0.31451447761790452 0.1077895947037865 0 -0.31469790523404739 0.1051385694767171 0 -0.32057555105005309 0.1027507145152997 0 -0.32011401753943758 0.1045302685824343 0 -0.31458668527383621 0.096697085618475065 0 -0.32057555105005309 0.1027507145152997 0 -0.31896933498986219 0.096542194322883135 0 -0.31458668527383621 0.096697085618475065 0 -0.32288280724038781 0.094478929683142046 0 -0.31896933498986219 0.096542194322883135 0 -0.31783229639517202 0.092242047474615729 0 -0.31896933498986219 0.096542194322883135 0 -0.31458668527383621 0.096697085618475065 0 -0.31783229639517202 0.092242047474615729 0 -0.31458668527383621 0.096697085618475065 0 -0.31383705487361702 0.091867431621538875 0 -0.31783229639517202 0.092242047474615729 0 -0.31410575875943281 0.087072438942322833 0 -0.31783229639517202 0.092242047474615729 0 -0.32227638028917382 0.08561524224660115 0 -0.31383705487361702 0.091867431621538875 0 -0.31410575875943281 0.087072438942322833 0 -0.31783229639517202 0.092242047474615729 0 -0.32288280724038781 0.094478929683142046 0 -0.31783229639517202 0.092242047474615729 0 -0.32227638028917382 0.08561524224660115 0 -0.32288280724038781 0.094478929683142046 0 -0.32227638028917382 0.08561524224660115 0 -0.33088546730053692 0.09136391966725807 0 -0.32227638028917382 0.08561524224660115 0 -0.32288914391574508 0.074491777920060245 0 -0.33345574250048959 0.079802965625591998 0 -0.31410575875943281 0.087072438942322833 0 -0.32227638028917382 0.08561524224660115 0 -0.31365778634404529 0.079039918684124355 0 -0.32227638028917382 0.08561524224660115 0 -0.31365778634404529 0.079039918684124355 0 -0.32288914391574508 0.074491777920060245 0 -0.31225361328428342 0.068462934169472828 0 -0.31365778634404529 0.079039918684124355 0 -0.32288914391574508 0.074491777920060245 0 -0.31225361328428342 0.068462934169472828 0 -0.32374000529095009 0.063683274579122914 0 -0.32288914391574508 0.074491777920060245 0 -0.31225361328428342 0.068462934169472828 0 -0.31277578444338189 0.058647531493481203 0 -0.32374000529095009 0.063683274579122914 0 -0.32374000529095009 0.063683274579122914 0 -0.32288914391574508 0.074491777920060245 0 -0.33449151929961463 0.068466326366156766 0 -0.32288914391574508 0.074491777920060245 0 -0.33449151929961463 0.068466326366156766 0 -0.33345574250048959 0.079802965625591998 0 -0.33511558099450828 0.057600483665431003 0 -0.32374000529095009 0.063683274579122914 0 -0.33449151929961463 0.068466326366156766 0 -0.34574844300881352 0.062326906904746592 0 -0.34600020008718102 0.072892549501987924 0 -0.33449151929961463 0.068466326366156766 0 -0.33511558099450828 0.057600483665431003 0 -0.34574844300881352 0.062326906904746592 0 -0.33449151929961463 0.068466326366156766 0 -0.34600020008718102 0.072892549501987924 0 -0.33449151929961463 0.068466326366156766 0 -0.33345574250048959 0.079802965625591998 0 -0.34736925781227879 0.085492966483714933 0 -0.33088546730053692 0.09136391966725807 0 -0.33345574250048959 0.079802965625591998 0 -0.34736925781227879 0.085492966483714933 0 -0.34459964592793357 0.098283079629221767 0 -0.33088546730053692 0.09136391966725807 0 -0.34600020008718102 0.072892549501987924 0 -0.34736925781227879 0.085492966483714933 0 -0.33345574250048959 0.079802965625591998 0 -0.32227638028917382 0.08561524224660115 0 -0.33088546730053692 0.09136391966725807 0 -0.33345574250048959 0.079802965625591998 0 -0.40026162898684392 0.47935691244258999 0 -0.38229887164358139 0.47067196701096392 0 -0.39697490940826319 0.45944013392411998 0 -0.40026162898684392 0.47935691244258999 0 -0.39697490940826319 0.45944013392411998 0 -0.41319277483217542 0.47910763734120809 0 -0.40026162898684392 0.47935691244258999 0 -0.39373589836429912 0.48755501029375758 0 -0.38355132482175391 0.47976386571327601 0 -0.40026162898684392 0.47935691244258999 0 -0.38229887164358139 0.47067196701096392 0 -0.40026162898684392 0.47935691244258999 0 -0.39373589836429912 0.48755501029375758 0 -0.4204244331462122 0.48983050025082508 0 -0.39373589836429912 0.48755501029375758 0 -0.38920143871073321 0.5 0 -0.41878886489509498 0.5 0 -0.39373589836429912 0.48755501029375758 0 -0.36704736358238621 0.48527952033669008 0 -0.39373589836429912 0.48755501029375758 0 -0.38920143871073321 0.5 0 -0.36704736358238621 0.48527952033669008 0 -0.40026162898684392 0.47935691244258999 0 -0.38355132482175391 0.47976386571327601 0 -0.38229887164358139 0.47067196701096392 0 -0.39373589836429912 0.48755501029375758 0 -0.38355132482175391 0.47976386571327601 0 -0.36704736358238621 0.48527952033669008 0 -0.38355132482175391 0.47976386571327601 0 -0.38229887164358139 0.47067196701096392 0 -0.3744128615316587 0.47595591848237828 0 -0.39697490940826319 0.45944013392411998 0 -0.37303232777894008 0.45014593424765748 0 -0.38229887164358139 0.47067196701096392 0 -0.37576526091310569 0.46126686472473472 0 -0.39697490940826319 0.45944013392411998 0 -0.37576526091310569 0.46126686472473472 0 -0.39697490940826319 0.45944013392411998 0 -0.37303232777894008 0.45014593424765748 0 -0.38555081143468539 0.44364160559639909 0 -0.40015189135225387 0.44801637236119207 0 -0.38503569661253501 0.42457811670607593 0 -0.38555081143468539 0.44364160559639909 0 -0.39697490940826319 0.45944013392411998 0 -0.37303232777894008 0.45014593424765748 0 -0.38555081143468539 0.44364160559639909 0 -0.37420764269488699 0.43529984378499309 0 -0.37303232777894008 0.45014593424765748 0 -0.40015189135225387 0.44801637236119207 0 -0.41075675467901662 0.44040497056238431 0 -0.40382240419058563 0.42905550005140952 0 -0.38555081143468539 0.44364160559639909 0 -0.40015189135225387 0.44801637236119207 0 -0.39697490940826319 0.45944013392411998 0 -0.40015189135225387 0.44801637236119207 0 -0.39697490940826319 0.45944013392411998 0 -0.41017873923689019 0.45263366240474839 0 -0.39697490940826319 0.45944013392411998 0 -0.42091749103758619 0.46873433360058248 0 -0.41017873923689019 0.45263366240474839 0 -0.39697490940826319 0.45944013392411998 0 -0.42091749103758619 0.46873433360058248 0 -0.42091749103758619 0.46873433360058248 0 -0.41017873923689019 0.45263366240474839 0 -0.42312695905209879 0.44694410962389602 0 -0.41075675467901662 0.44040497056238431 0 -0.42312695905209879 0.44694410962389602 0 -0.42146846441814179 0.42715892700315028 0 -0.40015189135225387 0.44801637236119207 0 -0.41075675467901662 0.44040497056238431 0 -0.41017873923689019 0.45263366240474839 0 -0.41075675467901662 0.44040497056238431 0 -0.41017873923689019 0.45263366240474839 0 -0.42312695905209879 0.44694410962389602 0 -0.42312695905209879 0.44694410962389602 0 -0.44066164622316228 0.45179421672595488 0 -0.43522948604073408 0.43664957510904823 0 -0.42091749103758619 0.46873433360058248 0 -0.42312695905209879 0.44694410962389602 0 -0.44066164622316228 0.45179421672595488 0 -0.42091749103758619 0.46873433360058248 0 -0.44486007266690908 0.47802853327704559 0 -0.44066164622316228 0.45179421672595488 0 -0.42091749103758619 0.46873433360058248 0 -0.42637233131938013 0.47990364279871839 0 -0.44486007266690908 0.47802853327704559 0 -0.42637233131938013 0.47990364279871839 0 -0.43444516611502998 0.48483939362143319 0 -0.44486007266690908 0.47802853327704559 0 -0.42091749103758619 0.46873433360058248 0 -0.44486007266690908 0.47802853327704559 0 -0.39697490940826319 0.45944013392411998 0 -0.42091749103758619 0.46873433360058248 0 -0.41319277483217542 0.47910763734120809 0 -0.42091749103758619 0.46873433360058248 0 -0.42637233131938013 0.47990364279871839 0 -0.41319277483217542 0.47910763734120809 0 -0.40026162898684392 0.47935691244258999 0 -0.41319277483217542 0.47910763734120809 0 -0.4204244331462122 0.48983050025082508 0 -0.42637233131938013 0.47990364279871839 0 -0.41319277483217542 0.47910763734120809 0 -0.4204244331462122 0.48983050025082508 0 -0.39373589836429912 0.48755501029375758 0 -0.4204244331462122 0.48983050025082508 0 -0.39373589836429912 0.48755501029375758 0 -0.41878886489509498 0.5 0 -0.4204244331462122 0.48983050025082508 0 -0.41878886489509498 0.5 0 -0.4204244331462122 0.48983050025082508 0 -0.44711296792812499 0.49210599020789508 0 -0.4204244331462122 0.48983050025082508 0 -0.44711296792812499 0.49210599020789508 0 -0.4204244331462122 0.48983050025082508 0 -0.43444516611502998 0.48483939362143319 0 -0.44711296792812499 0.49210599020789508 0 -0.42637233131938013 0.47990364279871839 0 -0.4204244331462122 0.48983050025082508 0 -0.43444516611502998 0.48483939362143319 0 -0.45180448491938768 0.49250599342591361 0 -0.44837629107945692 0.50000000000000111 0 -0.5 0.5 0 -0.41878886489509498 0.5 0 -0.44711296792812499 0.49210599020789508 0 -0.44837629107945692 0.50000000000000111 0 -0.43444516611502998 0.48483939362143319 0 -0.44711296792812499 0.49210599020789508 0 -0.44486007266690908 0.47802853327704559 0 -0.44711296792812499 0.49210599020789508 0 -0.44996910981831623 0.48631985905654468 0 -0.44486007266690908 0.47802853327704559 0 -0.44996910981831623 0.48631985905654468 0 -0.45180448491938768 0.49250599342591361 0 -0.45457345252305331 0.48179914136409302 0 -0.44711296792812499 0.49210599020789508 0 -0.44486007266690908 0.47802853327704559 0 -0.44711296792812499 0.49210599020789508 0 -0.44996910981831623 0.48631985905654468 0 -0.45180448491938768 0.49250599342591361 0 -0.44711296792812499 0.49210599020789508 0 -0.45180448491938768 0.49250599342591361 0 -0.44837629107945692 0.50000000000000111 0 -0.44711296792812499 0.49210599020789508 0 -0.45180448491938768 0.49250599342591361 0 -0.44711296792812499 0.49210599020789508 0 -0.44837629107945692 0.50000000000000111 0 -0.44486007266690908 0.47802853327704559 0 -0.45457345252305331 0.48179914136409302 0 -0.45638703320997248 0.46273070114440251 0 -0.44996910981831623 0.48631985905654468 0 -0.44486007266690908 0.47802853327704559 0 -0.45457345252305331 0.48179914136409302 0 -0.44486007266690908 0.47802853327704559 0 -0.45457345252305331 0.48179914136409302 0 -0.45457345252305331 0.48179914136409302 0 -0.47313708485154399 0.47518797002430763 0 -0.45638703320997248 0.46273070114440251 0 -0.45180448491938768 0.49250599342591361 0 -0.45457345252305331 0.48179914136409302 0 -0.47313708485154399 0.47518797002430763 0 -0.45180448491938768 0.49250599342591361 0 -0.5 0.5 0 -0.47313708485154399 0.47518797002430763 0 -0.5 0.5 0 -0.47313708485154399 0.47518797002430763 0 -0.5 0.46176070482325737 0 -0.5 0.46176070482325737 0 -0.47428331971144888 0.4519955499072561 0 -0.47843732065702632 0.42952467351687029 0 -0.47313708485154399 0.47518797002430763 0 -0.5 0.46176070482325737 0 -0.47428331971144888 0.4519955499072561 0 -0.47428331971144888 0.4519955499072561 0 -0.45722487907248133 0.43740534101588979 0 -0.47843732065702632 0.42952467351687029 0 -0.47428331971144888 0.4519955499072561 0 -0.45638703320997248 0.46273070114440251 0 -0.45722487907248133 0.43740534101588979 0 -0.47313708485154399 0.47518797002430763 0 -0.47428331971144888 0.4519955499072561 0 -0.45638703320997248 0.46273070114440251 0 -0.44486007266690908 0.47802853327704559 0 -0.45638703320997248 0.46273070114440251 0 -0.44066164622316228 0.45179421672595488 0 -0.44486007266690908 0.47802853327704559 0 -0.44066164622316228 0.45179421672595488 0 -0.44066164622316228 0.45179421672595488 0 -0.45722487907248133 0.43740534101588979 0 -0.43522948604073408 0.43664957510904823 0 -0.45638703320997248 0.46273070114440251 0 -0.44066164622316228 0.45179421672595488 0 -0.45722487907248133 0.43740534101588979 0 -0.44505625477266131 0.42064854926077849 0 -0.45722487907248133 0.43740534101588979 0 -0.43522948604073408 0.43664957510904823 0 -0.44505625477266131 0.42064854926077849 0 -0.45276642706857861 0.39834794814778302 0 -0.43176396675502149 0.41050403926632978 0 -0.44505625477266131 0.42064854926077849 0 -0.46234532152040231 0.416386699786082 0 -0.45276642706857861 0.39834794814778302 0 -0.46234532152040231 0.416386699786082 0 -0.45722487907248133 0.43740534101588979 0 -0.47843732065702632 0.42952467351687029 0 -0.44505625477266131 0.42064854926077849 0 -0.46234532152040231 0.416386699786082 0 -0.45722487907248133 0.43740534101588979 0 -0.5 0.46176070482325737 0 -0.47843732065702632 0.42952467351687029 0 -0.49999999999999928 0.40794189406866599 0 -0.46234532152040231 0.416386699786082 0 -0.47843732065702632 0.42952467351687029 0 -0.47638321353428892 0.40314492110822447 0 -0.47843732065702632 0.42952467351687029 0 -0.49999999999999928 0.40794189406866599 0 -0.47638321353428892 0.40314492110822447 0 -0.49999999999999928 0.40794189406866599 0 -0.47638321353428892 0.40314492110822447 0 -0.49999999999999928 0.40794189406866599 0 -0.47638321353428892 0.40314492110822447 0 -0.47946282640100762 0.38370336190160659 0 -0.49999999999999928 0.40794189406866599 0 -0.5 0.38132682064380452 0 -0.47946282640100762 0.38370336190160659 0 -0.47638321353428892 0.40314492110822447 0 -0.47946282640100762 0.38370336190160659 0 -0.45276642706857861 0.39834794814778302 0 -0.47946282640100762 0.38370336190160659 0 -0.45427034391027932 0.37658085566725341 0 -0.45276642706857861 0.39834794814778302 0 -0.47638321353428892 0.40314492110822447 0 -0.45276642706857861 0.39834794814778302 0 -0.46234532152040231 0.416386699786082 0 -0.47638321353428892 0.40314492110822447 0 -0.45276642706857861 0.39834794814778302 0 -0.45276642706857861 0.39834794814778302 0 -0.42914964060286831 0.39355097518734139 0 -0.43176396675502149 0.41050403926632978 0 -0.45276642706857861 0.39834794814778302 0 -0.42914964060286831 0.39355097518734139 0 -0.45427034391027932 0.37658085566725341 0 -0.45276642706857861 0.39834794814778302 0 -0.42914964060286831 0.39355097518734139 0 -0.45427034391027932 0.37658085566725341 0 -0.42914964060286831 0.39355097518734139 0 -0.4366378571483891 0.36310229063074528 0 -0.42914964060286831 0.39355097518734139 0 -0.41562855172083191 0.37161325618008539 0 -0.4366378571483891 0.36310229063074528 0 -0.41234272737183741 0.39469025923496132 0 -0.40023489825627773 0.38231831257634619 0 -0.41562855172083191 0.37161325618008539 0 -0.41234272737183741 0.39469025923496132 0 -0.42914964060286831 0.39355097518734139 0 -0.41562855172083191 0.37161325618008539 0 -0.41234272737183741 0.39469025923496132 0 -0.43176396675502149 0.41050403926632978 0 -0.40630100717903361 0.41189116637412709 0 -0.41234272737183741 0.39469025923496132 0 -0.42914964060286831 0.39355097518734139 0 -0.43176396675502149 0.41050403926632978 0 -0.44505625477266131 0.42064854926077849 0 -0.43176396675502149 0.41050403926632978 0 -0.42146846441814179 0.42715892700315028 0 -0.42312695905209879 0.44694410962389602 0 -0.43522948604073408 0.43664957510904823 0 -0.42146846441814179 0.42715892700315028 0 -0.44505625477266131 0.42064854926077849 0 -0.43522948604073408 0.43664957510904823 0 -0.42146846441814179 0.42715892700315028 0 -0.41075675467901662 0.44040497056238431 0 -0.42146846441814179 0.42715892700315028 0 -0.40382240419058563 0.42905550005140952 0 -0.42146846441814179 0.42715892700315028 0 -0.40630100717903361 0.41189116637412709 0 -0.40382240419058563 0.42905550005140952 0 -0.43176396675502149 0.41050403926632978 0 -0.42146846441814179 0.42715892700315028 0 -0.40630100717903361 0.41189116637412709 0 -0.40630100717903361 0.41189116637412709 0 -0.40382240419058563 0.42905550005140952 0 -0.38503569661253501 0.42457811670607593 0 -0.40630100717903361 0.41189116637412709 0 -0.38503569661253501 0.42457811670607593 0 -0.39097829971699127 0.398263805825538 0 -0.40015189135225387 0.44801637236119207 0 -0.40382240419058563 0.42905550005140952 0 -0.38503569661253501 0.42457811670607593 0 -0.40015189135225387 0.44801637236119207 0 -0.38503569661253501 0.42457811670607593 0 -0.38555081143468539 0.44364160559639909 0 -0.38503569661253501 0.42457811670607593 0 -0.37420764269488699 0.43529984378499309 0 -0.38503569661253501 0.42457811670607593 0 -0.37420764269488699 0.43529984378499309 0 -0.36826370807659831 0.42656695981923748 0 -0.38503569661253501 0.42457811670607593 0 -0.39097829971699127 0.398263805825538 0 -0.36991950187281603 0.40113986105095989 0 -0.38503569661253501 0.42457811670607593 0 -0.36991950187281603 0.40113986105095989 0 -0.37800756573296401 0.37919360152452303 0 -0.39097829971699127 0.398263805825538 0 -0.36991950187281603 0.40113986105095989 0 -0.37800756573296401 0.37919360152452303 0 -0.40023489825627773 0.38231831257634619 0 -0.39097829971699127 0.398263805825538 0 -0.37800756573296401 0.37919360152452303 0 -0.40023489825627773 0.38231831257634619 0 -0.41234272737183741 0.39469025923496132 0 -0.40023489825627773 0.38231831257634619 0 -0.39097829971699127 0.398263805825538 0 -0.41234272737183741 0.39469025923496132 0 -0.40630100717903361 0.41189116637412709 0 -0.39097829971699127 0.398263805825538 0 -0.39097779813107592 0.3593854662465798 0 -0.4000279634838787 0.33493740820170809 0 -0.41491478414171201 0.34907995794612312 0 -0.40023489825627773 0.38231831257634619 0 -0.39097779813107592 0.3593854662465798 0 -0.41562855172083191 0.37161325618008539 0 -0.37800756573296401 0.37919360152452303 0 -0.39097779813107592 0.3593854662465798 0 -0.37333117593345261 0.36733995010900289 0 -0.39097779813107592 0.3593854662465798 0 -0.36855910666011971 0.35471184219220619 0 -0.37333117593345261 0.36733995010900289 0 -0.37800756573296401 0.37919360152452303 0 -0.40023489825627773 0.38231831257634619 0 -0.39097779813107592 0.3593854662465798 0 -0.39097779813107592 0.3593854662465798 0 -0.38133798011058861 0.33335479391170991 0 -0.36855910666011971 0.35471184219220619 0 -0.38133798011058861 0.33335479391170991 0 -0.39863443760139128 0.30706798736699842 0 -0.3738669629921279 0.31564909699609989 0 -0.38133798011058861 0.33335479391170991 0 -0.4000279634838787 0.33493740820170809 0 -0.39863443760139128 0.30706798736699842 0 -0.4000279634838787 0.33493740820170809 0 -0.41427481743462569 0.32579883553712929 0 -0.39863443760139128 0.30706798736699842 0 -0.39097779813107592 0.3593854662465798 0 -0.38133798011058861 0.33335479391170991 0 -0.4000279634838787 0.33493740820170809 0 -0.41427481743462569 0.32579883553712929 0 -0.42944751144105758 0.33615429769097332 0 -0.41491478414171201 0.34907995794612312 0 -0.4000279634838787 0.33493740820170809 0 -0.41427481743462569 0.32579883553712929 0 -0.41491478414171201 0.34907995794612312 0 -0.41427481743462569 0.32579883553712929 0 -0.43530002454089478 0.31756501775317159 0 -0.41388554829734292 0.30984094696046521 0 -0.41427481743462569 0.32579883553712929 0 -0.41388554829734292 0.30984094696046521 0 -0.39863443760139128 0.30706798736699842 0 -0.41427481743462569 0.32579883553712929 0 -0.43530002454089478 0.31756501775317159 0 -0.42944751144105758 0.33615429769097332 0 -0.42944751144105758 0.33615429769097332 0 -0.41491478414171201 0.34907995794612312 0 -0.4366378571483891 0.36310229063074528 0 -0.39097779813107592 0.3593854662465798 0 -0.41491478414171201 0.34907995794612312 0 -0.41562855172083191 0.37161325618008539 0 -0.41491478414171201 0.34907995794612312 0 -0.41562855172083191 0.37161325618008539 0 -0.4366378571483891 0.36310229063074528 0 -0.45427034391027932 0.37658085566725341 0 -0.4366378571483891 0.36310229063074528 0 -0.45679055867869989 0.35733904511778591 0 -0.42944751144105758 0.33615429769097332 0 -0.4366378571483891 0.36310229063074528 0 -0.44980080998792282 0.33916304118877 0 -0.4366378571483891 0.36310229063074528 0 -0.45679055867869989 0.35733904511778591 0 -0.44980080998792282 0.33916304118877 0 -0.45679055867869989 0.35733904511778591 0 -0.47616817604515987 0.34488067291170521 0 -0.44980080998792282 0.33916304118877 0 -0.45679055867869989 0.35733904511778591 0 -0.47281980029390658 0.36386934645657221 0 -0.47616817604515987 0.34488067291170521 0 -0.45427034391027932 0.37658085566725341 0 -0.45679055867869989 0.35733904511778591 0 -0.47281980029390658 0.36386934645657221 0 -0.47946282640100762 0.38370336190160659 0 -0.45427034391027932 0.37658085566725341 0 -0.47281980029390658 0.36386934645657221 0 -0.47946282640100762 0.38370336190160659 0 -0.47281980029390658 0.36386934645657221 0 -0.5 0.35471174721894311 0 -0.47281980029390658 0.36386934645657221 0 -0.47616817604515987 0.34488067291170521 0 -0.5 0.35471174721894311 0 -0.5 0.38132682064380452 0 -0.47946282640100762 0.38370336190160659 0 -0.5 0.35471174721894311 0 -0.47616817604515987 0.34488067291170521 0 -0.5 0.35471174721894311 0 -0.5 0.32809667379408169 0 -0.47616817604515987 0.34488067291170521 0 -0.5 0.32809667379408169 0 -0.47314551172474212 0.32530398077544498 0 -0.47314551172474212 0.32530398077544498 0 -0.45752624450797741 0.31008646641847548 0 -0.47994278104668331 0.30556423535044802 0 -0.5 0.32809667379408169 0 -0.47314551172474212 0.32530398077544498 0 -0.47994278104668331 0.30556423535044802 0 -0.47314551172474212 0.32530398077544498 0 -0.44980080998792282 0.33916304118877 0 -0.45752624450797741 0.31008646641847548 0 -0.47616817604515987 0.34488067291170521 0 -0.47314551172474212 0.32530398077544498 0 -0.44980080998792282 0.33916304118877 0 -0.43530002454089478 0.31756501775317159 0 -0.42944751144105758 0.33615429769097332 0 -0.44980080998792282 0.33916304118877 0 -0.43530002454089478 0.31756501775317159 0 -0.44980080998792282 0.33916304118877 0 -0.43530002454089478 0.31756501775317159 0 -0.44980080998792282 0.33916304118877 0 -0.45752624450797741 0.31008646641847548 0 -0.43530002454089478 0.31756501775317159 0 -0.44270986571332233 0.29662800972151171 0 -0.45752624450797741 0.31008646641847548 0 -0.44270986571332233 0.29662800972151171 0 -0.46238770023661058 0.29154193660718658 0 -0.44984986532502141 0.28080503219244479 0 -0.44270986571332233 0.29662800972151171 0 -0.44984986532502141 0.28080503219244479 0 -0.43039612057556259 0.28380261104021842 0 -0.46238770023661058 0.29154193660718658 0 -0.48073391146536892 0.2854474778188002 0 -0.46299527858574241 0.27274886303144807 0 -0.46238770023661058 0.29154193660718658 0 -0.46299527858574241 0.27274886303144807 0 -0.44984986532502141 0.28080503219244479 0 -0.46238770023661058 0.29154193660718658 0 -0.45752624450797741 0.31008646641847548 0 -0.47994278104668331 0.30556423535044802 0 -0.44270986571332233 0.29662800972151171 0 -0.46238770023661058 0.29154193660718658 0 -0.45752624450797741 0.31008646641847548 0 -0.46238770023661058 0.29154193660718658 0 -0.47994278104668331 0.30556423535044802 0 -0.48073391146536892 0.2854474778188002 0 -0.48073391146536892 0.2854474778188002 0 -0.5 0.30148160036922039 0 -0.5 0.27486652694435909 0 -0.5 0.32809667379408169 0 -0.47994278104668331 0.30556423535044802 0 -0.5 0.30148160036922039 0 -0.47994278104668331 0.30556423535044802 0 -0.48073391146536892 0.2854474778188002 0 -0.5 0.30148160036922039 0 -0.50009478002707675 0.24825145351949771 0 -0.48535760801269517 0.25414444603534703 0 -0.5 0.27486652694435909 0 -0.48535760801269517 0.25414444603534703 0 -0.5 0.27486652694435909 0 -0.4780597717104339 0.26797002469356318 0 -0.48073391146536892 0.2854474778188002 0 -0.5 0.27486652694435909 0 -0.4780597717104339 0.26797002469356318 0 -0.48073391146536892 0.2854474778188002 0 -0.4780597717104339 0.26797002469356318 0 -0.46299527858574241 0.27274886303144807 0 -0.48535760801269517 0.25414444603534703 0 -0.4780597717104339 0.26797002469356318 0 -0.46168574506785059 0.25580287241962341 0 -0.46168574506785059 0.25580287241962341 0 -0.46299527858574241 0.27274886303144807 0 -0.44914137898153378 0.26113445236299371 0 -0.4780597717104339 0.26797002469356318 0 -0.46168574506785059 0.25580287241962341 0 -0.46299527858574241 0.27274886303144807 0 -0.4516149235019718 0.24661780746676021 0 -0.46168574506785059 0.25580287241962341 0 -0.44914137898153378 0.26113445236299371 0 -0.46299527858574241 0.27274886303144807 0 -0.44984986532502141 0.28080503219244479 0 -0.44914137898153378 0.26113445236299371 0 -0.44984986532502141 0.28080503219244479 0 -0.43964302756147311 0.27110314322570228 0 -0.43039612057556259 0.28380261104021842 0 -0.44984986532502141 0.28080503219244479 0 -0.43964302756147311 0.27110314322570228 0 -0.44914137898153378 0.26113445236299371 0 -0.44254823024265633 0.24989972484555631 0 -0.4516149235019718 0.24661780746676021 0 -0.44914137898153378 0.26113445236299371 0 -0.43964302756147311 0.27110314322570228 0 -0.44914137898153378 0.26113445236299371 0 -0.43605302545014279 0.25911823176914428 0 -0.44254823024265633 0.24989972484555631 0 -0.44914137898153378 0.26113445236299371 0 -0.43605302545014279 0.25911823176914428 0 -0.44254823024265633 0.24989972484555631 0 -0.4329587794777483 0.24907817605776861 0 -0.43605302545014279 0.25911823176914428 0 -0.4329587794777483 0.24907817605776861 0 -0.43605302545014279 0.25911823176914428 0 -0.42580285472392099 0.25627160137599031 0 -0.43605302545014279 0.25911823176914428 0 -0.42580285472392099 0.25627160137599031 0 -0.42622388171352482 0.26722229274685477 0 -0.42580285472392099 0.25627160137599031 0 -0.41606320123129847 0.25784560747952617 0 -0.42622388171352482 0.26722229274685477 0 -0.41880654819146801 0.24586784036794659 0 -0.4329587794777483 0.24907817605776861 0 -0.42580285472392099 0.25627160137599031 0 -0.41606320123129847 0.25784560747952617 0 -0.40565295106499438 0.25282850190815509 0 -0.40629845364683947 0.27436897088197443 0 -0.41880654819146801 0.24586784036794659 0 -0.42580285472392099 0.25627160137599031 0 -0.41606320123129847 0.25784560747952617 0 -0.41880654819146801 0.24586784036794659 0 -0.41606320123129847 0.25784560747952617 0 -0.40565295106499438 0.25282850190815509 0 -0.42622388171352482 0.26722229274685477 0 -0.43039612057556259 0.28380261104021842 0 -0.40629845364683947 0.27436897088197443 0 -0.43039612057556259 0.28380261104021842 0 -0.40629845364683947 0.27436897088197443 0 -0.41606320123129847 0.25784560747952617 0 -0.42622388171352482 0.26722229274685477 0 -0.40629845364683947 0.27436897088197443 0 -0.43964302756147311 0.27110314322570228 0 -0.42622388171352482 0.26722229274685477 0 -0.43039612057556259 0.28380261104021842 0 -0.43964302756147311 0.27110314322570228 0 -0.43605302545014279 0.25911823176914428 0 -0.42622388171352482 0.26722229274685477 0 -0.44270986571332233 0.29662800972151171 0 -0.43039612057556259 0.28380261104021842 0 -0.42079923909386679 0.29596699431757317 0 -0.43530002454089478 0.31756501775317159 0 -0.41388554829734292 0.30984094696046521 0 -0.42079923909386679 0.29596699431757317 0 -0.43530002454089478 0.31756501775317159 0 -0.44270986571332233 0.29662800972151171 0 -0.42079923909386679 0.29596699431757317 0 -0.43530002454089478 0.31756501775317159 0 -0.42079923909386679 0.29596699431757317 0 -0.41388554829734292 0.30984094696046521 0 -0.42079923909386679 0.29596699431757317 0 -0.40455323593225301 0.29120758234911609 0 -0.42079923909386679 0.29596699431757317 0 -0.40455323593225301 0.29120758234911609 0 -0.40629845364683947 0.27436897088197443 0 -0.42079923909386679 0.29596699431757317 0 -0.40629845364683947 0.27436897088197443 0 -0.43039612057556259 0.28380261104021842 0 -0.42079923909386679 0.29596699431757317 0 -0.40629845364683947 0.27436897088197443 0 -0.40455323593225301 0.29120758234911609 0 -0.38846792544362618 0.28105876949729741 0 -0.40629845364683947 0.27436897088197443 0 -0.41388554829734292 0.30984094696046521 0 -0.40455323593225301 0.29120758234911609 0 -0.39863443760139128 0.30706798736699842 0 -0.40455323593225301 0.29120758234911609 0 -0.39863443760139128 0.30706798736699842 0 -0.37780835531930967 0.29684023667509629 0 -0.39863443760139128 0.30706798736699842 0 -0.37780835531930967 0.29684023667509629 0 -0.39863443760139128 0.30706798736699842 0 -0.37780835531930967 0.29684023667509629 0 -0.3738669629921279 0.31564909699609989 0 -0.40455323593225301 0.29120758234911609 0 -0.37780835531930967 0.29684023667509629 0 -0.38846792544362618 0.28105876949729741 0 -0.37780835531930967 0.29684023667509629 0 -0.38846792544362618 0.28105876949729741 0 -0.3731614411847583 0.27967277646464922 0 -0.38846792544362618 0.28105876949729741 0 -0.37991805084933378 0.26404169613137918 0 -0.3731614411847583 0.27967277646464922 0 -0.37234913497993982 0.24839321364142691 0 -0.37991805084933378 0.26404169613137918 0 -0.39402153053723538 0.25608325291125628 0 -0.39402153053723538 0.25608325291125628 0 -0.40565295106499438 0.25282850190815509 0 -0.40629845364683947 0.27436897088197443 0 -0.39402153053723538 0.25608325291125628 0 -0.40629845364683947 0.27436897088197443 0 -0.37991805084933378 0.26404169613137918 0 -0.39402153053723538 0.25608325291125628 0 -0.40629845364683947 0.27436897088197443 0 -0.38846792544362618 0.28105876949729741 0 -0.37991805084933378 0.26404169613137918 0 -0.40629845364683947 0.27436897088197443 0 -0.37991805084933378 0.26404169613137918 0 -0.40629845364683947 0.27436897088197443 0 -0.34815069022842599 0.26729692197814692 0 -0.3626306012742937 0.26981069403627878 0 -0.35698227303722802 0.28661248598319428 0 -0.34815069022842599 0.26729692197814692 0 -0.35698227303722802 0.28661248598319428 0 -0.33615619075514641 0.27638473529129232 0 -0.34815069022842599 0.26729692197814692 0 -0.35353764805182769 0.25371442138078493 0 -0.3626306012742937 0.26981069403627878 0 -0.34815069022842599 0.26729692197814692 0 -0.35353764805182769 0.25371442138078493 0 -0.33616694715527512 0.2605878485165381 0 -0.37991805084933378 0.26404169613137918 0 -0.35353764805182769 0.25371442138078493 0 -0.37991805084933378 0.26404169613137918 0 -0.35353764805182769 0.25371442138078493 0 -0.3626306012742937 0.26981069403627878 0 -0.37234913497993982 0.24839321364142691 0 -0.37991805084933378 0.26404169613137918 0 -0.35353764805182769 0.25371442138078493 0 -0.37991805084933378 0.26404169613137918 0 -0.3626306012742937 0.26981069403627878 0 -0.3731614411847583 0.27967277646464922 0 -0.3626306012742937 0.26981069403627878 0 -0.3731614411847583 0.27967277646464922 0 -0.35698227303722802 0.28661248598319428 0 -0.37780835531930967 0.29684023667509629 0 -0.35698227303722802 0.28661248598319428 0 -0.37780835531930967 0.29684023667509629 0 -0.3731614411847583 0.27967277646464922 0 -0.35698227303722802 0.28661248598319428 0 -0.37780835531930967 0.29684023667509629 0 -0.35512937651647331 0.31535883178234458 0 -0.3738669629921279 0.31564909699609989 0 -0.37780835531930967 0.29684023667509629 0 -0.35698227303722802 0.28661248598319428 0 -0.35512937651647331 0.31535883178234458 0 -0.35698227303722802 0.28661248598319428 0 -0.33557716660531328 0.30036323147974359 0 -0.35512937651647331 0.31535883178234458 0 -0.35698227303722802 0.28661248598319428 0 -0.33615619075514641 0.27638473529129232 0 -0.35698227303722802 0.28661248598319428 0 -0.33557716660531328 0.30036323147974359 0 -0.33615619075514641 0.27638473529129232 0 -0.33557716660531328 0.30036323147974359 0 -0.31387742254564233 0.29222008900910451 0 -0.33615619075514641 0.27638473529129232 0 -0.33557716660531328 0.30036323147974359 0 -0.33689865671056463 0.31786808291295421 0 -0.35512937651647331 0.31535883178234458 0 -0.33557716660531328 0.30036323147974359 0 -0.31735910527114852 0.31424863448371998 0 -0.33689865671056463 0.31786808291295421 0 -0.33557716660531328 0.30036323147974359 0 -0.31387742254564233 0.29222008900910451 0 -0.31735910527114852 0.31424863448371998 0 -0.31387742254564233 0.29222008900910451 0 -0.31533010847306492 0.26615698459939019 0 -0.33615619075514641 0.27638473529129232 0 -0.31533010847306492 0.26615698459939019 0 -0.33615619075514641 0.27638473529129232 0 -0.31533010847306492 0.26615698459939019 0 -0.33615619075514641 0.27638473529129232 0 -0.33616694715527512 0.2605878485165381 0 -0.34815069022842599 0.26729692197814692 0 -0.33615619075514641 0.27638473529129232 0 -0.33616694715527512 0.2605878485165381 0 -0.32715724525432183 0.2433871466301907 0 -0.35353764805182769 0.25371442138078493 0 -0.33616694715527512 0.2605878485165381 0 -0.32715724525432183 0.2433871466301907 0 -0.31533010847306492 0.26615698459939019 0 -0.30902289457263238 0.25013057913845832 0 -0.32715724525432183 0.2433871466301907 0 -0.31533010847306492 0.26615698459939019 0 -0.33616694715527512 0.2605878485165381 0 -0.30902289457263238 0.25013057913845832 0 -0.29936137924979189 0.27367888040885191 0 -0.2912629174561272 0.25278135807887753 0 -0.31533010847306492 0.26615698459939019 0 -0.30902289457263238 0.25013057913845832 0 -0.29936137924979189 0.27367888040885191 0 -0.31387742254564233 0.29222008900910451 0 -0.31533010847306492 0.26615698459939019 0 -0.29936137924979189 0.27367888040885191 0 -0.29936137924979189 0.27367888040885191 0 -0.28174899245543822 0.27250284427816002 0 -0.2925813939138055 0.29097403522012549 0 -0.29936137924979189 0.27367888040885191 0 -0.28174899245543822 0.27250284427816002 0 -0.2912629174561272 0.25278135807887753 0 -0.28174899245543822 0.27250284427816002 0 -0.2912629174561272 0.25278135807887753 0 -0.28174899245543822 0.27250284427816002 0 -0.2912629174561272 0.25278135807887753 0 -0.26847401696360412 0.25646903740943849 0 -0.28174899245543822 0.27250284427816002 0 -0.26847401696360412 0.25646903740943849 0 -0.26492668995689672 0.27654309602685839 0 -0.28174899245543822 0.27250284427816002 0 -0.26492668995689672 0.27654309602685839 0 -0.27223506745474912 0.2922243304774424 0 -0.26492668995689672 0.27654309602685839 0 -0.2543996625905961 0.26383250876206388 0 -0.2468490341211719 0.28742249958629318 0 -0.25933040692563208 0.2497837237144076 0 -0.2543996625905961 0.26383250876206388 0 -0.2498792106054224 0.24711269659082949 0 -0.26847401696360412 0.25646903740943849 0 -0.26492668995689672 0.27654309602685839 0 -0.2543996625905961 0.26383250876206388 0 -0.25933040692563208 0.2497837237144076 0 -0.26847401696360412 0.25646903740943849 0 -0.2543996625905961 0.26383250876206388 0 -0.26416949623414848 0.244388656034211 0 -0.25933040692563208 0.2497837237144076 0 -0.26847401696360412 0.25646903740943849 0 -0.25768780279847348 0.30903748720999119 0 -0.2468490341211719 0.28742249958629318 0 -0.25768780279847348 0.30903748720999119 0 -0.27223506745474912 0.2922243304774424 0 -0.2468490341211719 0.28742249958629318 0 -0.26492668995689672 0.27654309602685839 0 -0.27223506745474912 0.2922243304774424 0 -0.2468490341211719 0.28742249958629318 0 -0.28174899245543822 0.27250284427816002 0 -0.27223506745474912 0.2922243304774424 0 -0.25768780279847348 0.30903748720999119 0 -0.27223506745474912 0.2922243304774424 0 -0.27596969136968608 0.31339511806495818 0 -0.27223506745474912 0.2922243304774424 0 -0.2925813939138055 0.29097403522012549 0 -0.27596969136968608 0.31339511806495818 0 -0.2925813939138055 0.29097403522012549 0 -0.2964198172113951 0.31274679833143137 0 -0.27596969136968608 0.31339511806495818 0 -0.28174899245543822 0.27250284427816002 0 -0.27223506745474912 0.2922243304774424 0 -0.2925813939138055 0.29097403522012549 0 -0.31387742254564233 0.29222008900910451 0 -0.29936137924979189 0.27367888040885191 0 -0.2925813939138055 0.29097403522012549 0 -0.31387742254564233 0.29222008900910451 0 -0.2925813939138055 0.29097403522012549 0 -0.2964198172113951 0.31274679833143137 0 -0.31387742254564233 0.29222008900910451 0 -0.2964198172113951 0.31274679833143137 0 -0.31735910527114852 0.31424863448371998 0 -0.30396223088017982 0.33284894721818831 0 -0.2964198172113951 0.31274679833143137 0 -0.31735910527114852 0.31424863448371998 0 -0.30396223088017982 0.33284894721818831 0 -0.29173194777301392 0.34482831683387283 0 -0.30169904000939052 0.35254802971409072 0 -0.30396223088017982 0.33284894721818831 0 -0.28732205174200998 0.32689433105642812 0 -0.29173194777301392 0.34482831683387283 0 -0.28732205174200998 0.32689433105642812 0 -0.26852657147577491 0.33065247483368942 0 -0.29173194777301392 0.34482831683387283 0 -0.30396223088017982 0.33284894721818831 0 -0.28732205174200998 0.32689433105642812 0 -0.2964198172113951 0.31274679833143137 0 -0.28732205174200998 0.32689433105642812 0 -0.2964198172113951 0.31274679833143137 0 -0.27596969136968608 0.31339511806495818 0 -0.28732205174200998 0.32689433105642812 0 -0.27596969136968608 0.31339511806495818 0 -0.26852657147577491 0.33065247483368942 0 -0.25768780279847348 0.30903748720999119 0 -0.27596969136968608 0.31339511806495818 0 -0.26852657147577491 0.33065247483368942 0 -0.26852657147577491 0.33065247483368942 0 -0.29173194777301392 0.34482831683387283 0 -0.26852657147577491 0.33065247483368942 0 -0.26543734472027358 0.34463505805876937 0 -0.27795125912785018 0.3494474609637469 0 -0.26852657147577491 0.33065247483368942 0 -0.27795125912785018 0.3494474609637469 0 -0.29173194777301392 0.34482831683387283 0 -0.26852657147577491 0.33065247483368942 0 -0.27795125912785018 0.3494474609637469 0 -0.26852657147577491 0.33065247483368942 0 -0.25105700897309002 0.34425046672642018 0 -0.2446950486624058 0.33126928232499042 0 -0.26852657147577491 0.33065247483368942 0 -0.25105700897309002 0.34425046672642018 0 -0.26543734472027358 0.34463505805876937 0 -0.25768780279847348 0.30903748720999119 0 -0.26852657147577491 0.33065247483368942 0 -0.25768780279847348 0.30903748720999119 0 -0.26852657147577491 0.33065247483368942 0 -0.24596291452836949 0.31686865026925831 0 -0.26852657147577491 0.33065247483368942 0 -0.24596291452836949 0.31686865026925831 0 -0.2446950486624058 0.33126928232499042 0 -0.26852657147577491 0.33065247483368942 0 -0.24596291452836949 0.31686865026925831 0 -0.25101466291493463 0.3690077248358653 0 -0.26273405837199831 0.35600903905697429 0 -0.26893238050728918 0.37137778359335682 0 -0.25101466291493463 0.3690077248358653 0 -0.25105700897309002 0.34425046672642018 0 -0.26273405837199831 0.35600903905697429 0 -0.25105700897309002 0.34425046672642018 0 -0.26543734472027358 0.34463505805876937 0 -0.26273405837199831 0.35600903905697429 0 -0.26273405837199831 0.35600903905697429 0 -0.27795125912785018 0.3494474609637469 0 -0.26893238050728918 0.37137778359335682 0 -0.27795125912785018 0.3494474609637469 0 -0.28083642659710301 0.35520114581457629 0 -0.26893238050728918 0.37137778359335682 0 -0.26543734472027358 0.34463505805876937 0 -0.26273405837199831 0.35600903905697429 0 -0.27795125912785018 0.3494474609637469 0 -0.27795125912785018 0.3494474609637469 0 -0.28070089794790981 0.35068081439206222 0 -0.28083642659710301 0.35520114581457629 0 -0.27795125912785018 0.3494474609637469 0 -0.28083642659710301 0.35520114581457629 0 -0.26893238050728918 0.37137778359335682 0 -0.28452042255182031 0.36438324518550691 0 -0.28585719799384662 0.37585215888808282 0 -0.28083642659710301 0.35520114581457629 0 -0.26893238050728918 0.37137778359335682 0 -0.28452042255182031 0.36438324518550691 0 -0.27795125912785018 0.3494474609637469 0 -0.26893238050728918 0.37137778359335682 0 -0.28452042255182031 0.36438324518550691 0 -0.29609231900104671 0.36463902854504632 0 -0.28585719799384662 0.37585215888808282 0 -0.28452042255182031 0.36438324518550691 0 -0.29609231900104671 0.36463902854504632 0 -0.2908837886598154 0.35484610908647207 0 -0.29609231900104671 0.36463902854504632 0 -0.29946786981064633 0.37943925057218852 0 -0.28585719799384662 0.37585215888808282 0 -0.27795125912785018 0.3494474609637469 0 -0.28566814967777349 0.34959131333006571 0 -0.29173194777301392 0.34482831683387283 0 -0.27795125912785018 0.3494474609637469 0 -0.28070089794790981 0.35068081439206222 0 -0.28566814967777349 0.34959131333006571 0 -0.28083642659710301 0.35520114581457629 0 -0.28452042255182031 0.36438324518550691 0 -0.2908837886598154 0.35484610908647207 0 -0.28083642659710301 0.35520114581457629 0 -0.28566814967777349 0.34959131333006571 0 -0.2908837886598154 0.35484610908647207 0 -0.28070089794790981 0.35068081439206222 0 -0.28083642659710301 0.35520114581457629 0 -0.28566814967777349 0.34959131333006571 0 -0.29609231900104671 0.36463902854504632 0 -0.2908837886598154 0.35484610908647207 0 -0.30169904000939052 0.35254802971409072 0 -0.2908837886598154 0.35484610908647207 0 -0.29173194777301392 0.34482831683387283 0 -0.30169904000939052 0.35254802971409072 0 -0.28566814967777349 0.34959131333006571 0 -0.2908837886598154 0.35484610908647207 0 -0.29173194777301392 0.34482831683387283 0 -0.30396223088017982 0.33284894721818831 0 -0.30169904000939052 0.35254802971409072 0 -0.31325843097191519 0.347893010385946 0 -0.30169904000939052 0.35254802971409072 0 -0.31426552277037278 0.37023276621501883 0 -0.31325843097191519 0.347893010385946 0 -0.29609231900104671 0.36463902854504632 0 -0.31426552277037278 0.37023276621501883 0 -0.29946786981064633 0.37943925057218852 0 -0.29609231900104671 0.36463902854504632 0 -0.30169904000939052 0.35254802971409072 0 -0.31426552277037278 0.37023276621501883 0 -0.31426552277037278 0.37023276621501883 0 -0.33390671941619893 0.37299391914085328 0 -0.31426552277037278 0.37023276621501883 0 -0.33390671941619893 0.37299391914085328 0 -0.32448517251220332 0.35639129131087721 0 -0.33390671941619893 0.37299391914085328 0 -0.33901165711309877 0.35321602970976879 0 -0.32448517251220332 0.35639129131087721 0 -0.33390671941619893 0.37299391914085328 0 -0.33901165711309877 0.35321602970976879 0 -0.35354791606202512 0.37575507206668618 0 -0.33390671941619893 0.37299391914085328 0 -0.35354791606202512 0.37575507206668618 0 -0.33901165711309877 0.35321602970976879 0 -0.32448517251220332 0.35639129131087721 0 -0.32447539816417148 0.33067698735285211 0 -0.32448517251220332 0.35639129131087721 0 -0.31325843097191519 0.347893010385946 0 -0.32447539816417148 0.33067698735285211 0 -0.31426552277037278 0.37023276621501883 0 -0.32448517251220332 0.35639129131087721 0 -0.31325843097191519 0.347893010385946 0 -0.30396223088017982 0.33284894721818831 0 -0.31325843097191519 0.347893010385946 0 -0.32447539816417148 0.33067698735285211 0 -0.30396223088017982 0.33284894721818831 0 -0.32447539816417148 0.33067698735285211 0 -0.31735910527114852 0.31424863448371998 0 -0.32447539816417148 0.33067698735285211 0 -0.31735910527114852 0.31424863448371998 0 -0.33689865671056463 0.31786808291295421 0 -0.32447539816417148 0.33067698735285211 0 -0.33689865671056463 0.31786808291295421 0 -0.35425576013942339 0.33609689683553517 0 -0.33901165711309877 0.35321602970976879 0 -0.32447539816417148 0.33067698735285211 0 -0.35425576013942339 0.33609689683553517 0 -0.33901165711309877 0.35321602970976879 0 -0.32447539816417148 0.33067698735285211 0 -0.33689865671056463 0.31786808291295421 0 -0.35425576013942339 0.33609689683553517 0 -0.35512937651647331 0.31535883178234458 0 -0.35425576013942339 0.33609689683553517 0 -0.35512937651647331 0.31535883178234458 0 -0.3738669629921279 0.31564909699609989 0 -0.38133798011058861 0.33335479391170991 0 -0.35425576013942339 0.33609689683553517 0 -0.3738669629921279 0.31564909699609989 0 -0.38133798011058861 0.33335479391170991 0 -0.35425576013942339 0.33609689683553517 0 -0.36855910666011971 0.35471184219220619 0 -0.38133798011058861 0.33335479391170991 0 -0.36855910666011971 0.35471184219220619 0 -0.36855910666011971 0.35471184219220619 0 -0.35578023320964991 0.37606889047270209 0 -0.36855910666011971 0.35471184219220619 0 -0.37333117593345261 0.36733995010900289 0 -0.35578023320964991 0.37606889047270209 0 -0.36855910666011971 0.35471184219220619 0 -0.35426246453165078 0.35968561470073063 0 -0.35578023320964991 0.37606889047270209 0 -0.37800756573296401 0.37919360152452303 0 -0.37333117593345261 0.36733995010900289 0 -0.35578023320964991 0.37606889047270209 0 -0.35426246453165078 0.35968561470073063 0 -0.35354791606202512 0.37575507206668618 0 -0.35578023320964991 0.37606889047270209 0 -0.33901165711309877 0.35321602970976879 0 -0.35354791606202512 0.37575507206668618 0 -0.33901165711309877 0.35321602970976879 0 -0.35426246453165078 0.35968561470073063 0 -0.35354791606202512 0.37575507206668618 0 -0.33901165711309877 0.35321602970976879 0 -0.35425576013942339 0.33609689683553517 0 -0.35426246453165078 0.35968561470073063 0 -0.35425576013942339 0.33609689683553517 0 -0.36855910666011971 0.35471184219220619 0 -0.35426246453165078 0.35968561470073063 0 -0.35717795169618621 0.40754365560119049 0 -0.34639101860583571 0.41353061859463958 0 -0.34318108391902091 0.39712556974385438 0 -0.35668752362143608 0.39615357157430697 0 -0.35717795169618621 0.40754365560119049 0 -0.34318108391902091 0.39712556974385438 0 -0.35668752362143608 0.39615357157430697 0 -0.35480330713309599 0.37770160539584441 0 -0.34318108391902091 0.39712556974385438 0 -0.35480330713309599 0.37770160539584441 0 -0.34318108391902091 0.39712556974385438 0 -0.34271611640218153 0.38214905829306911 0 -0.35480330713309599 0.37770160539584441 0 -0.34318108391902091 0.39712556974385438 0 -0.35354791606202512 0.37575507206668618 0 -0.35480330713309599 0.37770160539584441 0 -0.34271611640218153 0.38214905829306911 0 -0.35480330713309599 0.37770160539584441 0 -0.35578023320964991 0.37606889047270209 0 -0.36462765198713187 0.38352598961100731 0 -0.35354791606202512 0.37575507206668618 0 -0.35578023320964991 0.37606889047270209 0 -0.35354791606202512 0.37575507206668618 0 -0.35480330713309599 0.37770160539584441 0 -0.35578023320964991 0.37606889047270209 0 -0.35480330713309599 0.37770160539584441 0 -0.35578023320964991 0.37606889047270209 0 -0.35354791606202512 0.37575507206668618 0 -0.35480330713309599 0.37770160539584441 0 -0.37800756573296401 0.37919360152452303 0 -0.35578023320964991 0.37606889047270209 0 -0.36462765198713187 0.38352598961100731 0 -0.37800756573296401 0.37919360152452303 0 -0.35578023320964991 0.37606889047270209 0 -0.35480330713309599 0.37770160539584441 0 -0.36991950187281603 0.40113986105095989 0 -0.37800756573296401 0.37919360152452303 0 -0.36462765198713187 0.38352598961100731 0 -0.36991950187281603 0.40113986105095989 0 -0.35480330713309599 0.37770160539584441 0 -0.36462765198713187 0.38352598961100731 0 -0.36991950187281603 0.40113986105095989 0 -0.35668752362143608 0.39615357157430697 0 -0.35480330713309599 0.37770160539584441 0 -0.36991950187281603 0.40113986105095989 0 -0.35668752362143608 0.39615357157430697 0 -0.36991950187281603 0.40113986105095989 0 -0.35717795169618621 0.40754365560119049 0 -0.38503569661253501 0.42457811670607593 0 -0.36991950187281603 0.40113986105095989 0 -0.36786313936854009 0.41637078891457852 0 -0.36786313936854009 0.41637078891457852 0 -0.36826370807659831 0.42656695981923748 0 -0.35891883858456503 0.42202535139542813 0 -0.36786313936854009 0.41637078891457852 0 -0.35891883858456503 0.42202535139542813 0 -0.35717795169618621 0.40754365560119049 0 -0.36991950187281603 0.40113986105095989 0 -0.36786313936854009 0.41637078891457852 0 -0.35717795169618621 0.40754365560119049 0 -0.38503569661253501 0.42457811670607593 0 -0.36786313936854009 0.41637078891457852 0 -0.36826370807659831 0.42656695981923748 0 -0.36826370807659831 0.42656695981923748 0 -0.35915566957167611 0.43156660255559548 0 -0.35891883858456503 0.42202535139542813 0 -0.37420764269488699 0.43529984378499309 0 -0.36826370807659831 0.42656695981923748 0 -0.35915566957167611 0.43156660255559548 0 -0.35915566957167611 0.43156660255559548 0 -0.35891883858456503 0.42202535139542813 0 -0.33884723272662232 0.42665304418539068 0 -0.35915566957167611 0.43156660255559548 0 -0.34651130399982721 0.43727736759205249 0 -0.33884723272662232 0.42665304418539068 0 -0.35891883858456503 0.42202535139542813 0 -0.33884723272662232 0.42665304418539068 0 -0.35915566957167611 0.43156660255559548 0 -0.34651130399982721 0.43727736759205249 0 -0.35915566957167611 0.43156660255559548 0 -0.34651130399982721 0.43727736759205249 0 -0.34908974614961719 0.44085173457119448 0 -0.35891883858456503 0.42202535139542813 0 -0.34639101860583571 0.41353061859463958 0 -0.33884723272662232 0.42665304418539068 0 -0.35891883858456503 0.42202535139542813 0 -0.35717795169618621 0.40754365560119049 0 -0.34639101860583571 0.41353061859463958 0 -0.34639101860583571 0.41353061859463958 0 -0.33155886070494839 0.41654953409186612 0 -0.34318108391902091 0.39712556974385438 0 -0.33155886070494839 0.41654953409186612 0 -0.34318108391902091 0.39712556974385438 0 -0.34639101860583571 0.41353061859463958 0 -0.33155886070494839 0.41654953409186612 0 -0.33884723272662232 0.42665304418539068 0 -0.33155886070494839 0.41654953409186612 0 -0.33884723272662232 0.42665304418539068 0 -0.32793065689989731 0.42261327078479838 0 -0.33155886070494839 0.41654953409186612 0 -0.33884723272662232 0.42665304418539068 0 -0.33155886070494839 0.41654953409186612 0 -0.32793065689989731 0.42261327078479838 0 -0.33884723272662232 0.42665304418539068 0 -0.32273494293751748 0.43036788034820472 0 -0.33884723272662232 0.42665304418539068 0 -0.32273494293751748 0.43036788034820472 0 -0.32793065689989731 0.42261327078479838 0 -0.33884723272662232 0.42665304418539068 0 -0.33557903155670682 0.43560705038707942 0 -0.32273494293751748 0.43036788034820472 0 -0.34651130399982721 0.43727736759205249 0 -0.33884723272662232 0.42665304418539068 0 -0.34651130399982721 0.43727736759205249 0 -0.33884723272662232 0.42665304418539068 0 -0.34344706145032272 0.43866131755107157 0 -0.33884723272662232 0.42665304418539068 0 -0.33557903155670682 0.43560705038707942 0 -0.34344706145032272 0.43866131755107157 0 -0.33557903155670682 0.43560705038707942 0 -0.34344706145032272 0.43866131755107157 0 -0.33557903155670682 0.43560705038707942 0 -0.32273494293751748 0.43036788034820472 0 -0.32930386496630742 0.4450490221397857 0 -0.32273494293751748 0.43036788034820472 0 -0.3066226531484128 0.43408271651101871 0 -0.32930386496630742 0.4450490221397857 0 -0.32273494293751748 0.43036788034820472 0 -0.31764159158545119 0.42350597926891093 0 -0.3066226531484128 0.43408271651101871 0 -0.32273494293751748 0.43036788034820472 0 -0.3066226531484128 0.43408271651101871 0 -0.32273494293751748 0.43036788034820472 0 -0.32793065689989731 0.42261327078479838 0 -0.31764159158545119 0.42350597926891093 0 -0.33155886070494839 0.41654953409186612 0 -0.31945052320786721 0.39976434396246718 0 -0.32131422551008032 0.41453703878620718 0 -0.31945052320786721 0.39976434396246718 0 -0.30960547943134858 0.41592898991432509 0 -0.33155886070494839 0.41654953409186612 0 -0.32131422551008032 0.41453703878620718 0 -0.31945052320786721 0.39976434396246718 0 -0.32793065689989731 0.42261327078479838 0 -0.31764159158545119 0.42350597926891093 0 -0.32131422551008032 0.41453703878620718 0 -0.33155886070494839 0.41654953409186612 0 -0.32793065689989731 0.42261327078479838 0 -0.32131422551008032 0.41453703878620718 0 -0.31764159158545119 0.42350597926891093 0 -0.32131422551008032 0.41453703878620718 0 -0.30960547943134858 0.41592898991432509 0 -0.33155886070494839 0.41654953409186612 0 -0.31945052320786721 0.39976434396246718 0 -0.33095472828679418 0.40112440827352641 0 -0.31945052320786721 0.39976434396246718 0 -0.32814155548056489 0.38716912511810853 0 -0.312897588151415 0.38550604752255879 0 -0.31945052320786721 0.39976434396246718 0 -0.33095472828679418 0.40112440827352641 0 -0.32814155548056489 0.38716912511810853 0 -0.33155886070494839 0.41654953409186612 0 -0.33095472828679418 0.40112440827352641 0 -0.34318108391902091 0.39712556974385438 0 -0.33095472828679418 0.40112440827352641 0 -0.34318108391902091 0.39712556974385438 0 -0.32814155548056489 0.38716912511810853 0 -0.33390671941619893 0.37299391914085328 0 -0.35354791606202512 0.37575507206668618 0 -0.34271611640218153 0.38214905829306911 0 -0.34318108391902091 0.39712556974385438 0 -0.34271611640218153 0.38214905829306911 0 -0.32814155548056489 0.38716912511810853 0 -0.33390671941619893 0.37299391914085328 0 -0.34271611640218153 0.38214905829306911 0 -0.32814155548056489 0.38716912511810853 0 -0.31426552277037278 0.37023276621501883 0 -0.32814155548056489 0.38716912511810853 0 -0.312897588151415 0.38550604752255879 0 -0.31426552277037278 0.37023276621501883 0 -0.33390671941619893 0.37299391914085328 0 -0.32814155548056489 0.38716912511810853 0 -0.29946786981064633 0.37943925057218852 0 -0.3047190914577273 0.39789975430577029 0 -0.29001530954917443 0.39155302666031649 0 -0.31426552277037278 0.37023276621501883 0 -0.312897588151415 0.38550604752255879 0 -0.29946786981064633 0.37943925057218852 0 -0.312897588151415 0.38550604752255879 0 -0.29946786981064633 0.37943925057218852 0 -0.3047190914577273 0.39789975430577029 0 -0.31945052320786721 0.39976434396246718 0 -0.3047190914577273 0.39789975430577029 0 -0.30960547943134858 0.41592898991432509 0 -0.31945052320786721 0.39976434396246718 0 -0.312897588151415 0.38550604752255879 0 -0.3047190914577273 0.39789975430577029 0 -0.29001530954917443 0.39155302666031649 0 -0.28165295819524072 0.40616461187084002 0 -0.27520661218854781 0.38813615422919029 0 -0.29001530954917443 0.39155302666031649 0 -0.28165295819524072 0.40616461187084002 0 -0.29552488996257092 0.40955987586874443 0 -0.3047190914577273 0.39789975430577029 0 -0.29001530954917443 0.39155302666031649 0 -0.29552488996257092 0.40955987586874443 0 -0.29001530954917443 0.39155302666031649 0 -0.28585719799384662 0.37585215888808282 0 -0.27520661218854781 0.38813615422919029 0 -0.29946786981064633 0.37943925057218852 0 -0.29001530954917443 0.39155302666031649 0 -0.28585719799384662 0.37585215888808282 0 -0.26893238050728918 0.37137778359335682 0 -0.27520661218854781 0.38813615422919029 0 -0.25991350188672591 0.39330810622296569 0 -0.26893238050728918 0.37137778359335682 0 -0.28585719799384662 0.37585215888808282 0 -0.27520661218854781 0.38813615422919029 0 -0.27520661218854781 0.38813615422919029 0 -0.26762873159195671 0.40591084278609812 0 -0.25991350188672591 0.39330810622296569 0 -0.28165295819524072 0.40616461187084002 0 -0.27520661218854781 0.38813615422919029 0 -0.26762873159195671 0.40591084278609812 0 -0.26762873159195671 0.40591084278609812 0 -0.25991350188672591 0.39330810622296569 0 -0.25627820520651251 0.41395345360339469 0 -0.25991350188672591 0.39330810622296569 0 -0.2508946232661633 0.41523842885257478 0 -0.25991350188672591 0.39330810622296569 0 -0.2510592824643445 0.41228689468681129 0 -0.23957163004666371 0.38529277841762932 0 -0.25101466291493463 0.3690077248358653 0 -0.26893238050728918 0.37137778359335682 0 -0.25991350188672591 0.39330810622296569 0 -0.25101466291493463 0.3690077248358653 0 -0.25991350188672591 0.39330810622296569 0 -0.23957163004666371 0.38529277841762932 0 -0.26893238050728918 0.37137778359335682 0 -0.25991350188672591 0.39330810622296569 0 -0.25669346119147401 0.42549293200506322 0 -0.26364769063554327 0.41964775935087062 0 -0.26942120714041562 0.43029273467889861 0 -0.25669346119147401 0.42549293200506322 0 -0.26942120714041562 0.43029273467889861 0 -0.25770279035437382 0.44093605836738009 0 -0.25669346119147401 0.42549293200506322 0 -0.25770279035437382 0.44093605836738009 0 -0.24480841104157869 0.43003767422362033 0 -0.25669346119147401 0.42549293200506322 0 -0.2508946232661633 0.41523842885257478 0 -0.24480841104157869 0.43003767422362033 0 -0.25991350188672591 0.39330810622296569 0 -0.2508946232661633 0.41523842885257478 0 -0.25627820520651251 0.41395345360339469 0 -0.25991350188672591 0.39330810622296569 0 -0.2508946232661633 0.41523842885257478 0 -0.2510592824643445 0.41228689468681129 0 -0.25669346119147401 0.42549293200506322 0 -0.2508946232661633 0.41523842885257478 0 -0.25627820520651251 0.41395345360339469 0 -0.2508946232661633 0.41523842885257478 0 -0.25627820520651251 0.41395345360339469 0 -0.26762873159195671 0.40591084278609812 0 -0.25627820520651251 0.41395345360339469 0 -0.26364769063554327 0.41964775935087062 0 -0.25669346119147401 0.42549293200506322 0 -0.25627820520651251 0.41395345360339469 0 -0.26364769063554327 0.41964775935087062 0 -0.28165295819524072 0.40616461187084002 0 -0.27232978641949201 0.41750220659579612 0 -0.28947621978395238 0.42579246155340739 0 -0.26762873159195671 0.40591084278609812 0 -0.26364769063554327 0.41964775935087062 0 -0.27232978641949201 0.41750220659579612 0 -0.27232978641949201 0.41750220659579612 0 -0.28947621978395238 0.42579246155340739 0 -0.28165295819524072 0.40616461187084002 0 -0.26762873159195671 0.40591084278609812 0 -0.27232978641949201 0.41750220659579612 0 -0.27232978641949201 0.41750220659579612 0 -0.26942120714041562 0.43029273467889861 0 -0.28947621978395238 0.42579246155340739 0 -0.26942120714041562 0.43029273467889861 0 -0.28947621978395238 0.42579246155340739 0 -0.27942565411355419 0.44035323403876442 0 -0.26942120714041562 0.43029273467889861 0 -0.27942565411355419 0.44035323403876442 0 -0.25770279035437382 0.44093605836738009 0 -0.26364769063554327 0.41964775935087062 0 -0.27232978641949201 0.41750220659579612 0 -0.26942120714041562 0.43029273467889861 0 -0.3066226531484128 0.43408271651101871 0 -0.27942565411355419 0.44035323403876442 0 -0.28947621978395238 0.42579246155340739 0 -0.3066226531484128 0.43408271651101871 0 -0.27942565411355419 0.44035323403876442 0 -0.28165295819524072 0.40616461187084002 0 -0.28947621978395238 0.42579246155340739 0 -0.29552488996257092 0.40955987586874443 0 -0.3047190914577273 0.39789975430577029 0 -0.29552488996257092 0.40955987586874443 0 -0.30960547943134858 0.41592898991432509 0 -0.28947621978395238 0.42579246155340739 0 -0.29552488996257092 0.40955987586874443 0 -0.30960547943134858 0.41592898991432509 0 -0.31764159158545119 0.42350597926891093 0 -0.30960547943134858 0.41592898991432509 0 -0.3066226531484128 0.43408271651101871 0 -0.28947621978395238 0.42579246155340739 0 -0.3066226531484128 0.43408271651101871 0 -0.28947621978395238 0.42579246155340739 0 -0.30960547943134858 0.41592898991432509 0 -0.3066226531484128 0.43408271651101871 0 -0.3066226531484128 0.43408271651101871 0 -0.30600628227448518 0.4555712598839029 0 -0.29038420910913842 0.45203502366882692 0 -0.30600628227448518 0.4555712598839029 0 -0.2927216992875355 0.47248471133506692 0 -0.30098167307570362 0.47190091618070013 0 -0.30600628227448518 0.4555712598839029 0 -0.28270869958266209 0.46609349762801838 0 -0.29038420910913842 0.45203502366882692 0 -0.30600628227448518 0.4555712598839029 0 -0.28619935748726139 0.46738304090236588 0 -0.28270869958266209 0.46609349762801838 0 -0.30600628227448518 0.4555712598839029 0 -0.28619935748726139 0.46738304090236588 0 -0.2927216992875355 0.47248471133506692 0 -0.30600628227448518 0.4555712598839029 0 -0.28270869958266209 0.46609349762801838 0 -0.28270869958266209 0.46609349762801838 0 -0.29038420910913842 0.45203502366882692 0 -0.27872012089245229 0.45479131486826929 0 -0.3066226531484128 0.43408271651101871 0 -0.29038420910913842 0.45203502366882692 0 -0.27942565411355419 0.44035323403876442 0 -0.29038420910913842 0.45203502366882692 0 -0.27942565411355419 0.44035323403876442 0 -0.27872012089245229 0.45479131486826929 0 -0.27942565411355419 0.44035323403876442 0 -0.2659362503159643 0.45559833144678752 0 -0.25770279035437382 0.44093605836738009 0 -0.27942565411355419 0.44035323403876442 0 -0.27872012089245229 0.45479131486826929 0 -0.2659362503159643 0.45559833144678752 0 -0.2718319134720541 0.46243265731207328 0 -0.2659362503159643 0.45559833144678752 0 -0.25996258309713771 0.47324748530521771 0 -0.28270869958266209 0.46609349762801838 0 -0.2718319134720541 0.46243265731207328 0 -0.25996258309713771 0.47324748530521771 0 -0.28270869958266209 0.46609349762801838 0 -0.27872012089245229 0.45479131486826929 0 -0.2718319134720541 0.46243265731207328 0 -0.27872012089245229 0.45479131486826929 0 -0.2718319134720541 0.46243265731207328 0 -0.2659362503159643 0.45559833144678752 0 -0.2659362503159643 0.45559833144678752 0 -0.25996258309713771 0.47324748530521771 0 -0.24774240740460809 0.45900548183645851 0 -0.2659362503159643 0.45559833144678752 0 -0.25770279035437382 0.44093605836738009 0 -0.24774240740460809 0.45900548183645851 0 -0.25558206101491332 0.48891908297032949 0 -0.27085173397328582 0.5 0 -0.24126430778892399 0.5 0 -0.25558206101491332 0.48891908297032949 0 -0.25996258309713771 0.47324748530521771 0 -0.27191976740459239 0.48183899533472679 0 -0.28619935748726139 0.46738304090236588 0 -0.28270869958266209 0.46609349762801838 0 -0.25996258309713771 0.47324748530521771 0 -0.28619935748726139 0.46738304090236588 0 -0.25996258309713771 0.47324748530521771 0 -0.28619935748726139 0.46738304090236588 0 -0.25996258309713771 0.47324748530521771 0 -0.27191976740459239 0.48183899533472679 0 -0.27191976740459239 0.48183899533472679 0 -0.27085173397328582 0.5 0 -0.2869817592366472 0.47845305046548747 0 -0.25558206101491332 0.48891908297032949 0 -0.27191976740459239 0.48183899533472679 0 -0.27085173397328582 0.5 0 -0.27085173397328582 0.5 0 -0.2869817592366472 0.47845305046548747 0 -0.3004391601576476 0.5 0 -0.28619935748726139 0.46738304090236588 0 -0.27191976740459239 0.48183899533472679 0 -0.2869817592366472 0.47845305046548747 0 -0.28619935748726139 0.46738304090236588 0 -0.2869817592366472 0.47845305046548747 0 -0.2927216992875355 0.47248471133506692 0 -0.2869817592366472 0.47845305046548747 0 -0.2927216992875355 0.47248471133506692 0 -0.30098167307570362 0.47190091618070013 0 -0.2869817592366472 0.47845305046548747 0 -0.30098167307570362 0.47190091618070013 0 -0.31367029401856023 0.48072854042255497 0 -0.2869817592366472 0.47845305046548747 0 -0.31367029401856023 0.48072854042255497 0 -0.30600628227448518 0.4555712598839029 0 -0.30098167307570362 0.47190091618070013 0 -0.31367029401856023 0.48072854042255497 0 -0.2869817592366472 0.47845305046548747 0 -0.3004391601576476 0.5 0 -0.31367029401856023 0.48072854042255497 0 -0.33002658634200938 0.5 0 -0.34035882880047308 0.48300403037962247 0 -0.31367029401856023 0.48072854042255497 0 -0.3004391601576476 0.5 0 -0.33002658634200938 0.5 0 -0.31367029401856023 0.48072854042255497 0 -0.33002658634200938 0.5 0 -0.34035882880047308 0.48300403037962247 0 -0.35961401252637132 0.5 0 -0.34035882880047308 0.48300403037962247 0 -0.3437572850552757 0.46669662786633231 0 -0.33029487092252319 0.46534784273433188 0 -0.34035882880047308 0.48300403037962247 0 -0.31367029401856023 0.48072854042255497 0 -0.34035882880047308 0.48300403037962247 0 -0.31367029401856023 0.48072854042255497 0 -0.33029487092252319 0.46534784273433188 0 -0.30600628227448518 0.4555712598839029 0 -0.31367029401856023 0.48072854042255497 0 -0.33029487092252319 0.46534784273433188 0 -0.30600628227448518 0.4555712598839029 0 -0.32930386496630742 0.4450490221397857 0 -0.33029487092252319 0.46534784273433188 0 -0.3066226531484128 0.43408271651101871 0 -0.30600628227448518 0.4555712598839029 0 -0.32930386496630742 0.4450490221397857 0 -0.3066226531484128 0.43408271651101871 0 -0.32930386496630742 0.4450490221397857 0 -0.30600628227448518 0.4555712598839029 0 -0.32930386496630742 0.4450490221397857 0 -0.32930386496630742 0.4450490221397857 0 -0.34344706145032272 0.43866131755107157 0 -0.34681998963331351 0.45351802185956119 0 -0.32930386496630742 0.4450490221397857 0 -0.34681998963331351 0.45351802185956119 0 -0.33557903155670682 0.43560705038707942 0 -0.32930386496630742 0.4450490221397857 0 -0.34344706145032272 0.43866131755107157 0 -0.32930386496630742 0.4450490221397857 0 -0.34344706145032272 0.43866131755107157 0 -0.3437572850552757 0.46669662786633231 0 -0.33029487092252319 0.46534784273433188 0 -0.34681998963331351 0.45351802185956119 0 -0.32930386496630742 0.4450490221397857 0 -0.33029487092252319 0.46534784273433188 0 -0.34681998963331351 0.45351802185956119 0 -0.3437572850552757 0.46669662786633231 0 -0.36433611430031859 0.46198702157933852 0 -0.35448786981009528 0.47493740249215888 0 -0.3437572850552757 0.46669662786633231 0 -0.34681998963331351 0.45351802185956119 0 -0.36433611430031859 0.46198702157933852 0 -0.34681998963331351 0.45351802185956119 0 -0.36433611430031859 0.46198702157933852 0 -0.34681998963331351 0.45351802185956119 0 -0.34908974614961719 0.44085173457119448 0 -0.36433611430031859 0.46198702157933852 0 -0.34908974614961719 0.44085173457119448 0 -0.36433611430031859 0.46198702157933852 0 -0.34344706145032272 0.43866131755107157 0 -0.34681998963331351 0.45351802185956119 0 -0.34908974614961719 0.44085173457119448 0 -0.34651130399982721 0.43727736759205249 0 -0.34908974614961719 0.44085173457119448 0 -0.34651130399982721 0.43727736759205249 0 -0.34344706145032272 0.43866131755107157 0 -0.34908974614961719 0.44085173457119448 0 -0.34344706145032272 0.43866131755107157 0 -0.34908974614961719 0.44085173457119448 0 -0.34651130399982721 0.43727736759205249 0 -0.34344706145032272 0.43866131755107157 0 -0.34908974614961719 0.44085173457119448 0 -0.37303232777894008 0.45014593424765748 0 -0.34908974614961719 0.44085173457119448 0 -0.37303232777894008 0.45014593424765748 0 -0.36433611430031859 0.46198702157933852 0 -0.37420764269488699 0.43529984378499309 0 -0.35915566957167611 0.43156660255559548 0 -0.37303232777894008 0.45014593424765748 0 -0.35915566957167611 0.43156660255559548 0 -0.34908974614961719 0.44085173457119448 0 -0.37303232777894008 0.45014593424765748 0 -0.38229887164358139 0.47067196701096392 0 -0.37576526091310569 0.46126686472473472 0 -0.36433611430031859 0.46198702157933852 0 -0.38229887164358139 0.47067196701096392 0 -0.36433611430031859 0.46198702157933852 0 -0.37576526091310569 0.46126686472473472 0 -0.37303232777894008 0.45014593424765748 0 -0.36433611430031859 0.46198702157933852 0 -0.36433611430031859 0.46198702157933852 0 -0.3744128615316587 0.47595591848237828 0 -0.38355132482175391 0.47976386571327601 0 -0.3744128615316587 0.47595591848237828 0 -0.36704736358238621 0.48527952033669008 0 -0.36433611430031859 0.46198702157933852 0 -0.3744128615316587 0.47595591848237828 0 -0.36444003988103102 0.47564866151541502 0 -0.38229887164358139 0.47067196701096392 0 -0.36433611430031859 0.46198702157933852 0 -0.3744128615316587 0.47595591848237828 0 -0.36433611430031859 0.46198702157933852 0 -0.36444003988103102 0.47564866151541502 0 -0.35448786981009528 0.47493740249215888 0 -0.36444003988103102 0.47564866151541502 0 -0.36704736358238621 0.48527952033669008 0 -0.35448786981009528 0.47493740249215888 0 -0.3744128615316587 0.47595591848237828 0 -0.36444003988103102 0.47564866151541502 0 -0.36704736358238621 0.48527952033669008 0 -0.38920143871073321 0.5 0 -0.35961401252637132 0.5 0 -0.36704736358238621 0.48527952033669008 0 -0.34035882880047308 0.48300403037962247 0 -0.35961401252637132 0.5 0 -0.36704736358238621 0.48527952033669008 0 -0.34035882880047308 0.48300403037962247 0 -0.3437572850552757 0.46669662786633231 0 -0.35448786981009528 0.47493740249215888 0 -0.34035882880047308 0.48300403037962247 0 -0.36704736358238621 0.48527952033669008 0 -0.34035882880047308 0.48300403037962247 0 -0.36704736358238621 0.48527952033669008 0 -0.35448786981009528 0.47493740249215888 0 -0.1453853009118434 0.47381097409795309 0 -0.14929527078016011 0.4838439382084917 0 -0.13980416572745891 0.48501924875819802 0 -0.1453853009118434 0.47381097409795309 0 -0.14888851850934129 0.46013653450648367 0 -0.15689464720305671 0.47443043551735131 0 -0.1453853009118434 0.47381097409795309 0 -0.14929527078016011 0.4838439382084917 0 -0.15689464720305671 0.47443043551735131 0 -0.14929527078016011 0.4838439382084917 0 -0.15689464720305671 0.47443043551735131 0 -0.15882903215804001 0.48714099644209807 0 -0.15482430862363941 0.5 0 -0.1455632079004017 0.49881803622685789 0 -0.126398022133178 0.5 0 -0.14929527078016011 0.4838439382084917 0 -0.1455632079004017 0.49881803622685789 0 -0.15882903215804001 0.48714099644209807 0 -0.14929527078016011 0.4838439382084917 0 -0.1455632079004017 0.49881803622685789 0 -0.13980416572745891 0.48501924875819802 0 -0.1455632079004017 0.49881803622685789 0 -0.13980416572745891 0.48501924875819802 0 -0.126398022133178 0.5 0 -0.13980416572745891 0.48501924875819802 0 -0.126398022133178 0.5 0 -0.12719362002061879 0.48471220993481717 0 -0.13980416572745891 0.48501924875819802 0 -0.13077620832253981 0.46554142970009121 0 -0.1453853009118434 0.47381097409795309 0 -0.13980416572745891 0.48501924875819802 0 -0.13077620832253981 0.46554142970009121 0 -0.13980416572745891 0.48501924875819802 0 -0.12719362002061879 0.48471220993481717 0 -0.13077620832253981 0.46554142970009121 0 -0.13077620832253981 0.46554142970009121 0 -0.1217482509176208 0.4460636106419843 0 -0.14515549499551181 0.44047667435590138 0 -0.1317876317254652 0.43321511821309272 0 -0.1217482509176208 0.4460636106419843 0 -0.13077620832253981 0.46554142970009121 0 -0.14515549499551181 0.44047667435590138 0 -0.1217482509176208 0.4460636106419843 0 -0.14515549499551181 0.44047667435590138 0 -0.1217482509176208 0.4460636106419843 0 -0.14515549499551181 0.44047667435590138 0 -0.14888851850934129 0.46013653450648367 0 -0.16941733334357079 0.45725493461644751 0 -0.1453853009118434 0.47381097409795309 0 -0.13077620832253981 0.46554142970009121 0 -0.14888851850934129 0.46013653450648367 0 -0.13077620832253981 0.46554142970009121 0 -0.14515549499551181 0.44047667435590138 0 -0.14888851850934129 0.46013653450648367 0 -0.14888851850934129 0.46013653450648367 0 -0.16941733334357079 0.45725493461644751 0 -0.15689464720305671 0.47443043551735131 0 -0.14515549499551181 0.44047667435590138 0 -0.16941733334357079 0.45725493461644751 0 -0.16856273907340269 0.43488973806981862 0 -0.14515549499551181 0.44047667435590138 0 -0.16856273907340269 0.43488973806981862 0 -0.16941733334357079 0.45725493461644751 0 -0.183982161961253 0.44610516737792688 0 -0.16856273907340269 0.43488973806981862 0 -0.16941733334357079 0.45725493461644751 0 -0.183982161961253 0.44610516737792688 0 -0.19251885737811089 0.46330213367281631 0 -0.16941733334357079 0.45725493461644751 0 -0.18211928993826329 0.47235242194500748 0 -0.19251885737811089 0.46330213367281631 0 -0.18211928993826329 0.47235242194500748 0 -0.18329038915027079 0.48125915904863209 0 -0.192281487754415 0.47610504162085432 0 -0.16941733334357079 0.45725493461644751 0 -0.18211928993826329 0.47235242194500748 0 -0.17027905679563249 0.47822818689042512 0 -0.18211928993826329 0.47235242194500748 0 -0.18329038915027079 0.48125915904863209 0 -0.17027905679563249 0.47822818689042512 0 -0.18329038915027079 0.48125915904863209 0 -0.17027905679563249 0.47822818689042512 0 -0.17244510638781479 0.49280939367124388 0 -0.16941733334357079 0.45725493461644751 0 -0.17027905679563249 0.47822818689042512 0 -0.15689464720305671 0.47443043551735131 0 -0.17027905679563249 0.47822818689042512 0 -0.15689464720305671 0.47443043551735131 0 -0.15882903215804001 0.48714099644209807 0 -0.1455632079004017 0.49881803622685789 0 -0.17244510638781479 0.49280939367124388 0 -0.1455632079004017 0.49881803622685789 0 -0.15882903215804001 0.48714099644209807 0 -0.17244510638781479 0.49280939367124388 0 -0.15482430862363941 0.5 0 -0.1455632079004017 0.49881803622685789 0 -0.17244510638781479 0.49280939367124388 0 -0.15482430862363941 0.5 0 -0.1832505951141008 0.5 0 -0.17244510638781479 0.49280939367124388 0 -0.17027905679563249 0.47822818689042512 0 -0.15882903215804001 0.48714099644209807 0 -0.17244510638781479 0.49280939367124388 0 -0.1832505951141008 0.5 0 -0.17244510638781479 0.49280939367124388 0 -0.19866395681077079 0.48884824974950453 0 -0.18329038915027079 0.48125915904863209 0 -0.17244510638781479 0.49280939367124388 0 -0.1993270048752275 0.48680075111562759 0 -0.17244510638781479 0.49280939367124388 0 -0.1993270048752275 0.48680075111562759 0 -0.17244510638781479 0.49280939367124388 0 -0.19866395681077079 0.48884824974950453 0 -0.1993270048752275 0.48680075111562759 0 -0.1832505951141008 0.5 0 -0.19866395681077079 0.48884824974950453 0 -0.21167688160456219 0.50000000000000011 0 -0.19866395681077079 0.48884824974950453 0 -0.1993270048752275 0.48680075111562759 0 -0.2074890343168897 0.48497637411091887 0 -0.19866395681077079 0.48884824974950453 0 -0.1993270048752275 0.48680075111562759 0 -0.18329038915027079 0.48125915904863209 0 -0.1993270048752275 0.48680075111562759 0 -0.192281487754415 0.47610504162085432 0 -0.18211928993826329 0.47235242194500748 0 -0.192281487754415 0.47610504162085432 0 -0.19251885737811089 0.46330213367281631 0 -0.1993270048752275 0.48680075111562759 0 -0.192281487754415 0.47610504162085432 0 -0.2039866383019881 0.47241175944644198 0 -0.1993270048752275 0.48680075111562759 0 -0.2039866383019881 0.47241175944644198 0 -0.192281487754415 0.47610504162085432 0 -0.2039866383019881 0.47241175944644198 0 -0.19251885737811089 0.46330213367281631 0 -0.21761698105466981 0.46903709286251338 0 -0.2039866383019881 0.47241175944644198 0 -0.2074890343168897 0.48497637411091887 0 -0.1993270048752275 0.48680075111562759 0 -0.2039866383019881 0.47241175944644198 0 -0.2074890343168897 0.48497637411091887 0 -0.2039866383019881 0.47241175944644198 0 -0.2074890343168897 0.48497637411091887 0 -0.2074890343168897 0.48497637411091887 0 -0.21167688160456219 0.50000000000000011 0 -0.19866395681077079 0.48884824974950453 0 -0.2074890343168897 0.48497637411091887 0 -0.21167688160456219 0.50000000000000011 0 -0.1993270048752275 0.48680075111562759 0 -0.2074890343168897 0.48497637411091887 0 -0.2074890343168897 0.48497637411091887 0 -0.21167688160456219 0.50000000000000011 0 -0.22251774339334321 0.48951363143103188 0 -0.21167688160456219 0.50000000000000011 0 -0.22251774339334321 0.48951363143103188 0 -0.24126430778892399 0.5 0 -0.2074890343168897 0.48497637411091887 0 -0.22251774339334321 0.48951363143103188 0 -0.23372580870701401 0.47911192970806948 0 -0.22251774339334321 0.48951363143103188 0 -0.23372580870701401 0.47911192970806948 0 -0.24126430778892399 0.5 0 -0.2074890343168897 0.48497637411091887 0 -0.23372580870701401 0.47911192970806948 0 -0.21761698105466981 0.46903709286251338 0 -0.2074890343168897 0.48497637411091887 0 -0.23372580870701401 0.47911192970806948 0 -0.21761698105466981 0.46903709286251338 0 -0.23372580870701401 0.47911192970806948 0 -0.23040481313616409 0.46030216659662992 0 -0.25996258309713771 0.47324748530521771 0 -0.23372580870701401 0.47911192970806948 0 -0.25996258309713771 0.47324748530521771 0 -0.23372580870701401 0.47911192970806948 0 -0.24774240740460809 0.45900548183645851 0 -0.25558206101491332 0.48891908297032949 0 -0.25996258309713771 0.47324748530521771 0 -0.23372580870701401 0.47911192970806948 0 -0.25558206101491332 0.48891908297032949 0 -0.23372580870701401 0.47911192970806948 0 -0.24126430778892399 0.5 0 -0.25770279035437382 0.44093605836738009 0 -0.23872219881699469 0.44483691959466609 0 -0.24774240740460809 0.45900548183645851 0 -0.25770279035437382 0.44093605836738009 0 -0.23872219881699469 0.44483691959466609 0 -0.24480841104157869 0.43003767422362033 0 -0.23872219881699469 0.44483691959466609 0 -0.24774240740460809 0.45900548183645851 0 -0.23040481313616409 0.46030216659662992 0 -0.23372580870701401 0.47911192970806948 0 -0.24774240740460809 0.45900548183645851 0 -0.23040481313616409 0.46030216659662992 0 -0.21761698105466981 0.46903709286251338 0 -0.23040481313616409 0.46030216659662992 0 -0.21205471355314801 0.44749746749624159 0 -0.23872219881699469 0.44483691959466609 0 -0.21205471355314801 0.44749746749624159 0 -0.2302433636502538 0.43277320781197609 0 -0.23872219881699469 0.44483691959466609 0 -0.23040481313616409 0.46030216659662992 0 -0.21205471355314801 0.44749746749624159 0 -0.21205471355314801 0.44749746749624159 0 -0.2035120323414687 0.43785425222287178 0 -0.19797831072664129 0.45085728061508862 0 -0.2039866383019881 0.47241175944644198 0 -0.21205471355314801 0.44749746749624159 0 -0.21761698105466981 0.46903709286251338 0 -0.2039866383019881 0.47241175944644198 0 -0.21205471355314801 0.44749746749624159 0 -0.2039866383019881 0.47241175944644198 0 -0.21205471355314801 0.44749746749624159 0 -0.19797831072664129 0.45085728061508862 0 -0.2039866383019881 0.47241175944644198 0 -0.19251885737811089 0.46330213367281631 0 -0.19797831072664129 0.45085728061508862 0 -0.2039866383019881 0.47241175944644198 0 -0.19797831072664129 0.45085728061508862 0 -0.183982161961253 0.44610516737792688 0 -0.19251885737811089 0.46330213367281631 0 -0.19797831072664129 0.45085728061508862 0 -0.183982161961253 0.44610516737792688 0 -0.19797831072664129 0.45085728061508862 0 -0.1919699831512936 0.42930280178373542 0 -0.2035120323414687 0.43785425222287178 0 -0.19797831072664129 0.45085728061508862 0 -0.1919699831512936 0.42930280178373542 0 -0.19797831072664129 0.45085728061508862 0 -0.1919699831512936 0.42930280178373542 0 -0.19016441668114389 0.42282545117803177 0 -0.1919699831512936 0.42930280178373542 0 -0.1955164731324128 0.42086157684006892 0 -0.19016441668114389 0.42282545117803177 0 -0.1919699831512936 0.42930280178373542 0 -0.1919699831512936 0.42930280178373542 0 -0.1955164731324128 0.42086157684006892 0 -0.20511407715062949 0.41905335322227222 0 -0.19481741554658411 0.41226470117623631 0 -0.1827740970706459 0.40494608531327808 0 -0.18569503519126301 0.41455653781838459 0 -0.19016441668114389 0.42282545117803177 0 -0.19481741554658411 0.41226470117623631 0 -0.18569503519126301 0.41455653781838459 0 -0.19016441668114389 0.42282545117803177 0 -0.19481741554658411 0.41226470117623631 0 -0.1955164731324128 0.42086157684006892 0 -0.19481741554658411 0.41226470117623631 0 -0.1955164731324128 0.42086157684006892 0 -0.20511407715062949 0.41905335322227222 0 -0.19481741554658411 0.41226470117623631 0 -0.20511407715062949 0.41905335322227222 0 -0.2038508660479906 0.40454554555824768 0 -0.20511407715062949 0.41905335322227222 0 -0.21291657460165711 0.41040166022486563 0 -0.2038508660479906 0.40454554555824768 0 -0.20511407715062949 0.41905335322227222 0 -0.21291657460165711 0.41040166022486563 0 -0.22012278880431019 0.42258317554604219 0 -0.21291657460165711 0.41040166022486563 0 -0.22446360858405709 0.40917868340520719 0 -0.21535266207423151 0.3997791481991147 0 -0.1919699831512936 0.42930280178373542 0 -0.22012278880431019 0.42258317554604219 0 -0.21205471355314801 0.44749746749624159 0 -0.2035120323414687 0.43785425222287178 0 -0.22012278880431019 0.42258317554604219 0 -0.21205471355314801 0.44749746749624159 0 -0.22012278880431019 0.42258317554604219 0 -0.1919699831512936 0.42930280178373542 0 -0.20511407715062949 0.41905335322227222 0 -0.22012278880431019 0.42258317554604219 0 -0.2035120323414687 0.43785425222287178 0 -0.1919699831512936 0.42930280178373542 0 -0.22012278880431019 0.42258317554604219 0 -0.21205471355314801 0.44749746749624159 0 -0.2302433636502538 0.43277320781197609 0 -0.22012278880431019 0.42258317554604219 0 -0.2302433636502538 0.43277320781197609 0 -0.22012278880431019 0.42258317554604219 0 -0.23550870603523699 0.41891080219930948 0 -0.22012278880431019 0.42258317554604219 0 -0.22446360858405709 0.40917868340520719 0 -0.21291657460165711 0.41040166022486563 0 -0.22012278880431019 0.42258317554604219 0 -0.22446360858405709 0.40917868340520719 0 -0.22446360858405709 0.40917868340520719 0 -0.23550870603523699 0.41891080219930948 0 -0.23729851296488819 0.40548089753580041 0 -0.22012278880431019 0.42258317554604219 0 -0.22446360858405709 0.40917868340520719 0 -0.23550870603523699 0.41891080219930948 0 -0.22012278880431019 0.42258317554604219 0 -0.23550870603523699 0.41891080219930948 0 -0.23550870603523699 0.41891080219930948 0 -0.24369028118265831 0.4129792558186241 0 -0.23729851296488819 0.40548089753580041 0 -0.2510592824643445 0.41228689468681129 0 -0.24369028118265831 0.4129792558186241 0 -0.23729851296488819 0.40548089753580041 0 -0.2508946232661633 0.41523842885257478 0 -0.2510592824643445 0.41228689468681129 0 -0.24369028118265831 0.4129792558186241 0 -0.2508946232661633 0.41523842885257478 0 -0.23550870603523699 0.41891080219930948 0 -0.24369028118265831 0.4129792558186241 0 -0.2508946232661633 0.41523842885257478 0 -0.23550870603523699 0.41891080219930948 0 -0.24480841104157869 0.43003767422362033 0 -0.2508946232661633 0.41523842885257478 0 -0.23550870603523699 0.41891080219930948 0 -0.2508946232661633 0.41523842885257478 0 -0.24480841104157869 0.43003767422362033 0 -0.23872219881699469 0.44483691959466609 0 -0.24480841104157869 0.43003767422362033 0 -0.23872219881699469 0.44483691959466609 0 -0.2302433636502538 0.43277320781197609 0 -0.24480841104157869 0.43003767422362033 0 -0.2302433636502538 0.43277320781197609 0 -0.23550870603523699 0.41891080219930948 0 -0.24480841104157869 0.43003767422362033 0 -0.2510592824643445 0.41228689468681129 0 -0.23957163004666371 0.38529277841762932 0 -0.23729851296488819 0.40548089753580041 0 -0.2510592824643445 0.41228689468681129 0 -0.23957163004666371 0.38529277841762932 0 -0.23957163004666371 0.38529277841762932 0 -0.23729851296488819 0.40548089753580041 0 -0.22799870013475271 0.39658593676723392 0 -0.22446360858405709 0.40917868340520719 0 -0.23729851296488819 0.40548089753580041 0 -0.22799870013475271 0.39658593676723392 0 -0.22446360858405709 0.40917868340520719 0 -0.22799870013475271 0.39658593676723392 0 -0.21535266207423151 0.3997791481991147 0 -0.22799870013475271 0.39658593676723392 0 -0.2186484519667207 0.38702186510016068 0 -0.21535266207423151 0.3997791481991147 0 -0.23957163004666371 0.38529277841762932 0 -0.22799870013475271 0.39658593676723392 0 -0.2186484519667207 0.38702186510016068 0 -0.23957163004666371 0.38529277841762932 0 -0.2186484519667207 0.38702186510016068 0 -0.2204116175929671 0.37394555696464132 0 -0.2186484519667207 0.38702186510016068 0 -0.20616159316082039 0.37787038291778802 0 -0.2204116175929671 0.37394555696464132 0 -0.2186484519667207 0.38702186510016068 0 -0.20616159316082039 0.37787038291778802 0 -0.20423777111021099 0.39094119813897332 0 -0.2186484519667207 0.38702186510016068 0 -0.21535266207423151 0.3997791481991147 0 -0.20423777111021099 0.39094119813897332 0 -0.21535266207423151 0.3997791481991147 0 -0.20423777111021099 0.39094119813897332 0 -0.2038508660479906 0.40454554555824768 0 -0.21291657460165711 0.41040166022486563 0 -0.21535266207423151 0.3997791481991147 0 -0.2038508660479906 0.40454554555824768 0 -0.19481741554658411 0.41226470117623631 0 -0.2038508660479906 0.40454554555824768 0 -0.192680404567145 0.3966548803658656 0 -0.20423777111021099 0.39094119813897332 0 -0.2038508660479906 0.40454554555824768 0 -0.192680404567145 0.3966548803658656 0 -0.19481741554658411 0.41226470117623631 0 -0.192680404567145 0.3966548803658656 0 -0.1827740970706459 0.40494608531327808 0 -0.20423777111021099 0.39094119813897332 0 -0.192680404567145 0.3966548803658656 0 -0.19177358818420301 0.38061743047389412 0 -0.192680404567145 0.3966548803658656 0 -0.19177358818420301 0.38061743047389412 0 -0.1783155189357967 0.38913886354118782 0 -0.20616159316082039 0.37787038291778802 0 -0.20423777111021099 0.39094119813897332 0 -0.19177358818420301 0.38061743047389412 0 -0.19177358818420301 0.38061743047389412 0 -0.1783155189357967 0.38913886354118782 0 -0.1759451216560288 0.37264775281092888 0 -0.1783155189357967 0.38913886354118782 0 -0.164929132631081 0.38295761665464523 0 -0.1759451216560288 0.37264775281092888 0 -0.1783155189357967 0.38913886354118782 0 -0.164929132631081 0.38295761665464523 0 -0.16368458266006711 0.39929312724111687 0 -0.164929132631081 0.38295761665464523 0 -0.16368458266006711 0.39929312724111687 0 -0.150350550224705 0.38453222860108138 0 -0.164929132631081 0.38295761665464523 0 -0.150350550224705 0.38453222860108138 0 -0.15634988967880739 0.36917611107891091 0 -0.1783155189357967 0.38913886354118782 0 -0.16368458266006711 0.39929312724111687 0 -0.1827740970706459 0.40494608531327808 0 -0.192680404567145 0.3966548803658656 0 -0.1783155189357967 0.38913886354118782 0 -0.1827740970706459 0.40494608531327808 0 -0.16368458266006711 0.39929312724111687 0 -0.1827740970706459 0.40494608531327808 0 -0.1750242114666781 0.41818991360599272 0 -0.1827740970706459 0.40494608531327808 0 -0.18569503519126301 0.41455653781838459 0 -0.1750242114666781 0.41818991360599272 0 -0.19016441668114389 0.42282545117803177 0 -0.18569503519126301 0.41455653781838459 0 -0.1750242114666781 0.41818991360599272 0 -0.1919699831512936 0.42930280178373542 0 -0.16856273907340269 0.43488973806981862 0 -0.1919699831512936 0.42930280178373542 0 -0.1750242114666781 0.41818991360599272 0 -0.16856273907340269 0.43488973806981862 0 -0.183982161961253 0.44610516737792688 0 -0.1919699831512936 0.42930280178373542 0 -0.16856273907340269 0.43488973806981862 0 -0.19016441668114389 0.42282545117803177 0 -0.1919699831512936 0.42930280178373542 0 -0.1750242114666781 0.41818991360599272 0 -0.14515549499551181 0.44047667435590138 0 -0.16856273907340269 0.43488973806981862 0 -0.15729370504358511 0.4145773321675944 0 -0.1750242114666781 0.41818991360599272 0 -0.16856273907340269 0.43488973806981862 0 -0.15729370504358511 0.4145773321675944 0 -0.16368458266006711 0.39929312724111687 0 -0.1750242114666781 0.41818991360599272 0 -0.15729370504358511 0.4145773321675944 0 -0.15729370504358511 0.4145773321675944 0 -0.13924252917181951 0.41937040935937597 0 -0.14016359585502719 0.40036096785917252 0 -0.14515549499551181 0.44047667435590138 0 -0.15729370504358511 0.4145773321675944 0 -0.13924252917181951 0.41937040935937597 0 -0.14515549499551181 0.44047667435590138 0 -0.1317876317254652 0.43321511821309272 0 -0.13924252917181951 0.41937040935937597 0 -0.1283851256645466 0.42450984441506329 0 -0.1317876317254652 0.43321511821309272 0 -0.13924252917181951 0.41937040935937597 0 -0.1283851256645466 0.42450984441506329 0 -0.1317876317254652 0.43321511821309272 0 -0.11806030385454951 0.4266584090121126 0 -0.13924252917181951 0.41937040935937597 0 -0.12756825415775341 0.41517819537294332 0 -0.14016359585502719 0.40036096785917252 0 -0.1283851256645466 0.42450984441506329 0 -0.13924252917181951 0.41937040935937597 0 -0.12756825415775341 0.41517819537294332 0 -0.14016359585502719 0.40036096785917252 0 -0.13399881613852849 0.37710418920076538 0 -0.1249310912175131 0.39566684999087642 0 -0.12756825415775341 0.41517819537294332 0 -0.14016359585502719 0.40036096785917252 0 -0.1249310912175131 0.39566684999087642 0 -0.13399881613852849 0.37710418920076538 0 -0.1189163217538699 0.38668018750274052 0 -0.1249310912175131 0.39566684999087642 0 -0.13399881613852849 0.37710418920076538 0 -0.1249310912175131 0.39566684999087642 0 -0.14016359585502719 0.40036096785917252 0 -0.13399881613852849 0.37710418920076538 0 -0.150350550224705 0.38453222860108138 0 -0.13399881613852849 0.37710418920076538 0 -0.150350550224705 0.38453222860108138 0 -0.1459414492753961 0.37233851432285298 0 -0.150350550224705 0.38453222860108138 0 -0.1459414492753961 0.37233851432285298 0 -0.15634988967880739 0.36917611107891091 0 -0.16368458266006711 0.39929312724111687 0 -0.15729370504358511 0.4145773321675944 0 -0.14016359585502719 0.40036096785917252 0 -0.16368458266006711 0.39929312724111687 0 -0.14016359585502719 0.40036096785917252 0 -0.150350550224705 0.38453222860108138 0 -0.14420556595215761 0.35620981534069912 0 -0.15613315450087001 0.33179268952332752 0 -0.14420556595215761 0.35620981534069912 0 -0.15613315450087001 0.33179268952332752 0 -0.16026963831737759 0.35037315050026618 0 -0.14306654105954339 0.35854152841065412 0 -0.16026963831737759 0.35037315050026618 0 -0.15634988967880739 0.36917611107891091 0 -0.14420556595215761 0.35620981534069912 0 -0.14306654105954339 0.35854152841065412 0 -0.16026963831737759 0.35037315050026618 0 -0.14420556595215761 0.35620981534069912 0 -0.14109259222599441 0.35696119481745819 0 -0.13879374757640769 0.34284212686514959 0 -0.14420556595215761 0.35620981534069912 0 -0.14306654105954339 0.35854152841065412 0 -0.14420556595215761 0.35620981534069912 0 -0.14109259222599441 0.35696119481745819 0 -0.14420556595215761 0.35620981534069912 0 -0.14306654105954339 0.35854152841065412 0 -0.14109259222599441 0.35696119481745819 0 -0.14306654105954339 0.35854152841065412 0 -0.14109259222599441 0.35696119481745819 0 -0.14306654105954339 0.35854152841065412 0 -0.15634988967880739 0.36917611107891091 0 -0.13399881613852849 0.37710418920076538 0 -0.14306654105954339 0.35854152841065412 0 -0.1459414492753961 0.37233851432285298 0 -0.14306654105954339 0.35854152841065412 0 -0.1459414492753961 0.37233851432285298 0 -0.15634988967880739 0.36917611107891091 0 -0.13399881613852849 0.37710418920076538 0 -0.14109259222599441 0.35696119481745819 0 -0.1154390140592146 0.36428893093258408 0 -0.13399881613852849 0.37710418920076538 0 -0.14306654105954339 0.35854152841065412 0 -0.13399881613852849 0.37710418920076538 0 -0.14306654105954339 0.35854152841065412 0 -0.14109259222599441 0.35696119481745819 0 -0.14109259222599441 0.35696119481745819 0 -0.1154390140592146 0.36428893093258408 0 -0.14109259222599441 0.35696119481745819 0 -0.13879374757640769 0.34284212686514959 0 -0.1232883727057312 0.34270722544881238 0 -0.14109259222599441 0.35696119481745819 0 -0.1232883727057312 0.34270722544881238 0 -0.1154390140592146 0.36428893093258408 0 -0.14109259222599441 0.35696119481745819 0 -0.1232883727057312 0.34270722544881238 0 -0.13879374757640769 0.34284212686514959 0 -0.12962857603484651 0.3280650508025621 0 -0.1232883727057312 0.34270722544881238 0 -0.12962857603484651 0.3280650508025621 0 -0.13641803347007961 0.31089789728286998 0 -0.1181375886088134 0.31514921477114199 0 -0.12962857603484651 0.3280650508025621 0 -0.15613315450087001 0.33179268952332752 0 -0.13641803347007961 0.31089789728286998 0 -0.15613315450087001 0.33179268952332752 0 -0.15284862929488011 0.31031468521920919 0 -0.13641803347007961 0.31089789728286998 0 -0.14420556595215761 0.35620981534069912 0 -0.13879374757640769 0.34284212686514959 0 -0.15613315450087001 0.33179268952332752 0 -0.13879374757640769 0.34284212686514959 0 -0.12962857603484651 0.3280650508025621 0 -0.15613315450087001 0.33179268952332752 0 -0.15613315450087001 0.33179268952332752 0 -0.17028523462122619 0.33896861894753583 0 -0.16026963831737759 0.35037315050026618 0 -0.15613315450087001 0.33179268952332752 0 -0.17028523462122619 0.33896861894753583 0 -0.17408262250365569 0.32487165023366771 0 -0.15613315450087001 0.33179268952332752 0 -0.16919976794219371 0.30504385063599959 0 -0.15284862929488011 0.31031468521920919 0 -0.15613315450087001 0.33179268952332752 0 -0.17408262250365569 0.32487165023366771 0 -0.16919976794219371 0.30504385063599959 0 -0.15613315450087001 0.33179268952332752 0 -0.16919976794219371 0.30504385063599959 0 -0.17408262250365569 0.32487165023366771 0 -0.18966407819991771 0.31484550465860472 0 -0.16919976794219371 0.30504385063599959 0 -0.17408262250365569 0.32487165023366771 0 -0.184938208097432 0.33375276960730033 0 -0.18966407819991771 0.31484550465860472 0 -0.17028523462122619 0.33896861894753583 0 -0.184938208097432 0.33375276960730033 0 -0.17600254968679571 0.35405283487311701 0 -0.17028523462122619 0.33896861894753583 0 -0.17408262250365569 0.32487165023366771 0 -0.184938208097432 0.33375276960730033 0 -0.17600254968679571 0.35405283487311701 0 -0.19291493114878749 0.36445842527637612 0 -0.1911221551312724 0.34903819809493047 0 -0.184938208097432 0.33375276960730033 0 -0.17600254968679571 0.35405283487311701 0 -0.1911221551312724 0.34903819809493047 0 -0.17028523462122619 0.33896861894753583 0 -0.17600254968679571 0.35405283487311701 0 -0.16026963831737759 0.35037315050026618 0 -0.17600254968679571 0.35405283487311701 0 -0.16026963831737759 0.35037315050026618 0 -0.15634988967880739 0.36917611107891091 0 -0.164929132631081 0.38295761665464523 0 -0.15634988967880739 0.36917611107891091 0 -0.1759451216560288 0.37264775281092888 0 -0.17600254968679571 0.35405283487311701 0 -0.15634988967880739 0.36917611107891091 0 -0.1759451216560288 0.37264775281092888 0 -0.19177358818420301 0.38061743047389412 0 -0.1759451216560288 0.37264775281092888 0 -0.19291493114878749 0.36445842527637612 0 -0.17600254968679571 0.35405283487311701 0 -0.1759451216560288 0.37264775281092888 0 -0.19291493114878749 0.36445842527637612 0 -0.20616159316082039 0.37787038291778802 0 -0.19177358818420301 0.38061743047389412 0 -0.19291493114878749 0.36445842527637612 0 -0.19291493114878749 0.36445842527637612 0 -0.20064596007134011 0.35281060154765348 0 -0.20848671397364499 0.36391450125939401 0 -0.20616159316082039 0.37787038291778802 0 -0.19291493114878749 0.36445842527637612 0 -0.20848671397364499 0.36391450125939401 0 -0.19291493114878749 0.36445842527637612 0 -0.1911221551312724 0.34903819809493047 0 -0.20064596007134011 0.35281060154765348 0 -0.1911221551312724 0.34903819809493047 0 -0.20064596007134011 0.35281060154765348 0 -0.19993685351636839 0.34016720219668423 0 -0.20064596007134011 0.35281060154765348 0 -0.2107691465866274 0.34647468091088263 0 -0.20848671397364499 0.36391450125939401 0 -0.2107691465866274 0.34647468091088263 0 -0.228083977628983 0.35829866214844752 0 -0.21659632521130229 0.33130454587926561 0 -0.2107691465866274 0.34647468091088263 0 -0.20848671397364499 0.36391450125939401 0 -0.228083977628983 0.35829866214844752 0 -0.20064596007134011 0.35281060154765348 0 -0.2107691465866274 0.34647468091088263 0 -0.19993685351636839 0.34016720219668423 0 -0.20616159316082039 0.37787038291778802 0 -0.20848671397364499 0.36391450125939401 0 -0.2204116175929671 0.37394555696464132 0 -0.23957163004666371 0.38529277841762932 0 -0.228083977628983 0.35829866214844752 0 -0.23957163004666371 0.38529277841762932 0 -0.2204116175929671 0.37394555696464132 0 -0.228083977628983 0.35829866214844752 0 -0.20848671397364499 0.36391450125939401 0 -0.2204116175929671 0.37394555696464132 0 -0.228083977628983 0.35829866214844752 0 -0.228083977628983 0.35829866214844752 0 -0.21659632521130229 0.33130454587926561 0 -0.25105700897309002 0.34425046672642018 0 -0.228083977628983 0.35829866214844752 0 -0.23059269871536589 0.33444881270381499 0 -0.25101466291493463 0.3690077248358653 0 -0.25105700897309002 0.34425046672642018 0 -0.228083977628983 0.35829866214844752 0 -0.25101466291493463 0.3690077248358653 0 -0.23957163004666371 0.38529277841762932 0 -0.228083977628983 0.35829866214844752 0 -0.24596291452836949 0.31686865026925831 0 -0.2446950486624058 0.33126928232499042 0 -0.22678167403863811 0.31958427306026999 0 -0.25105700897309002 0.34425046672642018 0 -0.2446950486624058 0.33126928232499042 0 -0.23059269871536589 0.33444881270381499 0 -0.25105700897309002 0.34425046672642018 0 -0.23059269871536589 0.33444881270381499 0 -0.23059269871536589 0.33444881270381499 0 -0.21012838845764181 0.32464715868120991 0 -0.2446950486624058 0.33126928232499042 0 -0.23059269871536589 0.33444881270381499 0 -0.22678167403863811 0.31958427306026999 0 -0.228083977628983 0.35829866214844752 0 -0.23059269871536589 0.33444881270381499 0 -0.21659632521130229 0.33130454587926561 0 -0.23059269871536589 0.33444881270381499 0 -0.21012838845764181 0.32464715868120991 0 -0.21659632521130229 0.33130454587926561 0 -0.23059269871536589 0.33444881270381499 0 -0.22678167403863811 0.31958427306026999 0 -0.21012838845764181 0.32464715868120991 0 -0.24596291452836949 0.31686865026925831 0 -0.22678167403863811 0.31958427306026999 0 -0.22339925758096429 0.30308482570482698 0 -0.22678167403863811 0.31958427306026999 0 -0.21012838845764181 0.32464715868120991 0 -0.20591173628708129 0.30718690867751952 0 -0.2107691465866274 0.34647468091088263 0 -0.21659632521130229 0.33130454587926561 0 -0.2068184480787523 0.33381869552281213 0 -0.21012838845764181 0.32464715868120991 0 -0.21659632521130229 0.33130454587926561 0 -0.2068184480787523 0.33381869552281213 0 -0.21012838845764181 0.32464715868120991 0 -0.2068184480787523 0.33381869552281213 0 -0.1966615266218214 0.32649988994601797 0 -0.2107691465866274 0.34647468091088263 0 -0.2068184480787523 0.33381869552281213 0 -0.19993685351636839 0.34016720219668423 0 -0.2068184480787523 0.33381869552281213 0 -0.19993685351636839 0.34016720219668423 0 -0.1966615266218214 0.32649988994601797 0 -0.184938208097432 0.33375276960730033 0 -0.19993685351636839 0.34016720219668423 0 -0.1966615266218214 0.32649988994601797 0 -0.184938208097432 0.33375276960730033 0 -0.1911221551312724 0.34903819809493047 0 -0.19993685351636839 0.34016720219668423 0 -0.21012838845764181 0.32464715868120991 0 -0.18966407819991771 0.31484550465860472 0 -0.1966615266218214 0.32649988994601797 0 -0.21012838845764181 0.32464715868120991 0 -0.18966407819991771 0.31484550465860472 0 -0.20591173628708129 0.30718690867751952 0 -0.21012838845764181 0.32464715868120991 0 -0.18966407819991771 0.31484550465860472 0 -0.184938208097432 0.33375276960730033 0 -0.18966407819991771 0.31484550465860472 0 -0.1966615266218214 0.32649988994601797 0 -0.18966407819991771 0.31484550465860472 0 -0.20591173628708129 0.30718690867751952 0 -0.18474173533610549 0.30149494552081069 0 -0.2008356006335591 0.28930100114039581 0 -0.20591173628708129 0.30718690867751952 0 -0.18474173533610549 0.30149494552081069 0 -0.2008356006335591 0.28930100114039581 0 -0.17731785589680751 0.28842520436272301 0 -0.18474173533610549 0.30149494552081069 0 -0.2008356006335591 0.28930100114039581 0 -0.1782719436861539 0.27551717657596447 0 -0.2008356006335591 0.28930100114039581 0 -0.2222403818281703 0.28147856538099297 0 -0.20815277139419389 0.27559260588917189 0 -0.2008356006335591 0.28930100114039581 0 -0.22339925758096429 0.30308482570482698 0 -0.2222403818281703 0.28147856538099297 0 -0.2008356006335591 0.28930100114039581 0 -0.22339925758096429 0.30308482570482698 0 -0.22678167403863811 0.31958427306026999 0 -0.20591173628708129 0.30718690867751952 0 -0.22339925758096429 0.30308482570482698 0 -0.2008356006335591 0.28930100114039581 0 -0.20591173628708129 0.30718690867751952 0 -0.22339925758096429 0.30308482570482698 0 -0.22339925758096429 0.30308482570482698 0 -0.2222403818281703 0.28147856538099297 0 -0.2468490341211719 0.28742249958629318 0 -0.22339925758096429 0.30308482570482698 0 -0.2468490341211719 0.28742249958629318 0 -0.24428492078426031 0.30261433681648819 0 -0.24596291452836949 0.31686865026925831 0 -0.22339925758096429 0.30308482570482698 0 -0.24428492078426031 0.30261433681648819 0 -0.25768780279847348 0.30903748720999119 0 -0.2468490341211719 0.28742249958629318 0 -0.24428492078426031 0.30261433681648819 0 -0.24596291452836949 0.31686865026925831 0 -0.22339925758096429 0.30308482570482698 0 -0.25768780279847348 0.30903748720999119 0 -0.24596291452836949 0.31686865026925831 0 -0.24428492078426031 0.30261433681648819 0 -0.2543996625905961 0.26383250876206388 0 -0.23601026544387041 0.26580751196259511 0 -0.2498792106054224 0.24711269659082949 0 -0.23601026544387041 0.26580751196259511 0 -0.22517149676656881 0.2441925243388971 0 -0.2498792106054224 0.24711269659082949 0 -0.2543996625905961 0.26383250876206388 0 -0.2468490341211719 0.28742249958629318 0 -0.23601026544387041 0.26580751196259511 0 -0.2468490341211719 0.28742249958629318 0 -0.23601026544387041 0.26580751196259511 0 -0.2222403818281703 0.28147856538099297 0 -0.2468490341211719 0.28742249958629318 0 -0.23601026544387041 0.26580751196259511 0 -0.2222403818281703 0.28147856538099297 0 -0.23601026544387041 0.26580751196259511 0 -0.21359468387016811 0.26233156209033037 0 -0.23601026544387041 0.26580751196259511 0 -0.21359468387016811 0.26233156209033037 0 -0.22517149676656881 0.2441925243388971 0 -0.23601026544387041 0.26580751196259511 0 -0.22517149676656881 0.2441925243388971 0 -0.21359468387016811 0.26233156209033037 0 -0.1968140334744525 0.251588671523094 0 -0.2094690269940257 0.24332062897680279 0 -0.2222403818281703 0.28147856538099297 0 -0.21359468387016811 0.26233156209033037 0 -0.20815277139419389 0.27559260588917189 0 -0.21359468387016811 0.26233156209033037 0 -0.20815277139419389 0.27559260588917189 0 -0.19594041924487809 0.26925929494496831 0 -0.2008356006335591 0.28930100114039581 0 -0.20815277139419389 0.27559260588917189 0 -0.19594041924487809 0.26925929494496831 0 -0.2008356006335591 0.28930100114039581 0 -0.19594041924487809 0.26925929494496831 0 -0.1782719436861539 0.27551717657596447 0 -0.21359468387016811 0.26233156209033037 0 -0.19594041924487809 0.26925929494496831 0 -0.1968140334744525 0.251588671523094 0 -0.19594041924487809 0.26925929494496831 0 -0.1968140334744525 0.251588671523094 0 -0.1819597220915973 0.25742148889250349 0 -0.1819597220915973 0.25742148889250349 0 -0.16955092989512299 0.26462039474635513 0 -0.16903516804290389 0.24609077041774099 0 -0.16955092989512299 0.26462039474635513 0 -0.1561569872286096 0.25291621750349602 0 -0.14930623215824859 0.27245758903471767 0 -0.16955092989512299 0.26462039474635513 0 -0.1561569872286096 0.25291621750349602 0 -0.16903516804290389 0.24609077041774099 0 -0.16955092989512299 0.26462039474635513 0 -0.16500759386658639 0.28102602575145452 0 -0.1782719436861539 0.27551717657596447 0 -0.16955092989512299 0.26462039474635513 0 -0.16500759386658639 0.28102602575145452 0 -0.14930623215824859 0.27245758903471767 0 -0.19594041924487809 0.26925929494496831 0 -0.1819597220915973 0.25742148889250349 0 -0.1782719436861539 0.27551717657596447 0 -0.1819597220915973 0.25742148889250349 0 -0.16955092989512299 0.26462039474635513 0 -0.1782719436861539 0.27551717657596447 0 -0.2008356006335591 0.28930100114039581 0 -0.1782719436861539 0.27551717657596447 0 -0.17731785589680751 0.28842520436272301 0 -0.17731785589680751 0.28842520436272301 0 -0.16919976794219371 0.30504385063599959 0 -0.16500759386658639 0.28102602575145452 0 -0.1782719436861539 0.27551717657596447 0 -0.17731785589680751 0.28842520436272301 0 -0.18966407819991771 0.31484550465860472 0 -0.16919976794219371 0.30504385063599959 0 -0.17731785589680751 0.28842520436272301 0 -0.18474173533610549 0.30149494552081069 0 -0.16919976794219371 0.30504385063599959 0 -0.18966407819991771 0.31484550465860472 0 -0.18474173533610549 0.30149494552081069 0 -0.16919976794219371 0.30504385063599959 0 -0.16919976794219371 0.30504385063599959 0 -0.16535265489785089 0.29272245099440081 0 -0.14717413948573591 0.29449438246229648 0 -0.16919976794219371 0.30504385063599959 0 -0.14717413948573591 0.29449438246229648 0 -0.16919976794219371 0.30504385063599959 0 -0.14717413948573591 0.29449438246229648 0 -0.15284862929488011 0.31031468521920919 0 -0.17731785589680751 0.28842520436272301 0 -0.16919976794219371 0.30504385063599959 0 -0.16535265489785089 0.29272245099440081 0 -0.16500759386658639 0.28102602575145452 0 -0.16535265489785089 0.29272245099440081 0 -0.14717413948573591 0.29449438246229648 0 -0.16500759386658639 0.28102602575145452 0 -0.17731785589680751 0.28842520436272301 0 -0.16535265489785089 0.29272245099440081 0 -0.14717413948573591 0.29449438246229648 0 -0.1382550993341741 0.28327972676019769 0 -0.14930623215824859 0.27245758903471767 0 -0.16500759386658639 0.28102602575145452 0 -0.14717413948573591 0.29449438246229648 0 -0.14930623215824859 0.27245758903471767 0 -0.14717413948573591 0.29449438246229648 0 -0.15284862929488011 0.31031468521920919 0 -0.13641803347007961 0.31089789728286998 0 -0.13641803347007961 0.31089789728286998 0 -0.1312364355159566 0.29577196987137 0 -0.1133448631016018 0.29848582919730732 0 -0.14717413948573591 0.29449438246229648 0 -0.13641803347007961 0.31089789728286998 0 -0.1312364355159566 0.29577196987137 0 -0.1312364355159566 0.29577196987137 0 -0.1382550993341741 0.28327972676019769 0 -0.12744355375222791 0.27387609651059242 0 -0.14717413948573591 0.29449438246229648 0 -0.1312364355159566 0.29577196987137 0 -0.1382550993341741 0.28327972676019769 0 -0.1382550993341741 0.28327972676019769 0 -0.12744355375222791 0.27387609651059242 0 -0.14930623215824859 0.27245758903471767 0 -0.12744355375222791 0.27387609651059242 0 -0.14011205326633339 0.25176280994308631 0 -0.14930623215824859 0.27245758903471767 0 -0.12744355375222791 0.27387609651059242 0 -0.14011205326633339 0.25176280994308631 0 -0.1196666298983052 0.25606100386546998 0 -0.12744355375222791 0.27387609651059242 0 -0.14011205326633339 0.25176280994308631 0 -0.14011205326633339 0.25176280994308631 0 -0.1561569872286096 0.25291621750349602 0 -0.14930623215824859 0.27245758903471767 0 -0.098897121375088048 0.26138899404751581 0 -0.1122580202006908 0.27986192030727741 0 -0.085935398477448674 0.2837410786636485 0 -0.098897121375088048 0.26138899404751581 0 -0.1196666298983052 0.25606100386546998 0 -0.10796844028772359 0.23752304096897259 0 -0.098897121375088048 0.26138899404751581 0 -0.1196666298983052 0.25606100386546998 0 -0.1122580202006908 0.27986192030727741 0 -0.12744355375222791 0.27387609651059242 0 -0.1196666298983052 0.25606100386546998 0 -0.1122580202006908 0.27986192030727741 0 -0.1312364355159566 0.29577196987137 0 -0.12744355375222791 0.27387609651059242 0 -0.1147750542381223 0.29598938307809858 0 -0.1122580202006908 0.27986192030727741 0 -0.1147750542381223 0.29598938307809858 0 -0.1080329476552046 0.29562831741489859 0 -0.12744355375222791 0.27387609651059242 0 -0.1147750542381223 0.29598938307809858 0 -0.1312364355159566 0.29577196987137 0 -0.1147750542381223 0.29598938307809858 0 -0.1133448631016018 0.29848582919730732 0 -0.12744355375222791 0.27387609651059242 0 -0.1122580202006908 0.27986192030727741 0 -0.1147750542381223 0.29598938307809858 0 -0.1147750542381223 0.29598938307809858 0 -0.1133448631016018 0.29848582919730732 0 -0.1080329476552046 0.29562831741489859 0 -0.1147750542381223 0.29598938307809858 0 -0.1080329476552046 0.29562831741489859 0 -0.13641803347007961 0.31089789728286998 0 -0.1133448631016018 0.29848582919730732 0 -0.1133448631016018 0.29848582919730732 0 -0.10601381468469349 0.31128241764117559 0 -0.1181375886088134 0.31514921477114199 0 -0.13641803347007961 0.31089789728286998 0 -0.1133448631016018 0.29848582919730732 0 -0.1181375886088134 0.31514921477114199 0 -0.1147750542381223 0.29598938307809858 0 -0.1133448631016018 0.29848582919730732 0 -0.1133448631016018 0.29848582919730732 0 -0.1080329476552046 0.29562831741489859 0 -0.1133448631016018 0.29848582919730732 0 -0.10601381468469349 0.31128241764117559 0 -0.096177625386324031 0.30299446216919479 0 -0.1080329476552046 0.29562831741489859 0 -0.085446405404782363 0.2944187214589819 0 -0.10601381468469349 0.31128241764117559 0 -0.096177625386324031 0.30299446216919479 0 -0.1080329476552046 0.29562831741489859 0 -0.1133448631016018 0.29848582919730732 0 -0.10601381468469349 0.31128241764117559 0 -0.1080329476552046 0.29562831741489859 0 -0.096177625386324031 0.30299446216919479 0 -0.087679933665199675 0.3141992867115273 0 -0.098838881730420658 0.31423235565051688 0 -0.10601381468469349 0.31128241764117559 0 -0.096177625386324031 0.30299446216919479 0 -0.098838881730420658 0.31423235565051688 0 -0.1080329476552046 0.29562831741489859 0 -0.085446405404782363 0.2944187214589819 0 -0.1122580202006908 0.27986192030727741 0 -0.1080329476552046 0.29562831741489859 0 -0.085935398477448674 0.2837410786636485 0 -0.1080329476552046 0.29562831741489859 0 -0.085935398477448674 0.2837410786636485 0 -0.1080329476552046 0.29562831741489859 0 -0.085935398477448674 0.2837410786636485 0 -0.085446405404782363 0.2944187214589819 0 -0.069875714144932016 0.29994531734288721 0 -0.087679933665199675 0.3141992867115273 0 -0.084465553112479302 0.29960027851068799 0 -0.069875714144932016 0.29994531734288721 0 -0.087679933665199675 0.3141992867115273 0 -0.096177625386324031 0.30299446216919479 0 -0.084465553112479302 0.29960027851068799 0 -0.087679933665199675 0.3141992867115273 0 -0.096177625386324031 0.30299446216919479 0 -0.085446405404782363 0.2944187214589819 0 -0.084465553112479302 0.29960027851068799 0 -0.085446405404782363 0.2944187214589819 0 -0.084465553112479302 0.29960027851068799 0 -0.069875714144932016 0.29994531734288721 0 -0.062543431514027664 0.30011872036960768 0 -0.061445232206670967 0.31644773821025618 0 -0.072266347300655065 0.31441039012592897 0 -0.069875714144932016 0.29994531734288721 0 -0.072266347300655065 0.31441039012592897 0 -0.087679933665199675 0.3141992867115273 0 -0.084465553112479302 0.29960027851068799 0 -0.069875714144932016 0.29994531734288721 0 -0.069875714144932016 0.29994531734288721 0 -0.062859863154360027 0.29320912550306549 0 -0.062543431514027664 0.30011872036960768 0 -0.069875714144932016 0.29994531734288721 0 -0.062543431514027664 0.30011872036960768 0 -0.069875714144932016 0.29994531734288721 0 -0.062543431514027664 0.30011872036960768 0 -0.072266347300655065 0.31441039012592897 0 -0.085446405404782363 0.2944187214589819 0 -0.069875714144932016 0.29994531734288721 0 -0.062859863154360027 0.29320912550306549 0 -0.085935398477448674 0.2837410786636485 0 -0.085446405404782363 0.2944187214589819 0 -0.062859863154360027 0.29320912550306549 0 -0.062859863154360027 0.29320912550306549 0 -0.063837849299693106 0.27185383991239781 0 -0.085935398477448674 0.2837410786636485 0 -0.062859863154360027 0.29320912550306549 0 -0.063837849299693106 0.27185383991239781 0 -0.085446405404782363 0.2944187214589819 0 -0.062859863154360027 0.29320912550306549 0 -0.062859863154360027 0.29320912550306549 0 -0.062543431514027664 0.30011872036960768 0 -0.069875714144932016 0.29994531734288721 0 -0.062859863154360027 0.29320912550306549 0 -0.063837849299693106 0.27185383991239781 0 -0.080926642892725303 0.26656948450162982 0 -0.070650229699315101 0.26152511886356022 0 -0.085935398477448674 0.2837410786636485 0 -0.063837849299693106 0.27185383991239781 0 -0.080926642892725303 0.26656948450162982 0 -0.085935398477448674 0.2837410786636485 0 -0.063837849299693106 0.27185383991239781 0 -0.098897121375088048 0.26138899404751581 0 -0.085935398477448674 0.2837410786636485 0 -0.080926642892725303 0.26656948450162982 0 -0.098897121375088048 0.26138899404751581 0 -0.080926642892725303 0.26656948450162982 0 -0.086257113397531657 0.2469591892024825 0 -0.080926642892725303 0.26656948450162982 0 -0.077070239721148834 0.25701860941525823 0 -0.086257113397531657 0.2469591892024825 0 -0.077070239721148834 0.25701860941525823 0 -0.066940464982028797 0.25561490050677271 0 -0.086257113397531657 0.2469591892024825 0 -0.066940464982028797 0.25561490050677271 0 -0.086257113397531657 0.2469591892024825 0 -0.080926642892725303 0.26656948450162982 0 -0.077070239721148834 0.25701860941525823 0 -0.070650229699315101 0.26152511886356022 0 -0.077070239721148834 0.25701860941525823 0 -0.070650229699315101 0.26152511886356022 0 -0.066940464982028797 0.25561490050677271 0 -0.063837849299693106 0.27185383991239781 0 -0.064532105456722777 0.25669407657912152 0 -0.063837849299693106 0.27185383991239781 0 -0.070650229699315101 0.26152511886356022 0 -0.064532105456722777 0.25669407657912152 0 -0.070650229699315101 0.26152511886356022 0 -0.066940464982028797 0.25561490050677271 0 -0.064532105456722777 0.25669407657912152 0 -0.066940464982028797 0.25561490050677271 0 -0.064532105456722777 0.25669407657912152 0 -0.064532105456722777 0.25669407657912152 0 -0.049687042115673659 0.26429578003869281 0 -0.045721374541129872 0.25019806481750589 0 -0.064532105456722777 0.25669407657912152 0 -0.049687042115673659 0.26429578003869281 0 -0.058700628681658137 0.26909030412328427 0 -0.064532105456722777 0.25669407657912152 0 -0.049687042115673659 0.26429578003869281 0 -0.057655667468280963 0.28039276035390759 0 -0.058700628681658137 0.26909030412328427 0 -0.050161699540198203 0.27333028070989202 0 -0.063837849299693106 0.27185383991239781 0 -0.057655667468280963 0.28039276035390759 0 -0.058700628681658137 0.26909030412328427 0 -0.063837849299693106 0.27185383991239781 0 -0.064532105456722777 0.25669407657912152 0 -0.058700628681658137 0.26909030412328427 0 -0.063837849299693106 0.27185383991239781 0 -0.058700628681658137 0.26909030412328427 0 -0.049687042115673659 0.26429578003869281 0 -0.058700628681658137 0.26909030412328427 0 -0.050161699540198203 0.27333028070989202 0 -0.057655667468280963 0.28039276035390759 0 -0.050161699540198203 0.27333028070989202 0 -0.048101741031207852 0.2825131830421691 0 -0.049687042115673659 0.26429578003869281 0 -0.032743300328305767 0.27021729199903138 0 -0.049687042115673659 0.26429578003869281 0 -0.032743300328305767 0.27021729199903138 0 -0.034841978774624673 0.27189748349826448 0 -0.050161699540198203 0.27333028070989202 0 -0.034841978774624673 0.27189748349826448 0 -0.048101741031207852 0.2825131830421691 0 -0.034841978774624673 0.27189748349826448 0 -0.048101741031207852 0.2825131830421691 0 -0.049687042115673659 0.26429578003869281 0 -0.034841978774624673 0.27189748349826448 0 -0.049687042115673659 0.26429578003869281 0 -0.050161699540198203 0.27333028070989202 0 -0.034841978774624673 0.27189748349826448 0 -0.032743300328305767 0.27021729199903138 0 -0.034841978774624673 0.27189748349826448 0 -0.034841978774624673 0.27189748349826448 0 -0.032716688010224808 0.28296945947676783 0 -0.048101741031207852 0.2825131830421691 0 -0.049687042115673659 0.26429578003869281 0 -0.032743300328305767 0.27021729199903138 0 -0.036990557140678088 0.26005615744825727 0 -0.049687042115673659 0.26429578003869281 0 -0.045721374541129872 0.25019806481750589 0 -0.036990557140678088 0.26005615744825727 0 -0.032743300328305767 0.27021729199903138 0 -0.036990557140678088 0.26005615744825727 0 -0.027241871319577969 0.26581287536707038 0 -0.036990557140678088 0.26005615744825727 0 -0.033006414783980018 0.25075648550602969 0 -0.027241871319577969 0.26581287536707038 0 -0.045721374541129872 0.25019806481750589 0 -0.036990557140678088 0.26005615744825727 0 -0.033006414783980018 0.25075648550602969 0 -0.033006414783980018 0.25075648550602969 0 -0.019896289029085499 0.252478914049303 0 -0.027241871319577969 0.26581287536707038 0 -0.019896289029085499 0.252478914049303 0 -0.027241871319577969 0.26581287536707038 0 -0.01358820251805325 0.25488181620747152 0 -0.019896289029085499 0.252478914049303 0 -0.01358820251805325 0.25488181620747152 0 -0.027241871319577969 0.26581287536707038 0 -0.016320247552813021 0.26630481405537049 0 -0.01358820251805325 0.25488181620747152 0 -0.027241871319577969 0.26581287536707038 0 -0.01358820251805325 0.25488181620747152 0 -0.033006414783980018 0.25075648550602969 0 -0.027241871319577969 0.26581287536707038 0 -0.032743300328305767 0.27021729199903138 0 -0.034841978774624673 0.27189748349826448 0 -0.024120799242758069 0.2739647920389105 0 -0.032743300328305767 0.27021729199903138 0 -0.027241871319577969 0.26581287536707038 0 -0.027241871319577969 0.26581287536707038 0 -0.024120799242758069 0.2739647920389105 0 -0.032743300328305767 0.27021729199903138 0 -0.024120799242758069 0.2739647920389105 0 -0.032743300328305767 0.27021729199903138 0 -0.027241871319577969 0.26581287536707038 0 -0.024120799242758069 0.2739647920389105 0 -0.027241871319577969 0.26581287536707038 0 -0.024120799242758069 0.2739647920389105 0 -0.020041251961502301 0.26995052659895702 0 -0.034841978774624673 0.27189748349826448 0 -0.022490817244139798 0.27822213602274048 0 -0.034841978774624673 0.27189748349826448 0 -0.022490817244139798 0.27822213602274048 0 -0.032716688010224808 0.28296945947676783 0 -0.034841978774624673 0.27189748349826448 0 -0.024120799242758069 0.2739647920389105 0 -0.022490817244139798 0.27822213602274048 0 -0.024120799242758069 0.2739647920389105 0 -0.022490817244139798 0.27822213602274048 0 -0.024120799242758069 0.2739647920389105 0 -0.020041251961502301 0.26995052659895702 0 -0.012482089730860291 0.27371962493447649 0 -0.027241871319577969 0.26581287536707038 0 -0.020041251961502301 0.26995052659895702 0 -0.016320247552813021 0.26630481405537049 0 -0.020041251961502301 0.26995052659895702 0 -0.016320247552813021 0.26630481405537049 0 -0.012482089730860291 0.27371962493447649 0 -0.012482089730860291 0.27371962493447649 0 -0.0061978038847468218 0.27116810800978408 0 0.0033458878610336251 0.28590232733123278 0 -0.024120799242758069 0.2739647920389105 0 0.0033458878610336251 0.28590232733123278 0 -0.016320247552813021 0.26630481405537049 0 -0.012482089730860291 0.27371962493447649 0 -0.0061978038847468218 0.27116810800978408 0 -0.024120799242758069 0.2739647920389105 0 -0.022490817244139798 0.27822213602274048 0 0.0033458878610336251 0.28590232733123278 0 -0.024120799242758069 0.2739647920389105 0 -0.012482089730860291 0.27371962493447649 0 0.0033458878610336251 0.28590232733123278 0 -0.01358820251805325 0.25488181620747152 0 0.0085324138467479053 0.26330809202186473 0 -0.0048262704790712346 0.25168036280890821 0 -0.01358820251805325 0.25488181620747152 0 0.0085324138467479053 0.26330809202186473 0 -0.0061978038847468218 0.27116810800978408 0 -0.01358820251805325 0.25488181620747152 0 0.0085324138467479053 0.26330809202186473 0 -0.016320247552813021 0.26630481405537049 0 -0.0061978038847468218 0.27116810800978408 0 -0.01358820251805325 0.25488181620747152 0 -0.0048262704790712346 0.25168036280890821 0 -0.0064432667138646423 0.2491616162302725 0 0.0077964813644713004 0.25030123984269009 0 -0.0048262704790712346 0.25168036280890821 0 -0.0064432667138646423 0.2491616162302725 0 -0.019896289029085499 0.252478914049303 0 -0.01358820251805325 0.25488181620747152 0 -0.0064432667138646423 0.2491616162302725 0 -0.0048262704790712346 0.25168036280890821 0 -0.01358820251805325 0.25488181620747152 0 -0.0064432667138646423 0.2491616162302725 0 -0.01358820251805325 0.25488181620747152 0 -0.0064432667138646423 0.2491616162302725 0 -0.013664844183875291 0.30127466257908808 0 0.00018341229938195931 0.28983291633430058 0 0.0062208690640736669 0.3017449448962411 0 -0.013664844183875291 0.30127466257908808 0 0.0062208690640736669 0.3017449448962411 0 -0.013664844183875291 0.30127466257908808 0 0.0062208690640736669 0.3017449448962411 0 0.00090819960434352742 0.31055804411813698 0 -0.013664844183875291 0.30127466257908808 0 -0.008723949728684826 0.31417976662401442 0 -0.013664844183875291 0.30127466257908808 0 -0.008723949728684826 0.31417976662401442 0 0.00090819960434352742 0.31055804411813698 0 -0.013664844183875291 0.30127466257908808 0 -0.017679220135650809 0.29078952880361603 0 0.00018341229938195931 0.28983291633430058 0 -0.022490817244139798 0.27822213602274048 0 0.0033458878610336251 0.28590232733123278 0 0.00018341229938195931 0.28983291633430058 0 -0.022490817244139798 0.27822213602274048 0 0.00018341229938195931 0.28983291633430058 0 -0.017679220135650809 0.29078952880361603 0 0.00018341229938195931 0.28983291633430058 0 -0.022490817244139798 0.27822213602274048 0 -0.017679220135650809 0.29078952880361603 0 0.00018341229938195931 0.28983291633430058 0 -0.013664844183875291 0.30127466257908808 0 -0.017679220135650809 0.29078952880361603 0 -0.017679220135650809 0.29078952880361603 0 -0.039520361711722768 0.29195920569484041 0 -0.017679220135650809 0.29078952880361603 0 -0.032716688010224808 0.28296945947676783 0 -0.039520361711722768 0.29195920569484041 0 -0.022490817244139798 0.27822213602274048 0 -0.017679220135650809 0.29078952880361603 0 -0.022490817244139798 0.27822213602274048 0 -0.017679220135650809 0.29078952880361603 0 -0.032716688010224808 0.28296945947676783 0 -0.013664844183875291 0.30127466257908808 0 -0.017679220135650809 0.29078952880361603 0 -0.03810413784895153 0.30069669147434852 0 -0.013664844183875291 0.30127466257908808 0 -0.03810413784895153 0.30069669147434852 0 -0.013664844183875291 0.30127466257908808 0 -0.03810413784895153 0.30069669147434852 0 -0.026983124334980669 0.31403830289032358 0 -0.013664844183875291 0.30127466257908808 0 -0.026983124334980669 0.31403830289032358 0 -0.008723949728684826 0.31417976662401442 0 -0.03810413784895153 0.30069669147434852 0 -0.04452242498792959 0.31115470303731341 0 -0.026983124334980669 0.31403830289032358 0 -0.03810413784895153 0.30069669147434852 0 -0.04452242498792959 0.31115470303731341 0 -0.054677621777526303 0.30327345681464801 0 -0.017679220135650809 0.29078952880361603 0 -0.03810413784895153 0.30069669147434852 0 -0.039520361711722768 0.29195920569484041 0 -0.03810413784895153 0.30069669147434852 0 -0.039520361711722768 0.29195920569484041 0 -0.061361503287794661 0.29312888258606928 0 -0.032716688010224808 0.28296945947676783 0 -0.039520361711722768 0.29195920569484041 0 -0.048101741031207852 0.2825131830421691 0 -0.039520361711722768 0.29195920569484041 0 -0.061361503287794661 0.29312888258606928 0 -0.062859863154360027 0.29320912550306549 0 -0.063837849299693106 0.27185383991239781 0 -0.057655667468280963 0.28039276035390759 0 -0.039520361711722768 0.29195920569484041 0 -0.048101741031207852 0.2825131830421691 0 -0.061361503287794661 0.29312888258606928 0 -0.048101741031207852 0.2825131830421691 0 -0.061361503287794661 0.29312888258606928 0 -0.062859863154360027 0.29320912550306549 0 -0.061361503287794661 0.29312888258606928 0 -0.062543431514027664 0.30011872036960768 0 -0.062859863154360027 0.29320912550306549 0 -0.061361503287794661 0.29312888258606928 0 -0.057655667468280963 0.28039276035390759 0 -0.048101741031207852 0.2825131830421691 0 -0.061361503287794661 0.29312888258606928 0 -0.062859863154360027 0.29320912550306549 0 -0.057655667468280963 0.28039276035390759 0 -0.061361503287794661 0.29312888258606928 0 -0.062543431514027664 0.30011872036960768 0 -0.061445232206670967 0.31644773821025618 0 -0.054677621777526303 0.30327345681464801 0 -0.062543431514027664 0.30011872036960768 0 -0.061445232206670967 0.31644773821025618 0 -0.03810413784895153 0.30069669147434852 0 -0.061361503287794661 0.29312888258606928 0 -0.062543431514027664 0.30011872036960768 0 -0.03810413784895153 0.30069669147434852 0 -0.062543431514027664 0.30011872036960768 0 -0.03810413784895153 0.30069669147434852 0 -0.054677621777526303 0.30327345681464801 0 -0.062543431514027664 0.30011872036960768 0 -0.04452242498792959 0.31115470303731341 0 -0.054677621777526303 0.30327345681464801 0 -0.052846665954363249 0.31853170317695029 0 -0.054677621777526303 0.30327345681464801 0 -0.061445232206670967 0.31644773821025618 0 -0.054677621777526303 0.30327345681464801 0 -0.061445232206670967 0.31644773821025618 0 -0.052846665954363249 0.31853170317695029 0 -0.061445232206670967 0.31644773821025618 0 -0.052846665954363249 0.31853170317695029 0 -0.066380226482495697 0.32605452689233583 0 -0.05447844418239621 0.32795654061050428 0 -0.052846665954363249 0.31853170317695029 0 -0.066380226482495697 0.32605452689233583 0 -0.05447844418239621 0.32795654061050428 0 -0.052846665954363249 0.31853170317695029 0 -0.043021337665601789 0.32365761520096231 0 -0.05447844418239621 0.32795654061050428 0 -0.053123252238883707 0.34022974716395182 0 -0.043021337665601789 0.32365761520096231 0 -0.05447844418239621 0.32795654061050428 0 -0.053123252238883707 0.34022974716395182 0 -0.066380226482495697 0.32605452689233583 0 -0.053123252238883707 0.34022974716395182 0 -0.031782588446010167 0.33193083553135089 0 -0.041795187239514191 0.35598916273733772 0 -0.053123252238883707 0.34022974716395182 0 -0.031782588446010167 0.33193083553135089 0 -0.043021337665601789 0.32365761520096231 0 -0.031782588446010167 0.33193083553135089 0 -0.043021337665601789 0.32365761520096231 0 -0.026983124334980669 0.31403830289032358 0 -0.04452242498792959 0.31115470303731341 0 -0.043021337665601789 0.32365761520096231 0 -0.026983124334980669 0.31403830289032358 0 -0.04452242498792959 0.31115470303731341 0 -0.052846665954363249 0.31853170317695029 0 -0.043021337665601789 0.32365761520096231 0 -0.026983124334980669 0.31403830289032358 0 -0.01859439876090033 0.32618244932534157 0 -0.008723949728684826 0.31417976662401442 0 -0.031782588446010167 0.33193083553135089 0 -0.026983124334980669 0.31403830289032358 0 -0.01859439876090033 0.32618244932534157 0 -0.031782588446010167 0.33193083553135089 0 -0.017141148800922001 0.34150613565691401 0 -0.041795187239514191 0.35598916273733772 0 -0.031782588446010167 0.33193083553135089 0 -0.01859439876090033 0.32618244932534157 0 -0.017141148800922001 0.34150613565691401 0 -0.01859439876090033 0.32618244932534157 0 -0.017141148800922001 0.34150613565691401 0 -0.0083411824939040122 0.32925720592410529 0 -0.0083411824939040122 0.32925720592410529 0 -0.002410370870439289 0.34221180686809799 0 0.0024911284607612768 0.32446041469818759 0 -0.017141148800922001 0.34150613565691401 0 -0.0083411824939040122 0.32925720592410529 0 -0.002410370870439289 0.34221180686809799 0 -0.0083411824939040122 0.32925720592410529 0 -0.008723949728684826 0.31417976662401442 0 0.0024911284607612768 0.32446041469818759 0 -0.008723949728684826 0.31417976662401442 0 0.0024911284607612768 0.32446041469818759 0 0.00090819960434352742 0.31055804411813698 0 -0.01859439876090033 0.32618244932534157 0 -0.0083411824939040122 0.32925720592410529 0 -0.008723949728684826 0.31417976662401442 0 -0.01472904885536757 0.36127941529565732 0 0.00023234454548807379 0.3761337279000691 0 0.006944054203612951 0.3568529478149855 0 -0.01472904885536757 0.36127941529565732 0 -0.01441607495936569 0.38182129827363598 0 0.00023234454548807379 0.3761337279000691 0 -0.017141148800922001 0.34150613565691401 0 -0.002410370870439289 0.34221180686809799 0 -0.01472904885536757 0.36127941529565732 0 -0.002410370870439289 0.34221180686809799 0 -0.01472904885536757 0.36127941529565732 0 0.006944054203612951 0.3568529478149855 0 -0.017141148800922001 0.34150613565691401 0 -0.01472904885536757 0.36127941529565732 0 -0.041795187239514191 0.35598916273733772 0 -0.01472904885536757 0.36127941529565732 0 -0.032628181746178951 0.37370920021534809 0 -0.01441607495936569 0.38182129827363598 0 -0.01472904885536757 0.36127941529565732 0 -0.032628181746178951 0.37370920021534809 0 -0.041795187239514191 0.35598916273733772 0 -0.032628181746178951 0.37370920021534809 0 -0.041795187239514191 0.35598916273733772 0 -0.050088982773709358 0.38295563626553858 0 -0.041795187239514191 0.35598916273733772 0 -0.050088982773709358 0.38295563626553858 0 -0.053123252238883707 0.34022974716395182 0 -0.041795187239514191 0.35598916273733772 0 -0.061322075915074263 0.35942821414609599 0 -0.061322075915074263 0.35942821414609599 0 -0.069937209333071904 0.37728615165662382 0 -0.050088982773709358 0.38295563626553858 0 -0.041795187239514191 0.35598916273733772 0 -0.061322075915074263 0.35942821414609599 0 -0.050088982773709358 0.38295563626553858 0 -0.061322075915074263 0.35942821414609599 0 -0.078082831187465132 0.34883559697002381 0 -0.069937209333071904 0.37728615165662382 0 -0.08978543589243515 0.37161666704771118 0 -0.078082831187465132 0.34883559697002381 0 -0.069937209333071904 0.37728615165662382 0 -0.08978543589243515 0.37161666704771118 0 -0.069937209333071904 0.37728615165662382 0 -0.08978543589243515 0.37161666704771118 0 -0.078082831187465132 0.34883559697002381 0 -0.08978543589243515 0.37161666704771118 0 -0.078082831187465132 0.34883559697002381 0 -0.099679860127534076 0.3487220704114109 0 -0.053123252238883707 0.34022974716395182 0 -0.061322075915074263 0.35942821414609599 0 -0.078082831187465132 0.34883559697002381 0 -0.053123252238883707 0.34022974716395182 0 -0.078082831187465132 0.34883559697002381 0 -0.066380226482495697 0.32605452689233583 0 -0.078082831187465132 0.34883559697002381 0 -0.066380226482495697 0.32605452689233583 0 -0.08531470801427754 0.32988108570645053 0 -0.078082831187465132 0.34883559697002381 0 -0.066380226482495697 0.32605452689233583 0 -0.066380226482495697 0.32605452689233583 0 -0.072266347300655065 0.31441039012592897 0 -0.08531470801427754 0.32988108570645053 0 -0.061445232206670967 0.31644773821025618 0 -0.066380226482495697 0.32605452689233583 0 -0.072266347300655065 0.31441039012592897 0 -0.061445232206670967 0.31644773821025618 0 -0.066380226482495697 0.32605452689233583 0 -0.087679933665199675 0.3141992867115273 0 -0.08531470801427754 0.32988108570645053 0 -0.1054841531854655 0.32845325608016979 0 -0.072266347300655065 0.31441039012592897 0 -0.087679933665199675 0.3141992867115273 0 -0.08531470801427754 0.32988108570645053 0 -0.078082831187465132 0.34883559697002381 0 -0.08531470801427754 0.32988108570645053 0 -0.099679860127534076 0.3487220704114109 0 -0.08531470801427754 0.32988108570645053 0 -0.1054841531854655 0.32845325608016979 0 -0.099679860127534076 0.3487220704114109 0 -0.087679933665199675 0.3141992867115273 0 -0.1054841531854655 0.32845325608016979 0 -0.087679933665199675 0.3141992867115273 0 -0.1054841531854655 0.32845325608016979 0 -0.098838881730420658 0.31423235565051688 0 -0.10601381468469349 0.31128241764117559 0 -0.1054841531854655 0.32845325608016979 0 -0.098838881730420658 0.31423235565051688 0 -0.12962857603484651 0.3280650508025621 0 -0.1054841531854655 0.32845325608016979 0 -0.1181375886088134 0.31514921477114199 0 -0.10601381468469349 0.31128241764117559 0 -0.1054841531854655 0.32845325608016979 0 -0.1181375886088134 0.31514921477114199 0 -0.12962857603484651 0.3280650508025621 0 -0.1054841531854655 0.32845325608016979 0 -0.1232883727057312 0.34270722544881238 0 -0.1054841531854655 0.32845325608016979 0 -0.1232883727057312 0.34270722544881238 0 -0.1054841531854655 0.32845325608016979 0 -0.1232883727057312 0.34270722544881238 0 -0.099679860127534076 0.3487220704114109 0 -0.1232883727057312 0.34270722544881238 0 -0.1154390140592146 0.36428893093258408 0 -0.099679860127534076 0.3487220704114109 0 -0.13399881613852849 0.37710418920076538 0 -0.1154390140592146 0.36428893093258408 0 -0.11484137263459079 0.3788501232425186 0 -0.1154390140592146 0.36428893093258408 0 -0.1036541858465341 0.37839403358045098 0 -0.11484137263459079 0.3788501232425186 0 -0.08978543589243515 0.37161666704771118 0 -0.1154390140592146 0.36428893093258408 0 -0.099679860127534076 0.3487220704114109 0 -0.08978543589243515 0.37161666704771118 0 -0.1154390140592146 0.36428893093258408 0 -0.08978543589243515 0.37161666704771118 0 -0.1154390140592146 0.36428893093258408 0 -0.1036541858465341 0.37839403358045098 0 -0.099210391879806181 0.3899639143691786 0 -0.10863534786717791 0.40831116169064557 0 -0.095184239153463024 0.38875175244493881 0 -0.1040389097415156 0.4078557051772872 0 -0.098334530955935695 0.40133762679822521 0 -0.095184239153463024 0.38875175244493881 0 -0.1040389097415156 0.4078557051772872 0 -0.1071640171314252 0.39501371278484149 0 -0.099210391879806181 0.3899639143691786 0 -0.10863534786717791 0.40831116169064557 0 -0.099210391879806181 0.3899639143691786 0 -0.095184239153463024 0.38875175244493881 0 -0.1040389097415156 0.4078557051772872 0 -0.099210391879806181 0.3899639143691786 0 -0.10863534786717791 0.40831116169064557 0 -0.1040389097415156 0.4078557051772872 0 -0.1071640171314252 0.39501371278484149 0 -0.099210391879806181 0.3899639143691786 0 -0.10803924360843679 0.38732444647005798 0 -0.1071640171314252 0.39501371278484149 0 -0.10803924360843679 0.38732444647005798 0 -0.1127710851702801 0.39445532860948379 0 -0.098334530955935695 0.40133762679822521 0 -0.1040389097415156 0.4078557051772872 0 -0.099057408726998197 0.40667980313933638 0 -0.098334530955935695 0.40133762679822521 0 -0.096093804966266586 0.40391401657767873 0 -0.099057408726998197 0.40667980313933638 0 -0.096093804966266586 0.40391401657767873 0 -0.099057408726998197 0.40667980313933638 0 -0.096038369658441286 0.40796260229479631 0 -0.096093804966266586 0.40391401657767873 0 -0.096038369658441286 0.40796260229479631 0 -0.092008309474777644 0.40530289685360588 0 -0.098334530955935695 0.40133762679822521 0 -0.095141419428941054 0.40013050372836317 0 -0.095542796361110655 0.39592296377579073 0 -0.098334530955935695 0.40133762679822521 0 -0.096093804966266586 0.40391401657767873 0 -0.095141419428941054 0.40013050372836317 0 -0.096093804966266586 0.40391401657767873 0 -0.095141419428941054 0.40013050372836317 0 -0.092560543910031379 0.40135577646693149 0 -0.095141419428941054 0.40013050372836317 0 -0.095542796361110655 0.39592296377579073 0 -0.092316287729604249 0.39729383364368343 0 -0.098334530955935695 0.40133762679822521 0 -0.095542796361110655 0.39592296377579073 0 -0.095184239153463024 0.38875175244493881 0 -0.095542796361110655 0.39592296377579073 0 -0.095184239153463024 0.38875175244493881 0 -0.092858463791326534 0.39243760263715521 0 -0.08978543589243515 0.37161666704771118 0 -0.099210391879806181 0.3899639143691786 0 -0.1036541858465341 0.37839403358045098 0 -0.08978543589243515 0.37161666704771118 0 -0.099210391879806181 0.3899639143691786 0 -0.08978543589243515 0.37161666704771118 0 -0.099210391879806181 0.3899639143691786 0 -0.095184239153463024 0.38875175244493881 0 -0.1036541858465341 0.37839403358045098 0 -0.10803924360843679 0.38732444647005798 0 -0.11484137263459079 0.3788501232425186 0 -0.099210391879806181 0.3899639143691786 0 -0.1036541858465341 0.37839403358045098 0 -0.10803924360843679 0.38732444647005798 0 -0.13399881613852849 0.37710418920076538 0 -0.11484137263459079 0.3788501232425186 0 -0.1189163217538699 0.38668018750274052 0 -0.10803924360843679 0.38732444647005798 0 -0.1189163217538699 0.38668018750274052 0 -0.1127710851702801 0.39445532860948379 0 -0.10803924360843679 0.38732444647005798 0 -0.11484137263459079 0.3788501232425186 0 -0.1189163217538699 0.38668018750274052 0 -0.1249310912175131 0.39566684999087642 0 -0.1127710851702801 0.39445532860948379 0 -0.10863534786717791 0.40831116169064557 0 -0.1189163217538699 0.38668018750274052 0 -0.1249310912175131 0.39566684999087642 0 -0.1127710851702801 0.39445532860948379 0 -0.1249310912175131 0.39566684999087642 0 -0.1158633662964977 0.41422951078098741 0 -0.1249310912175131 0.39566684999087642 0 -0.1158633662964977 0.41422951078098741 0 -0.10863534786717791 0.40831116169064557 0 -0.1071640171314252 0.39501371278484149 0 -0.1127710851702801 0.39445532860948379 0 -0.10863534786717791 0.40831116169064557 0 -0.12756825415775341 0.41517819537294332 0 -0.1249310912175131 0.39566684999087642 0 -0.1158633662964977 0.41422951078098741 0 -0.11806030385454951 0.4266584090121126 0 -0.1128935803295682 0.42695965790963569 0 -0.10863534786717791 0.40831116169064557 0 -0.1158633662964977 0.41422951078098741 0 -0.11806030385454951 0.4266584090121126 0 -0.10863534786717791 0.40831116169064557 0 -0.11806030385454951 0.4266584090121126 0 -0.10863534786717791 0.40831116169064557 0 -0.12756825415775341 0.41517819537294332 0 -0.1158633662964977 0.41422951078098741 0 -0.11806030385454951 0.4266584090121126 0 -0.1128935803295682 0.42695965790963569 0 -0.1217482509176208 0.4460636106419843 0 -0.11806030385454951 0.4266584090121126 0 -0.1128935803295682 0.42695965790963569 0 -0.1217482509176208 0.4460636106419843 0 -0.1128935803295682 0.42695965790963569 0 -0.1217482509176208 0.4460636106419843 0 -0.1118430384736244 0.43905062703633257 0 -0.1317876317254652 0.43321511821309272 0 -0.11806030385454951 0.4266584090121126 0 -0.1217482509176208 0.4460636106419843 0 -0.1283851256645466 0.42450984441506329 0 -0.12756825415775341 0.41517819537294332 0 -0.11806030385454951 0.4266584090121126 0 -0.1128935803295682 0.42695965790963569 0 -0.1082076475429099 0.43204804728792567 0 -0.1118430384736244 0.43905062703633257 0 -0.1082076475429099 0.43204804728792567 0 -0.1015022739488893 0.4332271833113856 0 -0.1118430384736244 0.43905062703633257 0 -0.1082076475429099 0.43204804728792567 0 -0.10548120427870621 0.42790529022945872 0 -0.1015022739488893 0.4332271833113856 0 -0.1128935803295682 0.42695965790963569 0 -0.10548120427870621 0.42790529022945872 0 -0.1035464334448153 0.42166972698362948 0 -0.10548120427870621 0.42790529022945872 0 -0.1008353323550534 0.42644219498519109 0 -0.1015022739488893 0.4332271833113856 0 -0.1128935803295682 0.42695965790963569 0 -0.1082076475429099 0.43204804728792567 0 -0.10548120427870621 0.42790529022945872 0 -0.10548120427870621 0.42790529022945872 0 -0.1008353323550534 0.42644219498519109 0 -0.1035464334448153 0.42166972698362948 0 -0.096419601318041767 0.42796332367164203 0 -0.1008353323550534 0.42644219498519109 0 -0.09740407095669712 0.42126767103243717 0 -0.1008353323550534 0.42644219498519109 0 -0.1035464334448153 0.42166972698362948 0 -0.09740407095669712 0.42126767103243717 0 -0.096419601318041767 0.42796332367164203 0 -0.09740407095669712 0.42126767103243717 0 -0.092259100542567155 0.42426936359758938 0 -0.096419601318041767 0.42796332367164203 0 -0.1008353323550534 0.42644219498519109 0 -0.1015022739488893 0.4332271833113856 0 -0.096419601318041767 0.42796332367164203 0 -0.1015022739488893 0.4332271833113856 0 -0.092610939005108334 0.43208431149090842 0 -0.1015022739488893 0.4332271833113856 0 -0.092610939005108334 0.43208431149090842 0 -0.093352395858463388 0.4390467983486368 0 -0.1128935803295682 0.42695965790963569 0 -0.10863534786717791 0.40831116169064557 0 -0.1040389097415156 0.4078557051772872 0 -0.1128935803295682 0.42695965790963569 0 -0.1040389097415156 0.4078557051772872 0 -0.1044247556157238 0.41678134300173919 0 -0.1128935803295682 0.42695965790963569 0 -0.1040389097415156 0.4078557051772872 0 -0.1040389097415156 0.4078557051772872 0 -0.1044247556157238 0.41678134300173919 0 -0.099922295091075114 0.41150076346918829 0 -0.1128935803295682 0.42695965790963569 0 -0.1035464334448153 0.42166972698362948 0 -0.1044247556157238 0.41678134300173919 0 -0.1035464334448153 0.42166972698362948 0 -0.1044247556157238 0.41678134300173919 0 -0.10050377828770669 0.41738186861072779 0 -0.1044247556157238 0.41678134300173919 0 -0.10050377828770669 0.41738186861072779 0 -0.099922295091075114 0.41150076346918829 0 -0.10050377828770669 0.41738186861072779 0 -0.097221336330222008 0.41568983856664521 0 -0.099922295091075114 0.41150076346918829 0 -0.1035464334448153 0.42166972698362948 0 -0.10050377828770669 0.41738186861072779 0 -0.09740407095669712 0.42126767103243717 0 -0.10050377828770669 0.41738186861072779 0 -0.09740407095669712 0.42126767103243717 0 -0.097221336330222008 0.41568983856664521 0 -0.09740407095669712 0.42126767103243717 0 -0.092718429580962658 0.4175045598300165 0 -0.092259100542567155 0.42426936359758938 0 -0.09740407095669712 0.42126767103243717 0 -0.097221336330222008 0.41568983856664521 0 -0.092718429580962658 0.4175045598300165 0 -0.097221336330222008 0.41568983856664521 0 -0.095046898479852704 0.41193176562696932 0 -0.092718429580962658 0.4175045598300165 0 -0.095046898479852704 0.41193176562696932 0 -0.099922295091075114 0.41150076346918829 0 -0.096038369658441286 0.40796260229479631 0 -0.097221336330222008 0.41568983856664521 0 -0.095046898479852704 0.41193176562696932 0 -0.099922295091075114 0.41150076346918829 0 -0.1040389097415156 0.4078557051772872 0 -0.099922295091075114 0.41150076346918829 0 -0.099057408726998197 0.40667980313933638 0 -0.099922295091075114 0.41150076346918829 0 -0.099057408726998197 0.40667980313933638 0 -0.096038369658441286 0.40796260229479631 0 -0.095046898479852704 0.41193176562696932 0 -0.096038369658441286 0.40796260229479631 0 -0.09125446136476445 0.4093233160031734 0 -0.09125446136476445 0.4093233160031734 0 -0.088103778031126942 0.40682048918679281 0 -0.092008309474777644 0.40530289685360588 0 -0.096038369658441286 0.40796260229479631 0 -0.09125446136476445 0.4093233160031734 0 -0.092008309474777644 0.40530289685360588 0 -0.088103778031126942 0.40682048918679281 0 -0.087646381297310241 0.41095932757209142 0 -0.084581052940912616 0.40841205278330239 0 -0.09125446136476445 0.4093233160031734 0 -0.088103778031126942 0.40682048918679281 0 -0.087646381297310241 0.41095932757209142 0 -0.087646381297310241 0.41095932757209142 0 -0.086462524565715765 0.41586752161882262 0 -0.084637469684008731 0.41227721563809172 0 -0.087646381297310241 0.41095932757209142 0 -0.090839001197333041 0.41305537020236582 0 -0.086462524565715765 0.41586752161882262 0 -0.095046898479852704 0.41193176562696932 0 -0.09125446136476445 0.4093233160031734 0 -0.090839001197333041 0.41305537020236582 0 -0.09125446136476445 0.4093233160031734 0 -0.087646381297310241 0.41095932757209142 0 -0.090839001197333041 0.41305537020236582 0 -0.090839001197333041 0.41305537020236582 0 -0.092718429580962658 0.4175045598300165 0 -0.086462524565715765 0.41586752161882262 0 -0.095046898479852704 0.41193176562696932 0 -0.090839001197333041 0.41305537020236582 0 -0.092718429580962658 0.4175045598300165 0 -0.092718429580962658 0.4175045598300165 0 -0.088779308682422883 0.42102862973969613 0 -0.092259100542567155 0.42426936359758938 0 -0.088779308682422883 0.42102862973969613 0 -0.086462524565715765 0.41586752161882262 0 -0.084375396043790823 0.42125178411442582 0 -0.092718429580962658 0.4175045598300165 0 -0.088779308682422883 0.42102862973969613 0 -0.086462524565715765 0.41586752161882262 0 -0.086462524565715765 0.41586752161882262 0 -0.082279674046729423 0.41442824892252972 0 -0.084637469684008731 0.41227721563809172 0 -0.086462524565715765 0.41586752161882262 0 -0.082279674046729423 0.41442824892252972 0 -0.081224112155615327 0.41776721996459049 0 -0.086462524565715765 0.41586752161882262 0 -0.084375396043790823 0.42125178411442582 0 -0.081224112155615327 0.41776721996459049 0 -0.079714291948339844 0.42166790825239631 0 -0.081224112155615327 0.41776721996459049 0 -0.076129291661105131 0.41751939465998111 0 -0.084375396043790823 0.42125178411442582 0 -0.079714291948339844 0.42166790825239631 0 -0.081224112155615327 0.41776721996459049 0 -0.081224112155615327 0.41776721996459049 0 -0.078822596900211955 0.41485472018577169 0 -0.076129291661105131 0.41751939465998111 0 -0.082279674046729423 0.41442824892252972 0 -0.081224112155615327 0.41776721996459049 0 -0.078822596900211955 0.41485472018577169 0 -0.078822596900211955 0.41485472018577169 0 -0.080251666928095378 0.41137456720537191 0 -0.075959858111388306 0.41264943514186331 0 -0.082279674046729423 0.41442824892252972 0 -0.078822596900211955 0.41485472018577169 0 -0.080251666928095378 0.41137456720537191 0 -0.080251666928095378 0.41137456720537191 0 -0.081013376851994348 0.40692398219777298 0 -0.078034410718812855 0.40867556000533151 0 -0.080251666928095378 0.41137456720537191 0 -0.081013376851994348 0.40692398219777298 0 -0.084581052940912616 0.40841205278330239 0 -0.081013376851994348 0.40692398219777298 0 -0.084581052940912616 0.40841205278330239 0 -0.084522564795865909 0.40440497627951949 0 -0.088103778031126942 0.40682048918679281 0 -0.084581052940912616 0.40841205278330239 0 -0.084522564795865909 0.40440497627951949 0 -0.087646381297310241 0.41095932757209142 0 -0.084581052940912616 0.40841205278330239 0 -0.084637469684008731 0.41227721563809172 0 -0.082279674046729423 0.41442824892252972 0 -0.080251666928095378 0.41137456720537191 0 -0.084637469684008731 0.41227721563809172 0 -0.080251666928095378 0.41137456720537191 0 -0.084581052940912616 0.40841205278330239 0 -0.084637469684008731 0.41227721563809172 0 -0.087004610083475764 0.43680364677909278 0 -0.092610939005108334 0.43208431149090842 0 -0.093352395858463388 0.4390467983486368 0 -0.092610939005108334 0.43208431149090842 0 -0.086998416720600297 0.42643142556735247 0 -0.085968012424614659 0.43178379756205842 0 -0.087004610083475764 0.43680364677909278 0 -0.092610939005108334 0.43208431149090842 0 -0.085968012424614659 0.43178379756205842 0 -0.092610939005108334 0.43208431149090842 0 -0.086998416720600297 0.42643142556735247 0 -0.092259100542567155 0.42426936359758938 0 -0.096419601318041767 0.42796332367164203 0 -0.092610939005108334 0.43208431149090842 0 -0.092259100542567155 0.42426936359758938 0 -0.088779308682422883 0.42102862973969613 0 -0.084375396043790823 0.42125178411442582 0 -0.086998416720600297 0.42643142556735247 0 -0.088779308682422883 0.42102862973969613 0 -0.086998416720600297 0.42643142556735247 0 -0.092259100542567155 0.42426936359758938 0 -0.084375396043790823 0.42125178411442582 0 -0.079714291948339844 0.42166790825239631 0 -0.082567642548595194 0.42483969954430062 0 -0.084375396043790823 0.42125178411442582 0 -0.086998416720600297 0.42643142556735247 0 -0.082567642548595194 0.42483969954430062 0 -0.079714291948339844 0.42166790825239631 0 -0.082567642548595194 0.42483969954430062 0 -0.076920809765082088 0.42676710941028528 0 -0.082567642548595194 0.42483969954430062 0 -0.082018206545754729 0.42895658948923349 0 -0.076920809765082088 0.42676710941028528 0 -0.086998416720600297 0.42643142556735247 0 -0.082018206545754729 0.42895658948923349 0 -0.085968012424614659 0.43178379756205842 0 -0.086998416720600297 0.42643142556735247 0 -0.082567642548595194 0.42483969954430062 0 -0.082018206545754729 0.42895658948923349 0 -0.082018206545754729 0.42895658948923349 0 -0.085968012424614659 0.43178379756205842 0 -0.079890263702020348 0.43439672363988419 0 -0.082018206545754729 0.42895658948923349 0 -0.079890263702020348 0.43439672363988419 0 -0.076920809765082088 0.42676710941028528 0 -0.087004610083475764 0.43680364677909278 0 -0.085968012424614659 0.43178379756205842 0 -0.079890263702020348 0.43439672363988419 0 -0.087004610083475764 0.43680364677909278 0 -0.079890263702020348 0.43439672363988419 0 -0.082487642508791995 0.43955642739539119 0 -0.068140955497157207 0.4234240723572627 0 -0.066007729981385793 0.43471390223773992 0 -0.064408183011779668 0.41833314646443343 0 -0.073169017316870116 0.43212403756118772 0 -0.066007729981385793 0.43471390223773992 0 -0.074369722440493141 0.43778624695984097 0 -0.079890263702020348 0.43439672363988419 0 -0.073169017316870116 0.43212403756118772 0 -0.074369722440493141 0.43778624695984097 0 -0.079890263702020348 0.43439672363988419 0 -0.073169017316870116 0.43212403756118772 0 -0.076920809765082088 0.42676710941028528 0 -0.076920809765082088 0.42676710941028528 0 -0.071930426932230174 0.42352101046956608 0 -0.070094907434643694 0.42766966130205569 0 -0.073169017316870116 0.43212403756118772 0 -0.076920809765082088 0.42676710941028528 0 -0.070094907434643694 0.42766966130205569 0 -0.079714291948339844 0.42166790825239631 0 -0.076920809765082088 0.42676710941028528 0 -0.075853908376356818 0.42208232182224381 0 -0.076920809765082088 0.42676710941028528 0 -0.075853908376356818 0.42208232182224381 0 -0.071930426932230174 0.42352101046956608 0 -0.068140955497157207 0.4234240723572627 0 -0.070094907434643694 0.42766966130205569 0 -0.066007729981385793 0.43471390223773992 0 -0.071930426932230174 0.42352101046956608 0 -0.068140955497157207 0.4234240723572627 0 -0.070678108674444837 0.41903223406926932 0 -0.071930426932230174 0.42352101046956608 0 -0.068140955497157207 0.4234240723572627 0 -0.070094907434643694 0.42766966130205569 0 -0.073169017316870116 0.43212403756118772 0 -0.070094907434643694 0.42766966130205569 0 -0.066007729981385793 0.43471390223773992 0 -0.066007729981385793 0.43471390223773992 0 -0.064408183011779668 0.41833314646443343 0 -0.058048356377547572 0.40883476925163931 0 -0.072959019409085474 0.41015492346649302 0 -0.07310084108740672 0.41475093395248103 0 -0.069843315009424936 0.41340892353860981 0 -0.072959019409085474 0.41015492346649302 0 -0.075959858111388306 0.41264943514186331 0 -0.07310084108740672 0.41475093395248103 0 -0.072959019409085474 0.41015492346649302 0 -0.06979277134936121 0.41050422132265929 0 -0.069843315009424936 0.41340892353860981 0 -0.072353038400505748 0.40710962323960842 0 -0.072959019409085474 0.41015492346649302 0 -0.069489640180903256 0.40769518793232062 0 -0.072959019409085474 0.41015492346649302 0 -0.06979277134936121 0.41050422132265929 0 -0.069489640180903256 0.40769518793232062 0 -0.072353038400505748 0.40710962323960842 0 -0.072959019409085474 0.41015492346649302 0 -0.075221507676933932 0.40666811373816159 0 -0.072959019409085474 0.41015492346649302 0 -0.078034410718812855 0.40867556000533151 0 -0.075221507676933932 0.40666811373816159 0 -0.080251666928095378 0.41137456720537191 0 -0.078034410718812855 0.40867556000533151 0 -0.075959858111388306 0.41264943514186331 0 -0.072959019409085474 0.41015492346649302 0 -0.078034410718812855 0.40867556000533151 0 -0.075959858111388306 0.41264943514186331 0 -0.078822596900211955 0.41485472018577169 0 -0.075959858111388306 0.41264943514186331 0 -0.076129291661105131 0.41751939465998111 0 -0.075959858111388306 0.41264943514186331 0 -0.076129291661105131 0.41751939465998111 0 -0.07310084108740672 0.41475093395248103 0 -0.079714291948339844 0.42166790825239631 0 -0.075853908376356818 0.42208232182224381 0 -0.076129291661105131 0.41751939465998111 0 -0.075853908376356818 0.42208232182224381 0 -0.071930426932230174 0.42352101046956608 0 -0.070678108674444837 0.41903223406926932 0 -0.075853908376356818 0.42208232182224381 0 -0.076129291661105131 0.41751939465998111 0 -0.070678108674444837 0.41903223406926932 0 -0.070678108674444837 0.41903223406926932 0 -0.07310084108740672 0.41475093395248103 0 -0.069843315009424936 0.41340892353860981 0 -0.076129291661105131 0.41751939465998111 0 -0.070678108674444837 0.41903223406926932 0 -0.07310084108740672 0.41475093395248103 0 -0.066780465570456693 0.41735541056659459 0 -0.065166154539340881 0.41363614418158617 0 -0.069843315009424936 0.41340892353860981 0 -0.070678108674444837 0.41903223406926932 0 -0.066780465570456693 0.41735541056659459 0 -0.069843315009424936 0.41340892353860981 0 -0.068140955497157207 0.4234240723572627 0 -0.070678108674444837 0.41903223406926932 0 -0.066780465570456693 0.41735541056659459 0 -0.068140955497157207 0.4234240723572627 0 -0.066780465570456693 0.41735541056659459 0 -0.064408183011779668 0.41833314646443343 0 -0.066780465570456693 0.41735541056659459 0 -0.064408183011779668 0.41833314646443343 0 -0.065166154539340881 0.41363614418158617 0 -0.064408183011779668 0.41833314646443343 0 -0.065166154539340881 0.41363614418158617 0 -0.062305436104789919 0.41203458019177841 0 -0.064333916519387233 0.41027083003639547 0 -0.065166154539340881 0.41363614418158617 0 -0.062305436104789919 0.41203458019177841 0 -0.064333916519387233 0.41027083003639547 0 -0.062305436104789919 0.41203458019177841 0 -0.061719532328160083 0.40847302841698763 0 -0.064333916519387233 0.41027083003639547 0 -0.065166154539340881 0.41363614418158617 0 -0.066879110798031216 0.41075785035321399 0 -0.065166154539340881 0.41363614418158617 0 -0.066879110798031216 0.41075785035321399 0 -0.069843315009424936 0.41340892353860981 0 -0.066879110798031216 0.41075785035321399 0 -0.06979277134936121 0.41050422132265929 0 -0.069843315009424936 0.41340892353860981 0 -0.066879110798031216 0.41075785035321399 0 -0.06979277134936121 0.41050422132265929 0 -0.069489640180903256 0.40769518793232062 0 -0.066879110798031216 0.41075785035321399 0 -0.069489640180903256 0.40769518793232062 0 -0.066640168661798851 0.40788609599436698 0 -0.069489640180903256 0.40769518793232062 0 -0.066640168661798851 0.40788609599436698 0 -0.06701114626197846 0.40499891740863508 0 -0.063966253145813973 0.40710417256111542 0 -0.06323451640629621 0.40370250190543328 0 -0.061719532328160083 0.40847302841698763 0 -0.066640168661798851 0.40788609599436698 0 -0.063966253145813973 0.40710417256111542 0 -0.06701114626197846 0.40499891740863508 0 -0.064333916519387233 0.41027083003639547 0 -0.066879110798031216 0.41075785035321399 0 -0.066640168661798851 0.40788609599436698 0 -0.064333916519387233 0.41027083003639547 0 -0.066640168661798851 0.40788609599436698 0 -0.063966253145813973 0.40710417256111542 0 -0.064333916519387233 0.41027083003639547 0 -0.063966253145813973 0.40710417256111542 0 -0.061719532328160083 0.40847302841698763 0 -0.06323451640629621 0.40370250190543328 0 -0.066994312841958309 0.39968527823711592 0 -0.06701114626197846 0.40499891740863508 0 -0.06323451640629621 0.40370250190543328 0 -0.066994312841958309 0.39968527823711592 0 -0.062299086789098977 0.39336385962771059 0 -0.063966253145813973 0.40710417256111542 0 -0.06323451640629621 0.40370250190543328 0 -0.06701114626197846 0.40499891740863508 0 -0.069489640180903256 0.40769518793232062 0 -0.06701114626197846 0.40499891740863508 0 -0.071741986335100344 0.40392026782145851 0 -0.066994312841958309 0.39968527823711592 0 -0.06701114626197846 0.40499891740863508 0 -0.071741986335100344 0.40392026782145851 0 -0.066994312841958309 0.39968527823711592 0 -0.073405227611083104 0.39213999767532959 0 -0.062299086789098977 0.39336385962771059 0 -0.073405227611083104 0.39213999767532959 0 -0.078350394881368468 0.39743734643862649 0 -0.082757922080733945 0.39300254939563262 0 -0.066994312841958309 0.39968527823711592 0 -0.073405227611083104 0.39213999767532959 0 -0.073508061059618837 0.39887537641243681 0 -0.073405227611083104 0.39213999767532959 0 -0.073508061059618837 0.39887537641243681 0 -0.078350394881368468 0.39743734643862649 0 -0.072353038400505748 0.40710962323960842 0 -0.075221507676933932 0.40666811373816159 0 -0.071741986335100344 0.40392026782145851 0 -0.072353038400505748 0.40710962323960842 0 -0.069489640180903256 0.40769518793232062 0 -0.071741986335100344 0.40392026782145851 0 -0.066994312841958309 0.39968527823711592 0 -0.071741986335100344 0.40392026782145851 0 -0.073508061059618837 0.39887537641243681 0 -0.071741986335100344 0.40392026782145851 0 -0.073508061059618837 0.39887537641243681 0 -0.078425578815487562 0.40338635960712521 0 -0.073508061059618837 0.39887537641243681 0 -0.078425578815487562 0.40338635960712521 0 -0.078350394881368468 0.39743734643862649 0 -0.078034410718812855 0.40867556000533151 0 -0.075221507676933932 0.40666811373816159 0 -0.078425578815487562 0.40338635960712521 0 -0.075221507676933932 0.40666811373816159 0 -0.071741986335100344 0.40392026782145851 0 -0.078425578815487562 0.40338635960712521 0 -0.081013376851994348 0.40692398219777298 0 -0.078034410718812855 0.40867556000533151 0 -0.078425578815487562 0.40338635960712521 0 -0.081013376851994348 0.40692398219777298 0 -0.078425578815487562 0.40338635960712521 0 -0.084522564795865909 0.40440497627951949 0 -0.078425578815487562 0.40338635960712521 0 -0.084522564795865909 0.40440497627951949 0 -0.083655184839918906 0.39978244910260841 0 -0.084522564795865909 0.40440497627951949 0 -0.083655184839918906 0.39978244910260841 0 -0.088270630264877123 0.40249277529332828 0 -0.078425578815487562 0.40338635960712521 0 -0.083655184839918906 0.39978244910260841 0 -0.078350394881368468 0.39743734643862649 0 -0.083655184839918906 0.39978244910260841 0 -0.078350394881368468 0.39743734643862649 0 -0.082757922080733945 0.39300254939563262 0 -0.083655184839918906 0.39978244910260841 0 -0.082757922080733945 0.39300254939563262 0 -0.08820775754978645 0.39809324249758199 0 -0.08820775754978645 0.39809324249758199 0 -0.088711179765971607 0.39337417511610101 0 -0.092316287729604249 0.39729383364368343 0 -0.082757922080733945 0.39300254939563262 0 -0.08820775754978645 0.39809324249758199 0 -0.088711179765971607 0.39337417511610101 0 -0.082757922080733945 0.39300254939563262 0 -0.088711179765971607 0.39337417511610101 0 -0.087235828516246713 0.38626683962131192 0 -0.088711179765971607 0.39337417511610101 0 -0.092858463791326534 0.39243760263715521 0 -0.092316287729604249 0.39729383364368343 0 -0.095542796361110655 0.39592296377579073 0 -0.092858463791326534 0.39243760263715521 0 -0.092316287729604249 0.39729383364368343 0 -0.08820775754978645 0.39809324249758199 0 -0.092316287729604249 0.39729383364368343 0 -0.092560543910031379 0.40135577646693149 0 -0.095141419428941054 0.40013050372836317 0 -0.092316287729604249 0.39729383364368343 0 -0.092560543910031379 0.40135577646693149 0 -0.096093804966266586 0.40391401657767873 0 -0.092560543910031379 0.40135577646693149 0 -0.092008309474777644 0.40530289685360588 0 -0.092560543910031379 0.40135577646693149 0 -0.092008309474777644 0.40530289685360588 0 -0.088270630264877123 0.40249277529332828 0 -0.088103778031126942 0.40682048918679281 0 -0.084522564795865909 0.40440497627951949 0 -0.088270630264877123 0.40249277529332828 0 -0.088103778031126942 0.40682048918679281 0 -0.092008309474777644 0.40530289685360588 0 -0.088270630264877123 0.40249277529332828 0 -0.08820775754978645 0.39809324249758199 0 -0.092560543910031379 0.40135577646693149 0 -0.088270630264877123 0.40249277529332828 0 -0.083655184839918906 0.39978244910260841 0 -0.08820775754978645 0.39809324249758199 0 -0.088270630264877123 0.40249277529332828 0 -0.08978543589243515 0.37161666704771118 0 -0.078632462927444316 0.3849266170980753 0 -0.069937209333071904 0.37728615165662382 0 -0.08978543589243515 0.37161666704771118 0 -0.095184239153463024 0.38875175244493881 0 -0.087235828516246713 0.38626683962131192 0 -0.095184239153463024 0.38875175244493881 0 -0.092858463791326534 0.39243760263715521 0 -0.087235828516246713 0.38626683962131192 0 -0.088711179765971607 0.39337417511610101 0 -0.092858463791326534 0.39243760263715521 0 -0.087235828516246713 0.38626683962131192 0 -0.082757922080733945 0.39300254939563262 0 -0.087235828516246713 0.38626683962131192 0 -0.078632462927444316 0.3849266170980753 0 -0.073405227611083104 0.39213999767532959 0 -0.082757922080733945 0.39300254939563262 0 -0.078632462927444316 0.3849266170980753 0 -0.08978543589243515 0.37161666704771118 0 -0.087235828516246713 0.38626683962131192 0 -0.078632462927444316 0.3849266170980753 0 -0.073405227611083104 0.39213999767532959 0 -0.069937209333071904 0.37728615165662382 0 -0.062299086789098977 0.39336385962771059 0 -0.073405227611083104 0.39213999767532959 0 -0.078632462927444316 0.3849266170980753 0 -0.069937209333071904 0.37728615165662382 0 -0.069937209333071904 0.37728615165662382 0 -0.050088982773709358 0.38295563626553858 0 -0.069937209333071904 0.37728615165662382 0 -0.050088982773709358 0.38295563626553858 0 -0.062299086789098977 0.39336385962771059 0 -0.050088982773709358 0.38295563626553858 0 -0.05024064885043282 0.40310146207512898 0 -0.058048356377547572 0.40883476925163931 0 -0.050088982773709358 0.38295563626553858 0 -0.05024064885043282 0.40310146207512898 0 -0.041237116049670793 0.39838639304552509 0 -0.050088982773709358 0.38295563626553858 0 -0.062299086789098977 0.39336385962771059 0 -0.058048356377547572 0.40883476925163931 0 -0.050088982773709358 0.38295563626553858 0 -0.058048356377547572 0.40883476925163931 0 -0.06323451640629621 0.40370250190543328 0 -0.062299086789098977 0.39336385962771059 0 -0.058048356377547572 0.40883476925163931 0 -0.041237116049670793 0.39838639304552509 0 -0.02876822292668816 0.40705662903440348 0 -0.046437751824860561 0.40731535193326379 0 -0.041237116049670793 0.39838639304552509 0 -0.028300781103746401 0.3891792589985017 0 -0.02876822292668816 0.40705662903440348 0 -0.05024064885043282 0.40310146207512898 0 -0.041237116049670793 0.39838639304552509 0 -0.046437751824860561 0.40731535193326379 0 -0.050088982773709358 0.38295563626553858 0 -0.041237116049670793 0.39838639304552509 0 -0.028300781103746401 0.3891792589985017 0 -0.050088982773709358 0.38295563626553858 0 -0.028300781103746401 0.3891792589985017 0 -0.032628181746178951 0.37370920021534809 0 -0.050088982773709358 0.38295563626553858 0 -0.028300781103746401 0.3891792589985017 0 -0.028300781103746401 0.3891792589985017 0 -0.0065125794337784777 0.39540288173144778 0 -0.01441607495936569 0.38182129827363598 0 -0.032628181746178951 0.37370920021534809 0 -0.028300781103746401 0.3891792589985017 0 -0.01441607495936569 0.38182129827363598 0 -0.028300781103746401 0.3891792589985017 0 -0.0065125794337784777 0.39540288173144778 0 -0.028300781103746401 0.3891792589985017 0 -0.0065125794337784777 0.39540288173144778 0 -0.02876822292668816 0.40705662903440348 0 -0.0065125794337784777 0.39540288173144778 0 0.00023234454548807379 0.3761337279000691 0 -0.0065125794337784777 0.39540288173144778 0 -0.01441607495936569 0.38182129827363598 0 0.00023234454548807379 0.3761337279000691 0 -0.014749290371999679 0.41893382894760911 0 -0.0041045097890631708 0.43944387281778408 0 0.0047917719588289904 0.42004950509716132 0 -0.014749290371999679 0.41893382894760911 0 -0.0229860013102198 0.44246477616377061 0 -0.0041045097890631708 0.43944387281778408 0 -0.0065125794337784777 0.39540288173144778 0 -0.014749290371999679 0.41893382894760911 0 0.0047917719588289904 0.42004950509716132 0 -0.0065125794337784777 0.39540288173144778 0 -0.014749290371999679 0.41893382894760911 0 -0.0065125794337784777 0.39540288173144778 0 -0.014749290371999679 0.41893382894760911 0 -0.02876822292668816 0.40705662903440348 0 -0.014749290371999679 0.41893382894760911 0 -0.02876822292668816 0.40705662903440348 0 -0.034711876567540108 0.4248900640485172 0 -0.014749290371999679 0.41893382894760911 0 -0.034711876567540108 0.4248900640485172 0 -0.0229860013102198 0.44246477616377061 0 -0.014749290371999679 0.41893382894760911 0 -0.0229860013102198 0.44246477616377061 0 -0.034711876567540108 0.4248900640485172 0 -0.0229860013102198 0.44246477616377061 0 -0.034711876567540108 0.4248900640485172 0 -0.041141608020359217 0.43361316696369251 0 -0.0229860013102198 0.44246477616377061 0 -0.034711876567540108 0.4248900640485172 0 -0.041141608020359217 0.43361316696369251 0 -0.047605355183955977 0.41896380431889052 0 -0.041141608020359217 0.43361316696369251 0 -0.047605355183955977 0.41896380431889052 0 -0.051431104931902061 0.42921737472717097 0 -0.02876822292668816 0.40705662903440348 0 -0.034711876567540108 0.4248900640485172 0 -0.046437751824860561 0.40731535193326379 0 -0.034711876567540108 0.4248900640485172 0 -0.046437751824860561 0.40731535193326379 0 -0.047605355183955977 0.41896380431889052 0 -0.034711876567540108 0.4248900640485172 0 -0.046437751824860561 0.40731535193326379 0 -0.066007729981385793 0.43471390223773992 0 -0.058048356377547572 0.40883476925163931 0 -0.066007729981385793 0.43471390223773992 0 -0.057351953490879938 0.4117837246787811 0 -0.058048356377547572 0.40883476925163931 0 -0.05024064885043282 0.40310146207512898 0 -0.046437751824860561 0.40731535193326379 0 -0.051401290161248447 0.41162676689168992 0 -0.046437751824860561 0.40731535193326379 0 -0.051401290161248447 0.41162676689168992 0 -0.047605355183955977 0.41896380431889052 0 -0.05024064885043282 0.40310146207512898 0 -0.054230395915559823 0.40948985506311608 0 -0.051401290161248447 0.41162676689168992 0 -0.05024064885043282 0.40310146207512898 0 -0.054230395915559823 0.40948985506311608 0 -0.058048356377547572 0.40883476925163931 0 -0.054230395915559823 0.40948985506311608 0 -0.051401290161248447 0.41162676689168992 0 -0.057351953490879938 0.4117837246787811 0 -0.051401290161248447 0.41162676689168992 0 -0.057351953490879938 0.4117837246787811 0 -0.053841231162531623 0.4225561640804773 0 -0.051401290161248447 0.41162676689168992 0 -0.047605355183955977 0.41896380431889052 0 -0.053841231162531623 0.4225561640804773 0 -0.064408183011779668 0.41833314646443343 0 -0.062305436104789919 0.41203458019177841 0 -0.058048356377547572 0.40883476925163931 0 -0.062305436104789919 0.41203458019177841 0 -0.061719532328160083 0.40847302841698763 0 -0.058048356377547572 0.40883476925163931 0 -0.06323451640629621 0.40370250190543328 0 -0.061719532328160083 0.40847302841698763 0 -0.058048356377547572 0.40883476925163931 0 -0.054230395915559823 0.40948985506311608 0 -0.057351953490879938 0.4117837246787811 0 -0.058048356377547572 0.40883476925163931 0 -0.053841231162531623 0.4225561640804773 0 -0.051431104931902061 0.42921737472717097 0 -0.061416452044671652 0.44118914978585377 0 -0.057351953490879938 0.4117837246787811 0 -0.061416452044671652 0.44118914978585377 0 -0.057351953490879938 0.4117837246787811 0 -0.053841231162531623 0.4225561640804773 0 -0.061416452044671652 0.44118914978585377 0 -0.066007729981385793 0.43471390223773992 0 -0.057351953490879938 0.4117837246787811 0 -0.061416452044671652 0.44118914978585377 0 -0.041141608020359217 0.43361316696369251 0 -0.051431104931902061 0.42921737472717097 0 -0.049850529445139229 0.43944866163477908 0 -0.051431104931902061 0.42921737472717097 0 -0.061416452044671652 0.44118914978585377 0 -0.049850529445139229 0.43944866163477908 0 -0.047605355183955977 0.41896380431889052 0 -0.053841231162531623 0.4225561640804773 0 -0.051431104931902061 0.42921737472717097 0 -0.061416452044671652 0.44118914978585377 0 -0.049565172952182303 0.44839833225469039 0 -0.054520910100502543 0.45712588614195171 0 -0.061416452044671652 0.44118914978585377 0 -0.049565172952182303 0.44839833225469039 0 -0.049850529445139229 0.43944866163477908 0 -0.061416452044671652 0.44118914978585377 0 -0.054520910100502543 0.45712588614195171 0 -0.065480950598463358 0.47059457489292639 0 -0.054520910100502543 0.45712588614195171 0 -0.050985128130696361 0.47119676930502868 0 -0.065480950598463358 0.47059457489292639 0 -0.049565172952182303 0.44839833225469039 0 -0.054520910100502543 0.45712588614195171 0 -0.0430598970285484 0.45999533661034359 0 -0.054520910100502543 0.45712588614195171 0 -0.0430598970285484 0.45999533661034359 0 -0.050985128130696361 0.47119676930502868 0 -0.0430598970285484 0.45999533661034359 0 -0.0296991608379891 0.4616431841091802 0 -0.036412320365758227 0.48082159205458991 0 -0.0430598970285484 0.45999533661034359 0 -0.040264780683398019 0.4466943208890265 0 -0.0296991608379891 0.4616431841091802 0 -0.041141608020359217 0.43361316696369251 0 -0.040264780683398019 0.4466943208890265 0 -0.0229860013102198 0.44246477616377061 0 -0.049565172952182303 0.44839833225469039 0 -0.049850529445139229 0.43944866163477908 0 -0.040264780683398019 0.4466943208890265 0 -0.041141608020359217 0.43361316696369251 0 -0.049850529445139229 0.43944866163477908 0 -0.040264780683398019 0.4466943208890265 0 -0.049565172952182303 0.44839833225469039 0 -0.0430598970285484 0.45999533661034359 0 -0.040264780683398019 0.4466943208890265 0 -0.0229860013102198 0.44246477616377061 0 -0.0296991608379891 0.4616431841091802 0 -0.0229860013102198 0.44246477616377061 0 -0.010190137700783881 0.46164318410918059 0 -0.040264780683398019 0.4466943208890265 0 -0.0229860013102198 0.44246477616377061 0 -0.0296991608379891 0.4616431841091802 0 -0.0296991608379891 0.4616431841091802 0 -0.010190137700783881 0.46164318410918059 0 -0.016903297228553101 0.47998012861065642 0 -0.0229860013102198 0.44246477616377061 0 -0.0296991608379891 0.4616431841091802 0 -0.010190137700783881 0.46164318410918059 0 -0.010190137700783881 0.46164318410918059 0 0.002605725908651949 0.48082159205459069 0 0.0068984530026089301 0.45569809908886899 0 -0.0229860013102198 0.44246477616377061 0 -0.010190137700783881 0.46164318410918059 0 -0.0041045097890631708 0.43944387281778408 0 -0.010190137700783881 0.46164318410918059 0 -0.0041045097890631708 0.43944387281778408 0 0.0068984530026089301 0.45569809908886899 0 -0.01386194518771955 0.5 0 -0.016903297228553101 0.47998012861065642 0 0.002605725908651949 0.48082159205459069 0 -0.010190137700783881 0.46164318410918059 0 0.002605725908651949 0.48082159205459069 0 -0.010190137700783881 0.46164318410918059 0 -0.016903297228553101 0.47998012861065642 0 0.002605725908651949 0.48082159205459069 0 -0.0296991608379891 0.4616431841091802 0 -0.016903297228553101 0.47998012861065642 0 -0.036412320365758227 0.48082159205458991 0 -0.01386194518771955 0.5 0 -0.043125479893527247 0.49999999999999972 0 -0.036412320365758227 0.48082159205458991 0 -0.01386194518771955 0.5 0 -0.016903297228553101 0.47998012861065642 0 -0.036412320365758227 0.48082159205458991 0 -0.043125479893527247 0.49999999999999972 0 -0.036412320365758227 0.48082159205458991 0 -0.053109865628140053 0.48452258725050901 0 -0.043125479893527247 0.49999999999999972 0 -0.036412320365758227 0.48082159205458991 0 -0.0430598970285484 0.45999533661034359 0 -0.036412320365758227 0.48082159205458991 0 -0.050985128130696361 0.47119676930502868 0 -0.0296991608379891 0.4616431841091802 0 -0.036412320365758227 0.48082159205458991 0 -0.036412320365758227 0.48082159205458991 0 -0.050985128130696361 0.47119676930502868 0 -0.053109865628140053 0.48452258725050901 0 -0.050985128130696361 0.47119676930502868 0 -0.053109865628140053 0.48452258725050901 0 -0.065480950598463358 0.47059457489292639 0 -0.043125479893527247 0.49999999999999972 0 -0.053109865628140053 0.48452258725050901 0 -0.06954544915225494 0.49999999999999911 0 -0.06954544915225494 0.49999999999999911 0 -0.065480950598463358 0.47059457489292639 0 -0.053109865628140053 0.48452258725050901 0 -0.06954544915225494 0.49999999999999911 0 -0.065480950598463358 0.47059457489292639 0 -0.078562194548841946 0.48154317177268452 0 -0.09797173564271644 0.5 0 -0.09414954637639629 0.47881096857129701 0 -0.06954544915225494 0.49999999999999911 0 -0.078562194548841946 0.48154317177268452 0 -0.09797173564271644 0.5 0 -0.084214493769652385 0.46727414818170337 0 -0.097048337066416718 0.46403569451993287 0 -0.09414954637639629 0.47881096857129701 0 -0.078562194548841946 0.48154317177268452 0 -0.075556185625545433 0.47000123251778869 0 -0.084214493769652385 0.46727414818170337 0 -0.078562194548841946 0.48154317177268452 0 -0.084214493769652385 0.46727414818170337 0 -0.09414954637639629 0.47881096857129701 0 -0.06954544915225494 0.49999999999999911 0 -0.078562194548841946 0.48154317177268452 0 -0.065480950598463358 0.47059457489292639 0 -0.078562194548841946 0.48154317177268452 0 -0.075556185625545433 0.47000123251778869 0 -0.065480950598463358 0.47059457489292639 0 -0.061416452044671652 0.44118914978585377 0 -0.065480950598463358 0.47059457489292639 0 -0.061416452044671652 0.44118914978585377 0 -0.065480950598463358 0.47059457489292639 0 -0.073967103585224014 0.4605930352238406 0 -0.073967103585224014 0.4605930352238406 0 -0.075883871325607546 0.44675467321452861 0 -0.078761078077969698 0.45632396401698111 0 -0.075556185625545433 0.47000123251778869 0 -0.073967103585224014 0.4605930352238406 0 -0.084214493769652385 0.46727414818170337 0 -0.075556185625545433 0.47000123251778869 0 -0.065480950598463358 0.47059457489292639 0 -0.073967103585224014 0.4605930352238406 0 -0.066007729981385793 0.43471390223773992 0 -0.073967103585224014 0.4605930352238406 0 -0.075883871325607546 0.44675467321452861 0 -0.066007729981385793 0.43471390223773992 0 -0.073967103585224014 0.4605930352238406 0 -0.066007729981385793 0.43471390223773992 0 -0.061416452044671652 0.44118914978585377 0 -0.073967103585224014 0.4605930352238406 0 -0.066007729981385793 0.43471390223773992 0 -0.075883871325607546 0.44675467321452861 0 -0.074369722440493141 0.43778624695984097 0 -0.075883871325607546 0.44675467321452861 0 -0.074369722440493141 0.43778624695984097 0 -0.078690218465892969 0.44080868107624149 0 -0.079890263702020348 0.43439672363988419 0 -0.074369722440493141 0.43778624695984097 0 -0.078690218465892969 0.44080868107624149 0 -0.085337304040406903 0.44898764166849481 0 -0.078761078077969698 0.45632396401698111 0 -0.1002546644977952 0.45119378732948268 0 -0.087004610083475764 0.43680364677909278 0 -0.082487642508791995 0.43955642739539119 0 -0.08710140652626433 0.44270845693815658 0 -0.079890263702020348 0.43439672363988419 0 -0.082487642508791995 0.43955642739539119 0 -0.078690218465892969 0.44080868107624149 0 -0.075883871325607546 0.44675467321452861 0 -0.078690218465892969 0.44080868107624149 0 -0.081398406115676059 0.44486929645888462 0 -0.082487642508791995 0.43955642739539119 0 -0.078690218465892969 0.44080868107624149 0 -0.081398406115676059 0.44486929645888462 0 -0.082487642508791995 0.43955642739539119 0 -0.081398406115676059 0.44486929645888462 0 -0.08710140652626433 0.44270845693815658 0 -0.075883871325607546 0.44675467321452861 0 -0.080200461449133995 0.4494039032678917 0 -0.078761078077969698 0.45632396401698111 0 -0.081398406115676059 0.44486929645888462 0 -0.085337304040406903 0.44898764166849481 0 -0.080200461449133995 0.4494039032678917 0 -0.081398406115676059 0.44486929645888462 0 -0.085337304040406903 0.44898764166849481 0 -0.08710140652626433 0.44270845693815658 0 -0.075883871325607546 0.44675467321452861 0 -0.081398406115676059 0.44486929645888462 0 -0.080200461449133995 0.4494039032678917 0 -0.085337304040406903 0.44898764166849481 0 -0.080200461449133995 0.4494039032678917 0 -0.078761078077969698 0.45632396401698111 0 -0.085337304040406903 0.44898764166849481 0 -0.091511442730732473 0.4454841710711927 0 -0.1002546644977952 0.45119378732948268 0 -0.085337304040406903 0.44898764166849481 0 -0.091511442730732473 0.4454841710711927 0 -0.08710140652626433 0.44270845693815658 0 -0.091511442730732473 0.4454841710711927 0 -0.08710140652626433 0.44270845693815658 0 -0.093352395858463388 0.4390467983486368 0 -0.087004610083475764 0.43680364677909278 0 -0.08710140652626433 0.44270845693815658 0 -0.093352395858463388 0.4390467983486368 0 -0.078761078077969698 0.45632396401698111 0 -0.097048337066416718 0.46403569451993287 0 -0.1002546644977952 0.45119378732948268 0 -0.078761078077969698 0.45632396401698111 0 -0.1002546644977952 0.45119378732948268 0 -0.084214493769652385 0.46727414818170337 0 -0.078761078077969698 0.45632396401698111 0 -0.097048337066416718 0.46403569451993287 0 -0.073967103585224014 0.4605930352238406 0 -0.084214493769652385 0.46727414818170337 0 -0.078761078077969698 0.45632396401698111 0 -0.097048337066416718 0.46403569451993287 0 -0.1002546644977952 0.45119378732948268 0 -0.1132021354690019 0.46328866203924979 0 -0.1015022739488893 0.4332271833113856 0 -0.093352395858463388 0.4390467983486368 0 -0.1002546644977952 0.45119378732948268 0 -0.1015022739488893 0.4332271833113856 0 -0.1002546644977952 0.45119378732948268 0 -0.1118430384736244 0.43905062703633257 0 -0.091511442730732473 0.4454841710711927 0 -0.093352395858463388 0.4390467983486368 0 -0.1002546644977952 0.45119378732948268 0 -0.1002546644977952 0.45119378732948268 0 -0.1217482509176208 0.4460636106419843 0 -0.1002546644977952 0.45119378732948268 0 -0.1217482509176208 0.4460636106419843 0 -0.1118430384736244 0.43905062703633257 0 -0.13077620832253981 0.46554142970009121 0 -0.1217482509176208 0.4460636106419843 0 -0.1132021354690019 0.46328866203924979 0 -0.1002546644977952 0.45119378732948268 0 -0.1217482509176208 0.4460636106419843 0 -0.1132021354690019 0.46328866203924979 0 -0.12719362002061879 0.48471220993481717 0 -0.13077620832253981 0.46554142970009121 0 -0.11438892693350081 0.48096674238794712 0 -0.13077620832253981 0.46554142970009121 0 -0.1132021354690019 0.46328866203924979 0 -0.11438892693350081 0.48096674238794712 0 -0.126398022133178 0.5 0 -0.12719362002061879 0.48471220993481717 0 -0.11438892693350081 0.48096674238794712 0 -0.126398022133178 0.5 0 -0.11438892693350081 0.48096674238794712 0 -0.09797173564271644 0.5 0 -0.11438892693350081 0.48096674238794712 0 -0.09797173564271644 0.5 0 -0.09414954637639629 0.47881096857129701 0 -0.097048337066416718 0.46403569451993287 0 -0.1132021354690019 0.46328866203924979 0 -0.11438892693350081 0.48096674238794712 0 -0.097048337066416718 0.46403569451993287 0 -0.11438892693350081 0.48096674238794712 0 -0.09414954637639629 0.47881096857129701 0 -0.16742075834157771 0.088440755169701929 0 -0.1604178021568973 0.081290279944600807 0 -0.16988835552903431 0.076682817883261034 0 -0.16742075834157771 0.088440755169701929 0 -0.1604178021568973 0.081290279944600807 0 -0.1556761742025474 0.089604608277554801 0 -0.16742075834157771 0.088440755169701929 0 -0.1611243590693654 0.1013599957878132 0 -0.1556761742025474 0.089604608277554801 0 -0.1604178021568973 0.081290279944600807 0 -0.15386997138700109 0.082845636506451173 0 -0.1556761742025474 0.089604608277554801 0 -0.1604178021568973 0.081290279944600807 0 -0.15386997138700109 0.082845636506451173 0 -0.15540714017094759 0.076719996398109225 0 -0.16130075047057171 0.073110338604786246 0 -0.1558713715430691 0.065788592595441786 0 -0.15540714017094759 0.076719996398109225 0 -0.1604178021568973 0.081290279944600807 0 -0.16130075047057171 0.073110338604786246 0 -0.16988835552903431 0.076682817883261034 0 -0.16970394640545919 0.066668770189758753 0 -0.1558713715430691 0.065788592595441786 0 -0.1740877896560841 0.057560550770584397 0 -0.1604178021568973 0.081290279944600807 0 -0.16130075047057171 0.073110338604786246 0 -0.15540714017094759 0.076719996398109225 0 -0.16130075047057171 0.073110338604786246 0 -0.16970394640545919 0.066668770189758753 0 -0.1558713715430691 0.065788592595441786 0 -0.16130075047057171 0.073110338604786246 0 -0.1558713715430691 0.065788592595441786 0 -0.16130075047057171 0.073110338604786246 0 -0.16970394640545919 0.066668770189758753 0 -0.16988835552903431 0.076682817883261034 0 -0.18098752727966211 0.067294030595965698 0 -0.1794993485200379 0.083292732794752897 0 -0.19754991968253879 0.082375792614336391 0 -0.16988835552903431 0.076682817883261034 0 -0.18098752727966211 0.067294030595965698 0 -0.1794993485200379 0.083292732794752897 0 -0.16970394640545919 0.066668770189758753 0 -0.16988835552903431 0.076682817883261034 0 -0.18098752727966211 0.067294030595965698 0 -0.16970394640545919 0.066668770189758753 0 -0.18098752727966211 0.067294030595965698 0 -0.18400502741196181 0.055604499153899922 0 -0.16742075834157771 0.088440755169701929 0 -0.1794993485200379 0.083292732794752897 0 -0.1802729134358857 0.099801428416140078 0 -0.1794993485200379 0.083292732794752897 0 -0.1802729134358857 0.099801428416140078 0 -0.19754991968253879 0.082375792614336391 0 -0.16742075834157771 0.088440755169701929 0 -0.16988835552903431 0.076682817883261034 0 -0.1794993485200379 0.083292732794752897 0 -0.1802729134358857 0.099801428416140078 0 -0.18373929250058291 0.1190118063607005 0 -0.16675571183368379 0.1179516692646165 0 -0.16675571183368379 0.1179516692646165 0 -0.15302471268627271 0.11354717003545529 0 -0.15730798220102499 0.13096573443779161 0 -0.16675571183368379 0.1179516692646165 0 -0.1611243590693654 0.1013599957878132 0 -0.15302471268627271 0.11354717003545529 0 -0.16742075834157771 0.088440755169701929 0 -0.1802729134358857 0.099801428416140078 0 -0.1611243590693654 0.1013599957878132 0 -0.1802729134358857 0.099801428416140078 0 -0.16675571183368379 0.1179516692646165 0 -0.1611243590693654 0.1013599957878132 0 -0.1611243590693654 0.1013599957878132 0 -0.14412684450205321 0.098124597058173946 0 -0.1556761742025474 0.089604608277554801 0 -0.1611243590693654 0.1013599957878132 0 -0.14412684450205321 0.098124597058173946 0 -0.15302471268627271 0.11354717003545529 0 -0.15302471268627271 0.11354717003545529 0 -0.1363564685314036 0.1193492952157057 0 -0.15730798220102499 0.13096573443779161 0 -0.14412684450205321 0.098124597058173946 0 -0.15302471268627271 0.11354717003545529 0 -0.1363564685314036 0.1193492952157057 0 -0.1363564685314036 0.1193492952157057 0 -0.12778981099600659 0.098126609825887709 0 -0.1133395974862354 0.1147671114347447 0 -0.14412684450205321 0.098124597058173946 0 -0.1363564685314036 0.1193492952157057 0 -0.12778981099600659 0.098126609825887709 0 -0.12778981099600659 0.098126609825887709 0 -0.14224002450577769 0.081486108217030506 0 -0.12778981099600659 0.098126609825887709 0 -0.14224002450577769 0.081486108217030506 0 -0.1131635963548715 0.084670364772344284 0 -0.14412684450205321 0.098124597058173946 0 -0.12778981099600659 0.098126609825887709 0 -0.14224002450577769 0.081486108217030506 0 -0.14412684450205321 0.098124597058173946 0 -0.14224002450577769 0.081486108217030506 0 -0.14947550370852039 0.086062979881996238 0 -0.14224002450577769 0.081486108217030506 0 -0.14837323669609259 0.080550318029994794 0 -0.14947550370852039 0.086062979881996238 0 -0.14837323669609259 0.080550318029994794 0 -0.15386997138700109 0.082845636506451173 0 -0.14947550370852039 0.086062979881996238 0 -0.14837323669609259 0.080550318029994794 0 -0.15386997138700109 0.082845636506451173 0 -0.15540714017094759 0.076719996398109225 0 -0.15386997138700109 0.082845636506451173 0 -0.1556761742025474 0.089604608277554801 0 -0.14947550370852039 0.086062979881996238 0 -0.14412684450205321 0.098124597058173946 0 -0.1556761742025474 0.089604608277554801 0 -0.14947550370852039 0.086062979881996238 0 -0.14224002450577769 0.081486108217030506 0 -0.14837323669609259 0.080550318029994794 0 -0.1558713715430691 0.065788592595441786 0 -0.14224002450577769 0.081486108217030506 0 -0.1558713715430691 0.065788592595441786 0 -0.14224002450577769 0.081486108217030506 0 -0.1558713715430691 0.065788592595441786 0 -0.13643863405756029 0.061998398289606328 0 -0.14837323669609259 0.080550318029994794 0 -0.1558713715430691 0.065788592595441786 0 -0.15540714017094759 0.076719996398109225 0 -0.14224002450577769 0.081486108217030506 0 -0.117444545842812 0.065262372677558467 0 -0.14224002450577769 0.081486108217030506 0 -0.13643863405756029 0.061998398289606328 0 -0.117444545842812 0.065262372677558467 0 -0.13643863405756029 0.061998398289606328 0 -0.14307474290946251 0.048531800265730597 0 -0.1235624854866802 0.048923117692270347 0 -0.13643863405756029 0.061998398289606328 0 -0.117444545842812 0.065262372677558467 0 -0.1235624854866802 0.048923117692270347 0 -0.14307474290946251 0.048531800265730597 0 -0.13027811427585451 0.031275007936020408 0 -0.14147232590139711 0.035733543123183477 0 -0.14307474290946251 0.048531800265730597 0 -0.13027811427585451 0.031275007936020408 0 -0.14307474290946251 0.048531800265730597 0 -0.13027811427585451 0.031275007936020408 0 -0.1235624854866802 0.048923117692270347 0 -0.14147232590139711 0.035733543123183477 0 -0.1534952941679589 0.036531756123484277 0 -0.14307474290946251 0.048531800265730597 0 -0.14147232590139711 0.035733543123183477 0 -0.1534952941679589 0.036531756123484277 0 -0.13548838990510331 0.025274985864896699 0 -0.1534952941679589 0.036531756123484277 0 -0.14307474290946251 0.048531800265730597 0 -0.1563748045092706 0.049871846145359618 0 -0.1558713715430691 0.065788592595441786 0 -0.14307474290946251 0.048531800265730597 0 -0.1558713715430691 0.065788592595441786 0 -0.13643863405756029 0.061998398289606328 0 -0.14307474290946251 0.048531800265730597 0 -0.1558713715430691 0.065788592595441786 0 -0.14307474290946251 0.048531800265730597 0 -0.1563748045092706 0.049871846145359618 0 -0.13745625017589189 0.0077255802924584109 0 -0.1267847382640489 0.0013257330363288431 0 -0.1165510124474865 0.013436542997165599 0 -0.13745625017589189 0.0077255802924584109 0 -0.1165510124474865 0.013436542997165599 0 -0.13745625017589189 0.0077255802924584109 0 -0.13548838990510331 0.025274985864896699 0 -0.1165510124474865 0.013436542997165599 0 -0.1382151609791393 -0.0075374589521259132 0 -0.13745625017589189 0.0077255802924584109 0 -0.1267847382640489 0.0013257330363288431 0 -0.13548838990510331 0.025274985864896699 0 -0.1165510124474865 0.013436542997165599 0 -0.13745625017589189 0.0077255802924584109 0 -0.13548838990510331 0.025274985864896699 0 -0.1482324195182953 0.01781897347234106 0 -0.13027811427585451 0.031275007936020408 0 -0.13548838990510331 0.025274985864896699 0 -0.1165510124474865 0.013436542997165599 0 -0.14147232590139711 0.035733543123183477 0 -0.13027811427585451 0.031275007936020408 0 -0.13548838990510331 0.025274985864896699 0 -0.1534952941679589 0.036531756123484277 0 -0.13548838990510331 0.025274985864896699 0 -0.1534952941679589 0.036531756123484277 0 -0.1482324195182953 0.01781897347234106 0 -0.1627381302390917 0.015064564631149659 0 -0.1534952941679589 0.036531756123484277 0 -0.13548838990510331 0.025274985864896699 0 -0.1482324195182953 0.01781897347234106 0 -0.13745625017589189 0.0077255802924584109 0 -0.1482324195182953 0.01781897347234106 0 -0.15794643018571891 0.0021280044423683392 0 -0.1382151609791393 -0.0075374589521259132 0 -0.13745625017589189 0.0077255802924584109 0 -0.15794643018571891 0.0021280044423683392 0 -0.13745625017589189 0.0077255802924584109 0 -0.15794643018571891 0.0021280044423683392 0 -0.1482324195182953 0.01781897347234106 0 -0.15794643018571891 0.0021280044423683392 0 -0.1627381302390917 0.015064564631149659 0 -0.15794643018571891 0.0021280044423683392 0 -0.1627381302390917 0.015064564631149659 0 -0.17611016344674441 0.012062972139016449 0 -0.17762949461814681 -0.0032490808770314589 0 -0.15794643018571891 0.0021280044423683392 0 -0.17611016344674441 0.012062972139016449 0 -0.15794643018571891 0.0021280044423683392 0 -0.1627381302390917 0.015064564631149659 0 -0.1627381302390917 0.015064564631149659 0 -0.1706680095955847 0.028380472888195809 0 -0.17611016344674441 0.012062972139016449 0 -0.1534952941679589 0.036531756123484277 0 -0.1627381302390917 0.015064564631149659 0 -0.1706680095955847 0.028380472888195809 0 -0.1706680095955847 0.028380472888195809 0 -0.17611016344674441 0.012062972139016449 0 -0.1903682467154649 0.02606286076326968 0 -0.17611016344674441 0.012062972139016449 0 -0.19037188188568099 0.0060461956171917134 0 -0.1903682467154649 0.02606286076326968 0 -0.17762949461814681 -0.0032490808770314589 0 -0.17611016344674441 0.012062972139016449 0 -0.19037188188568099 0.0060461956171917134 0 -0.1558713715430691 0.065788592595441786 0 -0.1715021984308148 0.047788526382071372 0 -0.1740877896560841 0.057560550770584397 0 -0.1558713715430691 0.065788592595441786 0 -0.1715021984308148 0.047788526382071372 0 -0.1563748045092706 0.049871846145359618 0 -0.1558713715430691 0.065788592595441786 0 -0.1715021984308148 0.047788526382071372 0 -0.1534952941679589 0.036531756123484277 0 -0.1706680095955847 0.028380472888195809 0 -0.1715021984308148 0.047788526382071372 0 -0.1534952941679589 0.036531756123484277 0 -0.1715021984308148 0.047788526382071372 0 -0.1563748045092706 0.049871846145359618 0 -0.1534952941679589 0.036531756123484277 0 -0.1715021984308148 0.047788526382071372 0 -0.1715021984308148 0.047788526382071372 0 -0.18491989660779551 0.048266279659820499 0 -0.1904484750575422 0.040234985723885799 0 -0.1715021984308148 0.047788526382071372 0 -0.1904484750575422 0.040234985723885799 0 -0.1903682467154649 0.02606286076326968 0 -0.1706680095955847 0.028380472888195809 0 -0.1715021984308148 0.047788526382071372 0 -0.1903682467154649 0.02606286076326968 0 -0.1715021984308148 0.047788526382071372 0 -0.1903682467154649 0.02606286076326968 0 -0.1715021984308148 0.047788526382071372 0 -0.18491989660779551 0.048266279659820499 0 -0.18400502741196181 0.055604499153899922 0 -0.18491989660779551 0.048266279659820499 0 -0.186828294610597 0.053420231161979893 0 -0.1904484750575422 0.040234985723885799 0 -0.18491989660779551 0.048266279659820499 0 -0.186828294610597 0.053420231161979893 0 -0.18400502741196181 0.055604499153899922 0 -0.18491989660779551 0.048266279659820499 0 -0.186828294610597 0.053420231161979893 0 -0.186828294610597 0.053420231161979893 0 -0.18400502741196181 0.055604499153899922 0 -0.1715021984308148 0.047788526382071372 0 -0.18400502741196181 0.055604499153899922 0 -0.1715021984308148 0.047788526382071372 0 -0.1740877896560841 0.057560550770584397 0 -0.18400502741196181 0.055604499153899922 0 -0.16970394640545919 0.066668770189758753 0 -0.1740877896560841 0.057560550770584397 0 -0.18400502741196181 0.055604499153899922 0 -0.16970394640545919 0.066668770189758753 0 -0.18400502741196181 0.055604499153899922 0 -0.18098752727966211 0.067294030595965698 0 -0.18400502741196181 0.055604499153899922 0 -0.1887310325554942 0.058558896720789767 0 -0.186828294610597 0.053420231161979893 0 -0.18400502741196181 0.055604499153899922 0 -0.1887310325554942 0.058558896720789767 0 -0.18400502741196181 0.055604499153899922 0 -0.1887310325554942 0.058558896720789767 0 -0.186828294610597 0.053420231161979893 0 -0.1887310325554942 0.058558896720789767 0 -0.20227822680262 0.056027568539209413 0 -0.1887310325554942 0.058558896720789767 0 -0.20227822680262 0.056027568539209413 0 -0.20714195883444761 0.070068235824542358 0 -0.186828294610597 0.053420231161979893 0 -0.20227822680262 0.056027568539209413 0 -0.20362129301455331 0.040428046461992523 0 -0.186828294610597 0.053420231161979893 0 -0.1887310325554942 0.058558896720789767 0 -0.186828294610597 0.053420231161979893 0 -0.20362129301455331 0.040428046461992523 0 -0.186828294610597 0.053420231161979893 0 -0.1904484750575422 0.040234985723885799 0 -0.20362129301455331 0.040428046461992523 0 -0.1904484750575422 0.040234985723885799 0 -0.20362129301455331 0.040428046461992523 0 -0.20545092096602521 0.025443969914176811 0 -0.20362129301455331 0.040428046461992523 0 -0.22041429141850619 0.027435861762000729 0 -0.20362129301455331 0.040428046461992523 0 -0.22041429141850619 0.027435861762000729 0 -0.21887163737269369 0.043578602590800708 0 -0.20362129301455331 0.040428046461992523 0 -0.21298992196459329 0.051312796453482697 0 -0.21887163737269369 0.043578602590800708 0 -0.21298992196459329 0.051312796453482697 0 -0.22021032285199729 0.050380863762228827 0 -0.21887163737269369 0.043578602590800708 0 -0.21298992196459329 0.051312796453482697 0 -0.2211472124389248 0.056492261755125263 0 -0.22021032285199729 0.050380863762228827 0 -0.21298992196459329 0.051312796453482697 0 -0.21326244784670381 0.059894801670390893 0 -0.2211472124389248 0.056492261755125263 0 -0.20227822680262 0.056027568539209413 0 -0.21326244784670381 0.059894801670390893 0 -0.20714195883444761 0.070068235824542358 0 -0.20227822680262 0.056027568539209413 0 -0.21298992196459329 0.051312796453482697 0 -0.21326244784670381 0.059894801670390893 0 -0.20227822680262 0.056027568539209413 0 -0.20362129301455331 0.040428046461992523 0 -0.21298992196459329 0.051312796453482697 0 -0.1903682467154649 0.02606286076326968 0 -0.2092342950001175 0.0043371951444698227 0 -0.19037188188568099 0.0060461956171917134 0 -0.1903682467154649 0.02606286076326968 0 -0.2092342950001175 0.0043371951444698227 0 -0.19731255905057449 -0.0086261661964318476 0 -0.19037188188568099 0.0060461956171917134 0 -0.2092342950001175 0.0043371951444698227 0 -0.1903682467154649 0.02606286076326968 0 -0.20545092096602521 0.025443969914176811 0 -0.2092342950001175 0.0043371951444698227 0 -0.1904484750575422 0.040234985723885799 0 -0.1903682467154649 0.02606286076326968 0 -0.20545092096602521 0.025443969914176811 0 -0.2092342950001175 0.0043371951444698227 0 -0.22041429141850619 0.027435861762000729 0 -0.20362129301455331 0.040428046461992523 0 -0.20545092096602521 0.025443969914176811 0 -0.22041429141850619 0.027435861762000729 0 -0.20545092096602521 0.025443969914176811 0 -0.2092342950001175 0.0043371951444698227 0 -0.22041429141850619 0.027435861762000729 0 -0.226875588672417 0.0021075384307831881 0 -0.22041429141850619 0.027435861762000729 0 -0.24271989440526179 0.010178758124073159 0 -0.2092342950001175 0.0043371951444698227 0 -0.226875588672417 0.0021075384307831881 0 -0.22041429141850619 0.027435861762000729 0 -0.22041429141850619 0.027435861762000729 0 -0.24271989440526179 0.010178758124073159 0 -0.25675325607999722 0.03198146301353641 0 -0.24271989440526179 0.010178758124073159 0 -0.2409563751068213 0.034101165506869868 0 -0.22041429141850619 0.027435861762000729 0 -0.24271989440526179 0.010178758124073159 0 -0.2409563751068213 0.034101165506869868 0 -0.2278325196317775 0.050139794249506653 0 -0.2313380103943182 0.050005040982023873 0 -0.2211472124389248 0.056492261755125263 0 -0.2278325196317775 0.050139794249506653 0 -0.2313380103943182 0.050005040982023873 0 -0.2313380103943182 0.050005040982023873 0 -0.2211472124389248 0.056492261755125263 0 -0.22275491919293311 0.065573145779594708 0 -0.21326244784670381 0.059894801670390893 0 -0.2211472124389248 0.056492261755125263 0 -0.22275491919293311 0.065573145779594708 0 -0.2278325196317775 0.050139794249506653 0 -0.22021032285199729 0.050380863762228827 0 -0.21887163737269369 0.043578602590800708 0 -0.2278325196317775 0.050139794249506653 0 -0.2313380103943182 0.050005040982023873 0 -0.21887163737269369 0.043578602590800708 0 -0.2278325196317775 0.050139794249506653 0 -0.2211472124389248 0.056492261755125263 0 -0.22021032285199729 0.050380863762228827 0 -0.22041429141850619 0.027435861762000729 0 -0.2313380103943182 0.050005040982023873 0 -0.22041429141850619 0.027435861762000729 0 -0.2313380103943182 0.050005040982023873 0 -0.21887163737269369 0.043578602590800708 0 -0.22041429141850619 0.027435861762000729 0 -0.2313380103943182 0.050005040982023873 0 -0.2409563751068213 0.034101165506869868 0 -0.25350631899672538 0.049152877270517432 0 -0.2313380103943182 0.050005040982023873 0 -0.2409563751068213 0.034101165506869868 0 -0.25350631899672538 0.049152877270517432 0 -0.2313380103943182 0.050005040982023873 0 -0.24178985965075289 0.071599303849051804 0 -0.2313380103943182 0.050005040982023873 0 -0.24178985965075289 0.071599303849051804 0 -0.25350631899672538 0.049152877270517432 0 -0.2313380103943182 0.050005040982023873 0 -0.2313380103943182 0.050005040982023873 0 -0.24178985965075289 0.071599303849051804 0 -0.23107602502496299 0.072365203858349381 0 -0.24178985965075289 0.071599303849051804 0 -0.23892485801773281 0.082364512676763563 0 -0.23107602502496299 0.072365203858349381 0 -0.24396381139235671 0.093086914032044291 0 -0.22555288511340221 0.081577574928293345 0 -0.24396381139235671 0.093086914032044291 0 -0.23892485801773281 0.082364512676763563 0 -0.22555288511340221 0.081577574928293345 0 -0.25224170890718989 0.093193566716078646 0 -0.24178985965075289 0.071599303849051804 0 -0.23892485801773281 0.082364512676763563 0 -0.25224170890718989 0.093193566716078646 0 -0.24178985965075289 0.071599303849051804 0 -0.25224170890718989 0.093193566716078646 0 -0.24396381139235671 0.093086914032044291 0 -0.23892485801773281 0.082364512676763563 0 -0.24396381139235671 0.093086914032044291 0 -0.22555288511340221 0.081577574928293345 0 -0.22775416958533001 0.09558715927902206 0 -0.23892485801773281 0.082364512676763563 0 -0.22555288511340221 0.081577574928293345 0 -0.23107602502496299 0.072365203858349381 0 -0.22555288511340221 0.081577574928293345 0 -0.2125885825419784 0.083142944500887564 0 -0.22775416958533001 0.09558715927902206 0 -0.2313380103943182 0.050005040982023873 0 -0.23107602502496299 0.072365203858349381 0 -0.22275491919293311 0.065573145779594708 0 -0.22555288511340221 0.081577574928293345 0 -0.23107602502496299 0.072365203858349381 0 -0.22275491919293311 0.065573145779594708 0 -0.22555288511340221 0.081577574928293345 0 -0.22275491919293311 0.065573145779594708 0 -0.20714195883444761 0.070068235824542358 0 -0.21326244784670381 0.059894801670390893 0 -0.22275491919293311 0.065573145779594708 0 -0.20714195883444761 0.070068235824542358 0 -0.22555288511340221 0.081577574928293345 0 -0.20714195883444761 0.070068235824542358 0 -0.2125885825419784 0.083142944500887564 0 -0.20696694995732881 0.094268764317547188 0 -0.22775416958533001 0.09558715927902206 0 -0.22555288511340221 0.081577574928293345 0 -0.20714195883444761 0.070068235824542358 0 -0.2125885825419784 0.083142944500887564 0 -0.2125885825419784 0.083142944500887564 0 -0.19754991968253879 0.082375792614336391 0 -0.20696694995732881 0.094268764317547188 0 -0.20714195883444761 0.070068235824542358 0 -0.2125885825419784 0.083142944500887564 0 -0.19754991968253879 0.082375792614336391 0 -0.1887310325554942 0.058558896720789767 0 -0.20714195883444761 0.070068235824542358 0 -0.19754991968253879 0.082375792614336391 0 -0.1887310325554942 0.058558896720789767 0 -0.19754991968253879 0.082375792614336391 0 -0.1887310325554942 0.058558896720789767 0 -0.20714195883444761 0.070068235824542358 0 -0.18098752727966211 0.067294030595965698 0 -0.1887310325554942 0.058558896720789767 0 -0.19754991968253879 0.082375792614336391 0 -0.18373929250058291 0.1190118063607005 0 -0.2063688068095812 0.1061926885078839 0 -0.1963379064472176 0.13379014665304589 0 -0.19754991968253879 0.082375792614336391 0 -0.2063688068095812 0.1061926885078839 0 -0.1802729134358857 0.099801428416140078 0 -0.19754991968253879 0.082375792614336391 0 -0.2063688068095812 0.1061926885078839 0 -0.1802729134358857 0.099801428416140078 0 -0.18373929250058291 0.1190118063607005 0 -0.2063688068095812 0.1061926885078839 0 -0.19754991968253879 0.082375792614336391 0 -0.2063688068095812 0.1061926885078839 0 -0.20696694995732881 0.094268764317547188 0 -0.20696694995732881 0.094268764317547188 0 -0.21568148514149249 0.10122144477396849 0 -0.22775416958533001 0.09558715927902206 0 -0.20696694995732881 0.094268764317547188 0 -0.22775416958533001 0.09558715927902206 0 -0.2063688068095812 0.1061926885078839 0 -0.20696694995732881 0.094268764317547188 0 -0.21568148514149249 0.10122144477396849 0 -0.2063688068095812 0.1061926885078839 0 -0.21568148514149249 0.10122144477396849 0 -0.22163601421373 0.108837166991421 0 -0.2063688068095812 0.1061926885078839 0 -0.21518769393662349 0.1300095844014314 0 -0.2063688068095812 0.1061926885078839 0 -0.22163601421373 0.108837166991421 0 -0.21518769393662349 0.1300095844014314 0 -0.2063688068095812 0.1061926885078839 0 -0.1963379064472176 0.13379014665304589 0 -0.21518769393662349 0.1300095844014314 0 -0.2337850291241261 0.1164138503112349 0 -0.22163601421373 0.108837166991421 0 -0.21518769393662349 0.1300095844014314 0 -0.2337850291241261 0.1164138503112349 0 -0.23872948788450579 0.1267127119881544 0 -0.21518769393662349 0.1300095844014314 0 -0.2337850291241261 0.1164138503112349 0 -0.22163601421373 0.108837166991421 0 -0.23515592639843899 0.1037177360531969 0 -0.21568148514149249 0.10122144477396849 0 -0.22163601421373 0.108837166991421 0 -0.22775416958533001 0.09558715927902206 0 -0.22163601421373 0.108837166991421 0 -0.22775416958533001 0.09558715927902206 0 -0.23515592639843899 0.1037177360531969 0 -0.22775416958533001 0.09558715927902206 0 -0.24549099026799881 0.09996557168935627 0 -0.24854138921333119 0.096905554240497016 0 -0.24396381139235671 0.093086914032044291 0 -0.22775416958533001 0.09558715927902206 0 -0.24854138921333119 0.096905554240497016 0 -0.22775416958533001 0.09558715927902206 0 -0.24854138921333119 0.096905554240497016 0 -0.22775416958533001 0.09558715927902206 0 -0.23515592639843899 0.1037177360531969 0 -0.24549099026799881 0.09996557168935627 0 -0.23515592639843899 0.1037177360531969 0 -0.24424548941141741 0.10934415105054709 0 -0.24285056098377741 0.1043905291433422 0 -0.23515592639843899 0.1037177360531969 0 -0.24285056098377741 0.1043905291433422 0 -0.24549099026799881 0.09996557168935627 0 -0.2537267757006092 0.111130914015088 0 -0.24424548941141741 0.10934415105054709 0 -0.24887979200759811 0.10686338059467219 0 -0.24424548941141741 0.10934415105054709 0 -0.2465098378572543 0.1045346577802687 0 -0.24285056098377741 0.1043905291433422 0 -0.24424548941141741 0.10934415105054709 0 -0.24887979200759811 0.10686338059467219 0 -0.2465098378572543 0.1045346577802687 0 -0.25103706506111162 0.102443799532785 0 -0.24887979200759811 0.10686338059467219 0 -0.2465098378572543 0.1045346577802687 0 -0.25103706506111162 0.102443799532785 0 -0.2465098378572543 0.1045346577802687 0 -0.24549099026799881 0.09996557168935627 0 -0.2465098378572543 0.1045346577802687 0 -0.24285056098377741 0.1043905291433422 0 -0.24549099026799881 0.09996557168935627 0 -0.25224170890718989 0.093193566716078646 0 -0.24396381139235671 0.093086914032044291 0 -0.24854138921333119 0.096905554240497016 0 -0.2507319401646525 0.099061980299433444 0 -0.24549099026799881 0.09996557168935627 0 -0.24854138921333119 0.096905554240497016 0 -0.2507319401646525 0.099061980299433444 0 -0.25103706506111162 0.102443799532785 0 -0.24549099026799881 0.09996557168935627 0 -0.24549099026799881 0.09996557168935627 0 -0.24854138921333119 0.096905554240497016 0 -0.25563846361954728 0.12487276542759269 0 -0.24629320844866159 0.11844477249865901 0 -0.23872948788450579 0.1267127119881544 0 -0.2337850291241261 0.1164138503112349 0 -0.24629320844866159 0.11844477249865901 0 -0.23872948788450579 0.1267127119881544 0 -0.2337850291241261 0.1164138503112349 0 -0.23515592639843899 0.1037177360531969 0 -0.24424548941141741 0.10934415105054709 0 -0.2337850291241261 0.1164138503112349 0 -0.24424548941141741 0.10934415105054709 0 -0.24629320844866159 0.11844477249865901 0 -0.2537267757006092 0.111130914015088 0 -0.24424548941141741 0.10934415105054709 0 -0.24629320844866159 0.11844477249865901 0 -0.25563846361954728 0.12487276542759269 0 -0.239822522341609 0.13934962286128549 0 -0.23872948788450579 0.1267127119881544 0 -0.25563846361954728 0.12487276542759269 0 -0.239822522341609 0.13934962286128549 0 -0.25287529608627263 0.14142201146885999 0 -0.25563846361954728 0.12487276542759269 0 -0.239822522341609 0.13934962286128549 0 -0.239822522341609 0.13934962286128549 0 -0.23872948788450579 0.1267127119881544 0 -0.21518769393662349 0.1300095844014314 0 -0.239822522341609 0.13934962286128549 0 -0.22400658106366961 0.15382648029497731 0 -0.22400658106366961 0.15382648029497731 0 -0.21518769393662349 0.1300095844014314 0 -0.239822522341609 0.13934962286128549 0 -0.22400658106366961 0.15382648029497731 0 -0.21518769393662349 0.1300095844014314 0 -0.22400658106366961 0.15382648029497731 0 -0.24336733059640939 0.1515311308089351 0 -0.2386248185148212 0.16274722366384561 0 -0.239822522341609 0.13934962286128549 0 -0.22400658106366961 0.15382648029497731 0 -0.24336733059640939 0.1515311308089351 0 -0.25287529608627263 0.14142201146885999 0 -0.239822522341609 0.13934962286128549 0 -0.24336733059640939 0.1515311308089351 0 -0.25051315415332509 0.1620637495279168 0 -0.25559483276929412 0.15270395497579789 0 -0.24336733059640939 0.1515311308089351 0 -0.25051315415332509 0.1620637495279168 0 -0.24336733059640939 0.1515311308089351 0 -0.2386248185148212 0.16274722366384561 0 -0.25051315415332509 0.1620637495279168 0 -0.24358627092022719 0.17108314681701589 0 -0.2386248185148212 0.16274722366384561 0 -0.24358627092022719 0.17108314681701589 0 -0.2386248185148212 0.16274722366384561 0 -0.23197413852717799 0.17534421647876969 0 -0.24358627092022719 0.17108314681701589 0 -0.2480363399378111 0.18163070299945519 0 -0.23197413852717799 0.17534421647876969 0 -0.2351094361783079 0.18703597784025891 0 -0.23197413852717799 0.17534421647876969 0 -0.23994169599069021 0.1968619526625606 0 -0.24314976343861669 0.18716440072333321 0 -0.2480363399378111 0.18163070299945519 0 -0.23197413852717799 0.17534421647876969 0 -0.23197413852717799 0.17534421647876969 0 -0.23994169599069021 0.1968619526625606 0 -0.24314976343861669 0.18716440072333321 0 -0.23197413852717799 0.17534421647876969 0 -0.23994169599069021 0.1968619526625606 0 -0.2351094361783079 0.18703597784025891 0 -0.21881937819639549 0.18306954901805891 0 -0.21119749275668431 0.16980302884848511 0 -0.2351094361783079 0.18703597784025891 0 -0.2147279302246228 0.16897077856297199 0 -0.21119749275668431 0.16980302884848511 0 -0.2351094361783079 0.18703597784025891 0 -0.21119749275668431 0.16980302884848511 0 -0.2351094361783079 0.18703597784025891 0 -0.23197413852717799 0.17534421647876969 0 -0.2147279302246228 0.16897077856297199 0 -0.22400658106366961 0.15382648029497731 0 -0.2386248185148212 0.16274722366384561 0 -0.23197413852717799 0.17534421647876969 0 -0.22400658106366961 0.15382648029497731 0 -0.23197413852717799 0.17534421647876969 0 -0.2147279302246228 0.16897077856297199 0 -0.22400658106366961 0.15382648029497731 0 -0.23197413852717799 0.17534421647876969 0 -0.22400658106366961 0.15382648029497731 0 -0.2085985199820786 0.1679299914099924 0 -0.22400658106366961 0.15382648029497731 0 -0.2085985199820786 0.1679299914099924 0 -0.20682514325341461 0.14863107480047619 0 -0.22400658106366961 0.15382648029497731 0 -0.2147279302246228 0.16897077856297199 0 -0.2085985199820786 0.1679299914099924 0 -0.2147279302246228 0.16897077856297199 0 -0.21119749275668431 0.16980302884848511 0 -0.2085985199820786 0.1679299914099924 0 -0.2147279302246228 0.16897077856297199 0 -0.21119749275668431 0.16980302884848511 0 -0.21119749275668431 0.16980302884848511 0 -0.2085985199820786 0.1679299914099924 0 -0.20494090198043799 0.17127793089877599 0 -0.21119749275668431 0.16980302884848511 0 -0.20494090198043799 0.17127793089877599 0 -0.20807306848959781 0.1743107562419052 0 -0.21119749275668431 0.16980302884848511 0 -0.20494090198043799 0.17127793089877599 0 -0.21119749275668431 0.16980302884848511 0 -0.2085985199820786 0.1679299914099924 0 -0.2085985199820786 0.1679299914099924 0 -0.20494090198043799 0.17127793089877599 0 -0.21881937819639549 0.18306954901805891 0 -0.2110603544236116 0.1780573873256284 0 -0.2106590447035758 0.1868673170586308 0 -0.21881937819639549 0.18306954901805891 0 -0.21119749275668431 0.16980302884848511 0 -0.2110603544236116 0.1780573873256284 0 -0.21119749275668431 0.16980302884848511 0 -0.2110603544236116 0.1780573873256284 0 -0.20807306848959781 0.1743107562419052 0 -0.20494090198043799 0.17127793089877599 0 -0.20807306848959781 0.1743107562419052 0 -0.20509352479765669 0.17810467789473231 0 -0.2110603544236116 0.1780573873256284 0 -0.20807306848959781 0.1743107562419052 0 -0.20509352479765669 0.17810467789473231 0 -0.2110603544236116 0.1780573873256284 0 -0.20509352479765669 0.17810467789473231 0 -0.2106590447035758 0.1868673170586308 0 -0.20509352479765669 0.17810467789473231 0 -0.2106590447035758 0.1868673170586308 0 -0.1952475264873548 0.18015060009996881 0 -0.20494090198043799 0.17127793089877599 0 -0.1854381394061482 0.17587542904686271 0 -0.20494090198043799 0.17127793089877599 0 -0.1952475264873548 0.18015060009996881 0 -0.1854381394061482 0.17587542904686271 0 -0.2106590447035758 0.1868673170586308 0 -0.1952475264873548 0.18015060009996881 0 -0.2106590447035758 0.1868673170586308 0 -0.19847081658994559 0.18601309642467989 0 -0.1952475264873548 0.18015060009996881 0 -0.20494090198043799 0.17127793089877599 0 -0.20509352479765669 0.17810467789473231 0 -0.1952475264873548 0.18015060009996881 0 -0.20494090198043799 0.17127793089877599 0 -0.1952475264873548 0.18015060009996881 0 -0.1952475264873548 0.18015060009996881 0 -0.1854381394061482 0.17587542904686271 0 -0.1952475264873548 0.18015060009996881 0 -0.18291276597282929 0.1914410169211663 0 -0.19847081658994559 0.18601309642467989 0 -0.1952475264873548 0.18015060009996881 0 -0.19189668843028609 0.1927597699974134 0 -0.1952475264873548 0.18015060009996881 0 -0.18291276597282929 0.1914410169211663 0 -0.1854381394061482 0.17587542904686271 0 -0.2085985199820786 0.1679299914099924 0 -0.19150167405506091 0.15560857241925871 0 -0.2085985199820786 0.1679299914099924 0 -0.20494090198043799 0.17127793089877599 0 -0.19150167405506091 0.15560857241925871 0 -0.2085985199820786 0.1679299914099924 0 -0.19150167405506091 0.15560857241925871 0 -0.20682514325341461 0.14863107480047619 0 -0.20494090198043799 0.17127793089877599 0 -0.19150167405506091 0.15560857241925871 0 -0.1854381394061482 0.17587542904686271 0 -0.19150167405506091 0.15560857241925871 0 -0.1963379064472176 0.13379014665304589 0 -0.20682514325341461 0.14863107480047619 0 -0.1963379064472176 0.13379014665304589 0 -0.21518769393662349 0.1300095844014314 0 -0.20682514325341461 0.14863107480047619 0 -0.22400658106366961 0.15382648029497731 0 -0.21518769393662349 0.1300095844014314 0 -0.20682514325341461 0.14863107480047619 0 -0.2498792106054224 0.24711269659082949 0 -0.2453003038310721 0.23157970323543309 0 -0.23274307926693019 0.2267461632021131 0 -0.2498792106054224 0.24711269659082949 0 -0.23274307926693019 0.2267461632021131 0 -0.22517149676656881 0.2441925243388971 0 -0.2498792106054224 0.24711269659082949 0 -0.23274307926693019 0.2267461632021131 0 -0.25587681091771458 0.2398974250301425 0 -0.2453003038310721 0.23157970323543309 0 -0.24790925345420239 0.21837968884635159 0 -0.2453003038310721 0.23157970323543309 0 -0.23691998492132599 0.21638843258478249 0 -0.24790925345420239 0.21837968884635159 0 -0.2453003038310721 0.23157970323543309 0 -0.23274307926693019 0.2267461632021131 0 -0.23691998492132599 0.21638843258478249 0 -0.23274307926693019 0.2267461632021131 0 -0.2156069479284379 0.2063796298133965 0 -0.21097816752888451 0.2276665479329944 0 -0.22517149676656881 0.2441925243388971 0 -0.23274307926693019 0.2267461632021131 0 -0.21097816752888451 0.2276665479329944 0 -0.23274307926693019 0.2267461632021131 0 -0.2300931880500762 0.20754965614991319 0 -0.23691998492132599 0.21638843258478249 0 -0.23274307926693019 0.2267461632021131 0 -0.2300931880500762 0.20754965614991319 0 -0.2156069479284379 0.2063796298133965 0 -0.23274307926693019 0.2267461632021131 0 -0.2156069479284379 0.2063796298133965 0 -0.24790925345420239 0.21837968884635159 0 -0.24905124876195489 0.20434550487399289 0 -0.23994169599069021 0.1968619526625606 0 -0.23691998492132599 0.21638843258478249 0 -0.24790925345420239 0.21837968884635159 0 -0.23994169599069021 0.1968619526625606 0 -0.2300931880500762 0.20754965614991319 0 -0.23691998492132599 0.21638843258478249 0 -0.23994169599069021 0.1968619526625606 0 -0.24790925345420239 0.21837968884635159 0 -0.23994169599069021 0.1968619526625606 0 -0.25264687929878737 0.19482073075254741 0 -0.24905124876195489 0.20434550487399289 0 -0.23994169599069021 0.1968619526625606 0 -0.25264687929878737 0.19482073075254741 0 -0.24314976343861669 0.18716440072333321 0 -0.23994169599069021 0.1968619526625606 0 -0.25264687929878737 0.19482073075254741 0 -0.24314976343861669 0.18716440072333321 0 -0.2480363399378111 0.18163070299945519 0 -0.2351094361783079 0.18703597784025891 0 -0.23994169599069021 0.1968619526625606 0 -0.22607056291979699 0.19358403401729229 0 -0.2351094361783079 0.18703597784025891 0 -0.21881937819639549 0.18306954901805891 0 -0.22607056291979699 0.19358403401729229 0 -0.2300931880500762 0.20754965614991319 0 -0.23994169599069021 0.1968619526625606 0 -0.22607056291979699 0.19358403401729229 0 -0.2300931880500762 0.20754965614991319 0 -0.22607056291979699 0.19358403401729229 0 -0.2156069479284379 0.2063796298133965 0 -0.19847081658994559 0.18601309642467989 0 -0.2156069479284379 0.2063796298133965 0 -0.19847081658994559 0.18601309642467989 0 -0.19773692687415559 0.20406914434395251 0 -0.2156069479284379 0.2063796298133965 0 -0.19847081658994559 0.18601309642467989 0 -0.21360991163638171 0.19398697701991749 0 -0.2156069479284379 0.2063796298133965 0 -0.21881937819639549 0.18306954901805891 0 -0.2106590447035758 0.1868673170586308 0 -0.22607056291979699 0.19358403401729229 0 -0.2106590447035758 0.1868673170586308 0 -0.22607056291979699 0.19358403401729229 0 -0.2106590447035758 0.1868673170586308 0 -0.22607056291979699 0.19358403401729229 0 -0.21360991163638171 0.19398697701991749 0 -0.22607056291979699 0.19358403401729229 0 -0.21360991163638171 0.19398697701991749 0 -0.2156069479284379 0.2063796298133965 0 -0.2106590447035758 0.1868673170586308 0 -0.19847081658994559 0.18601309642467989 0 -0.21360991163638171 0.19398697701991749 0 -0.19847081658994559 0.18601309642467989 0 -0.19189668843028609 0.1927597699974134 0 -0.19773692687415559 0.20406914434395251 0 -0.1952475264873548 0.18015060009996881 0 -0.19189668843028609 0.1927597699974134 0 -0.18291276597282929 0.1914410169211663 0 -0.19189668843028609 0.1927597699974134 0 -0.19773692687415559 0.20406914434395251 0 -0.18371151841827221 0.20224801275304391 0 -0.19773692687415559 0.20406914434395251 0 -0.1902467507767911 0.2206255471339561 0 -0.18371151841827221 0.20224801275304391 0 -0.19773692687415559 0.20406914434395251 0 -0.2036421982770672 0.2146852173060749 0 -0.1902467507767911 0.2206255471339561 0 -0.2036421982770672 0.2146852173060749 0 -0.2156069479284379 0.2063796298133965 0 -0.21097816752888451 0.2276665479329944 0 -0.19773692687415559 0.20406914434395251 0 -0.2036421982770672 0.2146852173060749 0 -0.2156069479284379 0.2063796298133965 0 -0.21097816752888451 0.2276665479329944 0 -0.1902467507767911 0.2206255471339561 0 -0.19710535394243531 0.23595794748335419 0 -0.1902467507767911 0.2206255471339561 0 -0.19710535394243531 0.23595794748335419 0 -0.18263626981089939 0.2380315079114185 0 -0.2036421982770672 0.2146852173060749 0 -0.21097816752888451 0.2276665479329944 0 -0.1902467507767911 0.2206255471339561 0 -0.1968140334744525 0.251588671523094 0 -0.19710535394243531 0.23595794748335419 0 -0.18263626981089939 0.2380315079114185 0 -0.1968140334744525 0.251588671523094 0 -0.19710535394243531 0.23595794748335419 0 -0.2094690269940257 0.24332062897680279 0 -0.21097816752888451 0.2276665479329944 0 -0.19710535394243531 0.23595794748335419 0 -0.2094690269940257 0.24332062897680279 0 -0.22517149676656881 0.2441925243388971 0 -0.21097816752888451 0.2276665479329944 0 -0.2094690269940257 0.24332062897680279 0 -0.21359468387016811 0.26233156209033037 0 -0.22517149676656881 0.2441925243388971 0 -0.2094690269940257 0.24332062897680279 0 -0.1561569872286096 0.25291621750349602 0 -0.16903516804290389 0.24609077041774099 0 -0.15278055278043901 0.22964952337558009 0 -0.1819597220915973 0.25742148889250349 0 -0.16903516804290389 0.24609077041774099 0 -0.18263626981089939 0.2380315079114185 0 -0.16903516804290389 0.24609077041774099 0 -0.18263626981089939 0.2380315079114185 0 -0.1690353288070916 0.22637954850833891 0 -0.1968140334744525 0.251588671523094 0 -0.1819597220915973 0.25742148889250349 0 -0.18263626981089939 0.2380315079114185 0 -0.1902467507767911 0.2206255471339561 0 -0.18263626981089939 0.2380315079114185 0 -0.1690353288070916 0.22637954850833891 0 -0.1902467507767911 0.2206255471339561 0 -0.1690353288070916 0.22637954850833891 0 -0.1714996399637532 0.2097503512749602 0 -0.16903516804290389 0.24609077041774099 0 -0.1690353288070916 0.22637954850833891 0 -0.15278055278043901 0.22964952337558009 0 -0.1690353288070916 0.22637954850833891 0 -0.14801359146776319 0.21412959093637751 0 -0.15278055278043901 0.22964952337558009 0 -0.1690353288070916 0.22637954850833891 0 -0.1714996399637532 0.2097503512749602 0 -0.14801359146776319 0.21412959093637751 0 -0.1714996399637532 0.2097503512749602 0 -0.15275252915071541 0.19887515541596421 0 -0.1714996399637532 0.2097503512749602 0 -0.15275252915071541 0.19887515541596421 0 -0.14801359146776319 0.21412959093637751 0 -0.1902467507767911 0.2206255471339561 0 -0.1714996399637532 0.2097503512749602 0 -0.18371151841827221 0.20224801275304391 0 -0.1902467507767911 0.2206255471339561 0 -0.1714996399637532 0.2097503512749602 0 -0.1714996399637532 0.2097503512749602 0 -0.18371151841827221 0.20224801275304391 0 -0.1679763384918182 0.19484224684681481 0 -0.18371151841827221 0.20224801275304391 0 -0.18291276597282929 0.1914410169211663 0 -0.1679763384918182 0.19484224684681481 0 -0.19189668843028609 0.1927597699974134 0 -0.18371151841827221 0.20224801275304391 0 -0.18291276597282929 0.1914410169211663 0 -0.18291276597282929 0.1914410169211663 0 -0.1679763384918182 0.19484224684681481 0 -0.1597217788719128 0.181937694301916 0 -0.1679763384918182 0.19484224684681481 0 -0.15275252915071541 0.19887515541596421 0 -0.1597217788719128 0.181937694301916 0 -0.1714996399637532 0.2097503512749602 0 -0.1679763384918182 0.19484224684681481 0 -0.15275252915071541 0.19887515541596421 0 -0.15275252915071541 0.19887515541596421 0 -0.1340054183376774 0.1879999595569686 0 -0.1597217788719128 0.181937694301916 0 -0.15275252915071541 0.19887515541596421 0 -0.1340054183376774 0.1879999595569686 0 -0.15275252915071541 0.19887515541596421 0 -0.1340054183376774 0.1879999595569686 0 -0.1341230879200058 0.2023709146490589 0 -0.1340054183376774 0.1879999595569686 0 -0.119248063414365 0.19147879552557309 0 -0.1340054183376774 0.1879999595569686 0 -0.1341230879200058 0.2023709146490589 0 -0.119248063414365 0.19147879552557309 0 -0.1341230879200058 0.2023709146490589 0 -0.13083749890433011 0.21535111039961599 0 -0.14801359146776319 0.21412959093637751 0 -0.1341230879200058 0.2023709146490589 0 -0.13083749890433011 0.21535111039961599 0 -0.11988142624518371 0.2063908760598536 0 -0.15275252915071541 0.19887515541596421 0 -0.1341230879200058 0.2023709146490589 0 -0.14801359146776319 0.21412959093637751 0 -0.14801359146776319 0.21412959093637751 0 -0.15278055278043901 0.22964952337558009 0 -0.13132059050776729 0.23195316141537561 0 -0.13083749890433011 0.21535111039961599 0 -0.14801359146776319 0.21412959093637751 0 -0.13132059050776729 0.23195316141537561 0 -0.13083749890433011 0.21535111039961599 0 -0.13132059050776729 0.23195316141537561 0 -0.1194948838533737 0.22157680364291291 0 -0.14011205326633339 0.25176280994308631 0 -0.1196666298983052 0.25606100386546998 0 -0.13132059050776729 0.23195316141537561 0 -0.14011205326633339 0.25176280994308631 0 -0.1561569872286096 0.25291621750349602 0 -0.15278055278043901 0.22964952337558009 0 -0.14011205326633339 0.25176280994308631 0 -0.15278055278043901 0.22964952337558009 0 -0.13132059050776729 0.23195316141537561 0 -0.14011205326633339 0.25176280994308631 0 -0.15278055278043901 0.22964952337558009 0 -0.15785381670874871 0.14823060506498831 0 -0.15730798220102499 0.13096573443779161 0 -0.17440482812804289 0.14328715342852519 0 -0.15785381670874871 0.14823060506498831 0 -0.17440482812804289 0.14328715342852519 0 -0.17403662166480771 0.15764395192802641 0 -0.16675571183368379 0.1179516692646165 0 -0.15730798220102499 0.13096573443779161 0 -0.17440482812804289 0.14328715342852519 0 -0.15730798220102499 0.13096573443779161 0 -0.17440482812804289 0.14328715342852519 0 -0.18373929250058291 0.1190118063607005 0 -0.1963379064472176 0.13379014665304589 0 -0.17440482812804289 0.14328715342852519 0 -0.18373929250058291 0.1190118063607005 0 -0.16675571183368379 0.1179516692646165 0 -0.17440482812804289 0.14328715342852519 0 -0.19150167405506091 0.15560857241925871 0 -0.17440482812804289 0.14328715342852519 0 -0.17403662166480771 0.15764395192802641 0 -0.19150167405506091 0.15560857241925871 0 -0.17440482812804289 0.14328715342852519 0 -0.19150167405506091 0.15560857241925871 0 -0.1963379064472176 0.13379014665304589 0 -0.17440482812804289 0.14328715342852519 0 -0.17403662166480771 0.15764395192802641 0 -0.1854381394061482 0.17587542904686271 0 -0.16098465002603779 0.1652179996804968 0 -0.19150167405506091 0.15560857241925871 0 -0.17403662166480771 0.15764395192802641 0 -0.1854381394061482 0.17587542904686271 0 -0.1854381394061482 0.17587542904686271 0 -0.16098465002603779 0.1652179996804968 0 -0.1854381394061482 0.17587542904686271 0 -0.1597217788719128 0.181937694301916 0 -0.18291276597282929 0.1914410169211663 0 -0.1854381394061482 0.17587542904686271 0 -0.1597217788719128 0.181937694301916 0 -0.1854381394061482 0.17587542904686271 0 -0.1597217788719128 0.181937694301916 0 -0.16098465002603779 0.1652179996804968 0 -0.15785381670874871 0.14823060506498831 0 -0.17403662166480771 0.15764395192802641 0 -0.16098465002603779 0.1652179996804968 0 -0.16098465002603779 0.1652179996804968 0 -0.13653116064592741 0.15456057031413109 0 -0.16098465002603779 0.1652179996804968 0 -0.14393618539997011 0.17251168085514401 0 -0.13653116064592741 0.15456057031413109 0 -0.1340054183376774 0.1879999595569686 0 -0.1597217788719128 0.181937694301916 0 -0.14393618539997011 0.17251168085514401 0 -0.1597217788719128 0.181937694301916 0 -0.16098465002603779 0.1652179996804968 0 -0.14393618539997011 0.17251168085514401 0 -0.1340054183376774 0.1879999595569686 0 -0.1597217788719128 0.181937694301916 0 -0.1340054183376774 0.1879999595569686 0 -0.14393618539997011 0.17251168085514401 0 -0.12930188697382339 0.16991095023558869 0 -0.1340054183376774 0.1879999595569686 0 -0.12930188697382339 0.16991095023558869 0 -0.1136232093229248 0.1761762435035979 0 -0.14393618539997011 0.17251168085514401 0 -0.12930188697382339 0.16991095023558869 0 -0.13653116064592741 0.15456057031413109 0 -0.12930188697382339 0.16991095023558869 0 -0.13653116064592741 0.15456057031413109 0 -0.11847336580900671 0.15893050725294511 0 -0.13653116064592741 0.15456057031413109 0 -0.1408511627547398 0.1374195151201423 0 -0.1207425187645384 0.1384322235583425 0 -0.13653116064592741 0.15456057031413109 0 -0.1207425187645384 0.1384322235583425 0 -0.11847336580900671 0.15893050725294511 0 -0.15785381670874871 0.14823060506498831 0 -0.13653116064592741 0.15456057031413109 0 -0.1408511627547398 0.1374195151201423 0 -0.15785381670874871 0.14823060506498831 0 -0.16098465002603779 0.1652179996804968 0 -0.13653116064592741 0.15456057031413109 0 -0.15785381670874871 0.14823060506498831 0 -0.15730798220102499 0.13096573443779161 0 -0.1408511627547398 0.1374195151201423 0 -0.1363564685314036 0.1193492952157057 0 -0.15730798220102499 0.13096573443779161 0 -0.1408511627547398 0.1374195151201423 0 -0.1363564685314036 0.1193492952157057 0 -0.1408511627547398 0.1374195151201423 0 -0.1207425187645384 0.1384322235583425 0 -0.1207425187645384 0.1384322235583425 0 -0.098889383976463074 0.13140761304360071 0 -0.1133395974862354 0.1147671114347447 0 -0.098889383976463074 0.13140761304360071 0 -0.097972599351277931 0.12100620178921059 0 -0.098889383976463074 0.13140761304360071 0 -0.08551422204947258 0.12599515861236421 0 -0.097972599351277931 0.12100620178921059 0 -0.1207425187645384 0.1384322235583425 0 -0.098889383976463074 0.13140761304360071 0 -0.10075649214799159 0.1525909525271269 0 -0.098889383976463074 0.13140761304360071 0 -0.10075649214799159 0.1525909525271269 0 -0.098889383976463074 0.13140761304360071 0 -0.10075649214799159 0.1525909525271269 0 -0.08504885861471477 0.1473460131505539 0 -0.1207425187645384 0.1384322235583425 0 -0.10075649214799159 0.1525909525271269 0 -0.11847336580900671 0.15893050725294511 0 -0.12930188697382339 0.16991095023558869 0 -0.11847336580900671 0.15893050725294511 0 -0.1136232093229248 0.1761762435035979 0 -0.10075649214799159 0.1525909525271269 0 -0.11847336580900671 0.15893050725294511 0 -0.1101554440103359 0.16566965245828291 0 -0.11847336580900671 0.15893050725294511 0 -0.1101554440103359 0.16566965245828291 0 -0.1136232093229248 0.1761762435035979 0 -0.1340054183376774 0.1879999595569686 0 -0.1136232093229248 0.1761762435035979 0 -0.1340054183376774 0.1879999595569686 0 -0.1136232093229248 0.1761762435035979 0 -0.119248063414365 0.19147879552557309 0 -0.1136232093229248 0.1761762435035979 0 -0.1099963953869664 0.18409674063350079 0 -0.119248063414365 0.19147879552557309 0 -0.1026236003195225 0.173774292010653 0 -0.1044907084910531 0.19495763149417911 0 -0.1026236003195225 0.173774292010653 0 -0.089702938285624548 0.18362787192609481 0 -0.1044907084910531 0.19495763149417911 0 -0.1099963953869664 0.18409674063350079 0 -0.1026236003195225 0.173774292010653 0 -0.1044907084910531 0.19495763149417911 0 -0.1136232093229248 0.1761762435035979 0 -0.1099963953869664 0.18409674063350079 0 -0.1026236003195225 0.173774292010653 0 -0.10075649214799159 0.1525909525271269 0 -0.1026236003195225 0.173774292010653 0 -0.089725748187095902 0.15948279836214019 0 -0.10075649214799159 0.1525909525271269 0 -0.1101554440103359 0.16566965245828291 0 -0.1026236003195225 0.173774292010653 0 -0.10075649214799159 0.1525909525271269 0 -0.1026236003195225 0.173774292010653 0 -0.1101554440103359 0.16566965245828291 0 -0.1136232093229248 0.1761762435035979 0 -0.1026236003195225 0.173774292010653 0 -0.1026236003195225 0.173774292010653 0 -0.089725748187095902 0.15948279836214019 0 -0.086955301905250415 0.1707908477345296 0 -0.086955301905250415 0.1707908477345296 0 -0.075117105613350554 0.17646616613762259 0 -0.077607117120658611 0.16060311023613741 0 -0.089725748187095902 0.15948279836214019 0 -0.086955301905250415 0.1707908477345296 0 -0.077607117120658611 0.16060311023613741 0 -0.1026236003195225 0.173774292010653 0 -0.086955301905250415 0.1707908477345296 0 -0.089702938285624548 0.18362787192609481 0 -0.086955301905250415 0.1707908477345296 0 -0.089702938285624548 0.18362787192609481 0 -0.075117105613350554 0.17646616613762259 0 -0.089702938285624548 0.18362787192609481 0 -0.075117105613350554 0.17646616613762259 0 -0.077028141837123421 0.19040466546968671 0 -0.075117105613350554 0.17646616613762259 0 -0.077028141837123421 0.19040466546968671 0 -0.067644084561042886 0.1887409641118841 0 -0.075117105613350554 0.17646616613762259 0 -0.062584921784463426 0.17852984384818121 0 -0.060516634146410828 0.1649331521897073 0 -0.075117105613350554 0.17646616613762259 0 -0.062584921784463426 0.17852984384818121 0 -0.067644084561042886 0.1887409641118841 0 -0.077607117120658611 0.16060311023613741 0 -0.073015428097942009 0.14546415540103599 0 -0.060516634146410828 0.1649331521897073 0 -0.075117105613350554 0.17646616613762259 0 -0.077607117120658611 0.16060311023613741 0 -0.060516634146410828 0.1649331521897073 0 -0.075117105613350554 0.17646616613762259 0 -0.060516634146410828 0.1649331521897073 0 -0.073015428097942009 0.14546415540103599 0 -0.056438441635230291 0.14056488363299899 0 -0.060516634146410828 0.1649331521897073 0 -0.073015428097942009 0.14546415540103599 0 -0.060516634146410828 0.1649331521897073 0 -0.073015428097942009 0.14546415540103599 0 -0.069882452741786491 0.12955719013264461 0 -0.08551422204947258 0.12599515861236421 0 -0.073015428097942009 0.14546415540103599 0 -0.069882452741786491 0.12955719013264461 0 -0.056438441635230291 0.14056488363299899 0 -0.098889383976463074 0.13140761304360071 0 -0.08504885861471477 0.1473460131505539 0 -0.098889383976463074 0.13140761304360071 0 -0.08551422204947258 0.12599515861236421 0 -0.08504885861471477 0.1473460131505539 0 -0.073015428097942009 0.14546415540103599 0 -0.08551422204947258 0.12599515861236421 0 -0.073015428097942009 0.14546415540103599 0 -0.08551422204947258 0.12599515861236421 0 -0.08504885861471477 0.1473460131505539 0 -0.10075649214799159 0.1525909525271269 0 -0.089725748187095902 0.15948279836214019 0 -0.08504885861471477 0.1473460131505539 0 -0.077607117120658611 0.16060311023613741 0 -0.073015428097942009 0.14546415540103599 0 -0.08504885861471477 0.1473460131505539 0 -0.089725748187095902 0.15948279836214019 0 -0.077607117120658611 0.16060311023613741 0 -0.08504885861471477 0.1473460131505539 0 -0.10796844028772359 0.23752304096897259 0 -0.087976805658038351 0.21958360790298301 0 -0.086257113397531657 0.2469591892024825 0 -0.098897121375088048 0.26138899404751581 0 -0.10796844028772359 0.23752304096897259 0 -0.086257113397531657 0.2469591892024825 0 -0.10796844028772359 0.23752304096897259 0 -0.086257113397531657 0.2469591892024825 0 -0.1196666298983052 0.25606100386546998 0 -0.13132059050776729 0.23195316141537561 0 -0.10796844028772359 0.23752304096897259 0 -0.10796844028772359 0.23752304096897259 0 -0.1194948838533737 0.22157680364291291 0 -0.1061750749705119 0.2140676688734196 0 -0.13132059050776729 0.23195316141537561 0 -0.10796844028772359 0.23752304096897259 0 -0.1194948838533737 0.22157680364291291 0 -0.10796844028772359 0.23752304096897259 0 -0.1061750749705119 0.2140676688734196 0 -0.087976805658038351 0.21958360790298301 0 -0.096091254714621557 0.20699772345656209 0 -0.1061750749705119 0.2140676688734196 0 -0.087976805658038351 0.21958360790298301 0 -0.1061750749705119 0.2140676688734196 0 -0.1044907084910531 0.19495763149417911 0 -0.096091254714621557 0.20699772345656209 0 -0.1061750749705119 0.2140676688734196 0 -0.1044907084910531 0.19495763149417911 0 -0.1194948838533737 0.22157680364291291 0 -0.1061750749705119 0.2140676688734196 0 -0.11988142624518371 0.2063908760598536 0 -0.1061750749705119 0.2140676688734196 0 -0.11988142624518371 0.2063908760598536 0 -0.1044907084910531 0.19495763149417911 0 -0.13083749890433011 0.21535111039961599 0 -0.1194948838533737 0.22157680364291291 0 -0.11988142624518371 0.2063908760598536 0 -0.11988142624518371 0.2063908760598536 0 -0.119248063414365 0.19147879552557309 0 -0.1044907084910531 0.19495763149417911 0 -0.1341230879200058 0.2023709146490589 0 -0.11988142624518371 0.2063908760598536 0 -0.119248063414365 0.19147879552557309 0 -0.119248063414365 0.19147879552557309 0 -0.1044907084910531 0.19495763149417911 0 -0.1099963953869664 0.18409674063350079 0 -0.119248063414365 0.19147879552557309 0 -0.1044907084910531 0.19495763149417911 0 -0.1044907084910531 0.19495763149417911 0 -0.085722429738883416 0.1993819855556688 0 -0.096091254714621557 0.20699772345656209 0 -0.1044907084910531 0.19495763149417911 0 -0.085722429738883416 0.1993819855556688 0 -0.089702938285624548 0.18362787192609481 0 -0.085722429738883416 0.1993819855556688 0 -0.077028141837123421 0.19040466546968671 0 -0.089702938285624548 0.18362787192609481 0 -0.1044907084910531 0.19495763149417911 0 -0.085722429738883416 0.1993819855556688 0 -0.077028141837123421 0.19040466546968671 0 -0.067644084561042886 0.1887409641118841 0 -0.06695415098671488 0.20380633961716341 0 -0.085722429738883416 0.1993819855556688 0 -0.06695415098671488 0.20380633961716341 0 -0.085722429738883416 0.1993819855556688 0 -0.077028141837123421 0.19040466546968671 0 -0.06695415098671488 0.20380633961716341 0 -0.067644084561042886 0.1887409641118841 0 -0.06695415098671488 0.20380633961716341 0 -0.067644084561042886 0.1887409641118841 0 -0.06695415098671488 0.20380633961716341 0 -0.056761886820839998 0.19674677517459191 0 -0.06695415098671488 0.20380633961716341 0 -0.065749968747025947 0.2301008385265772 0 -0.06695415098671488 0.20380633961716341 0 -0.087976805658038351 0.21958360790298301 0 -0.065749968747025947 0.2301008385265772 0 -0.085722429738883416 0.1993819855556688 0 -0.06695415098671488 0.20380633961716341 0 -0.087976805658038351 0.21958360790298301 0 -0.096091254714621557 0.20699772345656209 0 -0.085722429738883416 0.1993819855556688 0 -0.087976805658038351 0.21958360790298301 0 -0.087976805658038351 0.21958360790298301 0 -0.065749968747025947 0.2301008385265772 0 -0.086257113397531657 0.2469591892024825 0 -0.064532105456722777 0.25669407657912152 0 -0.065749968747025947 0.2301008385265772 0 -0.066940464982028797 0.25561490050677271 0 -0.064532105456722777 0.25669407657912152 0 -0.065749968747025947 0.2301008385265772 0 -0.066940464982028797 0.25561490050677271 0 -0.065749968747025947 0.2301008385265772 0 -0.086257113397531657 0.2469591892024825 0 -0.033006414783980018 0.25075648550602969 0 -0.038770958248382177 0.23570009564498909 0 -0.033006414783980018 0.25075648550602969 0 -0.038770958248382177 0.23570009564498909 0 -0.024001247809347991 0.24240171686821721 0 -0.045721374541129872 0.25019806481750589 0 -0.038770958248382177 0.23570009564498909 0 -0.051628994057909008 0.2356431253527605 0 -0.045721374541129872 0.25019806481750589 0 -0.033006414783980018 0.25075648550602969 0 -0.038770958248382177 0.23570009564498909 0 -0.064532105456722777 0.25669407657912152 0 -0.065749968747025947 0.2301008385265772 0 -0.051628994057909008 0.2356431253527605 0 -0.064532105456722777 0.25669407657912152 0 -0.045721374541129872 0.25019806481750589 0 -0.051628994057909008 0.2356431253527605 0 -0.051628994057909008 0.2356431253527605 0 -0.054656559967405163 0.2197747562727814 0 -0.04032931633617115 0.22168965941871679 0 -0.065749968747025947 0.2301008385265772 0 -0.051628994057909008 0.2356431253527605 0 -0.054656559967405163 0.2197747562727814 0 -0.038770958248382177 0.23570009564498909 0 -0.04032931633617115 0.22168965941871679 0 -0.019961608572001431 0.2281045002201314 0 -0.038770958248382177 0.23570009564498909 0 -0.051628994057909008 0.2356431253527605 0 -0.04032931633617115 0.22168965941871679 0 -0.04032931633617115 0.22168965941871679 0 -0.033479950430138107 0.20704738420999011 0 -0.047879376618536557 0.20830294564919369 0 -0.06695415098671488 0.20380633961716341 0 -0.054656559967405163 0.2197747562727814 0 -0.047879376618536557 0.20830294564919369 0 -0.06695415098671488 0.20380633961716341 0 -0.047879376618536557 0.20830294564919369 0 -0.06695415098671488 0.20380633961716341 0 -0.065749968747025947 0.2301008385265772 0 -0.054656559967405163 0.2197747562727814 0 -0.054656559967405163 0.2197747562727814 0 -0.04032931633617115 0.22168965941871679 0 -0.047879376618536557 0.20830294564919369 0 -0.06695415098671488 0.20380633961716341 0 -0.047879376618536557 0.20830294564919369 0 -0.056761886820839998 0.19674677517459191 0 -0.067644084561042886 0.1887409641118841 0 -0.056761886820839998 0.19674677517459191 0 -0.04699829228827479 0.1859902681998489 0 -0.047879376618536557 0.20830294564919369 0 -0.056761886820839998 0.19674677517459191 0 -0.04699829228827479 0.1859902681998489 0 -0.033479950430138107 0.20704738420999011 0 -0.02594145756373566 0.19414119892466319 0 -0.04699829228827479 0.1859902681998489 0 -0.033479950430138107 0.20704738420999011 0 -0.047879376618536557 0.20830294564919369 0 -0.04699829228827479 0.1859902681998489 0 -0.033479950430138107 0.20704738420999011 0 -0.04699829228827479 0.1859902681998489 0 -0.02594145756373566 0.19414119892466319 0 -0.01065880163388905 0.18931044162853 0 -0.01480871629230574 0.2086641976589341 0 -0.01065880163388905 0.18931044162853 0 -0.01480871629230574 0.2086641976589341 0 0.002994450514389649 0.2076203535180253 0 -0.01065880163388905 0.18931044162853 0 0.005530717151312493 0.18688426262987709 0 0.002994450514389649 0.2076203535180253 0 -0.01480871629230574 0.2086641976589341 0 -0.002514451185983679 0.22556791043697519 0 0.002994450514389649 0.2076203535180253 0 -0.033479950430138107 0.20704738420999011 0 -0.02594145756373566 0.19414119892466319 0 -0.01480871629230574 0.2086641976589341 0 -0.033479950430138107 0.20704738420999011 0 -0.01480871629230574 0.2086641976589341 0 -0.019961608572001431 0.2281045002201314 0 -0.033479950430138107 0.20704738420999011 0 -0.019961608572001431 0.2281045002201314 0 -0.04032931633617115 0.22168965941871679 0 -0.033479950430138107 0.20704738420999011 0 -0.019961608572001431 0.2281045002201314 0 -0.01480871629230574 0.2086641976589341 0 -0.019961608572001431 0.2281045002201314 0 -0.002514451185983679 0.22556791043697519 0 -0.019961608572001431 0.2281045002201314 0 -0.002514451185983679 0.22556791043697519 0 -0.0064432667138646423 0.2491616162302725 0 -0.019961608572001431 0.2281045002201314 0 -0.0064432667138646423 0.2491616162302725 0 -0.019961608572001431 0.2281045002201314 0 -0.0064432667138646423 0.2491616162302725 0 -0.024001247809347991 0.24240171686821721 0 -0.038770958248382177 0.23570009564498909 0 -0.019961608572001431 0.2281045002201314 0 -0.024001247809347991 0.24240171686821721 0 -0.019896289029085499 0.252478914049303 0 -0.0064432667138646423 0.2491616162302725 0 -0.024001247809347991 0.24240171686821721 0 -0.033006414783980018 0.25075648550602969 0 -0.019896289029085499 0.252478914049303 0 -0.024001247809347991 0.24240171686821721 0 -0.040275784216688433 0.1489447640691095 0 -0.036049378254240552 0.15566086217801811 0 -0.027966601727779459 0.14746219950982839 0 -0.040275784216688433 0.1489447640691095 0 -0.039637161142945278 0.1322050635158796 0 -0.056438441635230291 0.14056488363299899 0 -0.039637161142945278 0.1322050635158796 0 -0.020034934286965948 0.1329563759485119 0 -0.038059843517016648 0.1162246424016927 0 -0.040275784216688433 0.1489447640691095 0 -0.039637161142945278 0.1322050635158796 0 -0.020034934286965948 0.1329563759485119 0 -0.069882452741786491 0.12955719013264461 0 -0.056438441635230291 0.14056488363299899 0 -0.057822061703216472 0.11968666208396619 0 -0.039637161142945278 0.1322050635158796 0 -0.056438441635230291 0.14056488363299899 0 -0.057822061703216472 0.11968666208396619 0 -0.040275784216688433 0.1489447640691095 0 -0.056438441635230291 0.14056488363299899 0 -0.060516634146410828 0.1649331521897073 0 -0.040275784216688433 0.1489447640691095 0 -0.060516634146410828 0.1649331521897073 0 -0.040275784216688433 0.1489447640691095 0 -0.060516634146410828 0.1649331521897073 0 -0.040304008845679272 0.16621696834340441 0 -0.062584921784463426 0.17852984384818121 0 -0.060516634146410828 0.1649331521897073 0 -0.04699829228827479 0.1859902681998489 0 -0.060516634146410828 0.1649331521897073 0 -0.04699829228827479 0.1859902681998489 0 -0.040304008845679272 0.16621696834340441 0 -0.062584921784463426 0.17852984384818121 0 -0.067644084561042886 0.1887409641118841 0 -0.04699829228827479 0.1859902681998489 0 -0.060516634146410828 0.1649331521897073 0 -0.04699829228827479 0.1859902681998489 0 -0.02594145756373566 0.19414119892466319 0 -0.04699829228827479 0.1859902681998489 0 -0.02763594108550451 0.17823686328065971 0 -0.04699829228827479 0.1859902681998489 0 -0.040304008845679272 0.16621696834340441 0 -0.02763594108550451 0.17823686328065971 0 -0.040275784216688433 0.1489447640691095 0 -0.036049378254240552 0.15566086217801811 0 -0.040304008845679272 0.16621696834340441 0 -0.040304008845679272 0.16621696834340441 0 -0.029126326966670169 0.16229084107176839 0 -0.02763594108550451 0.17823686328065971 0 -0.036049378254240552 0.15566086217801811 0 -0.040304008845679272 0.16621696834340441 0 -0.029126326966670169 0.16229084107176839 0 -0.029126326966670169 0.16229084107176839 0 -0.01971777034698223 0.16685013375688171 0 -0.02270885543661234 0.15511729433805499 0 -0.029126326966670169 0.16229084107176839 0 -0.01971777034698223 0.16685013375688171 0 -0.02763594108550451 0.17823686328065971 0 -0.036049378254240552 0.15566086217801811 0 -0.029126326966670169 0.16229084107176839 0 -0.02270885543661234 0.15511729433805499 0 -0.029126326966670169 0.16229084107176839 0 -0.02270885543661234 0.15511729433805499 0 -0.01971777034698223 0.16685013375688171 0 -0.0082044995922173486 0.16529879351791019 0 -0.02270885543661234 0.15511729433805499 0 -0.01065880163388905 0.18931044162853 0 -0.02763594108550451 0.17823686328065971 0 -0.013821832701692439 0.17545552416234581 0 -0.02594145756373566 0.19414119892466319 0 -0.01065880163388905 0.18931044162853 0 -0.02763594108550451 0.17823686328065971 0 -0.01971777034698223 0.16685013375688171 0 -0.02763594108550451 0.17823686328065971 0 -0.013821832701692439 0.17545552416234581 0 -0.01065880163388905 0.18931044162853 0 -0.00066678288636045735 0.1756596103060159 0 0.005530717151312493 0.18688426262987709 0 -0.01065880163388905 0.18931044162853 0 -0.013821832701692439 0.17545552416234581 0 -0.00066678288636045735 0.1756596103060159 0 -0.013821832701692439 0.17545552416234581 0 -0.00066678288636045735 0.1756596103060159 0 -0.0082044995922173486 0.16529879351791019 0 -0.0082044995922173486 0.16529879351791019 0 -0.02270885543661234 0.15511729433805499 0 0.0027224720211904171 0.15408107919694911 0 -0.01971777034698223 0.16685013375688171 0 -0.013821832701692439 0.17545552416234581 0 -0.0082044995922173486 0.16529879351791019 0 -0.00066678288636045735 0.1756596103060159 0 -0.0082044995922173486 0.16529879351791019 0 0.0023225906084136461 0.16431012966403941 0 -0.0082044995922173486 0.16529879351791019 0 0.0027224720211904171 0.15408107919694911 0 0.0023225906084136461 0.16431012966403941 0 -0.01066479710347102 0.1416542637797491 0 -0.02270885543661234 0.15511729433805499 0 0.0027224720211904171 0.15408107919694911 0 -0.02270885543661234 0.15511729433805499 0 0.0027224720211904171 0.15408107919694911 0 -0.01066479710347102 0.1416542637797491 0 -0.0032784921157148362 0.13339774035445531 0 0.0027224720211904171 0.15408107919694911 0 -0.01066479710347102 0.1416542637797491 0 0.0027224720211904171 0.15408107919694911 0 -0.040275784216688433 0.1489447640691095 0 -0.020034934286965948 0.1329563759485119 0 -0.040275784216688433 0.1489447640691095 0 -0.027966601727779459 0.14746219950982839 0 -0.020034934286965948 0.1329563759485119 0 -0.01066479710347102 0.1416542637797491 0 -0.02270885543661234 0.15511729433805499 0 -0.020764056444393521 0.14463170101544429 0 -0.027966601727779459 0.14746219950982839 0 -0.020034934286965948 0.1329563759485119 0 -0.01066479710347102 0.1416542637797491 0 -0.02270885543661234 0.15511729433805499 0 -0.020764056444393521 0.14463170101544429 0 -0.036049378254240552 0.15566086217801811 0 -0.02270885543661234 0.15511729433805499 0 -0.02270885543661234 0.15511729433805499 0 -0.020764056444393521 0.14463170101544429 0 -0.027966601727779459 0.14746219950982839 0 -0.036049378254240552 0.15566086217801811 0 -0.02270885543661234 0.15511729433805499 0 -0.027966601727779459 0.14746219950982839 0 -0.01066479710347102 0.1416542637797491 0 -0.020764056444393521 0.14463170101544429 0 -0.020034934286965948 0.1329563759485119 0 -0.020034934286965948 0.1329563759485119 0 -0.0097347287255412831 0.13505414061453269 0 -0.0069990004284123941 0.12897611102691631 0 -0.020034934286965948 0.1329563759485119 0 -0.0087663362091222122 0.12405523196151801 0 -0.020034934286965948 0.1329563759485119 0 -0.0069990004284123941 0.12897611102691631 0 -0.0087663362091222122 0.12405523196151801 0 -0.01066479710347102 0.1416542637797491 0 -0.020034934286965948 0.1329563759485119 0 -0.01066479710347102 0.1416542637797491 0 -0.0097347287255412831 0.13505414061453269 0 -0.0032784921157148362 0.13339774035445531 0 -0.01066479710347102 0.1416542637797491 0 -0.020034934286965948 0.1329563759485119 0 -0.0097347287255412831 0.13505414061453269 0 -0.01066479710347102 0.1416542637797491 0 -0.0032784921157148362 0.13339774035445531 0 -0.0069990004284123941 0.12897611102691631 0 -0.00051212702146090968 0.13030545561378071 0 -0.0087663362091222122 0.12405523196151801 0 -0.0032784921157148362 0.13339774035445531 0 -0.0069990004284123941 0.12897611102691631 0 -0.0097347287255412831 0.13505414061453269 0 -0.0032784921157148362 0.13339774035445531 0 -0.0069990004284123941 0.12897611102691631 0 -0.0032784921157148362 0.13339774035445531 0 -0.0069990004284123941 0.12897611102691631 0 -0.00051212702146090968 0.13030545561378071 0 -0.0032784921157148362 0.13339774035445531 0 -0.00051212702146090968 0.13030545561378071 0 -0.00051212702146090968 0.13030545561378071 0 -0.014367229090404681 0.1094140175069732 0 0.00081278912941157235 0.11337102329755 0 -0.00051212702146090968 0.13030545561378071 0 -0.014367229090404681 0.1094140175069732 0 -0.00051212702146090968 0.13030545561378071 0 -0.0087663362091222122 0.12405523196151801 0 -0.014367229090404681 0.1094140175069732 0 -0.0087663362091222122 0.12405523196151801 0 -0.014367229090404681 0.1094140175069732 0 -0.021999675661104841 0.1173152239542494 0 -0.014367229090404681 0.1094140175069732 0 -0.012089330049678781 0.09039229322671484 0 0.001813219217490157 0.098840622869778891 0 -0.014367229090404681 0.1094140175069732 0 0.001813219217490157 0.098840622869778891 0 0.00081278912941157235 0.11337102329755 0 -0.014367229090404681 0.1094140175069732 0 -0.02822233115935124 0.08852257940016782 0 -0.014367229090404681 0.1094140175069732 0 -0.012089330049678781 0.09039229322671484 0 -0.02822233115935124 0.08852257940016782 0 -0.014367229090404681 0.1094140175069732 0 -0.029544902765783351 0.1045162368106939 0 -0.02822233115935124 0.08852257940016782 0 -0.020034934286965948 0.1329563759485119 0 -0.0087663362091222122 0.12405523196151801 0 -0.021999675661104841 0.1173152239542494 0 -0.020034934286965948 0.1329563759485119 0 -0.038059843517016648 0.1162246424016927 0 -0.020034934286965948 0.1329563759485119 0 -0.021999675661104841 0.1173152239542494 0 -0.038059843517016648 0.1162246424016927 0 -0.029544902765783351 0.1045162368106939 0 -0.021999675661104841 0.1173152239542494 0 -0.038059843517016648 0.1162246424016927 0 -0.014367229090404681 0.1094140175069732 0 -0.029544902765783351 0.1045162368106939 0 -0.021999675661104841 0.1173152239542494 0 -0.0096345429835677458 0.065306265190434129 0 -0.00019982702239989761 0.079261645462695082 0 0.0032732362247733021 0.059796050185299383 0 -0.0096345429835677458 0.065306265190434129 0 -0.00019982702239989761 0.079261645462695082 0 -0.019470482193728211 0.075922600893959108 0 -0.012089330049678781 0.09039229322671484 0 -0.00019982702239989761 0.079261645462695082 0 -0.019470482193728211 0.075922600893959108 0 -0.012089330049678781 0.09039229322671484 0 -0.00019982702239989761 0.079261645462695082 0 0.001813219217490157 0.098840622869778891 0 -0.012089330049678781 0.09039229322671484 0 -0.02822233115935124 0.08852257940016782 0 -0.019470482193728211 0.075922600893959108 0 -0.019470482193728211 0.075922600893959108 0 -0.042077433228297857 0.067631141293362312 0 -0.023519215477360841 0.061234293861929218 0 -0.02822233115935124 0.08852257940016782 0 -0.019470482193728211 0.075922600893959108 0 -0.042077433228297857 0.067631141293362312 0 -0.0096345429835677458 0.065306265190434129 0 -0.019470482193728211 0.075922600893959108 0 -0.023519215477360841 0.061234293861929218 0 -0.02822233115935124 0.08852257940016782 0 -0.042077433228297857 0.067631141293362312 0 -0.02822233115935124 0.08852257940016782 0 -0.051764299463357727 0.082382412851818104 0 -0.056084752747066313 0.099492908854872553 0 -0.02822233115935124 0.08852257940016782 0 -0.042077433228297857 0.067631141293362312 0 -0.051764299463357727 0.082382412851818104 0 -0.051764299463357727 0.082382412851818104 0 -0.056084752747066313 0.099492908854872553 0 -0.073241527891600877 0.088516909392508697 0 -0.042077433228297857 0.067631141293362312 0 -0.051764299463357727 0.082382412851818104 0 -0.063011889060878609 0.067263195108514903 0 -0.042077433228297857 0.067631141293362312 0 -0.063011889060878609 0.067263195108514903 0 -0.051939558919980158 0.058331625714265881 0 -0.039637161142945278 0.1322050635158796 0 -0.038059843517016648 0.1162246424016927 0 -0.057822061703216472 0.11968666208396619 0 -0.029544902765783351 0.1045162368106939 0 -0.02822233115935124 0.08852257940016782 0 -0.056084752747066313 0.099492908854872553 0 -0.029544902765783351 0.1045162368106939 0 -0.038059843517016648 0.1162246424016927 0 -0.056084752747066313 0.099492908854872553 0 -0.056084752747066313 0.099492908854872553 0 -0.057822061703216472 0.11968666208396619 0 -0.070986581063159832 0.10255748367585429 0 -0.038059843517016648 0.1162246424016927 0 -0.056084752747066313 0.099492908854872553 0 -0.038059843517016648 0.1162246424016927 0 -0.056084752747066313 0.099492908854872553 0 -0.057822061703216472 0.11968666208396619 0 -0.069882452741786491 0.12955719013264461 0 -0.057822061703216472 0.11968666208396619 0 -0.076622110223071055 0.11607509093285789 0 -0.057822061703216472 0.11968666208396619 0 -0.076622110223071055 0.11607509093285789 0 -0.070986581063159832 0.10255748367585429 0 -0.069882452741786491 0.12955719013264461 0 -0.08551422204947258 0.12599515861236421 0 -0.076622110223071055 0.11607509093285789 0 -0.08551422204947258 0.12599515861236421 0 -0.076622110223071055 0.11607509093285789 0 -0.088505399957791303 0.1146736187861724 0 -0.076622110223071055 0.11607509093285789 0 -0.088505399957791303 0.1146736187861724 0 -0.083701774277571764 0.1029418425611586 0 -0.08551422204947258 0.12599515861236421 0 -0.088505399957791303 0.1146736187861724 0 -0.097972599351277931 0.12100620178921059 0 -0.083701774277571764 0.1029418425611586 0 -0.0946930761167218 0.088831345501212133 0 -0.098716293887563061 0.10734980003527091 0 -0.088505399957791303 0.1146736187861724 0 -0.083701774277571764 0.1029418425611586 0 -0.098716293887563061 0.10734980003527091 0 -0.056084752747066313 0.099492908854872553 0 -0.070986581063159832 0.10255748367585429 0 -0.073241527891600877 0.088516909392508697 0 -0.083701774277571764 0.1029418425611586 0 -0.070986581063159832 0.10255748367585429 0 -0.073241527891600877 0.088516909392508697 0 -0.076622110223071055 0.11607509093285789 0 -0.083701774277571764 0.1029418425611586 0 -0.070986581063159832 0.10255748367585429 0 -0.051764299463357727 0.082382412851818104 0 -0.073241527891600877 0.088516909392508697 0 -0.063011889060878609 0.067263195108514903 0 -0.073241527891600877 0.088516909392508697 0 -0.063011889060878609 0.067263195108514903 0 -0.08175876617317468 0.07149343705147429 0 -0.063011889060878609 0.067263195108514903 0 -0.08175876617317468 0.07149343705147429 0 -0.077311809760448422 0.058711127556560161 0 -0.08175876617317468 0.07149343705147429 0 -0.0946930761167218 0.088831345501212133 0 -0.098245119968239564 0.067545834216602665 0 -0.08175876617317468 0.07149343705147429 0 -0.098245119968239564 0.067545834216602665 0 -0.087106984336469961 0.061131278431009108 0 -0.08175876617317468 0.07149343705147429 0 -0.087106984336469961 0.061131278431009108 0 -0.077311809760448422 0.058711127556560161 0 -0.073241527891600877 0.088516909392508697 0 -0.08175876617317468 0.07149343705147429 0 -0.0946930761167218 0.088831345501212133 0 -0.083701774277571764 0.1029418425611586 0 -0.073241527891600877 0.088516909392508697 0 -0.0946930761167218 0.088831345501212133 0 -0.0946930761167218 0.088831345501212133 0 -0.1131635963548715 0.084670364772344284 0 -0.1107833541553347 0.099292514965725456 0 -0.0946930761167218 0.088831345501212133 0 -0.098245119968239564 0.067545834216602665 0 -0.1131635963548715 0.084670364772344284 0 -0.14224002450577769 0.081486108217030506 0 -0.117444545842812 0.065262372677558467 0 -0.1131635963548715 0.084670364772344284 0 -0.098245119968239564 0.067545834216602665 0 -0.117444545842812 0.065262372677558467 0 -0.1131635963548715 0.084670364772344284 0 -0.12778981099600659 0.098126609825887709 0 -0.1133395974862354 0.1147671114347447 0 -0.12778981099600659 0.098126609825887709 0 -0.1131635963548715 0.084670364772344284 0 -0.1107833541553347 0.099292514965725456 0 -0.12778981099600659 0.098126609825887709 0 -0.1107833541553347 0.099292514965725456 0 -0.1133395974862354 0.1147671114347447 0 -0.1363564685314036 0.1193492952157057 0 -0.1207425187645384 0.1384322235583425 0 -0.1133395974862354 0.1147671114347447 0 -0.098889383976463074 0.13140761304360071 0 -0.1133395974862354 0.1147671114347447 0 -0.097972599351277931 0.12100620178921059 0 -0.1133395974862354 0.1147671114347447 0 -0.097972599351277931 0.12100620178921059 0 -0.098716293887563061 0.10734980003527091 0 -0.098889383976463074 0.13140761304360071 0 -0.1133395974862354 0.1147671114347447 0 -0.088505399957791303 0.1146736187861724 0 -0.097972599351277931 0.12100620178921059 0 -0.098716293887563061 0.10734980003527091 0 -0.0946930761167218 0.088831345501212133 0 -0.1107833541553347 0.099292514965725456 0 -0.098716293887563061 0.10734980003527091 0 -0.1107833541553347 0.099292514965725456 0 -0.1133395974862354 0.1147671114347447 0 -0.098716293887563061 0.10734980003527091 0 -0.1165510124474865 0.013436542997165599 0 -0.1119492237980092 0.021832851512830459 0 -0.088089475779733056 0.02121176069810753 0 -0.1041442298649068 0.03034861458740213 0 -0.098706981121097298 0.038709285808018697 0 -0.088089475779733056 0.02121176069810753 0 -0.1041442298649068 0.03034861458740213 0 -0.1119492237980092 0.021832851512830459 0 -0.088089475779733056 0.02121176069810753 0 -0.1165510124474865 0.013436542997165599 0 -0.088089475779733056 0.02121176069810753 0 -0.09881147793708922 0.002346915287544553 0 -0.1165510124474865 0.013436542997165599 0 -0.1023680430338617 -0.0063628978843887456 0 -0.09881147793708922 0.002346915287544553 0 -0.1165510124474865 0.013436542997165599 0 -0.09881147793708922 0.002346915287544553 0 -0.1165510124474865 0.013436542997165599 0 -0.088089475779733056 0.02121176069810753 0 -0.1023680430338617 -0.0063628978843887456 0 -0.1165510124474865 0.013436542997165599 0 -0.1023680430338617 -0.0063628978843887456 0 -0.1165510124474865 0.013436542997165599 0 -0.1177058127232869 0.00098560458045950203 0 -0.1267847382640489 0.0013257330363288431 0 -0.1165510124474865 0.013436542997165599 0 -0.1177058127232869 0.00098560458045950203 0 -0.13027811427585451 0.031275007936020408 0 -0.1165510124474865 0.013436542997165599 0 -0.1119492237980092 0.021832851512830459 0 -0.1041442298649068 0.03034861458740213 0 -0.1119492237980092 0.021832851512830459 0 -0.11259614663326729 0.03770675358572291 0 -0.13027811427585451 0.031275007936020408 0 -0.1165510124474865 0.013436542997165599 0 -0.13027811427585451 0.031275007936020408 0 -0.1119492237980092 0.021832851512830459 0 -0.11259614663326729 0.03770675358572291 0 -0.13027811427585451 0.031275007936020408 0 -0.11259614663326729 0.03770675358572291 0 -0.1235624854866802 0.048923117692270347 0 -0.11259614663326729 0.03770675358572291 0 -0.1235624854866802 0.048923117692270347 0 -0.1048533989758046 0.048986219581033878 0 -0.117444545842812 0.065262372677558467 0 -0.1235624854866802 0.048923117692270347 0 -0.1048533989758046 0.048986219581033878 0 -0.117444545842812 0.065262372677558467 0 -0.1048533989758046 0.048986219581033878 0 -0.092649067179845557 0.049038637138087503 0 -0.117444545842812 0.065262372677558467 0 -0.092649067179845557 0.049038637138087503 0 -0.098245119968239564 0.067545834216602665 0 -0.117444545842812 0.065262372677558467 0 -0.092649067179845557 0.049038637138087503 0 -0.1048533989758046 0.048986219581033878 0 -0.092649067179845557 0.049038637138087503 0 -0.1041442298649068 0.03034861458740213 0 -0.11259614663326729 0.03770675358572291 0 -0.098706981121097298 0.038709285808018697 0 -0.11259614663326729 0.03770675358572291 0 -0.1048533989758046 0.048986219581033878 0 -0.098706981121097298 0.038709285808018697 0 -0.1048533989758046 0.048986219581033878 0 -0.098706981121097298 0.038709285808018697 0 -0.092649067179845557 0.049038637138087503 0 -0.092649067179845557 0.049038637138087503 0 -0.073980712135110566 0.036823891888781601 0 -0.098706981121097298 0.038709285808018697 0 -0.087076261905583041 0.034688532789487921 0 -0.088089475779733056 0.02121176069810753 0 -0.087076261905583041 0.034688532789487921 0 -0.092649067179845557 0.049038637138087503 0 -0.073980712135110566 0.036823891888781601 0 -0.098706981121097298 0.038709285808018697 0 -0.087076261905583041 0.034688532789487921 0 -0.092649067179845557 0.049038637138087503 0 -0.092649067179845557 0.049038637138087503 0 -0.065105993523529901 0.049156934531091302 0 -0.077311809760448422 0.058711127556560161 0 -0.098245119968239564 0.067545834216602665 0 -0.087106984336469961 0.061131278431009108 0 -0.092649067179845557 0.049038637138087503 0 -0.092649067179845557 0.049038637138087503 0 -0.065105993523529901 0.049156934531091302 0 -0.087106984336469961 0.061131278431009108 0 -0.092649067179845557 0.049038637138087503 0 -0.077311809760448422 0.058711127556560161 0 -0.063011889060878609 0.067263195108514903 0 -0.065105993523529901 0.049156934531091302 0 -0.077311809760448422 0.058711127556560161 0 -0.092649067179845557 0.049038637138087503 0 -0.065105993523529901 0.049156934531091302 0 -0.073980712135110566 0.036823891888781601 0 -0.065105993523529901 0.049156934531091302 0 -0.073980712135110566 0.036823891888781601 0 -0.059627939111979091 0.028986978399047569 0 -0.088089475779733056 0.02121176069810753 0 -0.067863398352548732 0.010657354735749251 0 -0.059627939111979091 0.028986978399047569 0 -0.073980712135110566 0.036823891888781601 0 -0.088089475779733056 0.02121176069810753 0 -0.059627939111979091 0.028986978399047569 0 -0.088089475779733056 0.02121176069810753 0 -0.059627939111979091 0.028986978399047569 0 -0.087076261905583041 0.034688532789487921 0 -0.073980712135110566 0.036823891888781601 0 -0.088089475779733056 0.02121176069810753 0 -0.09881147793708922 0.002346915287544553 0 -0.088089475779733056 0.02121176069810753 0 -0.08385371556166199 0.006955179529898995 0 -0.081071943426691204 -0.0087427124220753744 0 -0.09881147793708922 0.002346915287544553 0 -0.08385371556166199 0.006955179529898995 0 -0.088089475779733056 0.02121176069810753 0 -0.08385371556166199 0.006955179529898995 0 -0.067863398352548732 0.010657354735749251 0 -0.081071943426691204 -0.0087427124220753744 0 -0.08385371556166199 0.006955179529898995 0 -0.067863398352548732 0.010657354735749251 0 -0.059074438853090917 -0.0063262455694480932 0 -0.067863398352548732 0.010657354735749251 0 -0.037890332898761973 0.0083381448142095665 0 -0.067863398352548732 0.010657354735749251 0 -0.059627939111979091 0.028986978399047569 0 -0.037890332898761973 0.0083381448142095665 0 -0.059627939111979091 0.028986978399047569 0 -0.037890332898761973 0.0083381448142095665 0 -0.031166402444225031 0.036762196099987633 0 -0.065105993523529901 0.049156934531091302 0 -0.051939558919980158 0.058331625714265881 0 -0.03756291986721428 0.049275231924095018 0 -0.065105993523529901 0.049156934531091302 0 -0.03756291986721428 0.049275231924095018 0 -0.063011889060878609 0.067263195108514903 0 -0.065105993523529901 0.049156934531091302 0 -0.051939558919980158 0.058331625714265881 0 -0.065105993523529901 0.049156934531091302 0 -0.051303792885264932 0.042076656407441612 0 -0.03756291986721428 0.049275231924095018 0 -0.065105993523529901 0.049156934531091302 0 -0.059627939111979091 0.028986978399047569 0 -0.051303792885264932 0.042076656407441612 0 -0.059627939111979091 0.028986978399047569 0 -0.051303792885264932 0.042076656407441612 0 -0.031166402444225031 0.036762196099987633 0 -0.051303792885264932 0.042076656407441612 0 -0.03756291986721428 0.049275231924095018 0 -0.031166402444225031 0.036762196099987633 0 -0.059627939111979091 0.028986978399047569 0 -0.031166402444225031 0.036762196099987633 0 -0.042077433228297857 0.067631141293362312 0 -0.051939558919980158 0.058331625714265881 0 -0.03756291986721428 0.049275231924095018 0 -0.042077433228297857 0.067631141293362312 0 -0.03756291986721428 0.049275231924095018 0 -0.023519215477360841 0.061234293861929218 0 -0.03756291986721428 0.049275231924095018 0 -0.023519215477360841 0.061234293861929218 0 -0.01001984621089852 0.049393529317098728 0 -0.03756291986721428 0.049275231924095018 0 -0.01001984621089852 0.049393529317098728 0 -0.03756291986721428 0.049275231924095018 0 -0.031166402444225031 0.036762196099987633 0 -0.01001984621089852 0.049393529317098728 0 -0.031166402444225031 0.036762196099987633 0 -0.0027048657764709582 0.044537413800927697 0 -0.031166402444225031 0.036762196099987633 0 -0.0027048657764709582 0.044537413800927697 0 -0.01001984621089852 0.049393529317098728 0 -0.031166402444225031 0.036762196099987633 0 -0.0027048657764709582 0.044537413800927697 0 -0.0082790701536378051 0.02169024190974194 0 -0.0096345429835677458 0.065306265190434129 0 -0.023519215477360841 0.061234293861929218 0 -0.01001984621089852 0.049393529317098728 0 -0.0096345429835677458 0.065306265190434129 0 -0.01001984621089852 0.049393529317098728 0 0.0032732362247733021 0.059796050185299383 0 -0.0027048657764709582 0.044537413800927697 0 -0.01001984621089852 0.049393529317098728 0 0.0032732362247733021 0.059796050185299383 0 -0.0083105007237313025 -0.001840793044749302 0 -0.037890332898761973 0.0083381448142095665 0 -0.0082790701536378051 0.02169024190974194 0 -0.037890332898761973 0.0083381448142095665 0 -0.031166402444225031 0.036762196099987633 0 -0.0082790701536378051 0.02169024190974194 0 -0.0083105007237313025 -0.001840793044749302 0 -0.0082790701536378051 0.02169024190974194 0 0.013105670965335461 0.01033346592208974 0 -0.0083105007237313025 -0.001840793044749302 0 0.013105670965335461 0.01033346592208974 0 -0.0082790701536378051 0.02169024190974194 0 0.013105670965335461 0.01033346592208974 0 0.01729200995602698 0.032011023865986317 0 0.013105670965335461 0.01033346592208974 0 0.034521842654402238 0.022507724888928791 0 0.013105670965335461 0.01033346592208974 0 0.01729200995602698 0.032011023865986317 0 0.034521842654402238 0.022507724888928791 0 0.013105670965335461 0.01033346592208974 0 0.02589313575640146 4.8119339443261102e-05 0 0.034521842654402238 0.022507724888928791 0 0.0032732362247733021 0.059796050185299383 0 0.02575667089128305 0.052312631501867747 0 0.017036101115566901 0.07024532137926523 0 -0.0027048657764709582 0.044537413800927697 0 0.0032732362247733021 0.059796050185299383 0 0.02575667089128305 0.052312631501867747 0 -0.0027048657764709582 0.044537413800927697 0 0.02575667089128305 0.052312631501867747 0 -0.0027048657764709582 0.044537413800927697 0 -0.0082790701536378051 0.02169024190974194 0 0.01729200995602698 0.032011023865986317 0 -0.0027048657764709582 0.044537413800927697 0 0.01729200995602698 0.032011023865986317 0 0.02575667089128305 0.052312631501867747 0 0.01729200995602698 0.032011023865986317 0 0.02575667089128305 0.052312631501867747 0 0.04053098177874033 0.04079083697581902 0 0.01729200995602698 0.032011023865986317 0 0.04053098177874033 0.04079083697581902 0 0.034521842654402238 0.022507724888928791 0 0.02575667089128305 0.052312631501867747 0 0.054218207559036842 0.060087849202808352 0 0.033261056729866623 0.070652337634890025 0 0.02575667089128305 0.052312631501867747 0 0.04053098177874033 0.04079083697581902 0 0.054218207559036842 0.060087849202808352 0 0.02575667089128305 0.052312631501867747 0 0.054218207559036842 0.060087849202808352 0 0.04053098177874033 0.04079083697581902 0 0.055938014343469213 0.03468198385576729 0 0.034521842654402238 0.022507724888928791 0 0.04053098177874033 0.04079083697581902 0 0.055938014343469213 0.03468198385576729 0 0.056841139697314698 0.036413475544394322 0 0.056841139697314698 0.036413475544394322 0 0.066653748600325219 0.05522642403156295 0 0.04053098177874033 0.04079083697581902 0 0.056841139697314698 0.036413475544394322 0 0.054218207559036842 0.060087849202808352 0 0.06227457251528324 0.038284070225923762 0 0.056841139697314698 0.036413475544394322 0 0.066653748600325219 0.05522642403156295 0 0.055938014343469213 0.03468198385576729 0 0.06227457251528324 0.038284070225923762 0 0.065443062633216434 0.030324458761950241 0 0.055938014343469213 0.03468198385576729 0 0.06227457251528324 0.038284070225923762 0 0.055938014343469213 0.03468198385576729 0 0.06227457251528324 0.038284070225923762 0 0.056841139697314698 0.036413475544394322 0 0.055938014343469213 0.03468198385576729 0 0.056841139697314698 0.036413475544394322 0 0.056841139697314698 0.036413475544394322 0 0.054218207559036842 0.060087849202808352 0 0.066653748600325219 0.05522642403156295 0 0.056841139697314698 0.036413475544394322 0 0.054218207559036842 0.060087849202808352 0 0.060716568917000537 0.061863093275091437 0 0.054218207559036842 0.060087849202808352 0 0.066653748600325219 0.05522642403156295 0 0.060716568917000537 0.061863093275091437 0 0.054218207559036842 0.060087849202808352 0 0.02589313575640146 4.8119339443261102e-05 0 0.042080612403104629 0.0081142696579518253 0 0.034521842654402238 0.022507724888928791 0 0.055938014343469213 0.03468198385576729 0 0.042080612403104629 0.0081142696579518253 0 0.034521842654402238 0.022507724888928791 0 0.055938014343469213 0.03468198385576729 0 0.034521842654402238 0.022507724888928791 0 0.055938014343469213 0.03468198385576729 0 0.042080612403104629 0.0081142696579518253 0 0.055938014343469213 0.03468198385576729 0 0.059710719275813347 0.010512882009274711 0 0.065443062633216434 0.030324458761950241 0 0.055938014343469213 0.03468198385576729 0 0.059710719275813347 0.010512882009274711 0 0.055938014343469213 0.03468198385576729 0 0.042080612403104629 0.0081142696579518253 0 0.059710719275813347 0.010512882009274711 0 0.042080612403104629 0.0081142696579518253 0 0.059710719275813347 0.010512882009274711 0 0.055066552928941637 -0.0052443292311335123 0 0.059710719275813347 0.010512882009274711 0 0.055066552928941637 -0.0052443292311335123 0 0.059710719275813347 0.010512882009274711 0 0.055066552928941637 -0.0052443292311335123 0 0.067686034631411138 -7.1118521947880633e-05 0 0.059710719275813347 0.010512882009274711 0 0.077097358972952446 0.012913482368873771 0 0.067686034631411138 -7.1118521947880633e-05 0 0.077097358972952446 0.012913482368873771 0 0.081770668825100284 -0.0068354150012594362 0 0.067686034631411138 -7.1118521947880633e-05 0 0.077097358972952446 0.012913482368873771 0 0.101672435913064 0.0097302992205480984 0 0.081770668825100284 -0.0068354150012594362 0 0.085267087013357626 0.03442015284660159 0 0.101672435913064 0.0097302992205480984 0 0.077097358972952446 0.012913482368873771 0 0.085267087013357626 0.03442015284660159 0 0.101672435913064 0.0097302992205480984 0 0.085267087013357626 0.03442015284660159 0 0.10069552665732 0.01717400967389562 0 0.077097358972952446 0.012913482368873771 0 0.065443062633216434 0.030324458761950241 0 0.085267087013357626 0.03442015284660159 0 0.059710719275813347 0.010512882009274711 0 0.077097358972952446 0.012913482368873771 0 0.065443062633216434 0.030324458761950241 0 0.059710719275813347 0.010512882009274711 0 0.065443062633216434 0.030324458761950241 0 0.071218998997078342 0.050123318093536047 0 0.072308184028094788 0.053856846279557918 0 0.085267087013357626 0.03442015284660159 0 0.065443062633216434 0.030324458761950241 0 0.071218998997078342 0.050123318093536047 0 0.085267087013357626 0.03442015284660159 0 0.065443062633216434 0.030324458761950241 0 0.071218998997078342 0.050123318093536047 0 0.06227457251528324 0.038284070225923762 0 0.065443062633216434 0.030324458761950241 0 0.071218998997078342 0.050123318093536047 0 0.06227457251528324 0.038284070225923762 0 0.066653748600325219 0.05522642403156295 0 0.071218998997078342 0.050123318093536047 0 0.060716568917000537 0.061863093275091437 0 0.068759575074523543 0.059263760623063239 0 0.066062114051161872 0.063323407158827241 0 0.060716568917000537 0.061863093275091437 0 0.068759575074523543 0.059263760623063239 0 0.066653748600325219 0.05522642403156295 0 0.068759575074523543 0.059263760623063239 0 0.066062114051161872 0.063323407158827241 0 0.068759575074523543 0.059263760623063239 0 0.071677114926411864 0.064857331862392703 0 0.066062114051161872 0.063323407158827241 0 0.068759575074523543 0.059263760623063239 0 0.071677114926411864 0.064857331862392703 0 0.060716568917000537 0.061863093275091437 0 0.066653748600325219 0.05522642403156295 0 0.068759575074523543 0.059263760623063239 0 0.066653748600325219 0.05522642403156295 0 0.068759575074523543 0.059263760623063239 0 0.066653748600325219 0.05522642403156295 0 0.072308184028094788 0.053856846279557918 0 0.066653748600325219 0.05522642403156295 0 0.071218998997078342 0.050123318093536047 0 0.066653748600325219 0.05522642403156295 0 0.071218998997078342 0.050123318093536047 0 0.072308184028094788 0.053856846279557918 0 0.071218998997078342 0.050123318093536047 0 0.072308184028094788 0.053856846279557918 0 0.068759575074523543 0.059263760623063239 0 0.072308184028094788 0.053856846279557918 0 0.071677114926411864 0.064857331862392703 0 0.072308184028094788 0.053856846279557918 0 0.081850754906575493 0.05996033909633907 0 0.071677114926411864 0.064857331862392703 0 0.068759575074523543 0.059263760623063239 0 0.072308184028094788 0.053856846279557918 0 0.090120675123191024 0.05227321296184425 0 0.081850754906575493 0.05996033909633907 0 0.090905091514370331 0.070110094763600223 0 0.072308184028094788 0.053856846279557918 0 0.090120675123191024 0.05227321296184425 0 0.081850754906575493 0.05996033909633907 0 0.072308184028094788 0.053856846279557918 0 0.090120675123191024 0.05227321296184425 0 0.085267087013357626 0.03442015284660159 0 0.072308184028094788 0.053856846279557918 0 0.085267087013357626 0.03442015284660159 0 0.071218998997078342 0.050123318093536047 0 0.085267087013357626 0.03442015284660159 0 0.085267087013357626 0.03442015284660159 0 0.1067707720130449 0.04616935937774172 0 0.10852544997316579 0.030235519323229341 0 0.090120675123191024 0.05227321296184425 0 0.085267087013357626 0.03442015284660159 0 0.1067707720130449 0.04616935937774172 0 0.1067707720130449 0.04616935937774172 0 0.100338210691736 0.059691152133750279 0 0.1124276252051228 0.068552119680480972 0 0.090120675123191024 0.05227321296184425 0 0.1067707720130449 0.04616935937774172 0 0.100338210691736 0.059691152133750279 0 0.090120675123191024 0.05227321296184425 0 0.100338210691736 0.059691152133750279 0 0.090905091514370331 0.070110094763600223 0 0.1067707720130449 0.04616935937774172 0 0.1124276252051228 0.068552119680480972 0 0.12856218577512679 0.048501867584285818 0 0.1067707720130449 0.04616935937774172 0 0.1236630418475381 0.02857297738493076 0 0.10852544997316579 0.030235519323229341 0 0.1067707720130449 0.04616935937774172 0 0.1236630418475381 0.02857297738493076 0 0.12856218577512679 0.048501867584285818 0 0.12277420080411131 0.01524820118202214 0 0.10069552665732 0.01717400967389562 0 0.10852544997316579 0.030235519323229341 0 0.1236630418475381 0.02857297738493076 0 0.12277420080411131 0.01524820118202214 0 0.10852544997316579 0.030235519323229341 0 0.12277420080411131 0.01524820118202214 0 0.1161239663012833 -7.2133498809336116e-05 0 0.13261671272633771 -0.001436830180237918 0 0.12277420080411131 0.01524820118202214 0 0.10069552665732 0.01717400967389562 0 0.1161239663012833 -7.2133498809336116e-05 0 0.101672435913064 0.0097302992205480984 0 0.10069552665732 0.01717400967389562 0 0.1161239663012833 -7.2133498809336116e-05 0 0.10069552665732 0.01717400967389562 0 0.1161239663012833 -7.2133498809336116e-05 0 0.085267087013357626 0.03442015284660159 0 0.10069552665732 0.01717400967389562 0 0.10852544997316579 0.030235519323229341 0 0.085267087013357626 0.03442015284660159 0 0.101672435913064 0.0097302992205480984 0 0.10069552665732 0.01717400967389562 0 0.098699944910224297 0.093961067727255682 0 0.097270871261298006 0.1139262414949572 0 0.098699944910224297 0.093961067727255682 0 0.097270871261298006 0.1139262414949572 0 0.089316392021622865 0.098675739853914313 0 0.098699944910224297 0.093961067727255682 0 0.097270871261298006 0.1139262414949572 0 0.1165881689887641 0.1043042165108705 0 0.098699944910224297 0.093961067727255682 0 0.093984589132124263 0.091028014100334176 0 0.089316392021622865 0.098675739853914313 0 0.098699944910224297 0.093961067727255682 0 0.089316392021622865 0.098675739853914313 0 0.097270871261298006 0.1139262414949572 0 0.1068746001145553 0.13233872058047669 0 0.097270871261298006 0.1139262414949572 0 0.1186692315941397 0.1207889837057991 0 0.1068746001145553 0.13233872058047669 0 0.097270871261298006 0.1139262414949572 0 0.1186692315941397 0.1207889837057991 0 0.1165881689887641 0.1043042165108705 0 0.1186692315941397 0.1207889837057991 0 0.1165881689887641 0.1043042165108705 0 0.1362238822700754 0.1156453056149508 0 0.1165881689887641 0.1043042165108705 0 0.1176241941356925 0.084452768322920868 0 0.13216351787951891 0.09522120052009328 0 0.098699944910224297 0.093961067727255682 0 0.1165881689887641 0.1043042165108705 0 0.1176241941356925 0.084452768322920868 0 0.1176241941356925 0.084452768322920868 0 0.1245677167389472 0.074262141170996998 0 0.1177675561739112 0.077448472629489826 0 0.1176241941356925 0.084452768322920868 0 0.1177675561739112 0.077448472629489826 0 0.1073444664726084 0.082693526671850648 0 0.1124276252051228 0.068552119680480972 0 0.1339501588958755 0.066994144597365746 0 0.1245677167389472 0.074262141170996998 0 0.1124276252051228 0.068552119680480972 0 0.1339501588958755 0.066994144597365746 0 0.1245677167389472 0.074262141170996998 0 0.1177675561739112 0.077448472629489826 0 0.1124276252051228 0.068552119680480972 0 0.1177675561739112 0.077448472629489826 0 0.090905091514370331 0.070110094763600223 0 0.100338210691736 0.059691152133750279 0 0.1124276252051228 0.068552119680480972 0 0.090905091514370331 0.070110094763600223 0 0.1177675561739112 0.077448472629489826 0 0.1124276252051228 0.068552119680480972 0 0.090905091514370331 0.070110094763600223 0 0.1177675561739112 0.077448472629489826 0 0.1021588157721306 0.078536834543106282 0 0.090905091514370331 0.070110094763600223 0 0.1124276252051228 0.068552119680480972 0 0.090905091514370331 0.070110094763600223 0 0.1021588157721306 0.078536834543106282 0 0.095216613540132389 0.079364208076478107 0 0.090905091514370331 0.070110094763600223 0 0.098699944910224297 0.093961067727255682 0 0.1176241941356925 0.084452768322920868 0 0.098999038297596861 0.089782520697032492 0 0.098699944910224297 0.093961067727255682 0 0.1176241941356925 0.084452768322920868 0 0.1176241941356925 0.084452768322920868 0 0.1073444664726084 0.082693526671850648 0 0.098999038297596861 0.089782520697032492 0 0.1073444664726084 0.082693526671850648 0 0.099560351159631522 0.083067870574108915 0 0.098999038297596861 0.089782520697032492 0 0.1177675561739112 0.077448472629489826 0 0.1073444664726084 0.082693526671850648 0 0.1021588157721306 0.078536834543106282 0 0.1073444664726084 0.082693526671850648 0 0.1021588157721306 0.078536834543106282 0 0.099560351159631522 0.083067870574108915 0 0.1021588157721306 0.078536834543106282 0 0.099560351159631522 0.083067870574108915 0 0.095216613540132389 0.079364208076478107 0 0.099560351159631522 0.083067870574108915 0 0.095216613540132389 0.079364208076478107 0 0.094840834823715234 0.085473007254311409 0 0.094840834823715234 0.085473007254311409 0 0.098999038297596861 0.089782520697032492 0 0.093984589132124263 0.091028014100334176 0 0.099560351159631522 0.083067870574108915 0 0.094840834823715234 0.085473007254311409 0 0.098999038297596861 0.089782520697032492 0 0.098699944910224297 0.093961067727255682 0 0.098999038297596861 0.089782520697032492 0 0.098699944910224297 0.093961067727255682 0 0.098999038297596861 0.089782520697032492 0 0.093984589132124263 0.091028014100334176 0 0.093984589132124263 0.091028014100334176 0 0.089214097247626634 0.087276587491992158 0 0.089316392021622865 0.098675739853914313 0 0.080496753474017135 0.081766535858153619 0 0.07917423468350375 0.096496837737525376 0 0.089316392021622865 0.098675739853914313 0 0.089214097247626634 0.087276587491992158 0 0.080496753474017135 0.081766535858153619 0 0.089316392021622865 0.098675739853914313 0 0.080496753474017135 0.081766535858153619 0 0.089316392021622865 0.098675739853914313 0 0.094840834823715234 0.085473007254311409 0 0.093984589132124263 0.091028014100334176 0 0.089214097247626634 0.087276587491992158 0 0.089214097247626634 0.087276587491992158 0 0.088098837043848965 0.079376019569771417 0 0.080496753474017135 0.081766535858153619 0 0.094840834823715234 0.085473007254311409 0 0.089214097247626634 0.087276587491992158 0 0.088098837043848965 0.079376019569771417 0 0.095216613540132389 0.079364208076478107 0 0.094840834823715234 0.085473007254311409 0 0.088098837043848965 0.079376019569771417 0 0.090905091514370331 0.070110094763600223 0 0.079509326770231259 0.070935012395484456 0 0.071677114926411864 0.064857331862392703 0 0.090905091514370331 0.070110094763600223 0 0.071677114926411864 0.064857331862392703 0 0.081850754906575493 0.05996033909633907 0 0.090905091514370331 0.070110094763600223 0 0.071677114926411864 0.064857331862392703 0 0.088098837043848965 0.079376019569771417 0 0.090905091514370331 0.070110094763600223 0 0.079509326770231259 0.070935012395484456 0 0.095216613540132389 0.079364208076478107 0 0.088098837043848965 0.079376019569771417 0 0.090905091514370331 0.070110094763600223 0 0.090905091514370331 0.070110094763600223 0 0.079509326770231259 0.070935012395484456 0 0.088098837043848965 0.079376019569771417 0 0.080496753474017135 0.081766535858153619 0 0.079509326770231259 0.070935012395484456 0 0.080496753474017135 0.081766535858153619 0 0.079509326770231259 0.070935012395484456 0 0.071677114926411864 0.064857331862392703 0 0.080496753474017135 0.081766535858153619 0 0.071677114926411864 0.064857331862392703 0 0.080496753474017135 0.081766535858153619 0 0.071677114926411864 0.064857331862392703 0 0.064942830685026959 0.078464539535873679 0 0.071677114926411864 0.064857331862392703 0 0.066062114051161872 0.063323407158827241 0 0.064942830685026959 0.078464539535873679 0 0.060716568917000537 0.061863093275091437 0 0.066062114051161872 0.063323407158827241 0 0.071677114926411864 0.064857331862392703 0 0.066062114051161872 0.063323407158827241 0 0.080496753474017135 0.081766535858153619 0 0.070331961221867634 0.089059811686764787 0 0.07917423468350375 0.096496837737525376 0 0.080496753474017135 0.081766535858153619 0 0.070331961221867634 0.089059811686764787 0 0.064942830685026959 0.078464539535873679 0 0.070331961221867634 0.089059811686764787 0 0.064942830685026959 0.078464539535873679 0 0.061684713560938173 0.090581630676042552 0 0.070331961221867634 0.089059811686764787 0 0.067288011053991903 0.09893893390824704 0 0.061684713560938173 0.090581630676042552 0 0.067288011053991903 0.09893893390824704 0 0.06376627093680344 0.1098342623813226 0 0.057607582518017383 0.099695717565294314 0 0.067288011053991903 0.09893893390824704 0 0.076953127976386829 0.1068496329528177 0 0.06376627093680344 0.1098342623813226 0 0.067288011053991903 0.09893893390824704 0 0.076953127976386829 0.1068496329528177 0 0.07917423468350375 0.096496837737525376 0 0.070331961221867634 0.089059811686764787 0 0.067288011053991903 0.09893893390824704 0 0.07917423468350375 0.096496837737525376 0 0.07917423468350375 0.096496837737525376 0 0.082432705108633625 0.1024273194141324 0 0.089316392021622865 0.098675739853914313 0 0.076953127976386829 0.1068496329528177 0 0.07917423468350375 0.096496837737525376 0 0.082432705108633625 0.1024273194141324 0 0.076953127976386829 0.1068496329528177 0 0.082432705108633625 0.1024273194141324 0 0.087727664784618048 0.10968524972788039 0 0.082432705108633625 0.1024273194141324 0 0.089316392021622865 0.098675739853914313 0 0.087727664784618048 0.10968524972788039 0 0.097270871261298006 0.1139262414949572 0 0.089316392021622865 0.098675739853914313 0 0.087727664784618048 0.10968524972788039 0 0.097270871261298006 0.1139262414949572 0 0.089316392021622865 0.098675739853914313 0 0.097270871261298006 0.1139262414949572 0 0.087727664784618048 0.10968524972788039 0 0.085451824536098842 0.1244727930080424 0 0.076953127976386829 0.1068496329528177 0 0.087727664784618048 0.10968524972788039 0 0.073996788731261767 0.119075815415321 0 0.087727664784618048 0.10968524972788039 0 0.085451824536098842 0.1244727930080424 0 0.073996788731261767 0.119075815415321 0 0.076953127976386829 0.1068496329528177 0 0.073996788731261767 0.119075815415321 0 0.06376627093680344 0.1098342623813226 0 0.073996788731261767 0.119075815415321 0 0.06376627093680344 0.1098342623813226 0 0.059680490070760581 0.12287348413860499 0 0.048679902930167843 0.110076139522694 0 0.045941849330689503 0.13478959019291761 0 0.059680490070760581 0.12287348413860499 0 0.048679902930167843 0.110076139522694 0 0.045941849330689503 0.13478959019291761 0 0.06376627093680344 0.1098342623813226 0 0.059680490070760581 0.12287348413860499 0 0.048679902930167843 0.110076139522694 0 0.048679902930167843 0.110076139522694 0 0.051417956529646397 0.085362688852470614 0 0.06376627093680344 0.1098342623813226 0 0.048679902930167843 0.110076139522694 0 0.057607582518017383 0.099695717565294314 0 0.048679902930167843 0.110076139522694 0 0.057607582518017383 0.099695717565294314 0 0.051417956529646397 0.085362688852470614 0 0.067288011053991903 0.09893893390824704 0 0.057607582518017383 0.099695717565294314 0 0.061684713560938173 0.090581630676042552 0 0.048679902930167843 0.110076139522694 0 0.037071654582195912 0.1069537014742199 0 0.051417956529646397 0.085362688852470614 0 0.037071654582195912 0.1069537014742199 0 0.051417956529646397 0.085362688852470614 0 0.037071654582195912 0.1069537014742199 0 0.051417956529646397 0.085362688852470614 0 0.035212741819731962 0.090371656922582116 0 0.048679902930167843 0.110076139522694 0 0.039368754267459477 0.1215529409797292 0 0.045941849330689503 0.13478959019291761 0 0.037071654582195912 0.1069537014742199 0 0.039368754267459477 0.1215529409797292 0 0.022725352634745209 0.1285447140959691 0 0.048679902930167843 0.110076139522694 0 0.037071654582195912 0.1069537014742199 0 0.039368754267459477 0.1215529409797292 0 0.066062114051161872 0.063323407158827241 0 0.064942830685026959 0.078464539535873679 0 0.051417956529646397 0.085362688852470614 0 0.066062114051161872 0.063323407158827241 0 0.051417956529646397 0.085362688852470614 0 0.054218207559036842 0.060087849202808352 0 0.053075176240327593 0.070404757576982058 0 0.033261056729866623 0.070652337634890025 0 0.066062114051161872 0.063323407158827241 0 0.053075176240327593 0.070404757576982058 0 0.051417956529646397 0.085362688852470614 0 0.054218207559036842 0.060087849202808352 0 0.053075176240327593 0.070404757576982058 0 0.060716568917000537 0.061863093275091437 0 0.066062114051161872 0.063323407158827241 0 0.053075176240327593 0.070404757576982058 0 0.060716568917000537 0.061863093275091437 0 0.053075176240327593 0.070404757576982058 0 0.060716568917000537 0.061863093275091437 0 0.054218207559036842 0.060087849202808352 0 0.053075176240327593 0.070404757576982058 0 0.053075176240327593 0.070404757576982058 0 0.051417956529646397 0.085362688852470614 0 0.064942830685026959 0.078464539535873679 0 0.051417956529646397 0.085362688852470614 0 0.061684713560938173 0.090581630676042552 0 0.057607582518017383 0.099695717565294314 0 0.051417956529646397 0.085362688852470614 0 0.061684713560938173 0.090581630676042552 0 0.053075176240327593 0.070404757576982058 0 0.051417956529646397 0.085362688852470614 0 0.035212741819731962 0.090371656922582116 0 0.053075176240327593 0.070404757576982058 0 0.035212741819731962 0.090371656922582116 0 0.053075176240327593 0.070404757576982058 0 0.035212741819731962 0.090371656922582116 0 0.033261056729866623 0.070652337634890025 0 0.02575667089128305 0.052312631501867747 0 0.033261056729866623 0.070652337634890025 0 0.017036101115566901 0.07024532137926523 0 0.033261056729866623 0.070652337634890025 0 0.017036101115566901 0.07024532137926523 0 0.01741226654323183 0.086618356756232057 0 0.035212741819731962 0.090371656922582116 0 0.033261056729866623 0.070652337634890025 0 0.01741226654323183 0.086618356756232057 0 -0.00019982702239989761 0.079261645462695082 0 0.01741226654323183 0.086618356756232057 0 0.001813219217490157 0.098840622869778891 0 -0.00019982702239989761 0.079261645462695082 0 0.017036101115566901 0.07024532137926523 0 0.01741226654323183 0.086618356756232057 0 -0.00019982702239989761 0.079261645462695082 0 0.0032732362247733021 0.059796050185299383 0 0.017036101115566901 0.07024532137926523 0 0.037071654582195912 0.1069537014742199 0 0.022725352634745209 0.1285447140959691 0 0.037071654582195912 0.1069537014742199 0 0.017350307399135251 0.11033855626818111 0 0.022725352634745209 0.1285447140959691 0 0.035212741819731962 0.090371656922582116 0 0.01741226654323183 0.086618356756232057 0 0.017350307399135251 0.11033855626818111 0 0.035212741819731962 0.090371656922582116 0 0.017350307399135251 0.11033855626818111 0 0.037071654582195912 0.1069537014742199 0 0.035212741819731962 0.090371656922582116 0 0.017350307399135251 0.11033855626818111 0 0.017350307399135251 0.11033855626818111 0 0.001813219217490157 0.098840622869778891 0 0.00081278912941157235 0.11337102329755 0 0.01741226654323183 0.086618356756232057 0 0.017350307399135251 0.11033855626818111 0 0.001813219217490157 0.098840622869778891 0 -0.00051212702146090968 0.13030545561378071 0 0.017350307399135251 0.11033855626818111 0 -0.00051212702146090968 0.13030545561378071 0 0.017350307399135251 0.11033855626818111 0 0.00081278912941157235 0.11337102329755 0 -0.00051212702146090968 0.13030545561378071 0 0.017350307399135251 0.11033855626818111 0 0.022725352634745209 0.1285447140959691 0 -0.0032784921157148362 0.13339774035445531 0 -0.00051212702146090968 0.13030545561378071 0 0.01492598608628687 0.15358383948070151 0 -0.00051212702146090968 0.13030545561378071 0 0.022725352634745209 0.1285447140959691 0 0.025782125788599258 0.14323112378188371 0 0.01492598608628687 0.15358383948070151 0 0.01926368907735879 0.16012445196502051 0 0.037444535662421917 0.15266630727303079 0 0.01492598608628687 0.15358383948070151 0 0.037444535662421917 0.15266630727303079 0 0.025782125788599258 0.14323112378188371 0 0.01492598608628687 0.15358383948070151 0 0.037444535662421917 0.15266630727303079 0 -0.00051212702146090968 0.13030545561378071 0 0.025782125788599258 0.14323112378188371 0 0.01492598608628687 0.15358383948070151 0 -0.00051212702146090968 0.13030545561378071 0 0.01492598608628687 0.15358383948070151 0 -0.0032784921157148362 0.13339774035445531 0 0.01492598608628687 0.15358383948070151 0 0.0027224720211904171 0.15408107919694911 0 0.01492598608628687 0.15358383948070151 0 0.0027224720211904171 0.15408107919694911 0 0.0060341813512079746 0.1571551938783152 0 -0.0032784921157148362 0.13339774035445531 0 0.01492598608628687 0.15358383948070151 0 0.01492598608628687 0.15358383948070151 0 0.0027224720211904171 0.15408107919694911 0 0.0027224720211904171 0.15408107919694911 0 0.0060341813512079746 0.1571551938783152 0 0.0027224720211904171 0.15408107919694911 0 0.0060341813512079746 0.1571551938783152 0 0.0023225906084136461 0.16431012966403941 0 0.0060341813512079746 0.1571551938783152 0 0.0023225906084136461 0.16431012966403941 0 0.0097614583142621308 0.16870005726340881 0 -0.00066678288636045735 0.1756596103060159 0 0.0023225906084136461 0.16431012966403941 0 0.0097614583142621308 0.16870005726340881 0 0.0060341813512079746 0.1571551938783152 0 0.0097614583142621308 0.16870005726340881 0 0.01926368907735879 0.16012445196502051 0 0.01492598608628687 0.15358383948070151 0 0.0060341813512079746 0.1571551938783152 0 0.01926368907735879 0.16012445196502051 0 -0.00066678288636045735 0.1756596103060159 0 0.0097614583142621308 0.16870005726340881 0 0.005530717151312493 0.18688426262987709 0 0.0097614583142621308 0.16870005726340881 0 0.005530717151312493 0.18688426262987709 0 0.02366837161014702 0.19131032028084541 0 0.022570651819178299 0.17490377373808369 0 0.036440444924188013 0.18060161738253269 0 0.02366837161014702 0.19131032028084541 0 0.0097614583142621308 0.16870005726340881 0 0.02366837161014702 0.19131032028084541 0 0.0097614583142621308 0.16870005726340881 0 0.022570651819178299 0.17490377373808369 0 0.02366837161014702 0.19131032028084541 0 0.01926368907735879 0.16012445196502051 0 0.036440444924188013 0.18060161738253269 0 0.037444535662421917 0.15266630727303079 0 0.022570651819178299 0.17490377373808369 0 0.01926368907735879 0.16012445196502051 0 0.036440444924188013 0.18060161738253269 0 0.01926368907735879 0.16012445196502051 0 0.036440444924188013 0.18060161738253269 0 0.01492598608628687 0.15358383948070151 0 0.01926368907735879 0.16012445196502051 0 0.0097614583142621308 0.16870005726340881 0 0.022570651819178299 0.17490377373808369 0 0.01926368907735879 0.16012445196502051 0 0.036440444924188013 0.18060161738253269 0 0.056616426130021082 0.1713005508518852 0 0.037444535662421917 0.15266630727303079 0 0.036440444924188013 0.18060161738253269 0 0.056616426130021082 0.1713005508518852 0 0.053648478682342883 0.20105246450864789 0 0.056616426130021082 0.1713005508518852 0 0.053648478682342883 0.20105246450864789 0 0.073477826203027882 0.18517718776099321 0 0.056616426130021082 0.1713005508518852 0 0.059963085238556819 0.15174877506535869 0 0.037444535662421917 0.15266630727303079 0 0.059963085238556819 0.15174877506535869 0 0.045941849330689503 0.13478959019291761 0 0.037444535662421917 0.15266630727303079 0 0.059963085238556819 0.15174877506535869 0 0.037444535662421917 0.15266630727303079 0 0.059963085238556819 0.15174877506535869 0 0.045941849330689503 0.13478959019291761 0 0.071292463781351872 0.13587592674216331 0 0.059680490070760581 0.12287348413860499 0 0.045941849330689503 0.13478959019291761 0 0.071292463781351872 0.13587592674216331 0 0.039368754267459477 0.1215529409797292 0 0.022725352634745209 0.1285447140959691 0 0.045941849330689503 0.13478959019291761 0 0.022725352634745209 0.1285447140959691 0 0.025782125788599258 0.14323112378188371 0 0.045941849330689503 0.13478959019291761 0 0.025782125788599258 0.14323112378188371 0 0.045941849330689503 0.13478959019291761 0 0.037444535662421917 0.15266630727303079 0 0.029906158841677959 0.24453386453229681 0 0.015566009096085329 0.23154109976427911 0 0.032280255852642811 0.22943322255496379 0 0.029906158841677959 0.24453386453229681 0 0.017261632383401209 0.24407964922453851 0 0.015566009096085329 0.23154109976427911 0 0.029906158841677959 0.24453386453229681 0 0.017261632383401209 0.24407964922453851 0 0.015909256624148969 0.25127351979552792 0 -0.002514451185983679 0.22556791043697519 0 -0.0064432667138646423 0.2491616162302725 0 0.015566009096085329 0.23154109976427911 0 0.017261632383401209 0.24407964922453851 0 0.0077964813644713004 0.25030123984269009 0 0.015909256624148969 0.25127351979552792 0 0.017261632383401209 0.24407964922453851 0 0.015566009096085329 0.23154109976427911 0 0.0077964813644713004 0.25030123984269009 0 -0.0064432667138646423 0.2491616162302725 0 0.015566009096085329 0.23154109976427911 0 0.0077964813644713004 0.25030123984269009 0 -0.0064432667138646423 0.2491616162302725 0 0.015566009096085329 0.23154109976427911 0 -0.002514451185983679 0.22556791043697519 0 0.015566009096085329 0.23154109976427911 0 0.002994450514389649 0.2076203535180253 0 0.015566009096085329 0.23154109976427911 0 0.037575284906032312 0.2139205832982819 0 0.032280255852642811 0.22943322255496379 0 0.015566009096085329 0.23154109976427911 0 0.037575284906032312 0.2139205832982819 0 0.015566009096085329 0.23154109976427911 0 0.020515427662212111 0.2088316040170729 0 0.037575284906032312 0.2139205832982819 0 0.020515427662212111 0.2088316040170729 0 0.02366837161014702 0.19131032028084541 0 0.037575284906032312 0.2139205832982819 0 0.020515427662212111 0.2088316040170729 0 0.002994450514389649 0.2076203535180253 0 0.013177241734515319 0.19866163511145521 0 0.015566009096085329 0.23154109976427911 0 0.020515427662212111 0.2088316040170729 0 0.002994450514389649 0.2076203535180253 0 0.005530717151312493 0.18688426262987709 0 0.013177241734515319 0.19866163511145521 0 0.02366837161014702 0.19131032028084541 0 0.005530717151312493 0.18688426262987709 0 0.002994450514389649 0.2076203535180253 0 0.013177241734515319 0.19866163511145521 0 0.020515427662212111 0.2088316040170729 0 0.013177241734515319 0.19866163511145521 0 0.02366837161014702 0.19131032028084541 0 0.02366837161014702 0.19131032028084541 0 0.037575284906032312 0.2139205832982819 0 0.036440444924188013 0.18060161738253269 0 0.02366837161014702 0.19131032028084541 0 0.038233185225991749 0.19646968727439981 0 0.036440444924188013 0.18060161738253269 0 0.053648478682342883 0.20105246450864789 0 0.02366837161014702 0.19131032028084541 0 0.038233185225991749 0.19646968727439981 0 0.037575284906032312 0.2139205832982819 0 0.036440444924188013 0.18060161738253269 0 0.038233185225991749 0.19646968727439981 0 0.053648478682342883 0.20105246450864789 0 0.059205572775300502 0.2076567798742173 0 0.062575502576137892 0.19802943701123421 0 0.053648478682342883 0.20105246450864789 0 0.059205572775300502 0.2076567798742173 0 0.062575502576137892 0.19802943701123421 0 0.053648478682342883 0.20105246450864789 0 0.059205572775300502 0.2076567798742173 0 0.055664412977535202 0.2177732990662051 0 0.053648478682342883 0.20105246450864789 0 0.055664412977535202 0.2177732990662051 0 0.037575284906032312 0.2139205832982819 0 0.053648478682342883 0.20105246450864789 0 0.059205572775300502 0.2076567798742173 0 0.059205572775300502 0.2076567798742173 0 0.062095794960924433 0.21109165761270601 0 0.059205572775300502 0.2076567798742173 0 0.062095794960924433 0.21109165761270601 0 0.055664412977535202 0.2177732990662051 0 0.059205572775300502 0.2076567798742173 0 0.055664412977535202 0.2177732990662051 0 0.062095794960924433 0.21109165761270601 0 0.055664412977535202 0.2177732990662051 0 0.061824639527673572 0.2258638006930048 0 0.062095794960924433 0.21109165761270601 0 0.055664412977535202 0.2177732990662051 0 0.038233185225991749 0.19646968727439981 0 0.053648478682342883 0.20105246450864789 0 0.037575284906032312 0.2139205832982819 0 0.053648478682342883 0.20105246450864789 0 0.037575284906032312 0.2139205832982819 0 0.029906158841677959 0.24453386453229681 0 0.032280255852642811 0.22943322255496379 0 0.046073570566775163 0.2277373426249977 0 0.055664412977535202 0.2177732990662051 0 0.037575284906032312 0.2139205832982819 0 0.046073570566775163 0.2277373426249977 0 0.037575284906032312 0.2139205832982819 0 0.032280255852642811 0.22943322255496379 0 0.046073570566775163 0.2277373426249977 0 0.037575284906032312 0.2139205832982819 0 0.046073570566775163 0.2277373426249977 0 0.055664412977535202 0.2177732990662051 0 0.046073570566775163 0.2277373426249977 0 0.055664412977535202 0.2177732990662051 0 0.046073570566775163 0.2277373426249977 0 0.049963094006985863 0.23406104265278649 0 0.061824639527673572 0.2258638006930048 0 0.049963094006985863 0.23406104265278649 0 0.065851038384117377 0.23931308630906889 0 0.055664412977535202 0.2177732990662051 0 0.061824639527673572 0.2258638006930048 0 0.049963094006985863 0.23406104265278649 0 0.055664412977535202 0.2177732990662051 0 0.049963094006985863 0.23406104265278649 0 0.046073570566775163 0.2277373426249977 0 0.049963094006985863 0.23406104265278649 0 0.049963094006985863 0.23406104265278649 0 0.043009371786397833 0.25392669919406452 0 0.065043550754665058 0.25857928665370211 0 0.049963094006985863 0.23406104265278649 0 0.065851038384117377 0.23931308630906889 0 0.065043550754665058 0.25857928665370211 0 0.049963094006985863 0.23406104265278649 0 0.065043550754665058 0.25857928665370211 0 0.029906158841677959 0.24453386453229681 0 0.046073570566775163 0.2277373426249977 0 0.041470058007776228 0.24223802224483079 0 0.029906158841677959 0.24453386453229681 0 0.046073570566775163 0.2277373426249977 0 0.049963094006985863 0.23406104265278649 0 0.041470058007776228 0.24223802224483079 0 0.043009371786397833 0.25392669919406452 0 0.049963094006985863 0.23406104265278649 0 0.043009371786397833 0.25392669919406452 0 0.046073570566775163 0.2277373426249977 0 0.049963094006985863 0.23406104265278649 0 0.041470058007776228 0.24223802224483079 0 0.029906158841677959 0.24453386453229681 0 0.041470058007776228 0.24223802224483079 0 0.043009371786397833 0.25392669919406452 0 0.089001919656682624 0.24306817803581071 0 0.075548857308804118 0.22707991782425779 0 0.089001919656682624 0.24306817803581071 0 0.076146059786176501 0.2460618939175363 0 0.083749266379614037 0.25881786245053029 0 0.089001919656682624 0.24306817803581071 0 0.076146059786176501 0.2460618939175363 0 0.075548857308804118 0.22707991782425779 0 0.076146059786176501 0.2460618939175363 0 0.065851038384117377 0.23931308630906889 0 0.065043550754665058 0.25857928665370211 0 0.076146059786176501 0.2460618939175363 0 0.065851038384117377 0.23931308630906889 0 0.075548857308804118 0.22707991782425779 0 0.062095794960924433 0.21109165761270601 0 0.075548857308804118 0.22707991782425779 0 0.062095794960924433 0.21109165761270601 0 0.061824639527673572 0.2258638006930048 0 0.075548857308804118 0.22707991782425779 0 0.061824639527673572 0.2258638006930048 0 0.065851038384117377 0.23931308630906889 0 0.075548857308804118 0.22707991782425779 0 0.089001919656682624 0.24306817803581071 0 0.075548857308804118 0.22707991782425779 0 0.092565011791204577 0.2209606299548465 0 0.075548857308804118 0.22707991782425779 0 0.092565011791204577 0.2209606299548465 0 0.080590659082904303 0.21200426245081219 0 0.092565011791204577 0.2209606299548465 0 0.080590659082904303 0.21200426245081219 0 0.091981369414030872 0.20210002442877911 0 0.075548857308804118 0.22707991782425779 0 0.080590659082904303 0.21200426245081219 0 0.072490481152945874 0.21281548012573839 0 0.062095794960924433 0.21109165761270601 0 0.075548857308804118 0.22707991782425779 0 0.072490481152945874 0.21281548012573839 0 0.059205572775300502 0.2076567798742173 0 0.062095794960924433 0.21109165761270601 0 0.071726613259149488 0.20108608261517871 0 0.062095794960924433 0.21109165761270601 0 0.072490481152945874 0.21281548012573839 0 0.071726613259149488 0.20108608261517871 0 0.062095794960924433 0.21109165761270601 0 0.071726613259149488 0.20108608261517871 0 0.080590659082904303 0.21200426245081219 0 0.072490481152945874 0.21281548012573839 0 0.071726613259149488 0.20108608261517871 0 0.080590659082904303 0.21200426245081219 0 0.071726613259149488 0.20108608261517871 0 0.081620853415763819 0.19506172707137251 0 0.053648478682342883 0.20105246450864789 0 0.062575502576137892 0.19802943701123421 0 0.073477826203027882 0.18517718776099321 0 0.071726613259149488 0.20108608261517871 0 0.062575502576137892 0.19802943701123421 0 0.073477826203027882 0.18517718776099321 0 0.071726613259149488 0.20108608261517871 0 0.081620853415763819 0.19506172707137251 0 0.073477826203027882 0.18517718776099321 0 0.053648478682342883 0.20105246450864789 0 0.073477826203027882 0.18517718776099321 0 0.059205572775300502 0.2076567798742173 0 0.071726613259149488 0.20108608261517871 0 0.062575502576137892 0.19802943701123421 0 0.080590659082904303 0.21200426245081219 0 0.091981369414030872 0.20210002442877911 0 0.081620853415763819 0.19506172707137251 0 0.081620853415763819 0.19506172707137251 0 0.073477826203027882 0.18517718776099321 0 0.092302914945535067 0.18333211934389121 0 0.091981369414030872 0.20210002442877911 0 0.081620853415763819 0.19506172707137251 0 0.092302914945535067 0.18333211934389121 0 0.091981369414030872 0.20210002442877911 0 0.10328141607461069 0.1915882909892295 0 0.10728585220231129 0.20992853929888911 0 0.10328141607461069 0.1915882909892295 0 0.11646081783681 0.1947769369978391 0 0.10728585220231129 0.20992853929888911 0 0.091981369414030872 0.20210002442877911 0 0.10328141607461069 0.1915882909892295 0 0.092302914945535067 0.18333211934389121 0 0.11646081783681 0.1947769369978391 0 0.12473802581406 0.2064576513470526 0 0.12804708131048159 0.1875493228429635 0 0.10328141607461069 0.1915882909892295 0 0.11646081783681 0.1947769369978391 0 0.1105244306373164 0.18247900161539429 0 0.11646081783681 0.1947769369978391 0 0.1171792513991045 0.18232965525447331 0 0.12804708131048159 0.1875493228429635 0 0.12473802581406 0.2064576513470526 0 0.10728585220231129 0.20992853929888911 0 0.1190887790518692 0.21931009314147271 0 0.11646081783681 0.1947769369978391 0 0.12473802581406 0.2064576513470526 0 0.10728585220231129 0.20992853929888911 0 0.092565011791204577 0.2209606299548465 0 0.091981369414030872 0.20210002442877911 0 0.10728585220231129 0.20992853929888911 0 0.092565011791204577 0.2209606299548465 0 0.10728585220231129 0.20992853929888911 0 0.11098141308249421 0.23158285769052989 0 0.089001919656682624 0.24306817803581071 0 0.092565011791204577 0.2209606299548465 0 0.11098141308249421 0.23158285769052989 0 0.11098141308249421 0.23158285769052989 0 0.12681803989777099 0.24235286638308051 0 0.13300557108973901 0.22637098509064421 0 0.10728585220231129 0.20992853929888911 0 0.1190887790518692 0.21931009314147271 0 0.11098141308249421 0.23158285769052989 0 0.1190887790518692 0.21931009314147271 0 0.11098141308249421 0.23158285769052989 0 0.13300557108973901 0.22637098509064421 0 0.11098141308249421 0.23158285769052989 0 0.111584570130932 0.24709021691947031 0 0.12681803989777099 0.24235286638308051 0 0.111584570130932 0.24709021691947031 0 0.12681803989777099 0.24235286638308051 0 0.12866649601315111 0.25939074424056657 0 0.089001919656682624 0.24306817803581071 0 0.11098141308249421 0.23158285769052989 0 0.111584570130932 0.24709021691947031 0 0.089001919656682624 0.24306817803581071 0 0.111584570130932 0.24709021691947031 0 0.102454982004563 0.25905643824736202 0 0.071292463781351872 0.13587592674216331 0 0.076057624301927931 0.1584232279973441 0 0.095289022492506481 0.14161407625415059 0 0.097270871261298006 0.1139262414949572 0 0.085451824536098842 0.1244727930080424 0 0.095289022492506481 0.14161407625415059 0 0.085451824536098842 0.1244727930080424 0 0.071292463781351872 0.13587592674216331 0 0.095289022492506481 0.14161407625415059 0 0.085451824536098842 0.1244727930080424 0 0.073996788731261767 0.119075815415321 0 0.071292463781351872 0.13587592674216331 0 0.073996788731261767 0.119075815415321 0 0.059680490070760581 0.12287348413860499 0 0.071292463781351872 0.13587592674216331 0 0.059963085238556819 0.15174877506535869 0 0.071292463781351872 0.13587592674216331 0 0.076057624301927931 0.1584232279973441 0 0.056616426130021082 0.1713005508518852 0 0.076057624301927931 0.1584232279973441 0 0.073477826203027882 0.18517718776099321 0 0.056616426130021082 0.1713005508518852 0 0.059963085238556819 0.15174877506535869 0 0.076057624301927931 0.1584232279973441 0 0.073477826203027882 0.18517718776099321 0 0.093307173723717635 0.16930191101334419 0 0.073477826203027882 0.18517718776099321 0 0.092302914945535067 0.18333211934389121 0 0.093307173723717635 0.16930191101334419 0 0.092302914945535067 0.18333211934389121 0 0.093307173723717635 0.16930191101334419 0 0.076057624301927931 0.1584232279973441 0 0.073477826203027882 0.18517718776099321 0 0.093307173723717635 0.16930191101334419 0 0.076057624301927931 0.1584232279973441 0 0.093307173723717635 0.16930191101334419 0 0.095289022492506481 0.14161407625415059 0 0.093307173723717635 0.16930191101334419 0 0.10152019253070931 0.1772592852913297 0 0.1136846758118101 0.1645133595616963 0 0.093307173723717635 0.16930191101334419 0 0.1136846758118101 0.1645133595616963 0 0.1164783289678107 0.1507511996659972 0 0.093307173723717635 0.16930191101334419 0 0.1164783289678107 0.1507511996659972 0 0.10152019253070931 0.1772592852913297 0 0.1105244306373164 0.18247900161539429 0 0.1136846758118101 0.1645133595616963 0 0.10328141607461069 0.1915882909892295 0 0.092302914945535067 0.18333211934389121 0 0.10152019253070931 0.1772592852913297 0 0.092302914945535067 0.18333211934389121 0 0.093307173723717635 0.16930191101334419 0 0.10152019253070931 0.1772592852913297 0 0.10328141607461069 0.1915882909892295 0 0.10152019253070931 0.1772592852913297 0 0.1105244306373164 0.18247900161539429 0 0.1105244306373164 0.18247900161539429 0 0.1171792513991045 0.18232965525447331 0 0.1136846758118101 0.1645133595616963 0 0.1136846758118101 0.1645133595616963 0 0.1271079989265074 0.17113063548629501 0 0.12804708131048159 0.1875493228429635 0 0.1171792513991045 0.18232965525447331 0 0.1136846758118101 0.1645133595616963 0 0.12804708131048159 0.1875493228429635 0 0.1136846758118101 0.1645133595616963 0 0.12804708131048159 0.1875493228429635 0 0.11646081783681 0.1947769369978391 0 0.1105244306373164 0.18247900161539429 0 0.1171792513991045 0.18232965525447331 0 0.1136846758118101 0.1645133595616963 0 0.1164783289678107 0.1507511996659972 0 0.1271079989265074 0.17113063548629501 0 0.1164783289678107 0.1507511996659972 0 0.1271079989265074 0.17113063548629501 0 0.1213715876580357 0.14683368115843229 0 0.1164783289678107 0.1507511996659972 0 0.13195968594066571 0.15637540681915091 0 0.1164783289678107 0.1507511996659972 0 0.1068746001145553 0.13233872058047669 0 0.1213715876580357 0.14683368115843229 0 0.1164783289678107 0.1507511996659972 0 0.1213715876580357 0.14683368115843229 0 0.1164783289678107 0.1507511996659972 0 0.12004655509265499 0.13646793847189939 0 0.1213715876580357 0.14683368115843229 0 0.12004655509265499 0.13646793847189939 0 0.13089905015500339 0.14189616673833941 0 0.093307173723717635 0.16930191101334419 0 0.1164783289678107 0.1507511996659972 0 0.095289022492506481 0.14161407625415059 0 0.1164783289678107 0.1507511996659972 0 0.095289022492506481 0.14161407625415059 0 0.1068746001145553 0.13233872058047669 0 0.093307173723717635 0.16930191101334419 0 0.095289022492506481 0.14161407625415059 0 0.097270871261298006 0.1139262414949572 0 0.095289022492506481 0.14161407625415059 0 0.097270871261298006 0.1139262414949572 0 0.095289022492506481 0.14161407625415059 0 0.1068746001145553 0.13233872058047669 0 0.1186692315941397 0.1207889837057991 0 0.1068746001145553 0.13233872058047669 0 0.12004655509265499 0.13646793847189939 0 0.1186692315941397 0.1207889837057991 0 0.12004655509265499 0.13646793847189939 0 0.12945651559912461 0.12929541361859309 0 0.1164783289678107 0.1507511996659972 0 0.1068746001145553 0.13233872058047669 0 0.12004655509265499 0.13646793847189939 0 0.12945651559912461 0.12929541361859309 0 0.14118785561977551 0.13263360221990711 0 0.1362238822700754 0.1156453056149508 0 0.12004655509265499 0.13646793847189939 0 0.12945651559912461 0.12929541361859309 0 0.13089905015500339 0.14189616673833941 0 0.14118785561977551 0.13263360221990711 0 0.1408699152020495 0.14554393664588811 0 0.13089905015500339 0.14189616673833941 0 0.12945651559912461 0.12929541361859309 0 0.14118785561977551 0.13263360221990711 0 0.13089905015500339 0.14189616673833941 0 0.14118785561977551 0.13263360221990711 0 0.1548410458293201 0.13735956805323779 0 0.1408699152020495 0.14554393664588811 0 0.14118785561977551 0.13263360221990711 0 0.1548410458293201 0.13735956805323779 0 0.15166778082914531 0.1247327167911137 0 0.1408699152020495 0.14554393664588811 0 0.14684025171414869 0.16362502968045239 0 0.1568898340172904 0.1500243115019684 0 0.1548410458293201 0.13735956805323779 0 0.1408699152020495 0.14554393664588811 0 0.1568898340172904 0.1500243115019684 0 0.1408699152020495 0.14554393664588811 0 0.14684025171414869 0.16362502968045239 0 0.1408699152020495 0.14554393664588811 0 0.13195968594066571 0.15637540681915091 0 0.14684025171414869 0.16362502968045239 0 0.1408699152020495 0.14554393664588811 0 0.13089905015500339 0.14189616673833941 0 0.13195968594066571 0.15637540681915091 0 0.1213715876580357 0.14683368115843229 0 0.13089905015500339 0.14189616673833941 0 0.13195968594066571 0.15637540681915091 0 0.13195968594066571 0.15637540681915091 0 0.14019865879350041 0.1746317400846196 0 0.14684025171414869 0.16362502968045239 0 0.1164783289678107 0.1507511996659972 0 0.1271079989265074 0.17113063548629501 0 0.13195968594066571 0.15637540681915091 0 0.1271079989265074 0.17113063548629501 0 0.13195968594066571 0.15637540681915091 0 0.14019865879350041 0.1746317400846196 0 0.14019865879350041 0.1746317400846196 0 0.14311521061758831 0.18446500657116099 0 0.13773766888520361 0.19151007130659309 0 0.1271079989265074 0.17113063548629501 0 0.13773766888520361 0.19151007130659309 0 0.1271079989265074 0.17113063548629501 0 0.12804708131048159 0.1875493228429635 0 0.13773766888520361 0.19151007130659309 0 0.1271079989265074 0.17113063548629501 0 0.14019865879350041 0.1746317400846196 0 0.13773766888520361 0.19151007130659309 0 0.14019865879350041 0.1746317400846196 0 0.15281058822624879 0.18170612271501649 0 0.14684025171414869 0.16362502968045239 0 0.15281058822624879 0.18170612271501649 0 0.14684025171414869 0.16362502968045239 0 0.15281058822624879 0.18170612271501649 0 0.14171392656540041 0.19001209217841469 0 0.14019865879350041 0.1746317400846196 0 0.14311521061758831 0.18446500657116099 0 0.15281058822624879 0.18170612271501649 0 0.14311521061758831 0.18446500657116099 0 0.15281058822624879 0.18170612271501649 0 0.14171392656540041 0.19001209217841469 0 0.15281058822624879 0.18170612271501649 0 0.14684025171414869 0.16362502968045239 0 0.17338073888656669 0.1663091458165582 0 0.14684025171414869 0.16362502968045239 0 0.17338073888656669 0.1663091458165582 0 0.1568898340172904 0.1500243115019684 0 0.15281058822624879 0.18170612271501649 0 0.17338073888656669 0.1663091458165582 0 0.15281058822624879 0.18170612271501649 0 0.17338073888656669 0.1663091458165582 0 0.16658999247164569 0.1909354381470845 0 0.17338073888656669 0.1663091458165582 0 0.18189992306717809 0.18827435852808819 0 0.19623319290643379 0.17290093041229709 0 0.17338073888656669 0.1663091458165582 0 0.16658999247164569 0.1909354381470845 0 0.18189992306717809 0.18827435852808819 0 0.17338073888656669 0.1663091458165582 0 0.19395088954688461 0.15091216891809969 0 0.17338073888656669 0.1663091458165582 0 0.18487260762938709 0.13730760661083111 0 0.16851721845436679 0.13728387731370559 0 0.17338073888656669 0.1663091458165582 0 0.18487260762938709 0.13730760661083111 0 0.19395088954688461 0.15091216891809969 0 0.18487260762938709 0.13730760661083111 0 0.16851721845436679 0.13728387731370559 0 0.18179669448304639 0.12315672738539329 0 0.16851721845436679 0.13728387731370559 0 0.16488821121224961 0.12223163670769829 0 0.18179669448304639 0.12315672738539329 0 0.1548410458293201 0.13735956805323779 0 0.16851721845436679 0.13728387731370559 0 0.16488821121224961 0.12223163670769829 0 0.1548410458293201 0.13735956805323779 0 0.15166778082914531 0.1247327167911137 0 0.16488821121224961 0.12223163670769829 0 0.1548410458293201 0.13735956805323779 0 0.16851721845436679 0.13728387731370559 0 0.1568898340172904 0.1500243115019684 0 0.17338073888656669 0.1663091458165582 0 0.16851721845436679 0.13728387731370559 0 0.1568898340172904 0.1500243115019684 0 0.143941790555738 0.2430480176622111 0 0.1567718923078249 0.23362124940549781 0 0.15487801002173929 0.2597250502337764 0 0.1567718923078249 0.23362124940549781 0 0.15487801002173929 0.2597250502337764 0 0.143941790555738 0.2430480176622111 0 0.14403218519061381 0.22840638457064591 0 0.1567718923078249 0.23362124940549781 0 0.143941790555738 0.2430480176622111 0 0.12681803989777099 0.24235286638308051 0 0.12866649601315111 0.25939074424056657 0 0.143941790555738 0.2430480176622111 0 0.13300557108973901 0.22637098509064421 0 0.143941790555738 0.2430480176622111 0 0.12681803989777099 0.24235286638308051 0 0.13300557108973901 0.22637098509064421 0 0.143941790555738 0.2430480176622111 0 0.13300557108973901 0.22637098509064421 0 0.14403218519061381 0.22840638457064591 0 0.13300557108973901 0.22637098509064421 0 0.14403218519061381 0.22840638457064591 0 0.14240948680915319 0.21058528612423069 0 0.14240948680915319 0.21058528612423069 0 0.1567718923078249 0.23362124940549781 0 0.14240948680915319 0.21058528612423069 0 0.15762981867886619 0.21966402271202989 0 0.1567718923078249 0.23362124940549781 0 0.14403218519061381 0.22840638457064591 0 0.14240948680915319 0.21058528612423069 0 0.1567718923078249 0.23362124940549781 0 0.14240948680915319 0.21058528612423069 0 0.1614312160374031 0.20781359139018549 0 0.15762981867886619 0.21966402271202989 0 0.14240948680915319 0.21058528612423069 0 0.1472205773046818 0.19632543274288811 0 0.1614312160374031 0.20781359139018549 0 0.12473802581406 0.2064576513470526 0 0.13300557108973901 0.22637098509064421 0 0.14240948680915319 0.21058528612423069 0 0.12473802581406 0.2064576513470526 0 0.1190887790518692 0.21931009314147271 0 0.13300557108973901 0.22637098509064421 0 0.12804708131048159 0.1875493228429635 0 0.14240948680915319 0.21058528612423069 0 0.13773766888520361 0.19151007130659309 0 0.12473802581406 0.2064576513470526 0 0.12804708131048159 0.1875493228429635 0 0.14240948680915319 0.21058528612423069 0 0.12804708131048159 0.1875493228429635 0 0.14240948680915319 0.21058528612423069 0 0.15281058822624879 0.18170612271501649 0 0.14171392656540041 0.19001209217841469 0 0.1472205773046818 0.19632543274288811 0 0.15281058822624879 0.18170612271501649 0 0.1472205773046818 0.19632543274288811 0 0.1614312160374031 0.20781359139018549 0 0.14240948680915319 0.21058528612423069 0 0.13773766888520361 0.19151007130659309 0 0.1472205773046818 0.19632543274288811 0 0.14311521061758831 0.18446500657116099 0 0.13773766888520361 0.19151007130659309 0 0.14171392656540041 0.19001209217841469 0 0.13773766888520361 0.19151007130659309 0 0.14171392656540041 0.19001209217841469 0 0.1472205773046818 0.19632543274288811 0 0.15281058822624879 0.18170612271501649 0 0.16658999247164569 0.1909354381470845 0 0.1614312160374031 0.20781359139018549 0 0.15281058822624879 0.18170612271501649 0 0.1614312160374031 0.20781359139018549 0 0.16658999247164569 0.1909354381470845 0 0.17464037402871241 0.20352232216820151 0 0.1614312160374031 0.20781359139018549 0 0.16658999247164569 0.1909354381470845 0 0.18189992306717809 0.18827435852808819 0 0.17464037402871241 0.20352232216820151 0 0.18189992306717809 0.18827435852808819 0 0.17464037402871241 0.20352232216820151 0 0.1861210849286945 0.2048481198524561 0 0.17464037402871241 0.20352232216820151 0 0.1861210849286945 0.2048481198524561 0 0.1772424159085205 0.21592051873144119 0 0.1861210849286945 0.2048481198524561 0 0.1772424159085205 0.21592051873144119 0 0.1885731893240736 0.2179443761081383 0 0.17464037402871241 0.20352232216820151 0 0.1772424159085205 0.21592051873144119 0 0.1614312160374031 0.20781359139018549 0 0.1614312160374031 0.20781359139018549 0 0.1700518438485582 0.23392106006535429 0 0.1772424159085205 0.21592051873144119 0 0.1614312160374031 0.20781359139018549 0 0.1700518438485582 0.23392106006535429 0 0.1614312160374031 0.20781359139018549 0 0.15762981867886619 0.21966402271202989 0 0.1700518438485582 0.23392106006535429 0 0.15762981867886619 0.21966402271202989 0 0.1567718923078249 0.23362124940549781 0 0.15762981867886619 0.21966402271202989 0 0.1567718923078249 0.23362124940549781 0 0.1700518438485582 0.23392106006535429 0 0.1772424159085205 0.21592051873144119 0 0.1700518438485582 0.23392106006535429 0 0.18458350007928631 0.22986707166841749 0 0.1772424159085205 0.21592051873144119 0 0.18458350007928631 0.22986707166841749 0 0.1885731893240736 0.2179443761081383 0 0.1700518438485582 0.23392106006535429 0 0.18168490518077871 0.24172054932471659 0 0.1786724716597155 0.26002852874052251 0 0.18168490518077871 0.24172054932471659 0 0.19343180513555491 0.2430655368245794 0 0.1786724716597155 0.26002852874052251 0 0.1700518438485582 0.23392106006535429 0 0.18458350007928631 0.22986707166841749 0 0.18168490518077871 0.24172054932471659 0 0.1700518438485582 0.23392106006535429 0 0.1786724716597155 0.26002852874052251 0 0.18458350007928631 0.22986707166841749 0 0.18168490518077871 0.24172054932471659 0 0.19343180513555491 0.2430655368245794 0 0.1567718923078249 0.23362124940549781 0 0.16439761672397299 0.24585220247667389 0 0.15487801002173929 0.2597250502337764 0 0.1700518438485582 0.23392106006535429 0 0.16439761672397299 0.24585220247667389 0 0.1786724716597155 0.26002852874052251 0 0.1567718923078249 0.23362124940549781 0 0.16439761672397299 0.24585220247667389 0 0.1567718923078249 0.23362124940549781 0 0.1700518438485582 0.23392106006535429 0 0.16439761672397299 0.24585220247667389 0 0.21473754708324791 0.2406130866005102 0 0.19343180513555491 0.2430655368245794 0 0.20325800169122499 0.26034209666463681 0 0.21473754708324791 0.2406130866005102 0 0.19343180513555491 0.2430655368245794 0 0.20029744081270501 0.22605216509689771 0 0.18458350007928631 0.22986707166841749 0 0.19343180513555491 0.2430655368245794 0 0.20029744081270501 0.22605216509689771 0 0.18458350007928631 0.22986707166841749 0 0.20029744081270501 0.22605216509689771 0 0.1885731893240736 0.2179443761081383 0 0.21473754708324791 0.2406130866005102 0 0.21318828364578879 0.22531813590266009 0 0.22621709247526961 0.2208840765363829 0 0.20029744081270501 0.22605216509689771 0 0.21318828364578879 0.22531813590266009 0 0.2115010542119328 0.21372321537684971 0 0.21473754708324791 0.2406130866005102 0 0.20029744081270501 0.22605216509689771 0 0.21318828364578879 0.22531813590266009 0 0.21318828364578879 0.22531813590266009 0 0.2115010542119328 0.21372321537684971 0 0.22621709247526961 0.2208840765363829 0 0.20029744081270501 0.22605216509689771 0 0.2115010542119328 0.21372321537684971 0 0.19800825007760919 0.2095900700179569 0 0.2115010542119328 0.21372321537684971 0 0.2101550624039222 0.19976814439399351 0 0.22516311858205099 0.2037923115439475 0 0.2115010542119328 0.21372321537684971 0 0.19800825007760919 0.2095900700179569 0 0.2101550624039222 0.19976814439399351 0 0.20029744081270501 0.22605216509689771 0 0.1885731893240736 0.2179443761081383 0 0.19800825007760919 0.2095900700179569 0 0.1861210849286945 0.2048481198524561 0 0.1885731893240736 0.2179443761081383 0 0.19800825007760919 0.2095900700179569 0 0.19800825007760919 0.2095900700179569 0 0.198055729759297 0.1921151059741496 0 0.2101550624039222 0.19976814439399351 0 0.1861210849286945 0.2048481198524561 0 0.19800825007760919 0.2095900700179569 0 0.198055729759297 0.1921151059741496 0 0.18189992306717809 0.18827435852808819 0 0.1861210849286945 0.2048481198524561 0 0.198055729759297 0.1921151059741496 0 0.198055729759297 0.1921151059741496 0 0.2101550624039222 0.19976814439399351 0 0.21804715938872099 0.17962001905706351 0 0.2101550624039222 0.19976814439399351 0 0.22516311858205099 0.2037923115439475 0 0.21804715938872099 0.17962001905706351 0 0.2381687254238273 0.1982875357412637 0 0.22516311858205099 0.2037923115439475 0 0.21804715938872099 0.17962001905706351 0 0.2381687254238273 0.1982875357412637 0 0.24191774216627349 0.1846716171374552 0 0.25187328553384158 0.20169831250787909 0 0.2381687254238273 0.1982875357412637 0 0.22516311858205099 0.2037923115439475 0 0.2494897866862458 0.22074184696127461 0 0.2381687254238273 0.1982875357412637 0 0.2494897866862458 0.22074184696127461 0 0.25187328553384158 0.20169831250787909 0 0.22516311858205099 0.2037923115439475 0 0.2494897866862458 0.22074184696127461 0 0.2115010542119328 0.21372321537684971 0 0.22516311858205099 0.2037923115439475 0 0.22621709247526961 0.2208840765363829 0 0.22516311858205099 0.2037923115439475 0 0.22621709247526961 0.2208840765363829 0 0.2494897866862458 0.22074184696127461 0 0.21473754708324791 0.2406130866005102 0 0.22621709247526961 0.2208840765363829 0 0.23660232268103151 0.240234817975048 0 0.21473754708324791 0.2406130866005102 0 0.22621709247526961 0.2208840765363829 0 0.22621709247526961 0.2208840765363829 0 0.2494897866862458 0.22074184696127461 0 0.23660232268103151 0.240234817975048 0 0.23660232268103151 0.240234817975048 0 0.2478342759162768 0.26091062985289248 0 0.25557305062055952 0.24415471472296749 0 0.2494897866862458 0.22074184696127461 0 0.23660232268103151 0.240234817975048 0 0.25557305062055952 0.24415471472296749 0 0.21473754708324791 0.2406130866005102 0 0.23660232268103151 0.240234817975048 0 0.22554613880375091 0.26062636325876443 0 0.21452104020720239 0.13551519201964121 0 0.19395088954688461 0.15091216891809969 0 0.21452104020720239 0.13551519201964121 0 0.19395088954688461 0.15091216891809969 0 0.21362513967868979 0.15832829881672239 0 0.21452104020720239 0.13551519201964121 0 0.19721822955251969 0.1277891139160183 0 0.2131084196032583 0.1138939121018408 0 0.21452104020720239 0.13551519201964121 0 0.19721822955251969 0.1277891139160183 0 0.19395088954688461 0.15091216891809969 0 0.18487260762938709 0.13730760661083111 0 0.19721822955251969 0.1277891139160183 0 0.19395088954688461 0.15091216891809969 0 0.18487260762938709 0.13730760661083111 0 0.19721822955251969 0.1277891139160183 0 0.18179669448304639 0.12315672738539329 0 0.19395088954688461 0.15091216891809969 0 0.19623319290643379 0.17290093041229709 0 0.21362513967868979 0.15832829881672239 0 0.17338073888656669 0.1663091458165582 0 0.19395088954688461 0.15091216891809969 0 0.19623319290643379 0.17290093041229709 0 0.18189992306717809 0.18827435852808819 0 0.198055729759297 0.1921151059741496 0 0.19623319290643379 0.17290093041229709 0 0.198055729759297 0.1921151059741496 0 0.19623319290643379 0.17290093041229709 0 0.21804715938872099 0.17962001905706351 0 0.19623319290643379 0.17290093041229709 0 0.21804715938872099 0.17962001905706351 0 0.21362513967868979 0.15832829881672239 0 0.21362513967868979 0.15832829881672239 0 0.23128950986308899 0.16552463523972619 0 0.22839674753910319 0.1455463328793212 0 0.21804715938872099 0.17962001905706351 0 0.21362513967868979 0.15832829881672239 0 0.23128950986308899 0.16552463523972619 0 0.21804715938872099 0.17962001905706351 0 0.23128950986308899 0.16552463523972619 0 0.24191774216627349 0.1846716171374552 0 0.2381687254238273 0.1982875357412637 0 0.21804715938872099 0.17962001905706351 0 0.24191774216627349 0.1846716171374552 0 0.21804715938872099 0.17962001905706351 0 0.24191774216627349 0.1846716171374552 0 0.23128950986308899 0.16552463523972619 0 0.24191774216627349 0.1846716171374552 0 0.24595870981047549 0.1684698146066165 0 0.24191774216627349 0.1846716171374552 0 0.24595870981047549 0.1684698146066165 0 0.25603680245521898 0.17582034698834251 0 0.23128950986308899 0.16552463523972619 0 0.24595870981047549 0.1684698146066165 0 0.24370057615855381 0.15485502339838919 0 0.24595870981047549 0.1684698146066165 0 0.24370057615855381 0.15485502339838919 0 0.2568489184092424 0.16147745026916921 0 0.23128950986308899 0.16552463523972619 0 0.24370057615855381 0.15485502339838919 0 0.22839674753910319 0.1455463328793212 0 0.24370057615855381 0.15485502339838919 0 0.24387806189599451 0.13978034280615059 0 0.25505124540521351 0.1479140067870168 0 0.24370057615855381 0.15485502339838919 0 0.22839674753910319 0.1455463328793212 0 0.24387806189599451 0.13978034280615059 0 0.21452104020720239 0.13551519201964121 0 0.21362513967868979 0.15832829881672239 0 0.22839674753910319 0.1455463328793212 0 0.21452104020720239 0.13551519201964121 0 0.23509119086752031 0.1201182151211827 0 0.21452104020720239 0.13551519201964121 0 0.22839674753910319 0.1455463328793212 0 0.23509119086752031 0.1201182151211827 0 0.24387806189599451 0.13978034280615059 0 0.23509119086752031 0.1201182151211827 0 0.25266134424123848 0.1233677868070323 0 0.22839674753910319 0.1455463328793212 0 0.24387806189599451 0.13978034280615059 0 0.23509119086752031 0.1201182151211827 0 0.23509119086752031 0.1201182151211827 0 0.25566134152783809 0.1047212382227241 0 0.25266134424123848 0.1233677868070323 0 0.23509119086752031 0.1201182151211827 0 0.25566134152783809 0.1047212382227241 0 0.23509119086752031 0.1201182151211827 0 0.24642691049975721 0.095117186863803327 0 0.2274419128705058 0.1015795757202263 0 0.23509119086752031 0.1201182151211827 0 0.24642691049975721 0.095117186863803327 0 0.25566134152783809 0.1047212382227241 0 0.21452104020720239 0.13551519201964121 0 0.23509119086752031 0.1201182151211827 0 0.2131084196032583 0.1138939121018408 0 0.23509119086752031 0.1201182151211827 0 0.2274419128705058 0.1015795757202263 0 0.2131084196032583 0.1138939121018408 0 0.2274419128705058 0.1015795757202263 0 0.2131084196032583 0.1138939121018408 0 0.2075000573081032 0.093388228056215078 0 0.2131084196032583 0.1138939121018408 0 0.19376089658222581 0.1066461683764053 0 0.2075000573081032 0.093388228056215078 0 0.19376089658222581 0.1066461683764053 0 0.19000552079772101 0.087138691946105851 0 0.2075000573081032 0.093388228056215078 0 0.19376089658222581 0.1066461683764053 0 0.19000552079772101 0.087138691946105851 0 0.18144689785781659 0.097576456001811335 0 0.19721822955251969 0.1277891139160183 0 0.19376089658222581 0.1066461683764053 0 0.18179669448304639 0.12315672738539329 0 0.19721822955251969 0.1277891139160183 0 0.2131084196032583 0.1138939121018408 0 0.19376089658222581 0.1066461683764053 0 0.19744753965461079 0.069473012451274824 0 0.19000552079772101 0.087138691946105851 0 0.1786377300691144 0.074741202265298262 0 0.19744753965461079 0.069473012451274824 0 0.19000552079772101 0.087138691946105851 0 0.2075000573081032 0.093388228056215078 0 0.19744753965461079 0.069473012451274824 0 0.2075000573081032 0.093388228056215078 0 0.221937225077184 0.082295099657539075 0 0.19744753965461079 0.069473012451274824 0 0.221937225077184 0.082295099657539075 0 0.19744753965461079 0.069473012451274824 0 0.221937225077184 0.082295099657539075 0 0.21436148249901871 0.061663844394497062 0 0.221937225077184 0.082295099657539075 0 0.2430000508983684 0.074822660191426013 0 0.230718471090054 0.061119639322901473 0 0.221937225077184 0.082295099657539075 0 0.230718471090054 0.061119639322901473 0 0.21436148249901871 0.061663844394497062 0 0.24642691049975721 0.095117186863803327 0 0.221937225077184 0.082295099657539075 0 0.24642691049975721 0.095117186863803327 0 0.2274419128705058 0.1015795757202263 0 0.221937225077184 0.082295099657539075 0 0.2274419128705058 0.1015795757202263 0 0.2075000573081032 0.093388228056215078 0 0.221937225077184 0.082295099657539075 0 0.24642691049975721 0.095117186863803327 0 0.221937225077184 0.082295099657539075 0 0.2430000508983684 0.074822660191426013 0 0.24642691049975721 0.095117186863803327 0 0.2430000508983684 0.074822660191426013 0 0.25451377749194481 0.081575643285586918 0 0.2430000508983684 0.074822660191426013 0 0.2463687838011247 0.059650192568501417 0 0.230718471090054 0.061119639322901473 0 0.2463687838011247 0.059650192568501417 0 0.24098963190659139 0.044693284024059712 0 0.230718471090054 0.061119639322901473 0 0.2463687838011247 0.059650192568501417 0 0.24098963190659139 0.044693284024059712 0 0.25460438589914702 0.049339470609261443 0 0.24988916874644099 0.036168863188119293 0 0.24098963190659139 0.044693284024059712 0 0.25460438589914702 0.049339470609261443 0 0.24988916874644099 0.036168863188119293 0 0.24098963190659139 0.044693284024059712 0 0.23801667366671919 0.030407979904446249 0 0.22046175077145719 0.040971874406103941 0 0.23801667366671919 0.030407979904446249 0 0.22046175077145719 0.040971874406103941 0 0.23801667366671919 0.030407979904446249 0 0.22630443422463301 0.027589124793033951 0 0.24098963190659139 0.044693284024059712 0 0.22046175077145719 0.040971874406103941 0 0.24098963190659139 0.044693284024059712 0 0.22046175077145719 0.040971874406103941 0 0.23801667366671919 0.030407979904446249 0 0.22046175077145719 0.040971874406103941 0 0.230718471090054 0.061119639322901473 0 0.21436148249901871 0.061663844394497062 0 0.24098963190659139 0.044693284024059712 0 0.22046175077145719 0.040971874406103941 0 0.230718471090054 0.061119639322901473 0 0.24976299478907979 0.0065670448098260684 0 0.22639947012091829 0.0038538987185199338 0 0.2469535063018915 -0.0072240908428232416 0 0.24976299478907979 0.0065670448098260684 0 0.23958007342873211 0.01278351126416882 0 0.23163511200821391 0.0092600280002773649 0 0.24976299478907979 0.0065670448098260684 0 0.22639947012091829 0.0038538987185199338 0 0.24976299478907979 0.0065670448098260684 0 0.23163511200821391 0.0092600280002773649 0 0.22639947012091829 0.0038538987185199338 0 0.24976299478907979 0.0065670448098260684 0 0.24424535816349979 0.01689009712389836 0 0.25557159656198009 0.019844085402786451 0 0.24976299478907979 0.0065670448098260684 0 0.23958007342873211 0.01278351126416882 0 0.24424535816349979 0.01689009712389836 0 0.23958007342873211 0.01278351126416882 0 0.2326768287541347 0.018416875122673471 0 0.23163511200821391 0.0092600280002773649 0 0.23801667366671919 0.030407979904446249 0 0.25557159656198009 0.019844085402786451 0 0.24424535816349979 0.01689009712389836 0 0.23801667366671919 0.030407979904446249 0 0.25557159656198009 0.019844085402786451 0 0.24988916874644099 0.036168863188119293 0 0.23801667366671919 0.030407979904446249 0 0.25557159656198009 0.019844085402786451 0 0.23958007342873211 0.01278351126416882 0 0.24424535816349979 0.01689009712389836 0 0.2326768287541347 0.018416875122673471 0 0.24424535816349979 0.01689009712389836 0 0.23801667366671919 0.030407979904446249 0 0.2326768287541347 0.018416875122673471 0 0.22046175077145719 0.040971874406103941 0 0.22630443422463301 0.027589124793033951 0 0.21669565736090071 0.022584720829701151 0 0.23801667366671919 0.030407979904446249 0 0.22630443422463301 0.027589124793033951 0 0.2326768287541347 0.018416875122673471 0 0.22630443422463301 0.027589124793033951 0 0.22396450681068761 0.01978181246856122 0 0.21669565736090071 0.022584720829701151 0 0.22396450681068761 0.01978181246856122 0 0.22063635434871781 0.013574991923895149 0 0.21669565736090071 0.022584720829701151 0 0.22396450681068761 0.01978181246856122 0 0.2326768287541347 0.018416875122673471 0 0.22737840454306399 0.01312406259185224 0 0.22630443422463301 0.027589124793033951 0 0.22396450681068761 0.01978181246856122 0 0.2326768287541347 0.018416875122673471 0 0.2326768287541347 0.018416875122673471 0 0.23163511200821391 0.0092600280002773649 0 0.22737840454306399 0.01312406259185224 0 0.23163511200821391 0.0092600280002773649 0 0.22815063140166941 0.0091727916640890698 0 0.22737840454306399 0.01312406259185224 0 0.23163511200821391 0.0092600280002773649 0 0.22815063140166941 0.0091727916640890698 0 0.22696000004868691 0.005914336751127236 0 0.22815063140166941 0.0091727916640890698 0 0.22737840454306399 0.01312406259185224 0 0.22573938997323681 0.0096085722188046854 0 0.22815063140166941 0.0091727916640890698 0 0.22573938997323681 0.0096085722188046854 0 0.22696000004868691 0.005914336751127236 0 0.22737840454306399 0.01312406259185224 0 0.22063635434871781 0.013574991923895149 0 0.22573938997323681 0.0096085722188046854 0 0.22396450681068761 0.01978181246856122 0 0.22737840454306399 0.01312406259185224 0 0.22063635434871781 0.013574991923895149 0 0.22063635434871781 0.013574991923895149 0 0.22279288271208189 0.0072364333351532164 0 0.21707615655527671 0.0078430528425020799 0 0.22063635434871781 0.013574991923895149 0 0.22573938997323681 0.0096085722188046854 0 0.22279288271208189 0.0072364333351532164 0 0.22279288271208189 0.0072364333351532164 0 0.22639947012091829 0.0038538987185199338 0 0.22696000004868691 0.005914336751127236 0 0.22573938997323681 0.0096085722188046854 0 0.22279288271208189 0.0072364333351532164 0 0.22696000004868691 0.005914336751127236 0 0.22279288271208189 0.0072364333351532164 0 0.2209714256406867 0.0032235538594259849 0 0.22639947012091829 0.0038538987185199338 0 0.22279288271208189 0.0072364333351532164 0 0.2209714256406867 0.0032235538594259849 0 0.21707615655527671 0.0078430528425020799 0 0.2209714256406867 0.0032235538594259849 0 0.22639947012091829 0.0038538987185199338 0 0.22639947012091829 0.0038538987185199338 0 0.22696000004868691 0.005914336751127236 0 0.23163511200821391 0.0092600280002773649 0 0.22639947012091829 0.0038538987185199338 0 0.22696000004868691 0.005914336751127236 0 0.20968036439558579 0.0069748969754132219 0 0.20706677327378931 0.0011185664601425071 0 0.20130663441071911 0.0041857174609635601 0 0.20968036439558579 0.0069748969754132219 0 0.20706677327378931 0.0011185664601425071 0 0.21347222645191691 0.003353143957113875 0 0.20706677327378931 0.0011185664601425071 0 0.21347222645191691 0.003353143957113875 0 0.21256641239424551 -0.0023943503519144168 0 0.2209714256406867 0.0032235538594259849 0 0.21347222645191691 0.003353143957113875 0 0.21256641239424551 -0.0023943503519144168 0 0.2209714256406867 0.0032235538594259849 0 0.21347222645191691 0.003353143957113875 0 0.21707615655527671 0.0078430528425020799 0 0.20968036439558579 0.0069748969754132219 0 0.21347222645191691 0.003353143957113875 0 0.21707615655527671 0.0078430528425020799 0 0.22063635434871781 0.013574991923895149 0 0.21707615655527671 0.0078430528425020799 0 0.21212587688101839 0.01470483564013639 0 0.20968036439558579 0.0069748969754132219 0 0.21707615655527671 0.0078430528425020799 0 0.21212587688101839 0.01470483564013639 0 0.20968036439558579 0.0069748969754132219 0 0.205241086410648 0.012948411889972819 0 0.20130663441071911 0.0041857174609635601 0 0.20968036439558579 0.0069748969754132219 0 0.21212587688101839 0.01470483564013639 0 0.205241086410648 0.012948411889972819 0 0.22046175077145719 0.040971874406103941 0 0.21669565736090071 0.022584720829701151 0 0.2032280807469809 0.02401341519110671 0 0.21212587688101839 0.01470483564013639 0 0.205241086410648 0.012948411889972819 0 0.2032280807469809 0.02401341519110671 0 0.21212587688101839 0.01470483564013639 0 0.21669565736090071 0.022584720829701151 0 0.2032280807469809 0.02401341519110671 0 0.22063635434871781 0.013574991923895149 0 0.21212587688101839 0.01470483564013639 0 0.21669565736090071 0.022584720829701151 0 0.2032280807469809 0.02401341519110671 0 0.19176370718524061 0.01646298053480506 0 0.18705202723886369 0.023971627668402631 0 0.2032280807469809 0.02401341519110671 0 0.1967407619395444 0.036671600285967901 0 0.18705202723886369 0.023971627668402631 0 0.205241086410648 0.012948411889972819 0 0.2032280807469809 0.02401341519110671 0 0.1981417396179726 0.012338543260902821 0 0.2032280807469809 0.02401341519110671 0 0.19176370718524061 0.01646298053480506 0 0.1981417396179726 0.012338543260902821 0 0.205241086410648 0.012948411889972819 0 0.1981417396179726 0.012338543260902821 0 0.20130663441071911 0.0041857174609635601 0 0.1981417396179726 0.012338543260902821 0 0.18953681805959091 0.0086478333804126759 0 0.1956806097197282 0.0064663153408515729 0 0.19176370718524061 0.01646298053480506 0 0.1981417396179726 0.012338543260902821 0 0.18953681805959091 0.0086478333804126759 0 0.18953681805959091 0.0086478333804126759 0 0.19373724679063031 0.00069316726112723991 0 0.1868884041802587 -0.0012985251471537721 0 0.18953681805959091 0.0086478333804126759 0 0.19373724679063031 0.00069316726112723991 0 0.1956806097197282 0.0064663153408515729 0 0.19373724679063031 0.00069316726112723991 0 0.1956806097197282 0.0064663153408515729 0 0.20130663441071911 0.0041857174609635601 0 0.1981417396179726 0.012338543260902821 0 0.1956806097197282 0.0064663153408515729 0 0.20130663441071911 0.0041857174609635601 0 0.19744753965461079 0.069473012451274824 0 0.21436148249901871 0.061663844394497062 0 0.20592087690126709 0.04972202719476404 0 0.22046175077145719 0.040971874406103941 0 0.21436148249901871 0.061663844394497062 0 0.20592087690126709 0.04972202719476404 0 0.22046175077145719 0.040971874406103941 0 0.20592087690126709 0.04972202719476404 0 0.22046175077145719 0.040971874406103941 0 0.20592087690126709 0.04972202719476404 0 0.1967407619395444 0.036671600285967901 0 0.22046175077145719 0.040971874406103941 0 0.1967407619395444 0.036671600285967901 0 0.22046175077145719 0.040971874406103941 0 0.2032280807469809 0.02401341519110671 0 0.1967407619395444 0.036671600285967901 0 0.1967407619395444 0.036671600285967901 0 0.1926760250498965 0.049846562606555588 0 0.180485588366848 0.042865678354914977 0 0.20592087690126709 0.04972202719476404 0 0.1967407619395444 0.036671600285967901 0 0.1926760250498965 0.049846562606555588 0 0.19744753965461079 0.069473012451274824 0 0.20592087690126709 0.04972202719476404 0 0.1926760250498965 0.049846562606555588 0 0.19744753965461079 0.069473012451274824 0 0.1926760250498965 0.049846562606555588 0 0.18670555226373831 0.054300158788615771 0 0.19744753965461079 0.069473012451274824 0 0.1762130559835979 0.055015381741717682 0 0.18670555226373831 0.054300158788615771 0 0.1762130559835979 0.055015381741717682 0 0.180485588366848 0.042865678354914977 0 0.15916715128310871 0.049430514170074297 0 0.19744753965461079 0.069473012451274824 0 0.1762130559835979 0.055015381741717682 0 0.1729578542320386 0.056650925245008539 0 0.1729578542320386 0.056650925245008539 0 0.1722925349667648 0.062165410652274863 0 0.17810273217650341 0.065322407081548059 0 0.1762130559835979 0.055015381741717682 0 0.1729578542320386 0.056650925245008539 0 0.1926760250498965 0.049846562606555588 0 0.18670555226373831 0.054300158788615771 0 0.180485588366848 0.042865678354914977 0 0.1762130559835979 0.055015381741717682 0 0.18670555226373831 0.054300158788615771 0 0.180485588366848 0.042865678354914977 0 0.1967407619395444 0.036671600285967901 0 0.173019773107631 0.032371326165835018 0 0.1967407619395444 0.036671600285967901 0 0.180485588366848 0.042865678354914977 0 0.173019773107631 0.032371326165835018 0 0.180485588366848 0.042865678354914977 0 0.173019773107631 0.032371326165835018 0 0.15916715128310871 0.049430514170074297 0 0.173019773107631 0.032371326165835018 0 0.15671553925015921 0.038020748869187361 0 0.15916715128310871 0.049430514170074297 0 0.173019773107631 0.032371326165835018 0 0.15671553925015921 0.038020748869187361 0 0.14929878427571761 0.028071052045702139 0 0.1762130559835979 0.055015381741717682 0 0.1729578542320386 0.056650925245008539 0 0.15916715128310871 0.049430514170074297 0 0.1729578542320386 0.056650925245008539 0 0.15916715128310871 0.049430514170074297 0 0.15547269258662819 0.065436169514250228 0 0.1729578542320386 0.056650925245008539 0 0.15547269258662819 0.065436169514250228 0 0.1729578542320386 0.056650925245008539 0 0.15547269258662819 0.065436169514250228 0 0.16682290276968659 0.063871452199870143 0 0.1729578542320386 0.056650925245008539 0 0.1722925349667648 0.062165410652274863 0 0.16682290276968659 0.063871452199870143 0 0.1729578542320386 0.056650925245008539 0 0.15916715128310871 0.049430514170074297 0 0.17560501731397099 0.0054609157159592088 0 0.18134609722242709 0.0030691289152063278 0 0.18102600466410509 0.01162579625247938 0 0.17560501731397099 0.0054609157159592088 0 0.16899360260903989 0.0022117523816521322 0 0.17576510707605711 -0.001341109348341724 0 0.17560501731397099 0.0054609157159592088 0 0.18134609722242709 0.0030691289152063278 0 0.17576510707605711 -0.001341109348341724 0 0.18953681805959091 0.0086478333804126759 0 0.18134609722242709 0.0030691289152063278 0 0.18102600466410509 0.01162579625247938 0 0.18953681805959091 0.0086478333804126759 0 0.18134609722242709 0.0030691289152063278 0 0.1868884041802587 -0.0012985251471537721 0 0.19176370718524061 0.01646298053480506 0 0.18953681805959091 0.0086478333804126759 0 0.18102600466410509 0.01162579625247938 0 0.17560501731397099 0.0054609157159592088 0 0.18102600466410509 0.01162579625247938 0 0.17089427499822549 0.01173901037879992 0 0.18102600466410509 0.01162579625247938 0 0.1754331686018735 0.020209847547609249 0 0.17089427499822549 0.01173901037879992 0 0.1967407619395444 0.036671600285967901 0 0.173019773107631 0.032371326165835018 0 0.18705202723886369 0.023971627668402631 0 0.19176370718524061 0.01646298053480506 0 0.18102600466410509 0.01162579625247938 0 0.18705202723886369 0.023971627668402631 0 0.18102600466410509 0.01162579625247938 0 0.1754331686018735 0.020209847547609249 0 0.18705202723886369 0.023971627668402631 0 0.173019773107631 0.032371326165835018 0 0.1754331686018735 0.020209847547609249 0 0.18705202723886369 0.023971627668402631 0 0.173019773107631 0.032371326165835018 0 0.14929878427571761 0.028071052045702139 0 0.173019773107631 0.032371326165835018 0 0.1624682494393431 0.018736139877569662 0 0.14929878427571761 0.028071052045702139 0 0.173019773107631 0.032371326165835018 0 0.1754331686018735 0.020209847547609249 0 0.1624682494393431 0.018736139877569662 0 0.1754331686018735 0.020209847547609249 0 0.1624682494393431 0.018736139877569662 0 0.17089427499822549 0.01173901037879992 0 0.1624682494393431 0.018736139877569662 0 0.17089427499822549 0.01173901037879992 0 0.15595888068604311 0.00381635166917778 0 0.16899360260903989 0.0022117523816521322 0 0.15595888068604311 0.00381635166917778 0 0.1612889851362527 -0.003585222843482002 0 0.17089427499822549 0.01173901037879992 0 0.16899360260903989 0.0022117523816521322 0 0.15595888068604311 0.00381635166917778 0 0.17560501731397099 0.0054609157159592088 0 0.17089427499822549 0.01173901037879992 0 0.16899360260903989 0.0022117523816521322 0 0.14456834883326211 0.0040887524329263876 0 0.15595888068604311 0.00381635166917778 0 0.1483365536521071 -0.0069817059065535262 0 0.14456834883326211 0.0040887524329263876 0 0.15595888068604311 0.00381635166917778 0 0.14839853088498081 0.014570049811912291 0 0.1624682494393431 0.018736139877569662 0 0.15595888068604311 0.00381635166917778 0 0.14839853088498081 0.014570049811912291 0 0.14456834883326211 0.0040887524329263876 0 0.14839853088498081 0.014570049811912291 0 0.137531066216842 0.01047589677033332 0 0.14839853088498081 0.014570049811912291 0 0.13644481828636121 0.021657417481178391 0 0.137531066216842 0.01047589677033332 0 0.14839853088498081 0.014570049811912291 0 0.14929878427571761 0.028071052045702139 0 0.13644481828636121 0.021657417481178391 0 0.1624682494393431 0.018736139877569662 0 0.14839853088498081 0.014570049811912291 0 0.14929878427571761 0.028071052045702139 0 0.14929878427571761 0.028071052045702139 0 0.13644481828636121 0.021657417481178391 0 0.1370032856889771 0.033006327692169719 0 0.1236630418475381 0.02857297738493076 0 0.13644481828636121 0.021657417481178391 0 0.1370032856889771 0.033006327692169719 0 0.12277420080411131 0.01524820118202214 0 0.13644481828636121 0.021657417481178391 0 0.137531066216842 0.01047589677033332 0 0.1236630418475381 0.02857297738493076 0 0.12277420080411131 0.01524820118202214 0 0.13644481828636121 0.021657417481178391 0 0.12277420080411131 0.01524820118202214 0 0.137531066216842 0.01047589677033332 0 0.13261671272633771 -0.001436830180237918 0 0.14456834883326211 0.0040887524329263876 0 0.137531066216842 0.01047589677033332 0 0.13261671272633771 -0.001436830180237918 0 0.15916715128310871 0.049430514170074297 0 0.14450572737498371 0.054514559792222757 0 0.15547269258662819 0.065436169514250228 0 0.14450572737498371 0.054514559792222757 0 0.1339501588958755 0.066994144597365746 0 0.15547269258662819 0.065436169514250228 0 0.15916715128310871 0.049430514170074297 0 0.14450572737498371 0.054514559792222757 0 0.1453764483341797 0.042210103095138021 0 0.15916715128310871 0.049430514170074297 0 0.1453764483341797 0.042210103095138021 0 0.15671553925015921 0.038020748869187361 0 0.15916715128310871 0.049430514170074297 0 0.1453764483341797 0.042210103095138021 0 0.15671553925015921 0.038020748869187361 0 0.14929878427571761 0.028071052045702139 0 0.1453764483341797 0.042210103095138021 0 0.14929878427571761 0.028071052045702139 0 0.1453764483341797 0.042210103095138021 0 0.1370032856889771 0.033006327692169719 0 0.1236630418475381 0.02857297738493076 0 0.1370032856889771 0.033006327692169719 0 0.12856218577512679 0.048501867584285818 0 0.1453764483341797 0.042210103095138021 0 0.1370032856889771 0.033006327692169719 0 0.12856218577512679 0.048501867584285818 0 0.14450572737498371 0.054514559792222757 0 0.1453764483341797 0.042210103095138021 0 0.12856218577512679 0.048501867584285818 0 0.1124276252051228 0.068552119680480972 0 0.12856218577512679 0.048501867584285818 0 0.1339501588958755 0.066994144597365746 0 0.14450572737498371 0.054514559792222757 0 0.12856218577512679 0.048501867584285818 0 0.1339501588958755 0.066994144597365746 0 0.1176241941356925 0.084452768322920868 0 0.1245677167389472 0.074262141170996998 0 0.13654844336116029 0.074944468918585416 0 0.1245677167389472 0.074262141170996998 0 0.13654844336116029 0.074944468918585416 0 0.1339501588958755 0.066994144597365746 0 0.13654844336116029 0.074944468918585416 0 0.1339501588958755 0.066994144597365746 0 0.15547269258662819 0.065436169514250228 0 0.1339501588958755 0.066994144597365746 0 0.15547269258662819 0.065436169514250228 0 0.13654844336116029 0.074944468918585416 0 0.1557321981914136 0.08540731307523694 0 0.15693097680234619 0.072765658361453642 0 0.13654844336116029 0.074944468918585416 0 0.15547269258662819 0.065436169514250228 0 0.15693097680234619 0.072765658361453642 0 0.13654844336116029 0.074944468918585416 0 0.15547269258662819 0.065436169514250228 0 0.13654844336116029 0.074944468918585416 0 0.1557321981914136 0.08540731307523694 0 0.14289158421779211 0.088325385858025504 0 0.1557321981914136 0.08540731307523694 0 0.14289158421779211 0.088325385858025504 0 0.14621443782928339 0.099621092553048754 0 0.1176241941356925 0.084452768322920868 0 0.13654844336116029 0.074944468918585416 0 0.13216351787951891 0.09522120052009328 0 0.13654844336116029 0.074944468918585416 0 0.14289158421779211 0.088325385858025504 0 0.13216351787951891 0.09522120052009328 0 0.1176241941356925 0.084452768322920868 0 0.13654844336116029 0.074944468918585416 0 0.13216351787951891 0.09522120052009328 0 0.1362238822700754 0.1156453056149508 0 0.14621443782928339 0.099621092553048754 0 0.1165881689887641 0.1043042165108705 0 0.13216351787951891 0.09522120052009328 0 0.1362238822700754 0.1156453056149508 0 0.14289158421779211 0.088325385858025504 0 0.13216351787951891 0.09522120052009328 0 0.14621443782928339 0.099621092553048754 0 0.1186692315941397 0.1207889837057991 0 0.12945651559912461 0.12929541361859309 0 0.1362238822700754 0.1156453056149508 0 0.1362238822700754 0.1156453056149508 0 0.15361694488606981 0.11172408603307291 0 0.15166778082914531 0.1247327167911137 0 0.14118785561977551 0.13263360221990711 0 0.1362238822700754 0.1156453056149508 0 0.15166778082914531 0.1247327167911137 0 0.1362238822700754 0.1156453056149508 0 0.15361694488606981 0.11172408603307291 0 0.14621443782928339 0.099621092553048754 0 0.15361694488606981 0.11172408603307291 0 0.14621443782928339 0.099621092553048754 0 0.15818120368049729 0.1000493987979965 0 0.1557321981914136 0.08540731307523694 0 0.14621443782928339 0.099621092553048754 0 0.15818120368049729 0.1000493987979965 0 0.15818120368049729 0.1000493987979965 0 0.1643747033297584 0.1080454439625697 0 0.1688159302158222 0.095180217842841877 0 0.15361694488606981 0.11172408603307291 0 0.15818120368049729 0.1000493987979965 0 0.1643747033297584 0.1080454439625697 0 0.1643747033297584 0.1080454439625697 0 0.1688159302158222 0.095180217842841877 0 0.1763836597361631 0.10972517122593201 0 0.15361694488606981 0.11172408603307291 0 0.15166778082914531 0.1247327167911137 0 0.16488821121224961 0.12223163670769829 0 0.15361694488606981 0.11172408603307291 0 0.1643747033297584 0.1080454439625697 0 0.16488821121224961 0.12223163670769829 0 0.1643747033297584 0.1080454439625697 0 0.16488821121224961 0.12223163670769829 0 0.1763836597361631 0.10972517122593201 0 0.19376089658222581 0.1066461683764053 0 0.1763836597361631 0.10972517122593201 0 0.18179669448304639 0.12315672738539329 0 0.16488821121224961 0.12223163670769829 0 0.1763836597361631 0.10972517122593201 0 0.18179669448304639 0.12315672738539329 0 0.19376089658222581 0.1066461683764053 0 0.1763836597361631 0.10972517122593201 0 0.18144689785781659 0.097576456001811335 0 0.1688159302158222 0.095180217842841877 0 0.1763836597361631 0.10972517122593201 0 0.18144689785781659 0.097576456001811335 0 0.19000552079772101 0.087138691946105851 0 0.18144689785781659 0.097576456001811335 0 0.1771500226451547 0.086301772472285945 0 0.1688159302158222 0.095180217842841877 0 0.18144689785781659 0.097576456001811335 0 0.1771500226451547 0.086301772472285945 0 0.1771500226451547 0.086301772472285945 0 0.1786377300691144 0.074741202265298262 0 0.16743793928282449 0.07924924681662826 0 0.19000552079772101 0.087138691946105851 0 0.1771500226451547 0.086301772472285945 0 0.1786377300691144 0.074741202265298262 0 0.19744753965461079 0.069473012451274824 0 0.1729578542320386 0.056650925245008539 0 0.19744753965461079 0.069473012451274824 0 0.1729578542320386 0.056650925245008539 0 0.17810273217650341 0.065322407081548059 0 0.19744753965461079 0.069473012451274824 0 0.17810273217650341 0.065322407081548059 0 0.1786377300691144 0.074741202265298262 0 0.17810273217650341 0.065322407081548059 0 0.1786377300691144 0.074741202265298262 0 0.17071216217078089 0.065621107201656911 0 0.1722925349667648 0.062165410652274863 0 0.17810273217650341 0.065322407081548059 0 0.17071216217078089 0.065621107201656911 0 0.1786377300691144 0.074741202265298262 0 0.16931354615116501 0.07115173424296363 0 0.17071216217078089 0.065621107201656911 0 0.1786377300691144 0.074741202265298262 0 0.16931354615116501 0.07115173424296363 0 0.16743793928282449 0.07924924681662826 0 0.16931354615116501 0.07115173424296363 0 0.1646601576106419 0.072191587251369149 0 0.16743793928282449 0.07924924681662826 0 0.16931354615116501 0.07115173424296363 0 0.1646601576106419 0.072191587251369149 0 0.16677223499463451 0.068124477135834083 0 0.17071216217078089 0.065621107201656911 0 0.16677223499463451 0.068124477135834083 0 0.16682290276968659 0.063871452199870143 0 0.1722925349667648 0.062165410652274863 0 0.17071216217078089 0.065621107201656911 0 0.16682290276968659 0.063871452199870143 0 0.16931354615116501 0.07115173424296363 0 0.17071216217078089 0.065621107201656911 0 0.16677223499463451 0.068124477135834083 0 0.16677223499463451 0.068124477135834083 0 0.16682290276968659 0.063871452199870143 0 0.162352406270898 0.067786504783310594 0 0.1646601576106419 0.072191587251369149 0 0.16677223499463451 0.068124477135834083 0 0.162352406270898 0.067786504783310594 0 0.15547269258662819 0.065436169514250228 0 0.16682290276968659 0.063871452199870143 0 0.162352406270898 0.067786504783310594 0 0.15547269258662819 0.065436169514250228 0 0.162352406270898 0.067786504783310594 0 0.15693097680234619 0.072765658361453642 0 0.1646601576106419 0.072191587251369149 0 0.15693097680234619 0.072765658361453642 0 0.16743793928282449 0.07924924681662826 0 0.1646601576106419 0.072191587251369149 0 0.162352406270898 0.067786504783310594 0 0.15693097680234619 0.072765658361453642 0 0.1688159302158222 0.095180217842841877 0 0.1771500226451547 0.086301772472285945 0 0.16743793928282449 0.07924924681662826 0 0.1557321981914136 0.08540731307523694 0 0.15693097680234619 0.072765658361453642 0 0.16743793928282449 0.07924924681662826 0 0.1557321981914136 0.08540731307523694 0 0.1688159302158222 0.095180217842841877 0 0.16743793928282449 0.07924924681662826 0 0.1557321981914136 0.08540731307523694 0 0.15818120368049729 0.1000493987979965 0 0.1688159302158222 0.095180217842841877 0 0.1065161796951202 0.47463437249475487 0 0.1098163616122429 0.48705809013330248 0 0.090919730096172199 0.4815452991347049 0 0.1065161796951202 0.47463437249475487 0 0.094870067046460421 0.46553260273419322 0 0.090919730096172199 0.4815452991347049 0 0.1040398719938502 0.50000000000000711 0 0.090919730096172199 0.4815452991347049 0 0.1040398719938502 0.50000000000000711 0 0.1098163616122429 0.48705809013330248 0 0.090919730096172199 0.4815452991347049 0 0.1040398719938502 0.50000000000000711 0 0.1226859523302279 0.5 0 0.1098163616122429 0.48705809013330248 0 0.1226859523302279 0.5 0 0.1098163616122429 0.48705809013330248 0 0.1249200739458476 0.47911077903704341 0 0.1065161796951202 0.47463437249475487 0 0.1098163616122429 0.48705809013330248 0 0.1249200739458476 0.47911077903704341 0 0.1065161796951202 0.47463437249475487 0 0.1249200739458476 0.47911077903704341 0 0.1085081152250892 0.45822155807408788 0 0.1249200739458476 0.47911077903704341 0 0.1085081152250892 0.45822155807408788 0 0.1249200739458476 0.47911077903704341 0 0.12359153936340191 0.45517100993035681 0 0.1085081152250892 0.45822155807408788 0 0.12359153936340191 0.45517100993035681 0 0.099293918554824181 0.45082592293664109 0 0.1085081152250892 0.45822155807408788 0 0.12359153936340191 0.45517100993035681 0 0.099293918554824181 0.45082592293664109 0 0.12359153936340191 0.45517100993035681 0 0.1219437273111125 0.43867058125322772 0 0.1133467299701363 0.44206076937233829 0 0.12359153936340191 0.45517100993035681 0 0.1133467299701363 0.44206076937233829 0 0.099293918554824181 0.45082592293664109 0 0.1133467299701363 0.44206076937233829 0 0.1041763495476513 0.43914380909087508 0 0.11157381352605519 0.4318485480562218 0 0.1041763495476513 0.43914380909087508 0 0.099293918554824181 0.45082592293664109 0 0.094306222375244469 0.43231936479075639 0 0.1133467299701363 0.44206076937233829 0 0.1041763495476513 0.43914380909087508 0 0.099293918554824181 0.45082592293664109 0 0.1065161796951202 0.47463437249475487 0 0.1085081152250892 0.45822155807408788 0 0.094870067046460421 0.46553260273419322 0 0.099293918554824181 0.45082592293664109 0 0.1085081152250892 0.45822155807408788 0 0.094870067046460421 0.46553260273419322 0 0.086739967886507272 0.45648248997079061 0 0.074996297746246332 0.44648083594292648 0 0.077799588198497693 0.46309059826940041 0 0.094870067046460421 0.46553260273419322 0 0.086739967886507272 0.45648248997079061 0 0.077799588198497693 0.46309059826940041 0 0.099293918554824181 0.45082592293664109 0 0.094870067046460421 0.46553260273419322 0 0.086739967886507272 0.45648248997079061 0 0.099293918554824181 0.45082592293664109 0 0.074996297746246332 0.44648083594292648 0 0.074996297746246332 0.44648083594292648 0 0.074868982894268576 0.43569522826408869 0 0.094306222375244469 0.43231936479075639 0 0.074996297746246332 0.44648083594292648 0 0.094306222375244469 0.43231936479075639 0 0.099293918554824181 0.45082592293664109 0 0.086739967886507272 0.45648248997079061 0 0.074996297746246332 0.44648083594292648 0 0.099293918554824181 0.45082592293664109 0 0.074996297746246332 0.44648083594292648 0 0.094306222375244469 0.43231936479075639 0 0.072215827278544031 0.44851997141726768 0 0.064679446300822924 0.44463589740409593 0 0.077799588198497693 0.46309059826940041 0 0.072215827278544031 0.44851997141726768 0 0.074996297746246332 0.44648083594292648 0 0.077799588198497693 0.46309059826940041 0 0.074996297746246332 0.44648083594292648 0 0.064679446300822924 0.44463589740409593 0 0.074868982894268576 0.43569522826408869 0 0.072215827278544031 0.44851997141726768 0 0.074996297746246332 0.44648083594292648 0 0.064679446300822924 0.44463589740409593 0 0.072215827278544031 0.44851997141726768 0 0.074996297746246332 0.44648083594292648 0 0.074996297746246332 0.44648083594292648 0 0.064679446300822924 0.44463589740409593 0 0.064679446300822924 0.44463589740409593 0 0.077799588198497693 0.46309059826940041 0 0.051544364372973092 0.46925441140764979 0 0.064679446300822924 0.44463589740409593 0 0.077799588198497693 0.46309059826940041 0 0.077799588198497693 0.46309059826940041 0 0.067584464216859735 0.4817823512753609 0 0.051544364372973092 0.46925441140764979 0 0.077799588198497693 0.46309059826940041 0 0.090919730096172199 0.4815452991347049 0 0.094870067046460421 0.46553260273419322 0 0.077799588198497693 0.46309059826940041 0 0.090919730096172199 0.4815452991347049 0 0.077799588198497693 0.46309059826940041 0 0.067584464216859735 0.4817823512753609 0 0.090919730096172199 0.4815452991347049 0 0.1040398719938502 0.50000000000000711 0 0.090919730096172199 0.4815452991347049 0 0.074493777835262787 0.5 0 0.067584464216859735 0.4817823512753609 0 0.090919730096172199 0.4815452991347049 0 0.074493777835262787 0.5 0 0.067584464216859735 0.4817823512753609 0 0.074493777835262787 0.5 0 0.044947683676675398 0.5 0 0.067584464216859735 0.4817823512753609 0 0.051544364372973092 0.46925441140764979 0 0.044947683676675398 0.5 0 0.051544364372973092 0.46925441140764979 0 0.044947683676675398 0.5 0 0.029771980381834529 0.48087573811766537 0 0.051544364372973092 0.46925441140764979 0 0.029771980381834529 0.48087573811766537 0 0.039158236757805637 0.45703711077285702 0 0.044947683676675398 0.5 0 0.029771980381834529 0.48087573811766537 0 0.01540158951808813 0.50000000000000067 0 0.029771980381834529 0.48087573811766537 0 0.002605725908651949 0.48082159205459069 0 0.01540158951808813 0.50000000000000067 0 0.029771980381834529 0.48087573811766537 0 0.002605725908651949 0.48082159205459069 0 0.02264897978280939 0.4631357070848986 0 0.002605725908651949 0.48082159205459069 0 0.01540158951808813 0.50000000000000067 0 -0.01386194518771955 0.5 0 0.002605725908651949 0.48082159205459069 0 0.01540158951808813 0.50000000000000067 0 0.011608145687186331 0.43787384350011421 0 0.0068984530026089301 0.45569809908886899 0 0.02509444428609052 0.44555095380583309 0 -0.0041045097890631708 0.43944387281778408 0 0.011608145687186331 0.43787384350011421 0 0.0068984530026089301 0.45569809908886899 0 0.002605725908651949 0.48082159205459069 0 0.0068984530026089301 0.45569809908886899 0 0.02264897978280939 0.4631357070848986 0 0.0068984530026089301 0.45569809908886899 0 0.02264897978280939 0.4631357070848986 0 0.02509444428609052 0.44555095380583309 0 0.02264897978280939 0.4631357070848986 0 0.02509444428609052 0.44555095380583309 0 0.039158236757805637 0.45703711077285702 0 0.029771980381834529 0.48087573811766537 0 0.02264897978280939 0.4631357070848986 0 0.039158236757805637 0.45703711077285702 0 0.02509444428609052 0.44555095380583309 0 0.041175631180962118 0.4404327648346742 0 0.039158236757805637 0.45703711077285702 0 0.064679446300822924 0.44463589740409593 0 0.051544364372973092 0.46925441140764979 0 0.039158236757805637 0.45703711077285702 0 0.064679446300822924 0.44463589740409593 0 0.041175631180962118 0.4404327648346742 0 0.064679446300822924 0.44463589740409593 0 0.041175631180962118 0.4404327648346742 0 0.039158236757805637 0.45703711077285702 0 0.064679446300822924 0.44463589740409593 0 0.051789682769240529 0.4265052451554312 0 0.064679446300822924 0.44463589740409593 0 0.041175631180962118 0.4404327648346742 0 0.051789682769240529 0.4265052451554312 0 0.064679446300822924 0.44463589740409593 0 0.051789682769240529 0.4265052451554312 0 0.065141304305703737 0.42830624155012781 0 0.051789682769240529 0.4265052451554312 0 0.058438882230014283 0.41598852870442909 0 0.065141304305703737 0.42830624155012781 0 0.056172876815410069 0.40780803759363837 0 0.058438882230014283 0.41598852870442909 0 0.061514413895205407 0.40631439409416131 0 0.056172876815410069 0.40780803759363837 0 0.058438882230014283 0.41598852870442909 0 0.051882464916909461 0.40968531191840812 0 0.051789682769240529 0.4265052451554312 0 0.058438882230014283 0.41598852870442909 0 0.048302414960285978 0.41327396147172779 0 0.058438882230014283 0.41598852870442909 0 0.048302414960285978 0.41327396147172779 0 0.051882464916909461 0.40968531191840812 0 0.048302414960285978 0.41327396147172779 0 0.046917548627065479 0.4075381671281435 0 0.051882464916909461 0.40968531191840812 0 0.046917548627065479 0.4075381671281435 0 0.051882464916909461 0.40968531191840812 0 0.049853083567469529 0.40630977340780761 0 0.051882464916909461 0.40968531191840812 0 0.053015357821414949 0.40644577158465028 0 0.049853083567469529 0.40630977340780761 0 0.056172876815410069 0.40780803759363837 0 0.051882464916909461 0.40968531191840812 0 0.053015357821414949 0.40644577158465028 0 0.051789682769240529 0.4265052451554312 0 0.0388999192376554 0.40837459290676847 0 0.02713694780299556 0.4255944378013552 0 0.051789682769240529 0.4265052451554312 0 0.048302414960285978 0.41327396147172779 0 0.0388999192376554 0.40837459290676847 0 0.051789682769240529 0.4265052451554312 0 0.0388999192376554 0.40837459290676847 0 0.048302414960285978 0.41327396147172779 0 0.044290971997797871 0.40786427390491681 0 0.0388999192376554 0.40837459290676847 0 0.044290971997797871 0.40786427390491681 0 0.0388999192376554 0.40837459290676847 0 0.042286133268385907 0.40428081413819938 0 0.048302414960285978 0.41327396147172779 0 0.046917548627065479 0.4075381671281435 0 0.044290971997797871 0.40786427390491681 0 0.046917548627065479 0.4075381671281435 0 0.044290971997797871 0.40786427390491681 0 0.044984188586563292 0.40564074718843929 0 0.041175631180962118 0.4404327648346742 0 0.051789682769240529 0.4265052451554312 0 0.02713694780299556 0.4255944378013552 0 0.02509444428609052 0.44555095380583309 0 0.041175631180962118 0.4404327648346742 0 0.02713694780299556 0.4255944378013552 0 0.011608145687186331 0.43787384350011421 0 0.02509444428609052 0.44555095380583309 0 0.02713694780299556 0.4255944378013552 0 0.02713694780299556 0.4255944378013552 0 0.0047917719588289904 0.42004950509716132 0 0.01619366990193569 0.40188873731911778 0 0.0388999192376554 0.40837459290676847 0 0.02713694780299556 0.4255944378013552 0 0.01619366990193569 0.40188873731911778 0 -0.0041045097890631708 0.43944387281778408 0 0.011608145687186331 0.43787384350011421 0 0.0047917719588289904 0.42004950509716132 0 0.011608145687186331 0.43787384350011421 0 0.02713694780299556 0.4255944378013552 0 0.0047917719588289904 0.42004950509716132 0 -0.0065125794337784777 0.39540288173144778 0 0.01010293785293374 0.38669494077658317 0 0.00023234454548807379 0.3761337279000691 0 0.01010293785293374 0.38669494077658317 0 0.00023234454548807379 0.3761337279000691 0 0.01254048697020348 0.37129759775922561 0 -0.0065125794337784777 0.39540288173144778 0 0.01010293785293374 0.38669494077658317 0 0.01619366990193569 0.40188873731911778 0 -0.0065125794337784777 0.39540288173144778 0 0.0047917719588289904 0.42004950509716132 0 0.01619366990193569 0.40188873731911778 0 -0.0065125794337784777 0.39540288173144778 0 0.01619366990193569 0.40188873731911778 0 0.0388999192376554 0.40837459290676847 0 0.01619366990193569 0.40188873731911778 0 0.01010293785293374 0.38669494077658317 0 0.01619366990193569 0.40188873731911778 0 0.02572020310393067 0.38983609533299612 0 0.0388999192376554 0.40837459290676847 0 0.01619366990193569 0.40188873731911778 0 0.02572020310393067 0.38983609533299612 0 0.02572020310393067 0.38983609533299612 0 0.026718542191838349 0.38062247215267631 0 0.01254048697020348 0.37129759775922561 0 0.02572020310393067 0.38983609533299612 0 0.01254048697020348 0.37129759775922561 0 0.02572020310393067 0.38983609533299612 0 0.029642774281243889 0.38987346039187032 0 0.026718542191838349 0.38062247215267631 0 0.01010293785293374 0.38669494077658317 0 0.02572020310393067 0.38983609533299612 0 0.01254048697020348 0.37129759775922561 0 0.02572020310393067 0.38983609533299612 0 0.029642774281243889 0.38987346039187032 0 0.034560730698981947 0.39237899439378932 0 0.026718542191838349 0.38062247215267631 0 0.027777744121038631 0.37380204682604912 0 0.02202763826104397 0.3712258895436818 0 0.029642774281243889 0.38987346039187032 0 0.038089319883795228 0.36951063933843392 0 0.029642774281243889 0.38987346039187032 0 0.026718542191838349 0.38062247215267631 0 0.038089319883795228 0.36951063933843392 0 0.029642774281243889 0.38987346039187032 0 0.039445375197990747 0.38359087614056342 0 0.038089319883795228 0.36951063933843392 0 0.039445375197990747 0.38359087614056342 0 0.040444243989288323 0.39052279496845271 0 0.034560730698981947 0.39237899439378932 0 0.029642774281243889 0.38987346039187032 0 0.039445375197990747 0.38359087614056342 0 0.034560730698981947 0.39237899439378932 0 0.039445375197990747 0.38359087614056342 0 0.045287104738708887 0.38713937255029368 0 0.045948238859671073 0.37929479585162262 0 0.039445375197990747 0.38359087614056342 0 0.040444243989288323 0.39052279496845271 0 0.045287104738708887 0.38713937255029368 0 0.040444243989288323 0.39052279496845271 0 0.045287104738708887 0.38713937255029368 0 0.044472493843947823 0.39404134129578777 0 0.039445375197990747 0.38359087614056342 0 0.045948238859671073 0.37929479585162262 0 0.038089319883795228 0.36951063933843392 0 0.0388999192376554 0.40837459290676847 0 0.02572020310393067 0.38983609533299612 0 0.0388999192376554 0.40837459290676847 0 0.034560730698981947 0.39237899439378932 0 0.040811069383235601 0.39811550884111829 0 0.0388999192376554 0.40837459290676847 0 0.02572020310393067 0.38983609533299612 0 0.034560730698981947 0.39237899439378932 0 0.040444243989288323 0.39052279496845271 0 0.034560730698981947 0.39237899439378932 0 0.040811069383235601 0.39811550884111829 0 0.040444243989288323 0.39052279496845271 0 0.044472493843947823 0.39404134129578777 0 0.040811069383235601 0.39811550884111829 0 0.045287104738708887 0.38713937255029368 0 0.044472493843947823 0.39404134129578777 0 0.050053514848708847 0.39172062011648751 0 0.044472493843947823 0.39404134129578777 0 0.044202895261151821 0.39909451534371421 0 0.048351387175952873 0.39760830779710149 0 0.044472493843947823 0.39404134129578777 0 0.040811069383235601 0.39811550884111829 0 0.044202895261151821 0.39909451534371421 0 0.0388999192376554 0.40837459290676847 0 0.040811069383235601 0.39811550884111829 0 0.042286133268385907 0.40428081413819938 0 0.040811069383235601 0.39811550884111829 0 0.044202895261151821 0.39909451534371421 0 0.042286133268385907 0.40428081413819938 0 0.044202895261151821 0.39909451534371421 0 0.042286133268385907 0.40428081413819938 0 0.047317133825395583 0.40281829026949723 0 0.044202895261151821 0.39909451534371421 0 0.047317133825395583 0.40281829026949723 0 0.048351387175952873 0.39760830779710149 0 0.044984188586563292 0.40564074718843929 0 0.042286133268385907 0.40428081413819938 0 0.047317133825395583 0.40281829026949723 0 0.046917548627065479 0.4075381671281435 0 0.044984188586563292 0.40564074718843929 0 0.047317133825395583 0.40281829026949723 0 0.044290971997797871 0.40786427390491681 0 0.044984188586563292 0.40564074718843929 0 0.042286133268385907 0.40428081413819938 0 0.053015357821414949 0.40644577158465028 0 0.051990305518719193 0.40416280483611738 0 0.055178058288566451 0.4042629301672801 0 0.051990305518719193 0.40416280483611738 0 0.054778467439621517 0.40079243397714109 0 0.055178058288566451 0.4042629301672801 0 0.053015357821414949 0.40644577158465028 0 0.051990305518719193 0.40416280483611738 0 0.049853083567469529 0.40630977340780761 0 0.051990305518719193 0.40416280483611738 0 0.047317133825395583 0.40281829026949723 0 0.051233588481659861 0.40091718292183509 0 0.051990305518719193 0.40416280483611738 0 0.049853083567469529 0.40630977340780761 0 0.047317133825395583 0.40281829026949723 0 0.046917548627065479 0.4075381671281435 0 0.049853083567469529 0.40630977340780761 0 0.047317133825395583 0.40281829026949723 0 0.047317133825395583 0.40281829026949723 0 0.051233588481659861 0.40091718292183509 0 0.048351387175952873 0.39760830779710149 0 0.051233588481659861 0.40091718292183509 0 0.052828696794853247 0.39705789683528792 0 0.048351387175952873 0.39760830779710149 0 0.051990305518719193 0.40416280483611738 0 0.051233588481659861 0.40091718292183509 0 0.054778467439621517 0.40079243397714109 0 0.051233588481659861 0.40091718292183509 0 0.052828696794853247 0.39705789683528792 0 0.054778467439621517 0.40079243397714109 0 0.052828696794853247 0.39705789683528792 0 0.048351387175952873 0.39760830779710149 0 0.050053514848708847 0.39172062011648751 0 0.044472493843947823 0.39404134129578777 0 0.048351387175952873 0.39760830779710149 0 0.050053514848708847 0.39172062011648751 0 0.052828696794853247 0.39705789683528792 0 0.050053514848708847 0.39172062011648751 0 0.0546252151786593 0.39369461735874428 0 0.050053514848708847 0.39172062011648751 0 0.0546252151786593 0.39369461735874428 0 0.057386857308615563 0.38968940947926628 0 0.058231791762459559 0.39631054300393598 0 0.057386857308615563 0.38968940947926628 0 0.06857235918550382 0.39289384578393122 0 0.0546252151786593 0.39369461735874428 0 0.058231791762459559 0.39631054300393598 0 0.057386857308615563 0.38968940947926628 0 0.052828696794853247 0.39705789683528792 0 0.058231791762459559 0.39631054300393598 0 0.054778467439621517 0.40079243397714109 0 0.052828696794853247 0.39705789683528792 0 0.0546252151786593 0.39369461735874428 0 0.058231791762459559 0.39631054300393598 0 0.058231791762459559 0.39631054300393598 0 0.054778467439621517 0.40079243397714109 0 0.05863278794005633 0.4030240594182547 0 0.058231791762459559 0.39631054300393598 0 0.062170394222647522 0.39941860134447837 0 0.05863278794005633 0.4030240594182547 0 0.062170394222647522 0.39941860134447837 0 0.05863278794005633 0.4030240594182547 0 0.061680076687095887 0.40321939857611672 0 0.056172876815410069 0.40780803759363837 0 0.05863278794005633 0.4030240594182547 0 0.061514413895205407 0.40631439409416131 0 0.05863278794005633 0.4030240594182547 0 0.061680076687095887 0.40321939857611672 0 0.061514413895205407 0.40631439409416131 0 0.056172876815410069 0.40780803759363837 0 0.05863278794005633 0.4030240594182547 0 0.055178058288566451 0.4042629301672801 0 0.054778467439621517 0.40079243397714109 0 0.05863278794005633 0.4030240594182547 0 0.055178058288566451 0.4042629301672801 0 0.056172876815410069 0.40780803759363837 0 0.053015357821414949 0.40644577158465028 0 0.055178058288566451 0.4042629301672801 0 0.045948238859671073 0.37929479585162262 0 0.052499089600724247 0.38355417846336759 0 0.052717846014306832 0.37436173991188548 0 0.045287104738708887 0.38713937255029368 0 0.045948238859671073 0.37929479585162262 0 0.052499089600724247 0.38355417846336759 0 0.045287104738708887 0.38713937255029368 0 0.050053514848708847 0.39172062011648751 0 0.052499089600724247 0.38355417846336759 0 0.050053514848708847 0.39172062011648751 0 0.052499089600724247 0.38355417846336759 0 0.057386857308615563 0.38968940947926628 0 0.052499089600724247 0.38355417846336759 0 0.057386857308615563 0.38968940947926628 0 0.062232360297260883 0.37955806688130989 0 0.062232360297260883 0.37955806688130989 0 0.062833765228820157 0.37161504887543312 0 0.052717846014306832 0.37436173991188548 0 0.052499089600724247 0.38355417846336759 0 0.062232360297260883 0.37955806688130989 0 0.052717846014306832 0.37436173991188548 0 0.062232360297260883 0.37955806688130989 0 0.072564807284120542 0.37986183725244882 0 0.062833765228820157 0.37161504887543312 0 0.057386857308615563 0.38968940947926628 0 0.062232360297260883 0.37955806688130989 0 0.06857235918550382 0.39289384578393122 0 0.062232360297260883 0.37955806688130989 0 0.072564807284120542 0.37986183725244882 0 0.06857235918550382 0.39289384578393122 0 0.072564807284120542 0.37986183725244882 0 0.079552718229907851 0.39263824002208159 0 0.06857235918550382 0.39289384578393122 0 0.072564807284120542 0.37986183725244882 0 0.090248130430387694 0.3808099316815623 0 0.079552718229907851 0.39263824002208159 0 0.090248130430387694 0.3808099316815623 0 0.079552718229907851 0.39263824002208159 0 0.090248130430387694 0.3808099316815623 0 0.092696664744210552 0.39454239295513632 0 0.079552718229907851 0.39263824002208159 0 0.092696664744210552 0.39454239295513632 0 0.079552718229907851 0.39263824002208159 0 0.091236726516835454 0.41131222100059489 0 0.079552718229907851 0.39263824002208159 0 0.068857306029428578 0.40446654836260149 0 0.091236726516835454 0.41131222100059489 0 0.079552718229907851 0.39263824002208159 0 0.068857306029428578 0.40446654836260149 0 0.079552718229907851 0.39263824002208159 0 0.06857235918550382 0.39289384578393122 0 0.068857306029428578 0.40446654836260149 0 0.058231791762459559 0.39631054300393598 0 0.062170394222647522 0.39941860134447837 0 0.06857235918550382 0.39289384578393122 0 0.06857235918550382 0.39289384578393122 0 0.068857306029428578 0.40446654836260149 0 0.065304553669227439 0.40337979190992779 0 0.062170394222647522 0.39941860134447837 0 0.06857235918550382 0.39289384578393122 0 0.065304553669227439 0.40337979190992779 0 0.068857306029428578 0.40446654836260149 0 0.065304553669227439 0.40337979190992779 0 0.062170394222647522 0.39941860134447837 0 0.061680076687095887 0.40321939857611672 0 0.065304553669227439 0.40337979190992779 0 0.061680076687095887 0.40321939857611672 0 0.061514413895205407 0.40631439409416131 0 0.065304553669227439 0.40337979190992779 0 0.061514413895205407 0.40631439409416131 0 0.068857306029428578 0.40446654836260149 0 0.065304553669227439 0.40337979190992779 0 0.058438882230014283 0.41598852870442909 0 0.068857306029428578 0.40446654836260149 0 0.058438882230014283 0.41598852870442909 0 0.068857306029428578 0.40446654836260149 0 0.069428146999325965 0.41853600710494271 0 0.058438882230014283 0.41598852870442909 0 0.061514413895205407 0.40631439409416131 0 0.068857306029428578 0.40446654836260149 0 0.058438882230014283 0.41598852870442909 0 0.069428146999325965 0.41853600710494271 0 0.065141304305703737 0.42830624155012781 0 0.069428146999325965 0.41853600710494271 0 0.075221643743324712 0.4267338016325366 0 0.082145002235147965 0.41958861841066969 0 0.068857306029428578 0.40446654836260149 0 0.069428146999325965 0.41853600710494271 0 0.082145002235147965 0.41958861841066969 0 0.064679446300822924 0.44463589740409593 0 0.065141304305703737 0.42830624155012781 0 0.074868982894268576 0.43569522826408869 0 0.069428146999325965 0.41853600710494271 0 0.065141304305703737 0.42830624155012781 0 0.075221643743324712 0.4267338016325366 0 0.065141304305703737 0.42830624155012781 0 0.075221643743324712 0.4267338016325366 0 0.074868982894268576 0.43569522826408869 0 0.075221643743324712 0.4267338016325366 0 0.074868982894268576 0.43569522826408869 0 0.094306222375244469 0.43231936479075639 0 0.075221643743324712 0.4267338016325366 0 0.082145002235147965 0.41958861841066969 0 0.094306222375244469 0.43231936479075639 0 0.091236726516835454 0.41131222100059489 0 0.082145002235147965 0.41958861841066969 0 0.094306222375244469 0.43231936479075639 0 0.068857306029428578 0.40446654836260149 0 0.091236726516835454 0.41131222100059489 0 0.082145002235147965 0.41958861841066969 0 0.068857306029428578 0.40446654836260149 0 0.091236726516835454 0.41131222100059489 0 0.091236726516835454 0.41131222100059489 0 0.1136161470042429 0.41815789363858652 0 0.091236726516835454 0.41131222100059489 0 0.094306222375244469 0.43231936479075639 0 0.1136161470042429 0.41815789363858652 0 0.091236726516835454 0.41131222100059489 0 0.1136161470042429 0.41815789363858652 0 0.106682988756735 0.39599974443704011 0 0.1041763495476513 0.43914380909087508 0 0.094306222375244469 0.43231936479075639 0 0.11157381352605519 0.4318485480562218 0 0.094306222375244469 0.43231936479075639 0 0.1136161470042429 0.41815789363858652 0 0.094306222375244469 0.43231936479075639 0 0.11157381352605519 0.4318485480562218 0 0.1136161470042429 0.41815789363858652 0 0.1219437273111125 0.43867058125322772 0 0.11157381352605519 0.4318485480562218 0 0.1220537049479473 0.42073887019154671 0 0.1219437273111125 0.43867058125322772 0 0.1133467299701363 0.44206076937233829 0 0.11157381352605519 0.4318485480562218 0 0.11157381352605519 0.4318485480562218 0 0.1136161470042429 0.41815789363858652 0 0.1220537049479473 0.42073887019154671 0 0.118770532749983 0.41437778126384139 0 0.12311784708308279 0.41118955719251749 0 0.106682988756735 0.39599974443704011 0 0.1136161470042429 0.41815789363858652 0 0.118770532749983 0.41437778126384139 0 0.106682988756735 0.39599974443704011 0 0.1136161470042429 0.41815789363858652 0 0.118770532749983 0.41437778126384139 0 0.118770532749983 0.41437778126384139 0 0.1220537049479473 0.42073887019154671 0 0.118770532749983 0.41437778126384139 0 0.1220537049479473 0.42073887019154671 0 0.12311784708308279 0.41118955719251749 0 0.1136161470042429 0.41815789363858652 0 0.118770532749983 0.41437778126384139 0 0.1220537049479473 0.42073887019154671 0 0.1136161470042429 0.41815789363858652 0 0.1220537049479473 0.42073887019154671 0 0.118770532749983 0.41437778126384139 0 0.12311784708308279 0.41118955719251749 0 0.1240259970801484 0.38531650285574093 0 0.106682988756735 0.39599974443704011 0 0.12745133483022991 0.39750769241168182 0 0.12311784708308279 0.41118955719251749 0 0.106682988756735 0.39599974443704011 0 0.12745133483022991 0.39750769241168182 0 0.12311784708308279 0.41118955719251749 0 0.106682988756735 0.39599974443704011 0 0.1240259970801484 0.38531650285574093 0 0.1115784285655617 0.37877788918397409 0 0.1297487588182549 0.36968562038619451 0 0.1240259970801484 0.38531650285574093 0 0.1115784285655617 0.37877788918397409 0 0.106682988756735 0.39599974443704011 0 0.090248130430387694 0.3808099316815623 0 0.1115784285655617 0.37877788918397409 0 0.106682988756735 0.39599974443704011 0 0.090248130430387694 0.3808099316815623 0 0.092696664744210552 0.39454239295513632 0 0.106682988756735 0.39599974443704011 0 0.090248130430387694 0.3808099316815623 0 0.106682988756735 0.39599974443704011 0 0.092696664744210552 0.39454239295513632 0 0.091236726516835454 0.41131222100059489 0 0.106682988756735 0.39599974443704011 0 0.1026380226189529 0.34801619431593372 0 0.1071862677422827 0.36207764655933311 0 0.089896629685196544 0.36090240040774302 0 0.090248130430387694 0.3808099316815623 0 0.1071862677422827 0.36207764655933311 0 0.089896629685196544 0.36090240040774302 0 0.090248130430387694 0.3808099316815623 0 0.1115784285655617 0.37877788918397409 0 0.1071862677422827 0.36207764655933311 0 0.090248130430387694 0.3808099316815623 0 0.1071862677422827 0.36207764655933311 0 0.1115784285655617 0.37877788918397409 0 0.1071862677422827 0.36207764655933311 0 0.1297487588182549 0.36968562038619451 0 0.1071862677422827 0.36207764655933311 0 0.1241244050541775 0.3433453614371037 0 0.1297487588182549 0.36968562038619451 0 0.1071862677422827 0.36207764655933311 0 0.1241244050541775 0.3433453614371037 0 0.1026380226189529 0.34801619431593372 0 0.1071862677422827 0.36207764655933311 0 0.1241244050541775 0.3433453614371037 0 0.1241244050541775 0.3433453614371037 0 0.1102285876579773 0.33297209346205708 0 0.1026380226189529 0.34801619431593372 0 0.1241244050541775 0.3433453614371037 0 0.1102285876579773 0.33297209346205708 0 0.1241244050541775 0.3433453614371037 0 0.1102285876579773 0.33297209346205708 0 0.1253355319813329 0.32913545772160752 0 0.1102285876579773 0.33297209346205708 0 0.1253355319813329 0.32913545772160752 0 0.1161981443293853 0.31962688725388211 0 0.1161925399330859 0.30434569305914372 0 0.12911094542705351 0.31492503639199909 0 0.1102285876579773 0.33297209346205708 0 0.1161981443293853 0.31962688725388211 0 0.1253355319813329 0.32913545772160752 0 0.1161981443293853 0.31962688725388211 0 0.12911094542705351 0.31492503639199909 0 0.1253355319813329 0.32913545772160752 0 0.1161981443293853 0.31962688725388211 0 0.1054239378459647 0.31536966040892639 0 0.1161925399330859 0.30434569305914372 0 0.1161981443293853 0.31962688725388211 0 0.1054239378459647 0.31536966040892639 0 0.10071319084758749 0.32586882215467489 0 0.1102285876579773 0.33297209346205708 0 0.1161981443293853 0.31962688725388211 0 0.10071319084758749 0.32586882215467489 0 0.10071319084758749 0.32586882215467489 0 0.08949640917857149 0.32869591738583631 0 0.093472416121982371 0.31734999835079541 0 0.1054239378459647 0.31536966040892639 0 0.10071319084758749 0.32586882215467489 0 0.093472416121982371 0.31734999835079541 0 0.1054239378459647 0.31536966040892639 0 0.093472416121982371 0.31734999835079541 0 0.1002153744418056 0.31039310778571561 0 0.093472416121982371 0.31734999835079541 0 0.093390294931817927 0.31053095629112332 0 0.1002153744418056 0.31039310778571561 0 0.1026380226189529 0.34801619431593372 0 0.1102285876579773 0.33297209346205708 0 0.082090681806876176 0.34011813788632728 0 0.1102285876579773 0.33297209346205708 0 0.082090681806876176 0.34011813788632728 0 0.1102285876579773 0.33297209346205708 0 0.082090681806876176 0.34011813788632728 0 0.08949640917857149 0.32869591738583631 0 0.1102285876579773 0.33297209346205708 0 0.10071319084758749 0.32586882215467489 0 0.08949640917857149 0.32869591738583631 0 0.1102285876579773 0.33297209346205708 0 0.10071319084758749 0.32586882215467489 0 0.082090681806876176 0.34011813788632728 0 0.08949640917857149 0.32869591738583631 0 0.070135580795524663 0.32692291455779943 0 0.08949640917857149 0.32869591738583631 0 0.081798277164291777 0.32044240508091743 0 0.070135580795524663 0.32692291455779943 0 0.093472416121982371 0.31734999835079541 0 0.081798277164291777 0.32044240508091743 0 0.086621392053156498 0.30993932208101332 0 0.093472416121982371 0.31734999835079541 0 0.093390294931817927 0.31053095629112332 0 0.086621392053156498 0.30993932208101332 0 0.08949640917857149 0.32869591738583631 0 0.093472416121982371 0.31734999835079541 0 0.081798277164291777 0.32044240508091743 0 0.070135580795524663 0.32692291455779943 0 0.057386083455655913 0.32299025550180599 0 0.065616035079363713 0.30314959636401612 0 0.081798277164291777 0.32044240508091743 0 0.070135580795524663 0.32692291455779943 0 0.065616035079363713 0.30314959636401612 0 0.082090681806876176 0.34011813788632728 0 0.070135580795524663 0.32692291455779943 0 0.061857028652509638 0.33594931263286187 0 0.082090681806876176 0.34011813788632728 0 0.05395277595577469 0.34726418231059691 0 0.082090681806876176 0.34011813788632728 0 0.05395277595577469 0.34726418231059691 0 0.061857028652509638 0.33594931263286187 0 0.070135580795524663 0.32692291455779943 0 0.061857028652509638 0.33594931263286187 0 0.057386083455655913 0.32299025550180599 0 0.082090681806876176 0.34011813788632728 0 0.072100453193082559 0.36403705699607802 0 0.05395277595577469 0.34726418231059691 0 0.072100453193082559 0.36403705699607802 0 0.05395277595577469 0.34726418231059691 0 0.082090681806876176 0.34011813788632728 0 0.089896629685196544 0.36090240040774302 0 0.072100453193082559 0.36403705699607802 0 0.1026380226189529 0.34801619431593372 0 0.082090681806876176 0.34011813788632728 0 0.089896629685196544 0.36090240040774302 0 0.072564807284120542 0.37986183725244882 0 0.090248130430387694 0.3808099316815623 0 0.072100453193082559 0.36403705699607802 0 0.090248130430387694 0.3808099316815623 0 0.089896629685196544 0.36090240040774302 0 0.072100453193082559 0.36403705699607802 0 0.090248130430387694 0.3808099316815623 0 0.072100453193082559 0.36403705699607802 0 0.072100453193082559 0.36403705699607802 0 0.062833765228820157 0.37161504887543312 0 0.054855245075809009 0.36501887678684969 0 0.072564807284120542 0.37986183725244882 0 0.072100453193082559 0.36403705699607802 0 0.062833765228820157 0.37161504887543312 0 0.062833765228820157 0.37161504887543312 0 0.054855245075809009 0.36501887678684969 0 0.052717846014306832 0.37436173991188548 0 0.054855245075809009 0.36501887678684969 0 0.052717846014306832 0.37436173991188548 0 0.038089319883795228 0.36951063933843392 0 0.072100453193082559 0.36403705699607802 0 0.054855245075809009 0.36501887678684969 0 0.052506660406475753 0.35693872118526471 0 0.054855245075809009 0.36501887678684969 0 0.052506660406475753 0.35693872118526471 0 0.038089319883795228 0.36951063933843392 0 0.072100453193082559 0.36403705699607802 0 0.052506660406475753 0.35693872118526471 0 0.05395277595577469 0.34726418231059691 0 0.052506660406475753 0.35693872118526471 0 0.05395277595577469 0.34726418231059691 0 0.046535865486346757 0.34914781828499758 0 0.05395277595577469 0.34726418231059691 0 0.046535865486346757 0.34914781828499758 0 0.046535865486346757 0.34914781828499758 0 0.049156131831947468 0.34283091463959581 0 0.05395277595577469 0.34726418231059691 0 0.046535865486346757 0.34914781828499758 0 0.049156131831947468 0.34283091463959581 0 0.05395277595577469 0.34726418231059691 0 0.049156131831947468 0.34283091463959581 0 0.046535865486346757 0.34914781828499758 0 0.038089319883795228 0.36951063933843392 0 0.046535865486346757 0.34914781828499758 0 0.030307787245994668 0.35326918284708653 0 0.036414741968761377 0.34105787056942538 0 0.052506660406475753 0.35693872118526471 0 0.046535865486346757 0.34914781828499758 0 0.038089319883795228 0.36951063933843392 0 0.046535865486346757 0.34914781828499758 0 0.03343871094152373 0.3605555935945578 0 0.030307787245994668 0.35326918284708653 0 0.046535865486346757 0.34914781828499758 0 0.030307787245994668 0.35326918284708653 0 0.046535865486346757 0.34914781828499758 0 0.036414741968761377 0.34105787056942538 0 0.049156131831947468 0.34283091463959581 0 0.030307787245994668 0.35326918284708653 0 0.030193281041820751 0.3451126743108377 0 0.036414741968761377 0.34105787056942538 0 0.046535865486346757 0.34914781828499758 0 0.03343871094152373 0.3605555935945578 0 0.038089319883795228 0.36951063933843392 0 0.045948238859671073 0.37929479585162262 0 0.052717846014306832 0.37436173991188548 0 0.038089319883795228 0.36951063933843392 0 0.03343871094152373 0.3605555935945578 0 0.038089319883795228 0.36951063933843392 0 0.02632919950972358 0.36568007346009052 0 0.026718542191838349 0.38062247215267631 0 0.038089319883795228 0.36951063933843392 0 0.027777744121038631 0.37380204682604912 0 0.027777744121038631 0.37380204682604912 0 0.02202763826104397 0.3712258895436818 0 0.02632919950972358 0.36568007346009052 0 0.038089319883795228 0.36951063933843392 0 0.027777744121038631 0.37380204682604912 0 0.02632919950972358 0.36568007346009052 0 0.02202763826104397 0.3712258895436818 0 0.016772218512415789 0.36472725752036728 0 0.01254048697020348 0.37129759775922561 0 0.026718542191838349 0.38062247215267631 0 0.02202763826104397 0.3712258895436818 0 0.01254048697020348 0.37129759775922561 0 0.016772218512415789 0.36472725752036728 0 0.021833318540115391 0.35956211911554159 0 0.02632919950972358 0.36568007346009052 0 0.02202763826104397 0.3712258895436818 0 0.016772218512415789 0.36472725752036728 0 0.02632919950972358 0.36568007346009052 0 0.016772218512415789 0.36472725752036728 0 0.021833318540115391 0.35956211911554159 0 0.01407970900564254 0.35739054740917509 0 0.021833318540115391 0.35956211911554159 0 0.02632919950972358 0.36568007346009052 0 0.027977254059339339 0.35976674225431898 0 0.03343871094152373 0.3605555935945578 0 0.02632919950972358 0.36568007346009052 0 0.027977254059339339 0.35976674225431898 0 0.021833318540115391 0.35956211911554159 0 0.030307787245994668 0.35326918284708653 0 0.01407970900564254 0.35739054740917509 0 0.030307787245994668 0.35326918284708653 0 0.01407970900564254 0.35739054740917509 0 0.030307787245994668 0.35326918284708653 0 0.02329997175975301 0.34967609904995972 0 0.01407970900564254 0.35739054740917509 0 0.021833318540115391 0.35956211911554159 0 0.027977254059339339 0.35976674225431898 0 0.030307787245994668 0.35326918284708653 0 0.03343871094152373 0.3605555935945578 0 0.027977254059339339 0.35976674225431898 0 0.030307787245994668 0.35326918284708653 0 0.030193281041820751 0.3451126743108377 0 0.02329997175975301 0.34967609904995972 0 0.018619109745554089 0.3429319916327398 0 0.030307787245994668 0.35326918284708653 0 0.030193281041820751 0.3451126743108377 0 0.02329997175975301 0.34967609904995972 0 0.02329997175975301 0.34967609904995972 0 0.01407970900564254 0.35739054740917509 0 0.018619109745554089 0.3429319916327398 0 -0.002410370870439289 0.34221180686809799 0 0.006944054203612951 0.3568529478149855 0 0.01398812050179702 0.33683570707924998 0 0.01407970900564254 0.35739054740917509 0 0.006944054203612951 0.3568529478149855 0 0.018619109745554089 0.3429319916327398 0 0.006944054203612951 0.3568529478149855 0 0.01398812050179702 0.33683570707924998 0 0.018619109745554089 0.3429319916327398 0 0.006944054203612951 0.3568529478149855 0 0.01398812050179702 0.33683570707924998 0 0.006944054203612951 0.3568529478149855 0 0.018619109745554089 0.3429319916327398 0 0.00023234454548807379 0.3761337279000691 0 0.006944054203612951 0.3568529478149855 0 0.010120405511701069 0.36528274093150559 0 0.00023234454548807379 0.3761337279000691 0 0.006944054203612951 0.3568529478149855 0 0.00023234454548807379 0.3761337279000691 0 0.01254048697020348 0.37129759775922561 0 0.010120405511701069 0.36528274093150559 0 0.01407970900564254 0.35739054740917509 0 0.006944054203612951 0.3568529478149855 0 0.010120405511701069 0.36528274093150559 0 0.016772218512415789 0.36472725752036728 0 0.01254048697020348 0.37129759775922561 0 0.010120405511701069 0.36528274093150559 0 0.016772218512415789 0.36472725752036728 0 0.01407970900564254 0.35739054740917509 0 0.010120405511701069 0.36528274093150559 0 0.01038282893984914 0.31837314287400598 0 0.01398812050179702 0.33683570707924998 0 0.02099897247883634 0.31680684008980842 0 0.01038282893984914 0.31837314287400598 0 0.0024911284607612768 0.32446041469818759 0 0.01398812050179702 0.33683570707924998 0 0.01038282893984914 0.31837314287400598 0 0.02099897247883634 0.31680684008980842 0 0.01064966139035786 0.30724155546973808 0 0.01038282893984914 0.31837314287400598 0 0.0024911284607612768 0.32446041469818759 0 0.00090819960434352742 0.31055804411813698 0 -0.002410370870439289 0.34221180686809799 0 0.0024911284607612768 0.32446041469818759 0 0.01398812050179702 0.33683570707924998 0 0.030193281041820751 0.3451126743108377 0 0.030294165287493562 0.32901103545049271 0 0.01398812050179702 0.33683570707924998 0 0.018619109745554089 0.3429319916327398 0 0.030294165287493562 0.32901103545049271 0 0.030193281041820751 0.3451126743108377 0 0.018619109745554089 0.3429319916327398 0 0.030294165287493562 0.32901103545049271 0 0.018619109745554089 0.3429319916327398 0 0.030294165287493562 0.32901103545049271 0 0.030316673154416631 0.32541866537989178 0 0.02099897247883634 0.31680684008980842 0 0.030316673154416631 0.32541866537989178 0 0.02099897247883634 0.31680684008980842 0 0.030461408200984929 0.30231821560432459 0 0.030294165287493562 0.32901103545049271 0 0.030316673154416631 0.32541866537989178 0 0.032001220918963881 0.32697559788354108 0 0.030294165287493562 0.32901103545049271 0 0.032001220918963881 0.32697559788354108 0 0.01398812050179702 0.33683570707924998 0 0.02099897247883634 0.31680684008980842 0 0.01398812050179702 0.33683570707924998 0 0.030294165287493562 0.32901103545049271 0 0.02099897247883634 0.31680684008980842 0 0.030294165287493562 0.32901103545049271 0 0.030316673154416631 0.32541866537989178 0 0.02099897247883634 0.31680684008980842 0 0.030316673154416631 0.32541866537989178 0 0.030461408200984929 0.30231821560432459 0 0.030294165287493562 0.32901103545049271 0 0.030316673154416631 0.32541866537989178 0 0.030316673154416631 0.32541866537989178 0 0.032001220918963881 0.32697559788354108 0 0.030316673154416631 0.32541866537989178 0 0.04212483467323376 0.31490453038644028 0 0.030461408200984929 0.30231821560432459 0 0.032001220918963881 0.32697559788354108 0 0.04212483467323376 0.31490453038644028 0 0.030316673154416631 0.32541866537989178 0 0.032001220918963881 0.32697559788354108 0 0.04212483467323376 0.31490453038644028 0 0.032001220918963881 0.32697559788354108 0 0.045167067719950202 0.32692532460284579 0 0.04212483467323376 0.31490453038644028 0 0.030193281041820751 0.3451126743108377 0 0.030294165287493562 0.32901103545049271 0 0.036414741968761377 0.34105787056942538 0 0.032001220918963881 0.32697559788354108 0 0.036414741968761377 0.34105787056942538 0 0.049156131831947468 0.34283091463959581 0 0.032001220918963881 0.32697559788354108 0 0.049156131831947468 0.34283091463959581 0 0.032001220918963881 0.32697559788354108 0 0.045167067719950202 0.32692532460284579 0 0.049156131831947468 0.34283091463959581 0 0.030294165287493562 0.32901103545049271 0 0.032001220918963881 0.32697559788354108 0 0.036414741968761377 0.34105787056942538 0 0.049156131831947468 0.34283091463959581 0 0.061857028652509638 0.33594931263286187 0 0.057386083455655913 0.32299025550180599 0 0.045167067719950202 0.32692532460284579 0 0.049156131831947468 0.34283091463959581 0 0.057386083455655913 0.32299025550180599 0 0.049156131831947468 0.34283091463959581 0 0.057386083455655913 0.32299025550180599 0 0.05395277595577469 0.34726418231059691 0 0.049156131831947468 0.34283091463959581 0 0.061857028652509638 0.33594931263286187 0 0.04212483467323376 0.31490453038644028 0 0.057386083455655913 0.32299025550180599 0 0.052248448427504507 0.30283346288934032 0 0.057386083455655913 0.32299025550180599 0 0.065616035079363713 0.30314959636401612 0 0.045167067719950202 0.32692532460284579 0 0.04212483467323376 0.31490453038644028 0 0.057386083455655913 0.32299025550180599 0 0.057386083455655913 0.32299025550180599 0 0.052248448427504507 0.30283346288934032 0 0.065616035079363713 0.30314959636401612 0 0.052248448427504507 0.30283346288934032 0 0.065616035079363713 0.30314959636401612 0 0.052248448427504507 0.30283346288934032 0 0.063972689014404824 0.2888538600605533 0 0.065616035079363713 0.30314959636401612 0 0.04212483467323376 0.31490453038644028 0 0.052248448427504507 0.30283346288934032 0 0.052248448427504507 0.30283346288934032 0 0.056302152245040489 0.28682754259728632 0 0.04378011358768167 0.29345152394415469 0 0.052248448427504507 0.30283346288934032 0 0.056302152245040489 0.28682754259728632 0 0.063972689014404824 0.2888538600605533 0 0.051094065887555898 0.27952085089339102 0 0.066132482209302595 0.28524934605143459 0 0.056302152245040489 0.28682754259728632 0 0.051094065887555898 0.27952085089339102 0 0.066132482209302595 0.28524934605143459 0 0.052248448427504507 0.30283346288934032 0 0.063972689014404824 0.2888538600605533 0 0.056302152245040489 0.28682754259728632 0 0.04378011358768167 0.29345152394415469 0 0.030549823534507501 0.28820667855879573 0 0.056302152245040489 0.28682754259728632 0 0.030549823534507501 0.28820667855879573 0 0.056302152245040489 0.28682754259728632 0 0.030549823534507501 0.28820667855879573 0 0.051094065887555898 0.27952085089339102 0 0.04378011358768167 0.29345152394415469 0 0.037021745909924242 0.29546534256429341 0 0.030549823534507501 0.28820667855879573 0 0.037021745909924242 0.29546534256429341 0 0.030461408200984929 0.30231821560432459 0 0.030549823534507501 0.28820667855879573 0 0.052248448427504507 0.30283346288934032 0 0.037021745909924242 0.29546534256429341 0 0.030461408200984929 0.30231821560432459 0 0.04212483467323376 0.31490453038644028 0 0.052248448427504507 0.30283346288934032 0 0.030461408200984929 0.30231821560432459 0 0.052248448427504507 0.30283346288934032 0 0.030461408200984929 0.30231821560432459 0 0.052248448427504507 0.30283346288934032 0 0.04378011358768167 0.29345152394415469 0 0.037021745909924242 0.29546534256429341 0 0.02099897247883634 0.31680684008980842 0 0.026106582312022529 0.30221522721339772 0 0.030461408200984929 0.30231821560432459 0 0.026106582312022529 0.30221522721339772 0 0.0062208690640736669 0.3017449448962411 0 0.023234405486512639 0.30163662579861922 0 0.026106582312022529 0.30221522721339772 0 0.0062208690640736669 0.3017449448962411 0 0.02099897247883634 0.31680684008980842 0 0.026106582312022529 0.30221522721339772 0 0.02099897247883634 0.31680684008980842 0 0.026106582312022529 0.30221522721339772 0 0.01064966139035786 0.30724155546973808 0 0.02099897247883634 0.31680684008980842 0 0.01064966139035786 0.30724155546973808 0 0.026106582312022529 0.30221522721339772 0 0.030461408200984929 0.30231821560432459 0 0.030549823534507501 0.28820667855879573 0 0.023234405486512639 0.30163662579861922 0 0.026106582312022529 0.30221522721339772 0 0.02367307952176597 0.29349449452111009 0 0.026106582312022529 0.30221522721339772 0 0.030461408200984929 0.30231821560432459 0 0.030461408200984929 0.30231821560432459 0 0.030549823534507501 0.28820667855879573 0 0.026106582312022529 0.30221522721339772 0 0.030549823534507501 0.28820667855879573 0 0.026106582312022529 0.30221522721339772 0 0.02367307952176597 0.29349449452111009 0 0.030549823534507501 0.28820667855879573 0 0.030549823534507501 0.28820667855879573 0 0.015366617916944761 0.28901979744654782 0 0.015366617916944761 0.28901979744654782 0 0.012310977212913301 0.27606786785174398 0 0.022220112218978749 0.28125717792333621 0 0.030549823534507501 0.28820667855879573 0 0.015366617916944761 0.28901979744654782 0 0.022220112218978749 0.28125717792333621 0 0.02367307952176597 0.29349449452111009 0 0.030549823534507501 0.28820667855879573 0 0.015366617916944761 0.28901979744654782 0 0.023234405486512639 0.30163662579861922 0 0.02367307952176597 0.29349449452111009 0 0.015366617916944761 0.28901979744654782 0 0.023234405486512639 0.30163662579861922 0 0.00018341229938195931 0.28983291633430058 0 0.023234405486512639 0.30163662579861922 0 0.015366617916944761 0.28901979744654782 0 0.00018341229938195931 0.28983291633430058 0 0.015366617916944761 0.28901979744654782 0 0.00018341229938195931 0.28983291633430058 0 0.015366617916944761 0.28901979744654782 0 0.0033458878610336251 0.28590232733123278 0 0.012310977212913301 0.27606786785174398 0 0.015366617916944761 0.28901979744654782 0 0.0033458878610336251 0.28590232733123278 0 0.00018341229938195931 0.28983291633430058 0 0.023234405486512639 0.30163662579861922 0 0.00018341229938195931 0.28983291633430058 0 0.0062208690640736669 0.3017449448962411 0 0.026106582312022529 0.30221522721339772 0 0.0062208690640736669 0.3017449448962411 0 0.01064966139035786 0.30724155546973808 0 0.01038282893984914 0.31837314287400598 0 0.00090819960434352742 0.31055804411813698 0 0.01064966139035786 0.30724155546973808 0 0.0062208690640736669 0.3017449448962411 0 0.00090819960434352742 0.31055804411813698 0 0.01064966139035786 0.30724155546973808 0 0.0085324138467479053 0.26330809202186473 0 0.013738747116580999 0.261330386439596 0 0.01149422473798729 0.25655330952491973 0 0.0077964813644713004 0.25030123984269009 0 0.01149422473798729 0.25655330952491973 0 0.015909256624148969 0.25127351979552792 0 0.0085324138467479053 0.26330809202186473 0 0.0077964813644713004 0.25030123984269009 0 0.01149422473798729 0.25655330952491973 0 0.013738747116580999 0.261330386439596 0 0.01149422473798729 0.25655330952491973 0 0.015909256624148969 0.25127351979552792 0 -0.0048262704790712346 0.25168036280890821 0 0.0085324138467479053 0.26330809202186473 0 0.0077964813644713004 0.25030123984269009 0 -0.0061978038847468218 0.27116810800978408 0 0.0085324138467479053 0.26330809202186473 0 0.0044978687589870021 0.27411159880365638 0 0.0033458878610336251 0.28590232733123278 0 0.0044978687589870021 0.27411159880365638 0 0.012310977212913301 0.27606786785174398 0 -0.0061978038847468218 0.27116810800978408 0 0.0033458878610336251 0.28590232733123278 0 0.0044978687589870021 0.27411159880365638 0 0.0085324138467479053 0.26330809202186473 0 0.0044978687589870021 0.27411159880365638 0 0.012310977212913301 0.27606786785174398 0 0.030549823534507501 0.28820667855879573 0 0.022220112218978749 0.28125717792333621 0 0.030653030211549321 0.27173436783625732 0 0.012310977212913301 0.27606786785174398 0 0.022220112218978749 0.28125717792333621 0 0.030653030211549321 0.27173436783625732 0 0.0085324138467479053 0.26330809202186473 0 0.012310977212913301 0.27606786785174398 0 0.030653030211549321 0.27173436783625732 0 0.0085324138467479053 0.26330809202186473 0 0.030653030211549321 0.27173436783625732 0 0.030549823534507501 0.28820667855879573 0 0.030653030211549321 0.27173436783625732 0 0.030653030211549321 0.27173436783625732 0 0.030743559039392389 0.25728550634474501 0 0.0085324138467479053 0.26330809202186473 0 0.013738747116580999 0.261330386439596 0 0.030653030211549321 0.27173436783625732 0 0.013738747116580999 0.261330386439596 0 0.030653030211549321 0.27173436783625732 0 0.030743559039392389 0.25728550634474501 0 0.029906158841677959 0.24453386453229681 0 0.013738747116580999 0.261330386439596 0 0.029906158841677959 0.24453386453229681 0 0.013738747116580999 0.261330386439596 0 0.015909256624148969 0.25127351979552792 0 0.029906158841677959 0.24453386453229681 0 0.013738747116580999 0.261330386439596 0 0.030743559039392389 0.25728550634474501 0 0.030743559039392389 0.25728550634474501 0 0.043009371786397833 0.25392669919406452 0 0.036055649565810963 0.27379235573534288 0 0.029906158841677959 0.24453386453229681 0 0.030743559039392389 0.25728550634474501 0 0.043009371786397833 0.25392669919406452 0 0.043009371786397833 0.25392669919406452 0 0.036055649565810963 0.27379235573534288 0 0.05219999456782401 0.2619920542267028 0 0.043009371786397833 0.25392669919406452 0 0.036055649565810963 0.27379235573534288 0 0.030653030211549321 0.27173436783625732 0 0.030743559039392389 0.25728550634474501 0 0.036055649565810963 0.27379235573534288 0 0.036055649565810963 0.27379235573534288 0 0.051782701128534427 0.27076501232277173 0 0.05219999456782401 0.2619920542267028 0 0.030549823534507501 0.28820667855879573 0 0.036055649565810963 0.27379235573534288 0 0.051094065887555898 0.27952085089339102 0 0.036055649565810963 0.27379235573534288 0 0.051094065887555898 0.27952085089339102 0 0.051782701128534427 0.27076501232277173 0 0.030549823534507501 0.28820667855879573 0 0.030653030211549321 0.27173436783625732 0 0.036055649565810963 0.27379235573534288 0 0.030549823534507501 0.28820667855879573 0 0.036055649565810963 0.27379235573534288 0 0.030653030211549321 0.27173436783625732 0 0.036055649565810963 0.27379235573534288 0 0.036055649565810963 0.27379235573534288 0 0.051094065887555898 0.27952085089339102 0 0.051782701128534427 0.27076501232277173 0 0.061137195058396467 0.27027398471435321 0 0.059121206278486452 0.26388313456606632 0 0.051094065887555898 0.27952085089339102 0 0.051782701128534427 0.27076501232277173 0 0.061137195058396467 0.27027398471435321 0 0.051094065887555898 0.27952085089339102 0 0.061137195058396467 0.27027398471435321 0 0.066467164149380892 0.27686921702620831 0 0.051094065887555898 0.27952085089339102 0 0.066467164149380892 0.27686921702620831 0 0.066132482209302595 0.28524934605143459 0 0.043009371786397833 0.25392669919406452 0 0.05219999456782401 0.2619920542267028 0 0.065043550754665058 0.25857928665370211 0 0.051782701128534427 0.27076501232277173 0 0.05219999456782401 0.2619920542267028 0 0.059121206278486452 0.26388313456606632 0 0.05219999456782401 0.2619920542267028 0 0.059121206278486452 0.26388313456606632 0 0.065043550754665058 0.25857928665370211 0 0.061137195058396467 0.27027398471435321 0 0.059121206278486452 0.26388313456606632 0 0.065043550754665058 0.25857928665370211 0 0.065043550754665058 0.25857928665370211 0 0.083749266379614037 0.25881786245053029 0 0.076146059786176501 0.2460618939175363 0 0.065043550754665058 0.25857928665370211 0 0.083749266379614037 0.25881786245053029 0 0.065043550754665058 0.25857928665370211 0 0.083749266379614037 0.25881786245053029 0 0.073314482151756039 0.27202640682397999 0 0.065043550754665058 0.25857928665370211 0 0.073314482151756039 0.27202640682397999 0 0.083749266379614037 0.25881786245053029 0 0.091967686430796391 0.27231936982300259 0 0.102454982004563 0.25905643824736202 0 0.083749266379614037 0.25881786245053029 0 0.102454982004563 0.25905643824736202 0 0.089001919656682624 0.24306817803581071 0 0.083749266379614037 0.25881786245053029 0 0.102454982004563 0.25905643824736202 0 0.083749266379614037 0.25881786245053029 0 0.091967686430796391 0.27231936982300259 0 0.073314482151756039 0.27202640682397999 0 0.091967686430796391 0.27231936982300259 0 0.08158541354884595 0.28547352699425849 0 0.1022051467530098 0.28436926120539902 0 0.091967686430796391 0.27231936982300259 0 0.073314482151756039 0.27202640682397999 0 0.08158541354884595 0.28547352699425849 0 0.073314482151756039 0.27202640682397999 0 0.08158541354884595 0.28547352699425849 0 0.073314482151756039 0.27202640682397999 0 0.066467164149380892 0.27686921702620831 0 0.08158541354884595 0.28547352699425849 0 0.061137195058396467 0.27027398471435321 0 0.065043550754665058 0.25857928665370211 0 0.073314482151756039 0.27202640682397999 0 0.061137195058396467 0.27027398471435321 0 0.073314482151756039 0.27202640682397999 0 0.066467164149380892 0.27686921702620831 0 0.056302152245040489 0.28682754259728632 0 0.08158541354884595 0.28547352699425849 0 0.056302152245040489 0.28682754259728632 0 0.063972689014404824 0.2888538600605533 0 0.08158541354884595 0.28547352699425849 0 0.063972689014404824 0.2888538600605533 0 0.068449241214477333 0.29631934027454793 0 0.08158541354884595 0.28547352699425849 0 0.056302152245040489 0.28682754259728632 0 0.066132482209302595 0.28524934605143459 0 0.08158541354884595 0.28547352699425849 0 0.063972689014404824 0.2888538600605533 0 0.068449241214477333 0.29631934027454793 0 0.065616035079363713 0.30314959636401612 0 0.066467164149380892 0.27686921702620831 0 0.066132482209302595 0.28524934605143459 0 0.08158541354884595 0.28547352699425849 0 0.068449241214477333 0.29631934027454793 0 0.065616035079363713 0.30314959636401612 0 0.092853645645305294 0.30379374558063832 0 0.081798277164291777 0.32044240508091743 0 0.065616035079363713 0.30314959636401612 0 0.086621392053156498 0.30993932208101332 0 0.068449241214477333 0.29631934027454793 0 0.065616035079363713 0.30314959636401612 0 0.065616035079363713 0.30314959636401612 0 0.092853645645305294 0.30379374558063832 0 0.086621392053156498 0.30993932208101332 0 0.065616035079363713 0.30314959636401612 0 0.092853645645305294 0.30379374558063832 0 0.092853645645305294 0.30379374558063832 0 0.093390294931817927 0.31053095629112332 0 0.086621392053156498 0.30993932208101332 0 0.092853645645305294 0.30379374558063832 0 0.08158541354884595 0.28547352699425849 0 0.1022051467530098 0.28436926120539902 0 0.092853645645305294 0.30379374558063832 0 0.08158541354884595 0.28547352699425849 0 0.068449241214477333 0.29631934027454793 0 0.092853645645305294 0.30379374558063832 0 0.08158541354884595 0.28547352699425849 0 0.08158541354884595 0.28547352699425849 0 0.1022051467530098 0.28436926120539902 0 0.092853645645305294 0.30379374558063832 0 0.1022051467530098 0.28436926120539902 0 0.1161925399330859 0.30434569305914372 0 0.1054239378459647 0.31536966040892639 0 0.1002153744418056 0.31039310778571561 0 0.1161925399330859 0.30434569305914372 0 0.092853645645305294 0.30379374558063832 0 0.1161925399330859 0.30434569305914372 0 0.092853645645305294 0.30379374558063832 0 0.1002153744418056 0.31039310778571561 0 0.1161925399330859 0.30434569305914372 0 0.092853645645305294 0.30379374558063832 0 0.093390294931817927 0.31053095629112332 0 0.1002153744418056 0.31039310778571561 0 0.1022051467530098 0.28436926120539902 0 0.1228248799571738 0.28326499541653982 0 0.1022051467530098 0.28436926120539902 0 0.1161925399330859 0.30434569305914372 0 0.1228248799571738 0.28326499541653982 0 0.1228248799571738 0.28326499541653982 0 0.1252198340500765 0.28313673644031723 0 0.1022051467530098 0.28436926120539902 0 0.1228248799571738 0.28326499541653982 0 0.11263993098086671 0.27116071683195231 0 0.1228248799571738 0.28326499541653982 0 0.11263993098086671 0.27116071683195231 0 0.1228248799571738 0.28326499541653982 0 0.11263993098086671 0.27116071683195231 0 0.127943742688678 0.27480641667681738 0 0.11263993098086671 0.27116071683195231 0 0.12866649601315111 0.25939074424056657 0 0.127943742688678 0.27480641667681738 0 0.102454982004563 0.25905643824736202 0 0.12866649601315111 0.25939074424056657 0 0.11263993098086671 0.27116071683195231 0 0.102454982004563 0.25905643824736202 0 0.12866649601315111 0.25939074424056657 0 0.111584570130932 0.24709021691947031 0 0.102454982004563 0.25905643824736202 0 0.12866649601315111 0.25939074424056657 0 0.11263993098086671 0.27116071683195231 0 0.102454982004563 0.25905643824736202 0 0.089001919656682624 0.24306817803581071 0 0.102454982004563 0.25905643824736202 0 0.091967686430796391 0.27231936982300259 0 0.1022051467530098 0.28436926120539902 0 0.11263993098086671 0.27116071683195231 0 0.091967686430796391 0.27231936982300259 0 0.11263993098086671 0.27116071683195231 0 0.102454982004563 0.25905643824736202 0 0.15396235703379921 0.27932834274882079 0 0.14996705407810471 0.26925387255480793 0 0.15487801002173929 0.2597250502337764 0 0.15396235703379921 0.27932834274882079 0 0.15487801002173929 0.2597250502337764 0 0.1416488588366647 0.26893523194524849 0 0.14469503407552051 0.27793741959565282 0 0.14996705407810471 0.26925387255480793 0 0.14469503407552051 0.27793741959565282 0 0.15396235703379921 0.27932834274882079 0 0.14996705407810471 0.26925387255480793 0 0.1416488588366647 0.26893523194524849 0 0.14996705407810471 0.26925387255480793 0 0.15487801002173929 0.2597250502337764 0 0.143941790555738 0.2430480176622111 0 0.15487801002173929 0.2597250502337764 0 0.15487801002173929 0.2597250502337764 0 0.12866649601315111 0.25939074424056657 0 0.143941790555738 0.2430480176622111 0 0.15487801002173929 0.2597250502337764 0 0.12866649601315111 0.25939074424056657 0 0.1416488588366647 0.26893523194524849 0 0.15487801002173929 0.2597250502337764 0 0.12866649601315111 0.25939074424056657 0 0.1416488588366647 0.26893523194524849 0 0.12866649601315111 0.25939074424056657 0 0.127943742688678 0.27480641667681738 0 0.1416488588366647 0.26893523194524849 0 0.14469503407552051 0.27793741959565282 0 0.13466414553729239 0.2774586785139076 0 0.1416488588366647 0.26893523194524849 0 0.13466414553729239 0.2774586785139076 0 0.127943742688678 0.27480641667681738 0 0.13466414553729239 0.2774586785139076 0 0.13019388532146459 0.28033133490978279 0 0.13391485341342929 0.28605223080076758 0 0.14469503407552051 0.27793741959565282 0 0.13466414553729239 0.2774586785139076 0 0.14080172650199829 0.28694322002320433 0 0.13019388532146459 0.28033133490978279 0 0.127943742688678 0.27480641667681738 0 0.1252198340500765 0.28313673644031723 0 0.13466414553729239 0.2774586785139076 0 0.13019388532146459 0.28033133490978279 0 0.127943742688678 0.27480641667681738 0 0.1228248799571738 0.28326499541653982 0 0.127943742688678 0.27480641667681738 0 0.1252198340500765 0.28313673644031723 0 0.1252198340500765 0.28313673644031723 0 0.13391485341342929 0.28605223080076758 0 0.1389465075322569 0.30242470567721957 0 0.13391485341342929 0.28605223080076758 0 0.1389465075322569 0.30242470567721957 0 0.14080172650199829 0.28694322002320433 0 0.1228248799571738 0.28326499541653982 0 0.1252198340500765 0.28313673644031723 0 0.1389465075322569 0.30242470567721957 0 0.1228248799571738 0.28326499541653982 0 0.1389465075322569 0.30242470567721957 0 0.1161925399330859 0.30434569305914372 0 0.1228248799571738 0.28326499541653982 0 0.1389465075322569 0.30242470567721957 0 0.13019388532146459 0.28033133490978279 0 0.1252198340500765 0.28313673644031723 0 0.13391485341342929 0.28605223080076758 0 0.13466414553729239 0.2774586785139076 0 0.13391485341342929 0.28605223080076758 0 0.14080172650199829 0.28694322002320433 0 0.1161925399330859 0.30434569305914372 0 0.13953143422086661 0.30489764053764862 0 0.1161925399330859 0.30434569305914372 0 0.1389465075322569 0.30242470567721957 0 0.13953143422086661 0.30489764053764862 0 0.1161925399330859 0.30434569305914372 0 0.13953143422086661 0.30489764053764862 0 0.12911094542705351 0.31492503639199909 0 0.13953143422086661 0.30489764053764862 0 0.13667773821130469 0.31390492798540409 0 0.12911094542705351 0.31492503639199909 0 0.13953143422086661 0.30489764053764862 0 0.13667773821130469 0.31390492798540409 0 0.1397453394464882 0.31527932138290032 0 0.1389465075322569 0.30242470567721957 0 0.1527821727291877 0.29852824198906219 0 0.15506813510734099 0.32158441593789849 0 0.1389465075322569 0.30242470567721957 0 0.15506813510734099 0.32158441593789849 0 0.1389465075322569 0.30242470567721957 0 0.13953143422086661 0.30489764053764862 0 0.15506813510734099 0.32158441593789849 0 0.1389465075322569 0.30242470567721957 0 0.1527821727291877 0.29852824198906219 0 0.1456831112413485 0.2935098407372474 0 0.15396235703379921 0.27932834274882079 0 0.1527821727291877 0.29852824198906219 0 0.15396235703379921 0.27932834274882079 0 0.1527821727291877 0.29852824198906219 0 0.1476301348101732 0.28723028489320451 0 0.14469503407552051 0.27793741959565282 0 0.1476301348101732 0.28723028489320451 0 0.14080172650199829 0.28694322002320433 0 0.1389465075322569 0.30242470567721957 0 0.14080172650199829 0.28694322002320433 0 0.1456831112413485 0.2935098407372474 0 0.1476301348101732 0.28723028489320451 0 0.14080172650199829 0.28694322002320433 0 0.1456831112413485 0.2935098407372474 0 0.1527821727291877 0.29852824198906219 0 0.1476301348101732 0.28723028489320451 0 0.1456831112413485 0.2935098407372474 0 0.14469503407552051 0.27793741959565282 0 0.15396235703379921 0.27932834274882079 0 0.1476301348101732 0.28723028489320451 0 0.17636458436254421 0.29249069664816302 0 0.16575356285047671 0.27630957007837142 0 0.15396235703379921 0.27932834274882079 0 0.1527821727291877 0.29852824198906219 0 0.16286227351297131 0.28942145813246761 0 0.16286227351297131 0.28942145813246761 0 0.17636458436254421 0.29249069664816302 0 0.16575356285047671 0.27630957007837142 0 0.15396235703379921 0.27932834274882079 0 0.16286227351297131 0.28942145813246761 0 0.16575356285047671 0.27630957007837142 0 0.1527821727291877 0.29852824198906219 0 0.16286227351297131 0.28942145813246761 0 0.16544869058884881 0.3004504391979208 0 0.16286227351297131 0.28942145813246761 0 0.16544869058884881 0.3004504391979208 0 0.17636458436254421 0.29249069664816302 0 0.1527821727291877 0.29852824198906219 0 0.16370865552686031 0.31022073080751827 0 0.15506813510734099 0.32158441593789849 0 0.1527821727291877 0.29852824198906219 0 0.16370865552686031 0.31022073080751827 0 0.16544869058884881 0.3004504391979208 0 0.16370865552686031 0.31022073080751827 0 0.16544869058884881 0.3004504391979208 0 0.17372535786254789 0.31109757585993919 0 0.17372535786254789 0.31109757585993919 0 0.1876393619546543 0.28718464922469822 0 0.16544869058884881 0.3004504391979208 0 0.17372535786254789 0.31109757585993919 0 0.17636458436254421 0.29249069664816302 0 0.18431228861443971 0.3028072057197011 0 0.19559920560620489 0.31129094094083831 0 0.1753336703567723 0.31643767843936599 0 0.17372535786254789 0.31109757585993919 0 0.18431228861443971 0.3028072057197011 0 0.1876393619546543 0.28718464922469822 0 0.17372535786254789 0.31109757585993919 0 0.18431228861443971 0.3028072057197011 0 0.1753336703567723 0.31643767843936599 0 0.17636458436254421 0.29249069664816302 0 0.17710749520684799 0.27900336117293861 0 0.16575356285047671 0.27630957007837142 0 0.17372535786254789 0.31109757585993919 0 0.17636458436254421 0.29249069664816302 0 0.1876393619546543 0.28718464922469822 0 0.17636458436254421 0.29249069664816302 0 0.17710749520684799 0.27900336117293861 0 0.1876393619546543 0.28718464922469822 0 0.17710749520684799 0.27900336117293861 0 0.1786724716597155 0.26002852874052251 0 0.1876393619546543 0.28718464922469822 0 0.1786724716597155 0.26002852874052251 0 0.1876393619546543 0.28718464922469822 0 0.17710749520684799 0.27900336117293861 0 0.16575356285047671 0.27630957007837142 0 0.1786724716597155 0.26002852874052251 0 0.1786724716597155 0.26002852874052251 0 0.19544868182293759 0.27376337294466629 0 0.1876393619546543 0.28718464922469822 0 0.15487801002173929 0.2597250502337764 0 0.16575356285047671 0.27630957007837142 0 0.15396235703379921 0.27932834274882079 0 0.15487801002173929 0.2597250502337764 0 0.16575356285047671 0.27630957007837142 0 0.16439761672397299 0.24585220247667389 0 0.15487801002173929 0.2597250502337764 0 0.1786724716597155 0.26002852874052251 0 0.15487801002173929 0.2597250502337764 0 0.1786724716597155 0.26002852874052251 0 0.15487801002173929 0.2597250502337764 0 0.16575356285047671 0.27630957007837142 0 0.1786724716597155 0.26002852874052251 0 0.19343180513555491 0.2430655368245794 0 0.1786724716597155 0.26002852874052251 0 0.20325800169122499 0.26034209666463681 0 0.1786724716597155 0.26002852874052251 0 0.20325800169122499 0.26034209666463681 0 0.1786724716597155 0.26002852874052251 0 0.19544868182293759 0.27376337294466629 0 0.20325800169122499 0.26034209666463681 0 0.19544868182293759 0.27376337294466629 0 0.20950361597667999 0.27354340010307049 0 0.20427178481586519 0.29084370853868069 0 0.19544868182293759 0.27376337294466629 0 0.1876393619546543 0.28718464922469822 0 0.19544868182293759 0.27376337294466629 0 0.20325800169122499 0.26034209666463681 0 0.19544868182293759 0.27376337294466629 0 0.20950361597667999 0.27354340010307049 0 0.20325800169122499 0.26034209666463681 0 0.20950361597667999 0.27354340010307049 0 0.22554613880375091 0.26062636325876443 0 0.22103912222805541 0.28450097236308047 0 0.20325800169122499 0.26034209666463681 0 0.22554613880375091 0.26062636325876443 0 0.20950361597667999 0.27354340010307049 0 0.20325800169122499 0.26034209666463681 0 0.22554613880375091 0.26062636325876443 0 0.21473754708324791 0.2406130866005102 0 0.20325800169122499 0.26034209666463681 0 0.21473754708324791 0.2406130866005102 0 0.20325800169122499 0.26034209666463681 0 0.22554613880375091 0.26062636325876443 0 0.22554613880375091 0.26062636325876443 0 0.2383416907289857 0.27770077605103022 0 0.22103912222805541 0.28450097236308047 0 0.22554613880375091 0.26062636325876443 0 0.2383416907289857 0.27770077605103022 0 0.2478342759162768 0.26091062985289248 0 0.2383416907289857 0.27770077605103022 0 0.2478342759162768 0.26091062985289248 0 0.25973905734838071 0.27670686391645299 0 0.22554613880375091 0.26062636325876443 0 0.2478342759162768 0.26091062985289248 0 0.23660232268103151 0.240234817975048 0 0.22554613880375091 0.26062636325876443 0 0.2478342759162768 0.26091062985289248 0 0.24164395245637771 0.2995971849009591 0 0.2412798096235671 0.316970635093692 0 0.2606974566135174 0.31731781410570081 0 0.2383416907289857 0.27770077605103022 0 0.24164395245637771 0.2995971849009591 0 0.25973905734838071 0.27670686391645299 0 0.24164395245637771 0.2995971849009591 0 0.22103912222805541 0.28450097236308047 0 0.21862157903129051 0.3054440629208956 0 0.2383416907289857 0.27770077605103022 0 0.24164395245637771 0.2995971849009591 0 0.22103912222805541 0.28450097236308047 0 0.24164395245637771 0.2995971849009591 0 0.21862157903129051 0.3054440629208956 0 0.24164395245637771 0.2995971849009591 0 0.21862157903129051 0.3054440629208956 0 0.2412798096235671 0.316970635093692 0 0.21862157903129051 0.3054440629208956 0 0.19559920560620489 0.31129094094083831 0 0.21081176826071121 0.32023007459648573 0 0.21862157903129051 0.3054440629208956 0 0.19559920560620489 0.31129094094083831 0 0.21862157903129051 0.3054440629208956 0 0.20427178481586519 0.29084370853868069 0 0.19559920560620489 0.31129094094083831 0 0.20950361597667999 0.27354340010307049 0 0.22103912222805541 0.28450097236308047 0 0.20427178481586519 0.29084370853868069 0 0.22103912222805541 0.28450097236308047 0 0.21862157903129051 0.3054440629208956 0 0.20427178481586519 0.29084370853868069 0 0.20427178481586519 0.29084370853868069 0 0.1876393619546543 0.28718464922469822 0 0.19559920560620489 0.31129094094083831 0 0.19544868182293759 0.27376337294466629 0 0.20427178481586519 0.29084370853868069 0 0.1876393619546543 0.28718464922469822 0 0.18431228861443971 0.3028072057197011 0 0.1876393619546543 0.28718464922469822 0 0.19559920560620489 0.31129094094083831 0 0.1876393619546543 0.28718464922469822 0 0.19559920560620489 0.31129094094083831 0 0.19559920560620489 0.31129094094083831 0 0.2037737970720731 0.33604759385552568 0 0.18190634691687779 0.33285275024173733 0 0.19559920560620489 0.31129094094083831 0 0.2037737970720731 0.33604759385552568 0 0.2037737970720731 0.33604759385552568 0 0.18308892873620561 0.36206214993427299 0 0.18190634691687779 0.33285275024173733 0 0.19559920560620489 0.31129094094083831 0 0.2037737970720731 0.33604759385552568 0 0.21081176826071121 0.32023007459648573 0 0.21862157903129051 0.3054440629208956 0 0.21081176826071121 0.32023007459648573 0 0.22525249133327691 0.3281377006686832 0 0.2037737970720731 0.33604759385552568 0 0.21081176826071121 0.32023007459648573 0 0.22525249133327691 0.3281377006686832 0 0.21862157903129051 0.3054440629208956 0 0.22525249133327691 0.3281377006686832 0 0.2412798096235671 0.316970635093692 0 0.22525249133327691 0.3281377006686832 0 0.2272627170150209 0.34825209737221491 0 0.25002513944560117 0.34106818142227879 0 0.2037737970720731 0.33604759385552568 0 0.22525249133327691 0.3281377006686832 0 0.2272627170150209 0.34825209737221491 0 0.22525249133327691 0.3281377006686832 0 0.2412798096235671 0.316970635093692 0 0.25002513944560117 0.34106818142227879 0 0.23919778307774581 0.36355275735608023 0 0.2272627170150209 0.34825209737221491 0 0.25002513944560117 0.34106818142227879 0 0.23919778307774581 0.36355275735608023 0 0.25882786459305152 0.3639511545810718 0 0.25002513944560117 0.34106818142227879 0 0.23919778307774581 0.36355275735608023 0 0.2272627170150209 0.34825209737221491 0 0.21194838853794171 0.36080424677021322 0 0.21194838853794171 0.36080424677021322 0 0.2321683503893115 0.37793970140581618 0 0.22012298000381031 0.38556089968490048 0 0.23919778307774581 0.36355275735608023 0 0.21194838853794171 0.36080424677021322 0 0.2321683503893115 0.37793970140581618 0 0.21194838853794171 0.36080424677021322 0 0.22012298000381031 0.38556089968490048 0 0.21194838853794171 0.36080424677021322 0 0.2004568728484947 0.38144831729396822 0 0.20436513282994229 0.3812505192878643 0 0.2037737970720731 0.33604759385552568 0 0.21194838853794171 0.36080424677021322 0 0.2037737970720731 0.33604759385552568 0 0.2272627170150209 0.34825209737221491 0 0.21194838853794171 0.36080424677021322 0 0.2037737970720731 0.33604759385552568 0 0.21194838853794171 0.36080424677021322 0 0.18308892873620561 0.36206214993427299 0 0.18308892873620561 0.36206214993427299 0 0.17944358716755071 0.3726519769075286 0 0.2004568728484947 0.38144831729396822 0 0.21194838853794171 0.36080424677021322 0 0.18308892873620561 0.36206214993427299 0 0.2004568728484947 0.38144831729396822 0 0.18308892873620561 0.36206214993427299 0 0.2004568728484947 0.38144831729396822 0 0.18308892873620561 0.36206214993427299 0 0.17944358716755071 0.3726519769075286 0 0.16809774109013051 0.3627450082631769 0 0.16586653062294951 0.37450597919905521 0 0.16809774109013051 0.3627450082631769 0 0.15867148688620231 0.36913485818865338 0 0.17944358716755071 0.3726519769075286 0 0.16586653062294951 0.37450597919905521 0 0.16809774109013051 0.3627450082631769 0 0.15867148688620231 0.36913485818865338 0 0.1584209548910582 0.35656866284664651 0 0.16809774109013051 0.3627450082631769 0 0.15867148688620231 0.36913485818865338 0 0.1584209548910582 0.35656866284664651 0 0.16586653062294951 0.37450597919905521 0 0.15867148688620231 0.36913485818865338 0 0.16809774109013051 0.3627450082631769 0 0.1584209548910582 0.35656866284664651 0 0.1657209846239156 0.34267598257457871 0 0.1584209548910582 0.35656866284664651 0 0.1657209846239156 0.34267598257457871 0 0.1485222511592548 0.34053471423844928 0 0.18308892873620561 0.36206214993427299 0 0.1657209846239156 0.34267598257457871 0 0.18308892873620561 0.36206214993427299 0 0.16809774109013051 0.3627450082631769 0 0.1657209846239156 0.34267598257457871 0 0.18308892873620561 0.36206214993427299 0 0.18190634691687779 0.33285275024173733 0 0.1657209846239156 0.34267598257457871 0 0.18190634691687779 0.33285275024173733 0 0.1657209846239156 0.34267598257457871 0 0.16792149510609591 0.32860215570584228 0 0.19559920560620489 0.31129094094083831 0 0.1753336703567723 0.31643767843936599 0 0.19559920560620489 0.31129094094083831 0 0.18190634691687779 0.33285275024173733 0 0.1753336703567723 0.31643767843936599 0 0.18190634691687779 0.33285275024173733 0 0.1753336703567723 0.31643767843936599 0 0.16792149510609591 0.32860215570584228 0 0.1753336703567723 0.31643767843936599 0 0.16792149510609591 0.32860215570584228 0 0.15506813510734099 0.32158441593789849 0 0.1753336703567723 0.31643767843936599 0 0.15506813510734099 0.32158441593789849 0 0.16370865552686031 0.31022073080751827 0 0.1753336703567723 0.31643767843936599 0 0.15506813510734099 0.32158441593789849 0 0.16370865552686031 0.31022073080751827 0 0.17372535786254789 0.31109757585993919 0 0.1753336703567723 0.31643767843936599 0 0.1657209846239156 0.34267598257457871 0 0.16792149510609591 0.32860215570584228 0 0.15506813510734099 0.32158441593789849 0 0.1657209846239156 0.34267598257457871 0 0.15506813510734099 0.32158441593789849 0 0.14835304051162709 0.32328981521488298 0 0.1657209846239156 0.34267598257457871 0 0.14835304051162709 0.32328981521488298 0 0.1485222511592548 0.34053471423844928 0 0.14835304051162709 0.32328981521488298 0 0.14044247630468831 0.32529882198115739 0 0.1657209846239156 0.34267598257457871 0 0.1485222511592548 0.34053471423844928 0 0.14835304051162709 0.32328981521488298 0 0.13953143422086661 0.30489764053764862 0 0.15506813510734099 0.32158441593789849 0 0.14532014855773759 0.31990448931667731 0 0.15506813510734099 0.32158441593789849 0 0.14835304051162709 0.32328981521488298 0 0.14532014855773759 0.31990448931667731 0 0.15506813510734099 0.32158441593789849 0 0.14835304051162709 0.32328981521488298 0 0.14835304051162709 0.32328981521488298 0 0.14532014855773759 0.31990448931667731 0 0.14044247630468831 0.32529882198115739 0 0.14835304051162709 0.32328981521488298 0 0.14044247630468831 0.32529882198115739 0 0.14532014855773759 0.31990448931667731 0 0.14405272075561429 0.31848978143130918 0 0.14044247630468831 0.32529882198115739 0 0.14532014855773759 0.31990448931667731 0 0.14044247630468831 0.32529882198115739 0 0.14835304051162709 0.32328981521488298 0 0.14532014855773759 0.31990448931667731 0 0.13953143422086661 0.30489764053764862 0 0.14532014855773759 0.31990448931667731 0 0.14405272075561429 0.31848978143130918 0 0.13953143422086661 0.30489764053764862 0 0.14405272075561429 0.31848978143130918 0 0.1397453394464882 0.31527932138290032 0 0.14532014855773759 0.31990448931667731 0 0.14405272075561429 0.31848978143130918 0 0.14405272075561429 0.31848978143130918 0 0.1397453394464882 0.31527932138290032 0 0.13601165194525211 0.31968523243143332 0 0.13667773821130469 0.31390492798540409 0 0.13601165194525211 0.31968523243143332 0 0.12911094542705351 0.31492503639199909 0 0.13667773821130469 0.31390492798540409 0 0.1397453394464882 0.31527932138290032 0 0.13601165194525211 0.31968523243143332 0 0.14405272075561429 0.31848978143130918 0 0.13601165194525211 0.31968523243143332 0 0.14044247630468831 0.32529882198115739 0 0.13601165194525211 0.31968523243143332 0 0.14044247630468831 0.32529882198115739 0 0.1253355319813329 0.32913545772160752 0 0.14044247630468831 0.32529882198115739 0 0.1253355319813329 0.32913545772160752 0 0.13601165194525211 0.31968523243143332 0 0.12911094542705351 0.31492503639199909 0 0.1253355319813329 0.32913545772160752 0 0.1241244050541775 0.3433453614371037 0 0.14044247630468831 0.32529882198115739 0 0.1241244050541775 0.3433453614371037 0 0.14044247630468831 0.32529882198115739 0 0.1253355319813329 0.32913545772160752 0 0.1241244050541775 0.3433453614371037 0 0.1485222511592548 0.34053471423844928 0 0.14044247630468831 0.32529882198115739 0 0.1241244050541775 0.3433453614371037 0 0.14139794597019009 0.35624010981287818 0 0.1241244050541775 0.3433453614371037 0 0.1297487588182549 0.36968562038619451 0 0.14139794597019009 0.35624010981287818 0 0.1241244050541775 0.3433453614371037 0 0.1485222511592548 0.34053471423844928 0 0.14139794597019009 0.35624010981287818 0 0.1297487588182549 0.36968562038619451 0 0.1465091473188688 0.37274478363525509 0 0.14139794597019009 0.35624010981287818 0 0.15867148688620231 0.36913485818865338 0 0.14139794597019009 0.35624010981287818 0 0.15867148688620231 0.36913485818865338 0 0.1465091473188688 0.37274478363525509 0 0.14139794597019009 0.35624010981287818 0 0.15867148688620231 0.36913485818865338 0 0.1584209548910582 0.35656866284664651 0 0.14139794597019009 0.35624010981287818 0 0.1584209548910582 0.35656866284664651 0 0.1485222511592548 0.34053471423844928 0 0.14139794597019009 0.35624010981287818 0 0.14104214324406239 0.39804427527746039 0 0.15954089061042709 0.41274245019888628 0 0.1589664394050421 0.38489899336240352 0 0.14104214324406239 0.39804427527746039 0 0.1589664394050421 0.38489899336240352 0 0.14104214324406239 0.39804427527746039 0 0.14149242465579909 0.38443252262805611 0 0.1589664394050421 0.38489899336240352 0 0.15867148688620231 0.36913485818865338 0 0.1465091473188688 0.37274478363525509 0 0.1589664394050421 0.38489899336240352 0 0.1465091473188688 0.37274478363525509 0 0.14149242465579909 0.38443252262805611 0 0.1589664394050421 0.38489899336240352 0 0.14149242465579909 0.38443252262805611 0 0.1589664394050421 0.38489899336240352 0 0.1240259970801484 0.38531650285574093 0 0.1297487588182549 0.36968562038619451 0 0.14149242465579909 0.38443252262805611 0 0.1240259970801484 0.38531650285574093 0 0.14149242465579909 0.38443252262805611 0 0.12745133483022991 0.39750769241168182 0 0.1240259970801484 0.38531650285574093 0 0.14149242465579909 0.38443252262805611 0 0.1297487588182549 0.36968562038619451 0 0.1465091473188688 0.37274478363525509 0 0.14149242465579909 0.38443252262805611 0 0.12311784708308279 0.41118955719251749 0 0.14104214324406239 0.39804427527746039 0 0.12311784708308279 0.41118955719251749 0 0.14104214324406239 0.39804427527746039 0 0.12745133483022991 0.39750769241168182 0 0.14104214324406239 0.39804427527746039 0 0.14149242465579909 0.38443252262805611 0 0.12745133483022991 0.39750769241168182 0 0.12311784708308279 0.41118955719251749 0 0.14104214324406239 0.39804427527746039 0 0.14346790710350449 0.41357436787434348 0 0.12311784708308279 0.41118955719251749 0 0.1390874273391029 0.42594933966558168 0 0.12311784708308279 0.41118955719251749 0 0.1390874273391029 0.42594933966558168 0 0.14346790710350449 0.41357436787434348 0 0.1220537049479473 0.42073887019154671 0 0.12311784708308279 0.41118955719251749 0 0.1390874273391029 0.42594933966558168 0 0.1220537049479473 0.42073887019154671 0 0.1390874273391029 0.42594933966558168 0 0.13557581970710661 0.44715924679436719 0 0.1220537049479473 0.42073887019154671 0 0.1390874273391029 0.42594933966558168 0 0.1220537049479473 0.42073887019154671 0 0.13557581970710661 0.44715924679436719 0 0.1219437273111125 0.43867058125322772 0 0.1220537049479473 0.42073887019154671 0 0.13557581970710661 0.44715924679436719 0 0.14771056460008761 0.42725941383546562 0 0.15954089061042709 0.41274245019888628 0 0.16009601275749141 0.44058629239843339 0 0.1390874273391029 0.42594933966558168 0 0.14771056460008761 0.42725941383546562 0 0.15638025876796841 0.44193212857684511 0 0.1390874273391029 0.42594933966558168 0 0.15638025876796841 0.44193212857684511 0 0.14513504909876021 0.44161956312013678 0 0.1390874273391029 0.42594933966558168 0 0.15638025876796841 0.44193212857684511 0 0.1390874273391029 0.42594933966558168 0 0.14771056460008761 0.42725941383546562 0 0.14453319642877641 0.42066874099979268 0 0.14771056460008761 0.42725941383546562 0 0.16009601275749141 0.44058629239843339 0 0.14771056460008761 0.42725941383546562 0 0.15638025876796841 0.44193212857684511 0 0.16009601275749141 0.44058629239843339 0 0.14104214324406239 0.39804427527746039 0 0.14346790710350449 0.41357436787434348 0 0.15954089061042709 0.41274245019888628 0 0.14346790710350449 0.41357436787434348 0 0.14453319642877641 0.42066874099979268 0 0.15954089061042709 0.41274245019888628 0 0.1390874273391029 0.42594933966558168 0 0.14346790710350449 0.41357436787434348 0 0.14453319642877641 0.42066874099979268 0 0.14771056460008761 0.42725941383546562 0 0.14453319642877641 0.42066874099979268 0 0.15954089061042709 0.41274245019888628 0 0.15954089061042709 0.41274245019888628 0 0.17670630602455031 0.41924684773383281 0 0.1720531013407321 0.39892120837743461 0 0.15954089061042709 0.41274245019888628 0 0.17670630602455031 0.41924684773383281 0 0.16009601275749141 0.44058629239843339 0 0.15954089061042709 0.41274245019888628 0 0.16009601275749141 0.44058629239843339 0 0.17670630602455031 0.41924684773383281 0 0.1839051638084219 0.43966626545834081 0 0.16009601275749141 0.44058629239843339 0 0.17670630602455031 0.41924684773383281 0 0.195030547167794 0.42226963978192711 0 0.1839051638084219 0.43966626545834081 0 0.17670630602455031 0.41924684773383281 0 0.1720531013407321 0.39892120837743461 0 0.190740394514301 0.40289405231429809 0 0.1720531013407321 0.39892120837743461 0 0.17970786253997231 0.38249842984717058 0 0.190740394514301 0.40289405231429809 0 0.15954089061042709 0.41274245019888628 0 0.1589664394050421 0.38489899336240352 0 0.15954089061042709 0.41274245019888628 0 0.1720531013407321 0.39892120837743461 0 0.1589664394050421 0.38489899336240352 0 0.15867148688620231 0.36913485818865338 0 0.1589664394050421 0.38489899336240352 0 0.16586653062294951 0.37450597919905521 0 0.15867148688620231 0.36913485818865338 0 0.1589664394050421 0.38489899336240352 0 0.1589664394050421 0.38489899336240352 0 0.17970786253997231 0.38249842984717058 0 0.1720531013407321 0.39892120837743461 0 0.1589664394050421 0.38489899336240352 0 0.17970786253997231 0.38249842984717058 0 0.16586653062294951 0.37450597919905521 0 0.1589664394050421 0.38489899336240352 0 0.17970786253997231 0.38249842984717058 0 0.17944358716755071 0.3726519769075286 0 0.17970786253997231 0.38249842984717058 0 0.2004568728484947 0.38144831729396822 0 0.17944358716755071 0.3726519769075286 0 0.16586653062294951 0.37450597919905521 0 0.17970786253997231 0.38249842984717058 0 0.17970786253997231 0.38249842984717058 0 0.2004568728484947 0.38144831729396822 0 0.17970786253997231 0.38249842984717058 0 0.2004568728484947 0.38144831729396822 0 0.19767399298048899 0.39236032894621042 0 0.2004568728484947 0.38144831729396822 0 0.20436513282994229 0.3812505192878643 0 0.17970786253997231 0.38249842984717058 0 0.190740394514301 0.40289405231429809 0 0.19767399298048899 0.39236032894621042 0 0.190740394514301 0.40289405231429809 0 0.20549170090162169 0.40065803199188221 0 0.2079432112111079 0.41237725683080562 0 0.190740394514301 0.40289405231429809 0 0.19767399298048899 0.39236032894621042 0 0.20549170090162169 0.40065803199188221 0 0.21197313409805471 0.39430281328373368 0 0.22012298000381031 0.38556089968490048 0 0.22348939534761389 0.40715730927350008 0 0.20549170090162169 0.40065803199188221 0 0.2131988074343221 0.40506463447935881 0 0.2079432112111079 0.41237725683080562 0 0.20549170090162169 0.40065803199188221 0 0.21197313409805471 0.39430281328373368 0 0.2131988074343221 0.40506463447935881 0 0.19767399298048899 0.39236032894621042 0 0.20549170090162169 0.40065803199188221 0 0.21197313409805471 0.39430281328373368 0 0.21197313409805471 0.39430281328373368 0 0.2131988074343221 0.40506463447935881 0 0.22348939534761389 0.40715730927350008 0 0.21197313409805471 0.39430281328373368 0 0.22348939534761389 0.40715730927350008 0 0.21194838853794171 0.36080424677021322 0 0.20436513282994229 0.3812505192878643 0 0.21159459241331199 0.38578001374039222 0 0.21194838853794171 0.36080424677021322 0 0.21159459241331199 0.38578001374039222 0 0.22012298000381031 0.38556089968490048 0 0.21197313409805471 0.39430281328373368 0 0.20436513282994229 0.3812505192878643 0 0.21159459241331199 0.38578001374039222 0 0.2004568728484947 0.38144831729396822 0 0.21197313409805471 0.39430281328373368 0 0.2004568728484947 0.38144831729396822 0 0.19767399298048899 0.39236032894621042 0 0.21197313409805471 0.39430281328373368 0 0.2004568728484947 0.38144831729396822 0 0.21197313409805471 0.39430281328373368 0 0.20436513282994229 0.3812505192878643 0 0.21197313409805471 0.39430281328373368 0 0.21159459241331199 0.38578001374039222 0 0.22012298000381031 0.38556089968490048 0 0.2321683503893115 0.37793970140581618 0 0.22012298000381031 0.38556089968490048 0 0.236753366635018 0.39263825901285893 0 0.22012298000381031 0.38556089968490048 0 0.22829757146967891 0.41031755259958769 0 0.22012298000381031 0.38556089968490048 0 0.2320375550000662 0.39895994770490079 0 0.22829757146967891 0.41031755259958769 0 0.22012298000381031 0.38556089968490048 0 0.22829757146967891 0.41031755259958769 0 0.22348939534761389 0.40715730927350008 0 0.22012298000381031 0.38556089968490048 0 0.2320375550000662 0.39895994770490079 0 0.236753366635018 0.39263825901285893 0 0.236753366635018 0.39263825901285893 0 0.2429763018917577 0.40732307952225622 0 0.25281923369204151 0.3871423442050283 0 0.2320375550000662 0.39895994770490079 0 0.236753366635018 0.39263825901285893 0 0.2429763018917577 0.40732307952225622 0 0.2320375550000662 0.39895994770490079 0 0.2429763018917577 0.40732307952225622 0 0.22829757146967891 0.41031755259958769 0 0.2321683503893115 0.37793970140581618 0 0.236753366635018 0.39263825901285893 0 0.25281923369204151 0.3871423442050283 0 0.23919778307774581 0.36355275735608023 0 0.2321683503893115 0.37793970140581618 0 0.25281923369204151 0.3871423442050283 0 0.2364721629355476 0.435074205514275 0 0.2429763018917577 0.40732307952225622 0 0.25749593956138389 0.4133212379191174 0 0.2364721629355476 0.435074205514275 0 0.2429763018917577 0.40732307952225622 0 0.22829757146967891 0.41031755259958769 0 0.2364721629355476 0.435074205514275 0 0.22829757146967891 0.41031755259958769 0 0.22105403180109531 0.41827256464753743 0 0.22829757146967891 0.41031755259958769 0 0.22248439855790009 0.41164379688437458 0 0.22105403180109531 0.41827256464753743 0 0.22829757146967891 0.41031755259958769 0 0.22348939534761389 0.40715730927350008 0 0.22248439855790009 0.41164379688437458 0 0.22248439855790009 0.41164379688437458 0 0.22105403180109531 0.41827256464753743 0 0.21709659561321201 0.41082776101687279 0 0.22348939534761389 0.40715730927350008 0 0.22248439855790009 0.41164379688437458 0 0.21709659561321201 0.41082776101687279 0 0.2364721629355476 0.435074205514275 0 0.21330630930843991 0.42821584963819159 0 0.22226922257845291 0.4441421129979588 0 0.2364721629355476 0.435074205514275 0 0.22829757146967891 0.41031755259958769 0 0.2364721629355476 0.435074205514275 0 0.22105403180109531 0.41827256464753743 0 0.21330630930843991 0.42821584963819159 0 0.21330630930843991 0.42821584963819159 0 0.195030547167794 0.42226963978192711 0 0.2036824695451436 0.44206944376167279 0 0.22105403180109531 0.41827256464753743 0 0.21330630930843991 0.42821584963819159 0 0.2079432112111079 0.41237725683080562 0 0.21330630930843991 0.42821584963819159 0 0.2079432112111079 0.41237725683080562 0 0.195030547167794 0.42226963978192711 0 0.22105403180109531 0.41827256464753743 0 0.21709659561321201 0.41082776101687279 0 0.2079432112111079 0.41237725683080562 0 0.2131988074343221 0.40506463447935881 0 0.21709659561321201 0.41082776101687279 0 0.2079432112111079 0.41237725683080562 0 0.2131988074343221 0.40506463447935881 0 0.22348939534761389 0.40715730927350008 0 0.21709659561321201 0.41082776101687279 0 0.17670630602455031 0.41924684773383281 0 0.190740394514301 0.40289405231429809 0 0.195030547167794 0.42226963978192711 0 0.190740394514301 0.40289405231429809 0 0.2079432112111079 0.41237725683080562 0 0.195030547167794 0.42226963978192711 0 0.195030547167794 0.42226963978192711 0 0.2036824695451436 0.44206944376167279 0 0.1839051638084219 0.43966626545834081 0 0.1969376721855961 0.46012923324215832 0 0.2036824695451436 0.44206944376167279 0 0.1839051638084219 0.43966626545834081 0 0.1969376721855961 0.46012923324215832 0 0.1969071030595172 0.48019543079947752 0 0.17850155790850411 0.46039086159895559 0 0.1969376721855961 0.46012923324215832 0 0.2150716318207645 0.46101135785493202 0 0.1969071030595172 0.48019543079947752 0 0.1969376721855961 0.46012923324215832 0 0.2150716318207645 0.46101135785493202 0 0.2036824695451436 0.44206944376167279 0 0.21330630930843991 0.42821584963819159 0 0.2036824695451436 0.44206944376167279 0 0.22226922257845291 0.4441421129979588 0 0.2150716318207645 0.46101135785493202 0 0.2036824695451436 0.44206944376167279 0 0.22226922257845291 0.4441421129979588 0 0.2150716318207645 0.46101135785493202 0 0.2446467544014162 0.45983085842896237 0 0.2295659414246517 0.4820682213461952 0 0.2150716318207645 0.46101135785493202 0 0.22226922257845291 0.4441421129979588 0 0.2446467544014162 0.45983085842896237 0 0.2364721629355476 0.435074205514275 0 0.2446467544014162 0.45983085842896237 0 0.2364721629355476 0.435074205514275 0 0.2446467544014162 0.45983085842896237 0 0.2560558776577942 0.43452924132791237 0 0.2364721629355476 0.435074205514275 0 0.22226922257845291 0.4441421129979588 0 0.2446467544014162 0.45983085842896237 0 0.24474491607561361 0.5 0 0.2295659414246517 0.4820682213461952 0 0.25282134586728489 0.48458751134364991 0 0.2446467544014162 0.45983085842896237 0 0.2295659414246517 0.4820682213461952 0 0.25282134586728489 0.48458751134364991 0 0.2446467544014162 0.45983085842896237 0 0.25282134586728489 0.48458751134364991 0 0.24474491607561361 0.5 0 0.2295659414246517 0.4820682213461952 0 0.21531264821053001 0.49999999999999961 0 0.21531264821053001 0.49999999999999961 0 0.1969071030595172 0.48019543079947752 0 0.2295659414246517 0.4820682213461952 0 0.21531264821053001 0.49999999999999961 0 0.1969071030595172 0.48019543079947752 0 0.2150716318207645 0.46101135785493202 0 0.2295659414246517 0.4820682213461952 0 0.1969071030595172 0.48019543079947752 0 0.1969071030595172 0.48019543079947752 0 0.17850155790850411 0.46039086159895559 0 0.1969071030595172 0.48019543079947752 0 0.1889663487179809 0.5 0 0.180526988155158 0.48486981442581562 0 0.21531264821053001 0.49999999999999961 0 0.1969071030595172 0.48019543079947752 0 0.1889663487179809 0.5 0 0.1889663487179809 0.5 0 0.180526988155158 0.48486981442581562 0 0.1626200492254318 0.50000000000000455 0 0.180526988155158 0.48486981442581562 0 0.1626200492254318 0.50000000000000455 0 0.16738700684330371 0.47687124878713549 0 0.16738700684330371 0.47687124878713549 0 0.16560764332510411 0.46503089869843411 0 0.14909793446626829 0.47357962339718629 0 0.1626200492254318 0.50000000000000455 0 0.16738700684330371 0.47687124878713549 0 0.14909793446626829 0.47357962339718629 0 0.1969071030595172 0.48019543079947752 0 0.180526988155158 0.48486981442581562 0 0.17850155790850411 0.46039086159895559 0 0.180526988155158 0.48486981442581562 0 0.16738700684330371 0.47687124878713549 0 0.17850155790850411 0.46039086159895559 0 0.1969376721855961 0.46012923324215832 0 0.17850155790850411 0.46039086159895559 0 0.1839051638084219 0.43966626545834081 0 0.17850155790850411 0.46039086159895559 0 0.1736730901968345 0.45791491748810792 0 0.16560764332510411 0.46503089869843411 0 0.17850155790850411 0.46039086159895559 0 0.1839051638084219 0.43966626545834081 0 0.16009601275749141 0.44058629239843339 0 0.1736730901968345 0.45791491748810792 0 0.15638025876796841 0.44193212857684511 0 0.17850155790850411 0.46039086159895559 0 0.16009601275749141 0.44058629239843339 0 0.1736730901968345 0.45791491748810792 0 0.1598119819755055 0.45269845178931362 0 0.15638025876796841 0.44193212857684511 0 0.1736730901968345 0.45791491748810792 0 0.1601490002432211 0.44324404114615418 0 0.15638025876796841 0.44193212857684511 0 0.17850155790850411 0.46039086159895559 0 0.1736730901968345 0.45791491748810792 0 0.16009601275749141 0.44058629239843339 0 0.1736730901968345 0.45791491748810792 0 0.1601490002432211 0.44324404114615418 0 0.16009601275749141 0.44058629239843339 0 0.1601490002432211 0.44324404114615418 0 0.16009601275749141 0.44058629239843339 0 0.1601490002432211 0.44324404114615418 0 0.15638025876796841 0.44193212857684511 0 0.16009601275749141 0.44058629239843339 0 0.16738700684330371 0.47687124878713549 0 0.17850155790850411 0.46039086159895559 0 0.16560764332510411 0.46503089869843411 0 0.16560764332510411 0.46503089869843411 0 0.15717852224841469 0.45904743558833522 0 0.14909793446626829 0.47357962339718629 0 0.1736730901968345 0.45791491748810792 0 0.16560764332510411 0.46503089869843411 0 0.1638748692861294 0.45806040521976737 0 0.1736730901968345 0.45791491748810792 0 0.1598119819755055 0.45269845178931362 0 0.1638748692861294 0.45806040521976737 0 0.16560764332510411 0.46503089869843411 0 0.1638748692861294 0.45806040521976737 0 0.15717852224841469 0.45904743558833522 0 0.1598119819755055 0.45269845178931362 0 0.1638748692861294 0.45806040521976737 0 0.15717852224841469 0.45904743558833522 0 0.13557581970710661 0.44715924679436719 0 0.14909793446626829 0.47357962339718629 0 0.15717852224841469 0.45904743558833522 0 0.14949669058086279 0.45143753744375431 0 0.14909793446626829 0.47357962339718629 0 0.14949669058086279 0.45143753744375431 0 0.13557581970710661 0.44715924679436719 0 0.14909793446626829 0.47357962339718629 0 0.1598119819755055 0.45269845178931362 0 0.15717852224841469 0.45904743558833522 0 0.14949669058086279 0.45143753744375431 0 0.15638025876796841 0.44193212857684511 0 0.14949669058086279 0.45143753744375431 0 0.14513504909876021 0.44161956312013678 0 0.1598119819755055 0.45269845178931362 0 0.15638025876796841 0.44193212857684511 0 0.14949669058086279 0.45143753744375431 0 0.14949669058086279 0.45143753744375431 0 0.14513504909876021 0.44161956312013678 0 0.13557581970710661 0.44715924679436719 0 0.12359153936340191 0.45517100993035681 0 0.1219437273111125 0.43867058125322772 0 0.13557581970710661 0.44715924679436719 0 0.1390874273391029 0.42594933966558168 0 0.14513504909876021 0.44161956312013678 0 0.13557581970710661 0.44715924679436719 0 0.13557581970710661 0.44715924679436719 0 0.13371734665367199 0.46455580869147822 0 0.14909793446626829 0.47357962339718629 0 0.12359153936340191 0.45517100993035681 0 0.13557581970710661 0.44715924679436719 0 0.13371734665367199 0.46455580869147822 0 0.1249200739458476 0.47911077903704341 0 0.12359153936340191 0.45517100993035681 0 0.13371734665367199 0.46455580869147822 0 0.1249200739458476 0.47911077903704341 0 0.13371734665367199 0.46455580869147822 0 0.14909793446626829 0.47357962339718629 0 0.1249200739458476 0.47911077903704341 0 0.14133203266660579 0.49999999999999928 0 0.14909793446626829 0.47357962339718629 0 0.1226859523302279 0.5 0 0.1249200739458476 0.47911077903704341 0 0.14133203266660579 0.49999999999999928 0 0.1249200739458476 0.47911077903704341 0 0.14133203266660579 0.49999999999999928 0 0.1626200492254318 0.50000000000000455 0 0.14133203266660579 0.49999999999999928 0 0.14909793446626829 0.47357962339718629 0 0.1626200492254318 0.50000000000000455 0 0.14909793446626829 0.47357962339718629 0 0.35535755192134488 0.48020813348804609 0 0.33649748453219741 0.5 0 0.39008051472538691 0.49530024195290662 0 0.35535755192134488 0.48020813348804609 0 0.3663900714496956 0.46773458748315833 0 0.3482525827945851 0.46336087743808929 0 0.35535755192134488 0.48020813348804609 0 0.3663900714496956 0.46773458748315833 0 0.38025977590380272 0.47765378667024577 0 0.3663900714496956 0.46773458748315833 0 0.37569723154249429 0.4628416802127675 0 0.38025977590380272 0.47765378667024577 0 0.37007257199577859 0.46043865893415969 0 0.3663900714496956 0.46773458748315833 0 0.37569723154249429 0.4628416802127675 0 0.37007257199577859 0.46043865893415969 0 0.37068662235293898 0.45495997590969123 0 0.36276349513435507 0.45643538734010031 0 0.37007257199577859 0.46043865893415969 0 0.37068662235293898 0.45495997590969123 0 0.37569723154249429 0.4628416802127675 0 0.37068662235293898 0.45495997590969123 0 0.37321156087994412 0.44784339424562758 0 0.37569723154249429 0.4628416802127675 0 0.37007257199577859 0.46043865893415969 0 0.36276349513435507 0.45643538734010031 0 0.3663900714496956 0.46773458748315833 0 0.37321156087994412 0.44784339424562758 0 0.36044971243560842 0.44291997416022211 0 0.35619879215132932 0.43064248649961567 0 0.37321156087994412 0.44784339424562758 0 0.35619879215132932 0.43064248649961567 0 0.37321156087994412 0.44784339424562758 0 0.36912113041435862 0.43349715710683939 0 0.37548894480068762 0.43751701860990078 0 0.36731472806072518 0.44773153613300942 0 0.37321156087994412 0.44784339424562758 0 0.37068662235293898 0.45495997590969123 0 0.36731472806072518 0.44773153613300942 0 0.37321156087994412 0.44784339424562758 0 0.36731472806072518 0.44773153613300942 0 0.37321156087994412 0.44784339424562758 0 0.36044971243560842 0.44291997416022211 0 0.37068662235293898 0.45495997590969123 0 0.36276349513435507 0.45643538734010031 0 0.36731472806072518 0.44773153613300942 0 0.36731472806072518 0.44773153613300942 0 0.36044971243560842 0.44291997416022211 0 0.35474721445706719 0.44948490168260602 0 0.36276349513435507 0.45643538734010031 0 0.36731472806072518 0.44773153613300942 0 0.35474721445706719 0.44948490168260602 0 0.36044971243560842 0.44291997416022211 0 0.35474721445706719 0.44948490168260602 0 0.35077626662897637 0.43889755224025179 0 0.35474721445706719 0.44948490168260602 0 0.35077626662897637 0.43889755224025179 0 0.33993595521569359 0.44960474172934117 0 0.36276349513435507 0.45643538734010031 0 0.3663900714496956 0.46773458748315833 0 0.3482525827945851 0.46336087743808929 0 0.36276349513435507 0.45643538734010031 0 0.35474721445706719 0.44948490168260602 0 0.3482525827945851 0.46336087743808929 0 0.35474721445706719 0.44948490168260602 0 0.3482525827945851 0.46336087743808929 0 0.33993595521569359 0.44960474172934117 0 0.3482525827945851 0.46336087743808929 0 0.33993595521569359 0.44960474172934117 0 0.32031231762564039 0.46893734368990903 0 0.33993595521569359 0.44960474172934117 0 0.32492582758851463 0.44058684806698378 0 0.32031231762564039 0.46893734368990903 0 0.35077626662897637 0.43889755224025179 0 0.33993595521569359 0.44960474172934117 0 0.32492582758851463 0.44058684806698378 0 0.35077626662897637 0.43889755224025179 0 0.32492582758851463 0.44058684806698378 0 0.32492582758851463 0.44058684806698378 0 0.32031231762564039 0.46893734368990903 0 0.29907538854805271 0.44227614389371572 0 0.33649748453219741 0.5 0 0.32031231762564039 0.46893734368990903 0 0.28403453637836379 0.5 0 0.35535755192134488 0.48020813348804609 0 0.3482525827945851 0.46336087743808929 0 0.32031231762564039 0.46893734368990903 0 0.35535755192134488 0.48020813348804609 0 0.33649748453219741 0.5 0 0.32031231762564039 0.46893734368990903 0 0.32031231762564039 0.46893734368990903 0 0.28403453637836379 0.5 0 0.27843897881938717 0.47201952003060949 0 0.24474491607561361 0.5 0 0.28403453637836379 0.5 0 0.25282134586728489 0.48458751134364991 0 0.28403453637836379 0.5 0 0.27843897881938717 0.47201952003060949 0 0.25282134586728489 0.48458751134364991 0 0.2446467544014162 0.45983085842896237 0 0.25282134586728489 0.48458751134364991 0 0.26070160666309039 0.46825752446580149 0 0.27843897881938717 0.47201952003060949 0 0.25282134586728489 0.48458751134364991 0 0.26070160666309039 0.46825752446580149 0 0.2446467544014162 0.45983085842896237 0 0.27322494950759102 0.44396543972044761 0 0.2560558776577942 0.43452924132791237 0 0.2446467544014162 0.45983085842896237 0 0.26070160666309039 0.46825752446580149 0 0.27322494950759102 0.44396543972044761 0 0.27843897881938717 0.47201952003060949 0 0.26070160666309039 0.46825752446580149 0 0.27322494950759102 0.44396543972044761 0 0.27322494950759102 0.44396543972044761 0 0.29907538854805271 0.44227614389371572 0 0.32031231762564039 0.46893734368990903 0 0.27843897881938717 0.47201952003060949 0 0.29907538854805271 0.44227614389371572 0 0.27843897881938717 0.47201952003060949 0 0.27322494950759102 0.44396543972044761 0 0.29907538854805271 0.44227614389371572 0 0.32492582758851463 0.44058684806698378 0 0.29907538854805271 0.44227614389371572 0 0.29907538854805271 0.44227614389371572 0 0.28534406490675041 0.41864414471106132 0 0.31722019777675609 0.42436569259922508 0 0.28534406490675041 0.41864414471106132 0 0.31305097073727239 0.40565898056578159 0 0.31722019777675609 0.42436569259922508 0 0.27322494950759102 0.44396543972044761 0 0.29907538854805271 0.44227614389371572 0 0.28534406490675041 0.41864414471106132 0 0.28534406490675041 0.41864414471106132 0 0.25749593956138389 0.4133212379191174 0 0.2560558776577942 0.43452924132791237 0 0.27322494950759102 0.44396543972044761 0 0.28534406490675041 0.41864414471106132 0 0.2560558776577942 0.43452924132791237 0 0.28534406490675041 0.41864414471106132 0 0.25749593956138389 0.4133212379191174 0 0.27338397664294478 0.39841664022014311 0 0.2364721629355476 0.435074205514275 0 0.25749593956138389 0.4133212379191174 0 0.2560558776577942 0.43452924132791237 0 0.25281923369204151 0.3871423442050283 0 0.27695336090647682 0.37895185700289319 0 0.25281923369204151 0.3871423442050283 0 0.27695336090647682 0.37895185700289319 0 0.25882786459305152 0.3639511545810718 0 0.2429763018917577 0.40732307952225622 0 0.25749593956138389 0.4133212379191174 0 0.25281923369204151 0.3871423442050283 0 0.25749593956138389 0.4133212379191174 0 0.25281923369204151 0.3871423442050283 0 0.27338397664294478 0.39841664022014311 0 0.25281923369204151 0.3871423442050283 0 0.27338397664294478 0.39841664022014311 0 0.27695336090647682 0.37895185700289319 0 0.27338397664294478 0.39841664022014311 0 0.27695336090647682 0.37895185700289319 0 0.29430728414807139 0.39402361726261498 0 0.27695336090647682 0.37895185700289319 0 0.29430728414807139 0.39402361726261498 0 0.30108748812091218 0.37076136980075808 0 0.28534406490675041 0.41864414471106132 0 0.27338397664294478 0.39841664022014311 0 0.29430728414807139 0.39402361726261498 0 0.28534406490675041 0.41864414471106132 0 0.29430728414807139 0.39402361726261498 0 0.31305097073727239 0.40565898056578159 0 0.29430728414807139 0.39402361726261498 0 0.32474164954657792 0.38593811043176518 0 0.31305097073727239 0.40565898056578159 0 0.29430728414807139 0.39402361726261498 0 0.32474164954657792 0.38593811043176518 0 0.30108748812091218 0.37076136980075808 0 0.32474164954657792 0.38593811043176518 0 0.34089413785523259 0.37526094195456161 0 0.34793136191040702 0.3916441416155112 0 0.32474164954657792 0.38593811043176518 0 0.33332073101459769 0.39990202756545562 0 0.34793136191040702 0.3916441416155112 0 0.33332073101459769 0.39990202756545562 0 0.34793136191040702 0.3916441416155112 0 0.34493271855060642 0.40602805461006253 0 0.32474164954657792 0.38593811043176518 0 0.33332073101459769 0.39990202756545562 0 0.31305097073727239 0.40565898056578159 0 0.33332073101459769 0.39990202756545562 0 0.31305097073727239 0.40565898056578159 0 0.33543288912961389 0.41470371633206821 0 0.31305097073727239 0.40565898056578159 0 0.31722019777675609 0.42436569259922508 0 0.33543288912961389 0.41470371633206821 0 0.32492582758851463 0.44058684806698378 0 0.31722019777675609 0.42436569259922508 0 0.34062561675551772 0.4275187124113245 0 0.32492582758851463 0.44058684806698378 0 0.29907538854805271 0.44227614389371572 0 0.31722019777675609 0.42436569259922508 0 0.35077626662897637 0.43889755224025179 0 0.32492582758851463 0.44058684806698378 0 0.34062561675551772 0.4275187124113245 0 0.31722019777675609 0.42436569259922508 0 0.34062561675551772 0.4275187124113245 0 0.33543288912961389 0.41470371633206821 0 0.34062561675551772 0.4275187124113245 0 0.33543288912961389 0.41470371633206821 0 0.35215605929515059 0.41682570027994598 0 0.33332073101459769 0.39990202756545562 0 0.33543288912961389 0.41470371633206821 0 0.34493271855060642 0.40602805461006253 0 0.35215605929515059 0.41682570027994598 0 0.36270901802782451 0.40654475096051113 0 0.34493271855060642 0.40602805461006253 0 0.33543288912961389 0.41470371633206821 0 0.35215605929515059 0.41682570027994598 0 0.34493271855060642 0.40602805461006253 0 0.35077626662897637 0.43889755224025179 0 0.34062561675551772 0.4275187124113245 0 0.35619879215132932 0.43064248649961567 0 0.34062561675551772 0.4275187124113245 0 0.35215605929515059 0.41682570027994598 0 0.35619879215132932 0.43064248649961567 0 0.35215605929515059 0.41682570027994598 0 0.35619879215132932 0.43064248649961567 0 0.36548211099549288 0.42185035596874881 0 0.36044971243560842 0.44291997416022211 0 0.35077626662897637 0.43889755224025179 0 0.35619879215132932 0.43064248649961567 0 0.37321156087994412 0.44784339424562758 0 0.35619879215132932 0.43064248649961567 0 0.36912113041435862 0.43349715710683939 0 0.36548211099549288 0.42185035596874881 0 0.38309706960536638 0.41732943619374208 0 0.37522424324433917 0.42963253021030429 0 0.35619879215132932 0.43064248649961567 0 0.36912113041435862 0.43349715710683939 0 0.36548211099549288 0.42185035596874881 0 0.36912113041435862 0.43349715710683939 0 0.36548211099549288 0.42185035596874881 0 0.37522424324433917 0.42963253021030429 0 0.36912113041435862 0.43349715710683939 0 0.37548894480068762 0.43751701860990078 0 0.37522424324433917 0.42963253021030429 0 0.36270901802782451 0.40654475096051113 0 0.36548211099549288 0.42185035596874881 0 0.38309706960536638 0.41732943619374208 0 0.35215605929515059 0.41682570027994598 0 0.36270901802782451 0.40654475096051113 0 0.36548211099549288 0.42185035596874881 0 0.36270901802782451 0.40654475096051113 0 0.36607313369055672 0.39090067945662471 0 0.37947048479912798 0.40021381997283001 0 0.36607313369055672 0.39090067945662471 0 0.360088900717765 0.37259249496079022 0 0.38438269584835238 0.37948606607795171 0 0.36607313369055672 0.39090067945662471 0 0.34793136191040702 0.3916441416155112 0 0.360088900717765 0.37259249496079022 0 0.34089413785523259 0.37526094195456161 0 0.34793136191040702 0.3916441416155112 0 0.360088900717765 0.37259249496079022 0 0.36270901802782451 0.40654475096051113 0 0.36607313369055672 0.39090067945662471 0 0.34793136191040702 0.3916441416155112 0 0.36270901802782451 0.40654475096051113 0 0.34793136191040702 0.3916441416155112 0 0.34493271855060642 0.40602805461006253 0 0.35902143837715711 0.35047813319233112 0 0.33590664696706368 0.33915361617986911 0 0.34262791059302622 0.35793987508114761 0 0.34089413785523259 0.37526094195456161 0 0.360088900717765 0.37259249496079022 0 0.34262791059302622 0.35793987508114761 0 0.35902143837715711 0.35047813319233112 0 0.360088900717765 0.37259249496079022 0 0.34262791059302622 0.35793987508114761 0 0.35902143837715711 0.35047813319233112 0 0.360088900717765 0.37259249496079022 0 0.38058262007526827 0.3563496084668506 0 0.35902143837715711 0.35047813319233112 0 0.37704217240725241 0.33602464765253998 0 0.38058262007526827 0.3563496084668506 0 0.35902143837715711 0.35047813319233112 0 0.35818088281946647 0.33170919735970128 0 0.37704217240725241 0.33602464765253998 0 0.36808285496450838 0.31574265629490689 0 0.35818088281946647 0.33170919735970128 0 0.37704217240725241 0.33602464765253998 0 0.36808285496450838 0.31574265629490689 0 0.34562948525584081 0.31948840466282907 0 0.35818088281946647 0.33170919735970128 0 0.34562948525584081 0.31948840466282907 0 0.35818088281946647 0.33170919735970128 0 0.33590664696706368 0.33915361617986911 0 0.35902143837715711 0.35047813319233112 0 0.35818088281946647 0.33170919735970128 0 0.33590664696706368 0.33915361617986911 0 0.34562948525584081 0.31948840466282907 0 0.33590664696706368 0.33915361617986911 0 0.32410694032008852 0.31672969169050919 0 0.33590664696706368 0.33915361617986911 0 0.32410694032008852 0.31672969169050919 0 0.31105887164420742 0.33457489320847339 0 0.33590664696706368 0.33915361617986911 0 0.32522161533534771 0.36257088259862302 0 0.31105887164420742 0.33457489320847339 0 0.33590664696706368 0.33915361617986911 0 0.34262791059302622 0.35793987508114761 0 0.32522161533534771 0.36257088259862302 0 0.34089413785523259 0.37526094195456161 0 0.34262791059302622 0.35793987508114761 0 0.32522161533534771 0.36257088259862302 0 0.32474164954657792 0.38593811043176518 0 0.34089413785523259 0.37526094195456161 0 0.32522161533534771 0.36257088259862302 0 0.32522161533534771 0.36257088259862302 0 0.30108748812091218 0.37076136980075808 0 0.32474164954657792 0.38593811043176518 0 0.32522161533534771 0.36257088259862302 0 0.30108748812091218 0.37076136980075808 0 0.32522161533534771 0.36257088259862302 0 0.30108748812091218 0.37076136980075808 0 0.29566719161301341 0.35380808837802941 0 0.32522161533534771 0.36257088259862302 0 0.29566719161301341 0.35380808837802941 0 0.31105887164420742 0.33457489320847339 0 0.29566719161301341 0.35380808837802941 0 0.27408588786737098 0.35027625826204828 0 0.2845273969431914 0.32763950121112823 0 0.27695336090647682 0.37895185700289319 0 0.30108748812091218 0.37076136980075808 0 0.29566719161301341 0.35380808837802941 0 0.27695336090647682 0.37895185700289319 0 0.30108748812091218 0.37076136980075808 0 0.27695336090647682 0.37895185700289319 0 0.29566719161301341 0.35380808837802941 0 0.27408588786737098 0.35027625826204828 0 0.27695336090647682 0.37895185700289319 0 0.27408588786737098 0.35027625826204828 0 0.25882786459305152 0.3639511545810718 0 0.27408588786737098 0.35027625826204828 0 0.25882786459305152 0.3639511545810718 0 0.25002513944560117 0.34106818142227879 0 0.23919778307774581 0.36355275735608023 0 0.25281923369204151 0.3871423442050283 0 0.25882786459305152 0.3639511545810718 0 0.2412798096235671 0.316970635093692 0 0.2606974566135174 0.31731781410570081 0 0.25002513944560117 0.34106818142227879 0 0.2606974566135174 0.31731781410570081 0 0.25002513944560117 0.34106818142227879 0 0.26733397021742022 0.334075438750289 0 0.27408588786737098 0.35027625826204828 0 0.25002513944560117 0.34106818142227879 0 0.26733397021742022 0.334075438750289 0 0.27408588786737098 0.35027625826204828 0 0.26733397021742022 0.334075438750289 0 0.2845273969431914 0.32763950121112823 0 0.2606974566135174 0.31731781410570081 0 0.2845273969431914 0.32763950121112823 0 0.27988887891822228 0.30641645465601741 0 0.2606974566135174 0.31731781410570081 0 0.26733397021742022 0.334075438750289 0 0.2845273969431914 0.32763950121112823 0 0.2845273969431914 0.32763950121112823 0 0.30161113458940408 0.30642531495626701 0 0.27988887891822228 0.30641645465601741 0 0.29566719161301341 0.35380808837802941 0 0.2845273969431914 0.32763950121112823 0 0.31105887164420742 0.33457489320847339 0 0.2845273969431914 0.32763950121112823 0 0.31105887164420742 0.33457489320847339 0 0.30161113458940408 0.30642531495626701 0 0.32410694032008852 0.31672969169050919 0 0.31105887164420742 0.33457489320847339 0 0.30161113458940408 0.30642531495626701 0 0.30161113458940408 0.30642531495626701 0 0.30380227308891938 0.27857565311083898 0 0.31970338600402493 0.29436686107034882 0 0.30161113458940408 0.30642531495626701 0 0.287688699306552 0.28790342886108611 0 0.30380227308891938 0.27857565311083898 0 0.30161113458940408 0.30642531495626701 0 0.287688699306552 0.28790342886108611 0 0.27988887891822228 0.30641645465601741 0 0.2606974566135174 0.31731781410570081 0 0.27988887891822228 0.30641645465601741 0 0.26466632588146483 0.2937503068810226 0 0.287688699306552 0.28790342886108611 0 0.26466632588146483 0.2937503068810226 0 0.287688699306552 0.28790342886108611 0 0.27988887891822228 0.30641645465601741 0 0.26466632588146483 0.2937503068810226 0 0.287688699306552 0.28790342886108611 0 0.26466632588146483 0.2937503068810226 0 0.25973905734838071 0.27670686391645299 0 0.24164395245637771 0.2995971849009591 0 0.26466632588146483 0.2937503068810226 0 0.24164395245637771 0.2995971849009591 0 0.26466632588146483 0.2937503068810226 0 0.25973905734838071 0.27670686391645299 0 0.24164395245637771 0.2995971849009591 0 0.2606974566135174 0.31731781410570081 0 0.26466632588146483 0.2937503068810226 0 0.2478342759162768 0.26091062985289248 0 0.27012241302880269 0.26119489644702071 0 0.25557305062055952 0.24415471472296749 0 0.2478342759162768 0.26091062985289248 0 0.27012241302880269 0.26119489644702071 0 0.2478342759162768 0.26091062985289248 0 0.25973905734838071 0.27670686391645299 0 0.27012241302880269 0.26119489644702071 0 0.287688699306552 0.28790342886108611 0 0.25973905734838071 0.27670686391645299 0 0.28680722477231901 0.26935221021094802 0 0.25973905734838071 0.27670686391645299 0 0.27012241302880269 0.26119489644702071 0 0.28680722477231901 0.26935221021094802 0 0.27012241302880269 0.26119489644702071 0 0.29814312289463551 0.25464091779592879 0 0.27381645479044048 0.23769138237860171 0 0.27012241302880269 0.26119489644702071 0 0.28680722477231901 0.26935221021094802 0 0.29814312289463551 0.25464091779592879 0 0.28680722477231901 0.26935221021094802 0 0.30380227308891938 0.27857565311083898 0 0.29814312289463551 0.25464091779592879 0 0.287688699306552 0.28790342886108611 0 0.28680722477231901 0.26935221021094802 0 0.30380227308891938 0.27857565311083898 0 0.30380227308891938 0.27857565311083898 0 0.29814312289463551 0.25464091779592879 0 0.32246979099883039 0.27159045321325598 0 0.29814312289463551 0.25464091779592879 0 0.32246979099883039 0.27159045321325598 0 0.32246979099883039 0.27159045321325598 0 0.34448052903034732 0.29504036688766472 0 0.34622310684857832 0.26087879424917748 0 0.29814312289463551 0.25464091779592879 0 0.3186824449277415 0.25109412416725818 0 0.32246979099883039 0.27159045321325598 0 0.3186824449277415 0.25109412416725818 0 0.34622310684857832 0.26087879424917748 0 0.3402510013676765 0.24175262842410189 0 0.3186824449277415 0.25109412416725818 0 0.32246979099883039 0.27159045321325598 0 0.34622310684857832 0.26087879424917748 0 0.30380227308891938 0.27857565311083898 0 0.32246979099883039 0.27159045321325598 0 0.31970338600402493 0.29436686107034882 0 0.32410694032008852 0.31672969169050919 0 0.30161113458940408 0.30642531495626701 0 0.31970338600402493 0.29436686107034882 0 0.32410694032008852 0.31672969169050919 0 0.31970338600402493 0.29436686107034882 0 0.34448052903034732 0.29504036688766472 0 0.34562948525584081 0.31948840466282907 0 0.32410694032008852 0.31672969169050919 0 0.34448052903034732 0.29504036688766472 0 0.32246979099883039 0.27159045321325598 0 0.31970338600402493 0.29436686107034882 0 0.34448052903034732 0.29504036688766472 0 0.34448052903034732 0.29504036688766472 0 0.36951824878815298 0.29375510209556971 0 0.36354492910500258 0.27577129842335169 0 0.36808285496450838 0.31574265629490689 0 0.34562948525584081 0.31948840466282907 0 0.34448052903034732 0.29504036688766472 0 0.36808285496450838 0.31574265629490689 0 0.34448052903034732 0.29504036688766472 0 0.36951824878815298 0.29375510209556971 0 0.36951824878815298 0.29375510209556971 0 0.36354492910500258 0.27577129842335169 0 0.38607358068913222 0.27257516751565752 0 0.36354492910500258 0.27577129842335169 0 0.37440942699423402 0.25128919554484919 0 0.38607358068913222 0.27257516751565752 0 0.34448052903034732 0.29504036688766472 0 0.36354492910500258 0.27577129842335169 0 0.34622310684857832 0.26087879424917748 0 0.36354492910500258 0.27577129842335169 0 0.37440942699423402 0.25128919554484919 0 0.34622310684857832 0.26087879424917748 0 0.37440942699423402 0.25128919554484919 0 0.34622310684857832 0.26087879424917748 0 0.35719020444575039 0.23983652838906749 0 0.40311380924952389 0.25228307292560043 0 0.38607358068913222 0.27257516751565752 0 0.41586531738286753 0.27545389734972991 0 0.38607358068913222 0.27257516751565752 0 0.3921705307248079 0.2953053224040682 0 0.41586531738286753 0.27545389734972991 0 0.37440942699423402 0.25128919554484919 0 0.40311380924952389 0.25228307292560043 0 0.38607358068913222 0.27257516751565752 0 0.36951824878815298 0.29375510209556971 0 0.38607358068913222 0.27257516751565752 0 0.3921705307248079 0.2953053224040682 0 0.36808285496450838 0.31574265629490689 0 0.36951824878815298 0.29375510209556971 0 0.3921705307248079 0.2953053224040682 0 0.36808285496450838 0.31574265629490689 0 0.3921705307248079 0.2953053224040682 0 0.39654138409105227 0.31826377990707311 0 0.3921705307248079 0.2953053224040682 0 0.41947352621712081 0.30340924293791027 0 0.39654138409105227 0.31826377990707311 0 0.3921705307248079 0.2953053224040682 0 0.41947352621712081 0.30340924293791027 0 0.41586531738286753 0.27545389734972991 0 0.41947352621712081 0.30340924293791027 0 0.43834314470010732 0.28902239472840241 0 0.44616066547491451 0.31223189658896527 0 0.41947352621712081 0.30340924293791027 0 0.41586531738286753 0.27545389734972991 0 0.43834314470010732 0.28902239472840241 0 0.41586531738286753 0.27545389734972991 0 0.44672249956687787 0.26431632251250292 0 0.43834314470010732 0.28902239472840241 0 0.40311380924952389 0.25228307292560043 0 0.41586531738286753 0.27545389734972991 0 0.42514030253221319 0.25267906105052262 0 0.41586531738286753 0.27545389734972991 0 0.42514030253221319 0.25267906105052262 0 0.44672249956687787 0.26431632251250292 0 0.42514030253221319 0.25267906105052262 0 0.44672249956687787 0.26431632251250292 0 0.4408279669982188 0.23889168089769919 0 0.44672249956687787 0.26431632251250292 0 0.46417132504761988 0.28786124447834188 0 0.43834314470010732 0.28902239472840241 0 0.44672249956687787 0.26431632251250292 0 0.47496609657440708 0.26492801647980457 0 0.46417132504761988 0.28786124447834188 0 0.44672249956687787 0.26431632251250292 0 0.47496609657440708 0.26492801647980457 0 0.46430198317330512 0.24649803851936819 0 0.47496609657440708 0.26492801647980457 0 0.46430198317330512 0.24649803851936819 0 0.48071748932874381 0.24888090484851699 0 0.47496609657440708 0.26492801647980457 0 0.48533697235179413 0.27596396729431011 0 0.46417132504761988 0.28786124447834188 0 0.48533697235179413 0.27596396729431011 0 0.5 0.28071134957729582 0 0.49999999999999911 0.25160637730024987 0 0.47496609657440708 0.26492801647980457 0 0.49999999999999911 0.25160637730024987 0 0.48071748932874381 0.24888090484851699 0 0.47496609657440708 0.26492801647980457 0 0.48533697235179413 0.27596396729431011 0 0.49999999999999911 0.25160637730024987 0 0.5 0.30981632185434171 0 0.48688013707568678 0.29199694381447222 0 0.47151496547897381 0.31667464545312168 0 0.48533697235179413 0.27596396729431011 0 0.5 0.28071134957729582 0 0.48688013707568678 0.29199694381447222 0 0.5 0.28071134957729582 0 0.5 0.30981632185434171 0 0.48688013707568678 0.29199694381447222 0 0.48533697235179413 0.27596396729431011 0 0.48688013707568678 0.29199694381447222 0 0.46417132504761988 0.28786124447834188 0 0.48688013707568678 0.29199694381447222 0 0.47151496547897381 0.31667464545312168 0 0.48688013707568678 0.29199694381447222 0 0.46417132504761988 0.28786124447834188 0 0.47151496547897381 0.31667464545312168 0 0.46417132504761988 0.28786124447834188 0 0.44616066547491451 0.31223189658896527 0 0.47151496547897381 0.31667464545312168 0 0.46417132504761988 0.28786124447834188 0 0.43834314470010732 0.28902239472840241 0 0.44616066547491451 0.31223189658896527 0 0.44616066547491451 0.31223189658896527 0 0.45614979388226062 0.34135234709177142 0 0.42745240631275161 0.33468830280787698 0 0.45614979388226062 0.34135234709177142 0 0.47151496547897381 0.31667464545312168 0 0.44616066547491451 0.31223189658896527 0 0.45614979388226062 0.34135234709177142 0 0.47151496547897381 0.31667464545312168 0 0.45614979388226062 0.34135234709177142 0 0.47151496547897381 0.31667464545312168 0 0.47881429723432051 0.35347378026991072 0 0.47151496547897381 0.31667464545312168 0 0.5 0.33892129413138761 0 0.47881429723432051 0.35347378026991072 0 0.5 0.30981632185434171 0 0.47151496547897381 0.31667464545312168 0 0.5 0.33892129413138761 0 0.5 0.33892129413138761 0 0.5 0.36802626640843339 0 0.47881429723432051 0.35347378026991072 0 0.5 0.36802626640843339 0 0.47881429723432051 0.35347378026991072 0 0.46989275369727779 0.38184692365437761 0 0.45614979388226062 0.34135234709177142 0 0.47881429723432051 0.35347378026991072 0 0.44078462228554749 0.366030048730421 0 0.47881429723432051 0.35347378026991072 0 0.44078462228554749 0.366030048730421 0 0.46989275369727779 0.38184692365437761 0 0.45614979388226062 0.34135234709177142 0 0.44078462228554749 0.366030048730421 0 0.42745240631275161 0.33468830280787698 0 0.45614979388226062 0.34135234709177142 0 0.44078462228554749 0.366030048730421 0 0.44078462228554749 0.366030048730421 0 0.4165688093988239 0.35693195319892829 0 0.41320849835378581 0.3794313850314423 0 0.44078462228554749 0.366030048730421 0 0.4165688093988239 0.35693195319892829 0 0.42745240631275161 0.33468830280787698 0 0.4165688093988239 0.35693195319892829 0 0.39891729555845851 0.36316070469390999 0 0.41320849835378581 0.3794313850314423 0 0.4165688093988239 0.35693195319892829 0 0.42745240631275161 0.33468830280787698 0 0.3998438541160621 0.34360451069437697 0 0.41947352621712081 0.30340924293791027 0 0.44616066547491451 0.31223189658896527 0 0.42745240631275161 0.33468830280787698 0 0.41947352621712081 0.30340924293791027 0 0.42745240631275161 0.33468830280787698 0 0.39654138409105227 0.31826377990707311 0 0.42745240631275161 0.33468830280787698 0 0.3998438541160621 0.34360451069437697 0 0.39654138409105227 0.31826377990707311 0 0.3998438541160621 0.34360451069437697 0 0.39654138409105227 0.31826377990707311 0 0.37704217240725241 0.33602464765253998 0 0.36808285496450838 0.31574265629490689 0 0.39654138409105227 0.31826377990707311 0 0.37704217240725241 0.33602464765253998 0 0.3998438541160621 0.34360451069437697 0 0.37704217240725241 0.33602464765253998 0 0.38058262007526827 0.3563496084668506 0 0.360088900717765 0.37259249496079022 0 0.38058262007526827 0.3563496084668506 0 0.38438269584835238 0.37948606607795171 0 0.38058262007526827 0.3563496084668506 0 0.39891729555845851 0.36316070469390999 0 0.38438269584835238 0.37948606607795171 0 0.39891729555845851 0.36316070469390999 0 0.38438269584835238 0.37948606607795171 0 0.41320849835378581 0.3794313850314423 0 0.3998438541160621 0.34360451069437697 0 0.38058262007526827 0.3563496084668506 0 0.39891729555845851 0.36316070469390999 0 0.4165688093988239 0.35693195319892829 0 0.3998438541160621 0.34360451069437697 0 0.39891729555845851 0.36316070469390999 0 0.39680893214448121 0.39627132742346588 0 0.38438269584835238 0.37948606607795171 0 0.41320849835378581 0.3794313850314423 0 0.36607313369055672 0.39090067945662471 0 0.38438269584835238 0.37948606607795171 0 0.37947048479912798 0.40021381997283001 0 0.39680893214448121 0.39627132742346588 0 0.37947048479912798 0.40021381997283001 0 0.38309706960536638 0.41732943619374208 0 0.39680893214448121 0.39627132742346588 0 0.38438269584835238 0.37948606607795171 0 0.37947048479912798 0.40021381997283001 0 0.36270901802782451 0.40654475096051113 0 0.37947048479912798 0.40021381997283001 0 0.38309706960536638 0.41732943619374208 0 0.38309706960536638 0.41732943619374208 0 0.37522424324433917 0.42963253021030429 0 0.38627968511999677 0.43951136831823728 0 0.38309706960536638 0.41732943619374208 0 0.39639478680150891 0.42868923443018508 0 0.38627968511999677 0.43951136831823728 0 0.37548894480068762 0.43751701860990078 0 0.37522424324433917 0.42963253021030429 0 0.38627968511999677 0.43951136831823728 0 0.39639478680150891 0.42868923443018508 0 0.41417533170525772 0.4287874044159497 0 0.39902241835737429 0.44833300517594032 0 0.39639478680150891 0.42868923443018508 0 0.40300620887107019 0.41553971258640188 0 0.41417533170525772 0.4287874044159497 0 0.39680893214448121 0.39627132742346588 0 0.38309706960536638 0.41732943619374208 0 0.40300620887107019 0.41553971258640188 0 0.38309706960536638 0.41732943619374208 0 0.39639478680150891 0.42868923443018508 0 0.40300620887107019 0.41553971258640188 0 0.40300620887107019 0.41553971258640188 0 0.41417533170525772 0.4287874044159497 0 0.42455492409873719 0.40662116046866642 0 0.41417533170525772 0.4287874044159497 0 0.44008190153572341 0.43003172355202512 0 0.42483327583480462 0.44882261610625201 0 0.41417533170525772 0.4287874044159497 0 0.42455492409873719 0.40662116046866642 0 0.44008190153572341 0.43003172355202512 0 0.42455492409873719 0.40662116046866642 0 0.41320849835378581 0.3794313850314423 0 0.44537625083846122 0.38994981622267683 0 0.44078462228554749 0.366030048730421 0 0.41320849835378581 0.3794313850314423 0 0.44537625083846122 0.38994981622267683 0 0.39680893214448121 0.39627132742346588 0 0.40300620887107019 0.41553971258640188 0 0.42455492409873719 0.40662116046866642 0 0.39680893214448121 0.39627132742346588 0 0.42455492409873719 0.40662116046866642 0 0.41320849835378581 0.3794313850314423 0 0.44078462228554749 0.366030048730421 0 0.44537625083846122 0.38994981622267683 0 0.46989275369727779 0.38184692365437761 0 0.42455492409873719 0.40662116046866642 0 0.44537625083846122 0.38994981622267683 0 0.46244657447736759 0.41225174010811849 0 0.44537625083846122 0.38994981622267683 0 0.46989275369727779 0.38184692365437761 0 0.46244657447736759 0.41225174010811849 0 0.46989275369727779 0.38184692365437761 0 0.5 0.39713123868547939 0 0.46244657447736759 0.41225174010811849 0 0.5 0.36802626640843339 0 0.46989275369727779 0.38184692365437761 0 0.5 0.39713123868547939 0 0.5 0.39713123868547939 0 0.48228611367985602 0.42899754686191283 0 0.46244657447736759 0.41225174010811849 0 0.5 0.39713123868547939 0 0.49999999999999978 0.42623621096252529 0 0.48228611367985602 0.42899754686191283 0 0.49999999999999978 0.42623621096252529 0 0.48228611367985602 0.42899754686191283 0 0.49242432597277458 0.45386013849238438 0 0.48228611367985602 0.42899754686191283 0 0.46239079083932833 0.43470411495609329 0 0.46244657447736759 0.41225174010811849 0 0.42455492409873719 0.40662116046866642 0 0.46244657447736759 0.41225174010811849 0 0.44008190153572341 0.43003172355202512 0 0.46239079083932833 0.43470411495609329 0 0.46244657447736759 0.41225174010811849 0 0.44008190153572341 0.43003172355202512 0 0.46239079083932833 0.43470411495609329 0 0.44008190153572341 0.43003172355202512 0 0.45064413331223468 0.4493122270365637 0 0.44008190153572341 0.43003172355202512 0 0.45064413331223468 0.4493122270365637 0 0.42483327583480462 0.44882261610625201 0 0.45064413331223468 0.4493122270365637 0 0.42483327583480462 0.44882261610625201 0 0.49999999999999978 0.42623621096252529 0 0.5 0.5 0 0.49605091946507468 0.47985089580900159 0 0.5 0.5 0 0.48169340240799968 0.49298936366977569 0 0.4065394357567319 0.5 0 0.48169340240799968 0.49298936366977569 0 0.43746458333546651 0.48839215398757402 0 0.4065394357567319 0.5 0 0.45064413331223468 0.4493122270365637 0 0.44506528669880357 0.47174376783494809 0 0.42923338640851327 0.46467677006684049 0 0.45064413331223468 0.4493122270365637 0 0.46640486398866032 0.4659536916635923 0 0.47645499078966491 0.4498018379668754 0 0.45064413331223468 0.4493122270365637 0 0.46640486398866032 0.4659536916635923 0 0.44506528669880357 0.47174376783494809 0 0.46239079083932833 0.43470411495609329 0 0.45064413331223468 0.4493122270365637 0 0.47645499078966491 0.4498018379668754 0 0.45064413331223468 0.4493122270365637 0 0.47645499078966491 0.4498018379668754 0 0.49999999999999978 0.42623621096252529 0 0.49242432597277458 0.45386013849238438 0 0.49605091946507468 0.47985089580900159 0 0.48228611367985602 0.42899754686191283 0 0.46239079083932833 0.43470411495609329 0 0.47645499078966491 0.4498018379668754 0 0.48228611367985602 0.42899754686191283 0 0.47645499078966491 0.4498018379668754 0 0.49242432597277458 0.45386013849238438 0 0.47645499078966491 0.4498018379668754 0 0.48003320817416162 0.46277493353627369 0 0.49242432597277458 0.45386013849238438 0 0.46640486398866032 0.4659536916635923 0 0.47645499078966491 0.4498018379668754 0 0.48003320817416162 0.46277493353627369 0 0.48003320817416162 0.46277493353627369 0 0.49242432597277458 0.45386013849238438 0 0.48484865194554638 0.4814840660222427 0 0.49242432597277458 0.45386013849238438 0 0.48484865194554638 0.4814840660222427 0 0.49999999999999978 0.42623621096252529 0 0.49242432597277458 0.45386013849238438 0 0.5 0.5 0 0.49605091946507468 0.47985089580900159 0 0.48169340240799968 0.49298936366977569 0 0.49605091946507468 0.47985089580900159 0 0.48484865194554638 0.4814840660222427 0 0.48169340240799968 0.49298936366977569 0 0.49242432597277458 0.45386013849238438 0 0.49605091946507468 0.47985089580900159 0 0.48484865194554638 0.4814840660222427 0 0.49605091946507468 0.47985089580900159 0 0.48484865194554638 0.4814840660222427 0 0.48484865194554638 0.4814840660222427 0 0.46115661764050642 0.48493811000490772 0 0.46640486398866032 0.4659536916635923 0 0.48003320817416162 0.46277493353627369 0 0.48484865194554638 0.4814840660222427 0 0.46640486398866032 0.4659536916635923 0 0.48484865194554638 0.4814840660222427 0 0.46115661764050642 0.48493811000490772 0 0.48484865194554638 0.4814840660222427 0 0.48169340240799968 0.49298936366977569 0 0.46115661764050642 0.48493811000490772 0 0.48484865194554638 0.4814840660222427 0 0.48169340240799968 0.49298936366977569 0 0.48169340240799968 0.49298936366977569 0 0.46115661764050642 0.48493811000490772 0 0.43746458333546651 0.48839215398757402 0 0.46640486398866032 0.4659536916635923 0 0.46115661764050642 0.48493811000490772 0 0.44506528669880357 0.47174376783494809 0 0.46115661764050642 0.48493811000490772 0 0.44506528669880357 0.47174376783494809 0 0.43746458333546651 0.48839215398757402 0 0.46115661764050642 0.48493811000490772 0 0.43746458333546651 0.48839215398757402 0 0.43746458333546651 0.48839215398757402 0 0.4137725490304266 0.49184619797024032 0 0.43746458333546651 0.48839215398757402 0 0.41391401246566678 0.48899596182181759 0 0.42548813550744069 0.47718965425021048 0 0.33649748453219741 0.5 0 0.4065394357567319 0.5 0 0.39008051472538691 0.49530024195290662 0 0.43746458333546651 0.48839215398757402 0 0.41391401246566678 0.48899596182181759 0 0.4137725490304266 0.49184619797024032 0 0.43746458333546651 0.48839215398757402 0 0.4065394357567319 0.5 0 0.4137725490304266 0.49184619797024032 0 0.41391401246566678 0.48899596182181759 0 0.4137725490304266 0.49184619797024032 0 0.39906189013504978 0.48508122623699418 0 0.4118605900388308 0.47479522775025551 0 0.41447742550940952 0.46457561689527149 0 0.39356278667280598 0.46841967803372209 0 0.41391401246566678 0.48899596182181759 0 0.4118605900388308 0.47479522775025551 0 0.39356278667280598 0.46841967803372209 0 0.41391401246566678 0.48899596182181759 0 0.4118605900388308 0.47479522775025551 0 0.42548813550744069 0.47718965425021048 0 0.4118605900388308 0.47479522775025551 0 0.42548813550744069 0.47718965425021048 0 0.41447742550940952 0.46457561689527149 0 0.44506528669880357 0.47174376783494809 0 0.43746458333546651 0.48839215398757402 0 0.42548813550744069 0.47718965425021048 0 0.44506528669880357 0.47174376783494809 0 0.42548813550744069 0.47718965425021048 0 0.42923338640851327 0.46467677006684049 0 0.42923338640851327 0.46467677006684049 0 0.42483327583480462 0.44882261610625201 0 0.41447742550940952 0.46457561689527149 0 0.45064413331223468 0.4493122270365637 0 0.42923338640851327 0.46467677006684049 0 0.42483327583480462 0.44882261610625201 0 0.42548813550744069 0.47718965425021048 0 0.42923338640851327 0.46467677006684049 0 0.41447742550940952 0.46457561689527149 0 0.42483327583480462 0.44882261610625201 0 0.39902241835737429 0.44833300517594032 0 0.41417533170525772 0.4287874044159497 0 0.42483327583480462 0.44882261610625201 0 0.39902241835737429 0.44833300517594032 0 0.42483327583480462 0.44882261610625201 0 0.41447742550940952 0.46457561689527149 0 0.39902241835737429 0.44833300517594032 0 0.41447742550940952 0.46457561689527149 0 0.39356278667280598 0.46841967803372209 0 0.39902241835737429 0.44833300517594032 0 0.39639478680150891 0.42868923443018508 0 0.39902241835737429 0.44833300517594032 0 0.38627968511999677 0.43951136831823728 0 0.37321156087994412 0.44784339424562758 0 0.39902241835737429 0.44833300517594032 0 0.38627968511999677 0.43951136831823728 0 0.37321156087994412 0.44784339424562758 0 0.39902241835737429 0.44833300517594032 0 0.37321156087994412 0.44784339424562758 0 0.37548894480068762 0.43751701860990078 0 0.38627968511999677 0.43951136831823728 0 0.37321156087994412 0.44784339424562758 0 0.39356278667280598 0.46841967803372209 0 0.39902241835737429 0.44833300517594032 0 0.37321156087994412 0.44784339424562758 0 0.39356278667280598 0.46841967803372209 0 0.37569723154249429 0.4628416802127675 0 0.37321156087994412 0.44784339424562758 0 0.39356278667280598 0.46841967803372209 0 0.39356278667280598 0.46841967803372209 0 0.37569723154249429 0.4628416802127675 0 0.38025977590380272 0.47765378667024577 0 0.35535755192134488 0.48020813348804609 0 0.38025977590380272 0.47765378667024577 0 0.39008051472538691 0.49530024195290662 0 0.38025977590380272 0.47765378667024577 0 0.39008051472538691 0.49530024195290662 0 0.39906189013504978 0.48508122623699418 0 0.4065394357567319 0.5 0 0.4137725490304266 0.49184619797024032 0 0.39008051472538691 0.49530024195290662 0 0.4137725490304266 0.49184619797024032 0 0.39008051472538691 0.49530024195290662 0 0.4137725490304266 0.49184619797024032 0 0.39008051472538691 0.49530024195290662 0 0.39906189013504978 0.48508122623699418 0 0.41391401246566678 0.48899596182181759 0 0.39356278667280598 0.46841967803372209 0 0.39356278667280598 0.46841967803372209 0 0.38025977590380272 0.47765378667024577 0 0.39906189013504978 0.48508122623699418 0 0.41391401246566678 0.48899596182181759 0 0.39356278667280598 0.46841967803372209 0 0.39906189013504978 0.48508122623699418 0 0.33929152252830802 0.091651703753948086 0 0.32278943763423701 0.079460645191375162 0 0.34896813690636852 0.075549465785877595 0 0.34896813690636852 0.075549465785877595 0 0.33071870153908878 0.054276211508052667 0 0.32278943763423701 0.079460645191375162 0 0.34896813690636852 0.075549465785877595 0 0.33071870153908878 0.054276211508052667 0 0.32278943763423701 0.079460645191375162 0 0.33071870153908878 0.054276211508052667 0 0.30085258170844131 0.072913911989627683 0 0.33929152252830802 0.091651703753948086 0 0.32278943763423701 0.079460645191375162 0 0.31034935558437737 0.10274955423871381 0 0.33678900756218477 0.1102704134902964 0 0.31034935558437737 0.10274955423871381 0 0.3236884144666296 0.12490078767378859 0 0.30653913579290692 0.12019764693746419 0 0.31034935558437737 0.10274955423871381 0 0.3236884144666296 0.12490078767378859 0 0.33678900756218477 0.1102704134902964 0 0.31034935558437737 0.10274955423871381 0 0.3236884144666296 0.12490078767378859 0 0.33678900756218477 0.1102704134902964 0 0.33795087908552118 0.12871229664387199 0 0.33678900756218477 0.1102704134902964 0 0.33795087908552118 0.12871229664387199 0 0.35013172691989519 0.12761961379250769 0 0.33929152252830802 0.091651703753948086 0 0.33678900756218477 0.1102704134902964 0 0.35235111702105792 0.1047054033494495 0 0.33929152252830802 0.091651703753948086 0 0.33678900756218477 0.1102704134902964 0 0.31034935558437737 0.10274955423871381 0 0.33929152252830802 0.091651703753948086 0 0.35235111702105792 0.1047054033494495 0 0.36721757227365021 0.096822720063700796 0 0.33678900756218477 0.1102704134902964 0 0.3632286595399925 0.11779127274187801 0 0.33678900756218477 0.1102704134902964 0 0.35235111702105792 0.1047054033494495 0 0.3632286595399925 0.11779127274187801 0 0.33678900756218477 0.1102704134902964 0 0.3632286595399925 0.11779127274187801 0 0.35013172691989519 0.12761961379250769 0 0.3632286595399925 0.11779127274187801 0 0.38493110345041598 0.1239646151974705 0 0.3632286595399925 0.11779127274187801 0 0.36721757227365021 0.096822720063700796 0 0.38636212157916028 0.1191394031398727 0 0.3632286595399925 0.11779127274187801 0 0.37229866834424741 0.12831022227002201 0 0.38493110345041598 0.1239646151974705 0 0.3632286595399925 0.11779127274187801 0 0.36083380916922969 0.13038030376578519 0 0.3632286595399925 0.11779127274187801 0 0.36721757227365021 0.096822720063700796 0 0.35235111702105792 0.1047054033494495 0 0.3632286595399925 0.11779127274187801 0 0.36721757227365021 0.096822720063700796 0 0.36721757227365021 0.096822720063700796 0 0.37165695911841778 0.073486156160510657 0 0.36721757227365021 0.096822720063700796 0 0.37165695911841778 0.073486156160510657 0 0.38539665697233721 0.082812465397042734 0 0.36721757227365021 0.096822720063700796 0 0.34896813690636852 0.075549465785877595 0 0.37165695911841778 0.073486156160510657 0 0.36721757227365021 0.096822720063700796 0 0.34896813690636852 0.075549465785877595 0 0.33929152252830802 0.091651703753948086 0 0.36721757227365021 0.096822720063700796 0 0.34896813690636852 0.075549465785877595 0 0.34896813690636852 0.075549465785877595 0 0.35689564396935691 0.060221417179241073 0 0.33071870153908878 0.054276211508052667 0 0.34896813690636852 0.075549465785877595 0 0.37165695911841778 0.073486156160510657 0 0.35689564396935691 0.060221417179241073 0 0.37165695911841778 0.073486156160510657 0 0.35689564396935691 0.060221417179241073 0 0.37609634596318392 0.050149592257320248 0 0.37165695911841778 0.073486156160510657 0 0.37609634596318392 0.050149592257320248 0 0.3525220268950775 0.044539698981181888 0 0.35689564396935691 0.060221417179241073 0 0.37609634596318392 0.050149592257320248 0 0.36735871243813939 0.037815704147688582 0 0.37793054046380248 0.03148795263766261 0 0.37609634596318392 0.050149592257320248 0 0.36735871243813939 0.037815704147688582 0 0.3525220268950775 0.044539698981181888 0 0.36288593643049383 0.025085572714589579 0 0.36735871243813939 0.037815704147688582 0 0.3525220268950775 0.044539698981181888 0 0.37609634596318392 0.050149592257320248 0 0.36735871243813939 0.037815704147688582 0 0.36288593643049383 0.025085572714589579 0 0.37793054046380248 0.03148795263766261 0 0.3525220268950775 0.044539698981181888 0 0.35689564396935691 0.060221417179241073 0 0.33071870153908878 0.054276211508052667 0 0.37240517643244542 0.010270501034299721 0 0.35998511557183838 0.012269753805966821 0 0.3642149709261312 -0.0041086796801032936 0 0.37240517643244542 0.010270501034299721 0 0.38202827712197018 0.00076162854680449782 0 0.3642149709261312 -0.0041086796801032936 0 0.37240517643244542 0.010270501034299721 0 0.35998511557183838 0.012269753805966821 0 0.36288593643049383 0.025085572714589579 0 0.37240517643244542 0.010270501034299721 0 0.36288593643049383 0.025085572714589579 0 0.37799980810337758 0.020485080784420021 0 0.36288593643049383 0.025085572714589579 0 0.37799980810337758 0.020485080784420021 0 0.37793054046380248 0.03148795263766261 0 0.3525220268950775 0.044539698981181888 0 0.36288593643049383 0.025085572714589579 0 0.34599546282542448 0.022701961555649668 0 0.35998511557183838 0.012269753805966821 0 0.36288593643049383 0.025085572714589579 0 0.34599546282542448 0.022701961555649668 0 0.35998511557183838 0.012269753805966821 0 0.34599546282542448 0.022701961555649668 0 0.34977075328603469 0.0032824274781512899 0 0.34599546282542448 0.022701961555649668 0 0.34977075328603469 0.0032824274781512899 0 0.33637045193870341 0.01024577051747161 0 0.35998511557183838 0.012269753805966821 0 0.34977075328603469 0.0032824274781512899 0 0.3642149709261312 -0.0041086796801032936 0 0.34977075328603469 0.0032824274781512899 0 0.33637045193870341 0.01024577051747161 0 0.33011070779852048 -0.00467757646497452 0 0.33637045193870341 0.01024577051747161 0 0.32231503554970409 0.014642602226820321 0 0.33011070779852048 -0.00467757646497452 0 0.33637045193870341 0.01024577051747161 0 0.33012103074823063 0.02973588064705969 0 0.32231503554970409 0.014642602226820321 0 0.34599546282542448 0.022701961555649668 0 0.33637045193870341 0.01024577051747161 0 0.33012103074823063 0.02973588064705969 0 0.33012103074823063 0.02973588064705969 0 0.32231503554970409 0.014642602226820321 0 0.31246926617180909 0.033002957230227802 0 0.31485579121468349 0.003100127620913112 0 0.32231503554970409 0.014642602226820321 0 0.30158324237542461 0.0125847970191427 0 0.31485579121468349 0.003100127620913112 0 0.32231503554970409 0.014642602226820321 0 0.33011070779852048 -0.00467757646497452 0 0.33071870153908878 0.054276211508052667 0 0.29774897129985928 0.049211549409546557 0 0.31246926617180909 0.033002957230227802 0 0.3525220268950775 0.044539698981181888 0 0.34599546282542448 0.022701961555649668 0 0.33012103074823063 0.02973588064705969 0 0.3525220268950775 0.044539698981181888 0 0.33012103074823063 0.02973588064705969 0 0.33071870153908878 0.054276211508052667 0 0.33071870153908878 0.054276211508052667 0 0.31246926617180909 0.033002957230227802 0 0.33012103074823063 0.02973588064705969 0 0.33071870153908878 0.054276211508052667 0 0.31246926617180909 0.033002957230227802 0 0.33071870153908878 0.054276211508052667 0 0.29774897129985928 0.049211549409546557 0 0.30085258170844131 0.072913911989627683 0 0.29774897129985928 0.049211549409546557 0 0.31246926617180909 0.033002957230227802 0 0.28759734368841972 0.028702476140631341 0 0.29774897129985928 0.049211549409546557 0 0.28759734368841972 0.028702476140631341 0 0.27712414779672628 0.042521858068418239 0 0.29774897129985928 0.049211549409546557 0 0.28089652605483129 0.060346196049411278 0 0.30085258170844131 0.072913911989627683 0 0.29774897129985928 0.049211549409546557 0 0.28089652605483129 0.060346196049411278 0 0.27712414779672628 0.042521858068418239 0 0.31485579121468349 0.003100127620913112 0 0.30158324237542461 0.0125847970191427 0 0.30541417913508478 -0.010149312297336059 0 0.30158324237542461 0.0125847970191427 0 0.29421983080453479 0.01172970295239821 0 0.30541417913508478 -0.010149312297336059 0 0.30158324237542461 0.0125847970191427 0 0.29421983080453479 0.01172970295239821 0 0.31246926617180909 0.033002957230227802 0 0.28759734368841972 0.028702476140631341 0 0.29421983080453479 0.01172970295239821 0 0.31246926617180909 0.033002957230227802 0 0.30158324237542461 0.0125847970191427 0 0.29421983080453479 0.01172970295239821 0 0.31246926617180909 0.033002957230227802 0 0.29421983080453479 0.01172970295239821 0 0.32231503554970409 0.014642602226820321 0 0.31246926617180909 0.033002957230227802 0 0.30158324237542461 0.0125847970191427 0 0.28759734368841972 0.028702476140631341 0 0.29421983080453479 0.01172970295239821 0 0.27312651945724181 0.0092801909011280027 0 0.29421983080453479 0.01172970295239821 0 0.28565233429370113 0.0017426250986947031 0 0.27312651945724181 0.0092801909011280027 0 0.29421983080453479 0.01172970295239821 0 0.28565233429370113 0.0017426250986947031 0 0.30541417913508478 -0.010149312297336059 0 0.29421983080453479 0.01172970295239821 0 0.27312651945724181 0.0092801909011280027 0 0.29421983080453479 0.01172970295239821 0 0.28565233429370113 0.0017426250986947031 0 0.28565233429370113 0.0017426250986947031 0 0.27312651945724181 0.0092801909011280027 0 0.26362807346362388 -0.002236244841430654 0 0.28565233429370113 0.0017426250986947031 0 0.27312651945724181 0.0092801909011280027 0 0.28759734368841972 0.028702476140631341 0 0.27312651945724181 0.0092801909011280027 0 0.27089532660035209 0.026468598282063271 0 0.27312651945724181 0.0092801909011280027 0 0.27089532660035209 0.026468598282063271 0 0.25557159656198009 0.019844085402786451 0 0.27089532660035209 0.026468598282063271 0 0.25557159656198009 0.019844085402786451 0 0.26230411957513511 0.036922520240601019 0 0.24988916874644099 0.036168863188119293 0 0.25557159656198009 0.019844085402786451 0 0.26230411957513511 0.036922520240601019 0 0.24976299478907979 0.0065670448098260684 0 0.27312651945724181 0.0092801909011280027 0 0.26362807346362388 -0.002236244841430654 0 0.24976299478907979 0.0065670448098260684 0 0.27312651945724181 0.0092801909011280027 0 0.27312651945724181 0.0092801909011280027 0 0.25557159656198009 0.019844085402786451 0 0.24976299478907979 0.0065670448098260684 0 0.27312651945724181 0.0092801909011280027 0 0.25557159656198009 0.019844085402786451 0 0.28089652605483129 0.060346196049411278 0 0.26719070704339382 0.052474451823227942 0 0.26088390432219671 0.066127511811059234 0 0.28089652605483129 0.060346196049411278 0 0.26719070704339382 0.052474451823227942 0 0.27712414779672628 0.042521858068418239 0 0.28759734368841972 0.028702476140631341 0 0.27089532660035209 0.026468598282063271 0 0.27712414779672628 0.042521858068418239 0 0.27089532660035209 0.026468598282063271 0 0.27712414779672628 0.042521858068418239 0 0.26230411957513511 0.036922520240601019 0 0.26719070704339382 0.052474451823227942 0 0.27712414779672628 0.042521858068418239 0 0.26230411957513511 0.036922520240601019 0 0.26719070704339382 0.052474451823227942 0 0.26230411957513511 0.036922520240601019 0 0.25460438589914702 0.049339470609261443 0 0.24988916874644099 0.036168863188119293 0 0.26230411957513511 0.036922520240601019 0 0.25460438589914702 0.049339470609261443 0 0.26719070704339382 0.052474451823227942 0 0.25460438589914702 0.049339470609261443 0 0.26088390432219671 0.066127511811059234 0 0.2463687838011247 0.059650192568501417 0 0.25460438589914702 0.049339470609261443 0 0.26088390432219671 0.066127511811059234 0 0.2430000508983684 0.074822660191426013 0 0.2463687838011247 0.059650192568501417 0 0.26088390432219671 0.066127511811059234 0 0.2430000508983684 0.074822660191426013 0 0.26088390432219671 0.066127511811059234 0 0.25451377749194481 0.081575643285586918 0 0.26088390432219671 0.066127511811059234 0 0.26798113850225819 0.087677432866042945 0 0.26088390432219671 0.066127511811059234 0 0.25451377749194481 0.081575643285586918 0 0.26798113850225819 0.087677432866042945 0 0.24642691049975721 0.095117186863803327 0 0.25451377749194481 0.081575643285586918 0 0.26798113850225819 0.087677432866042945 0 0.26798113850225819 0.087677432866042945 0 0.28967174673034629 0.09229827088293821 0 0.28294594627613617 0.1012626160931788 0 0.26798113850225819 0.087677432866042945 0 0.281301378132222 0.077070332993418686 0 0.28967174673034629 0.09229827088293821 0 0.28089652605483129 0.060346196049411278 0 0.26088390432219671 0.066127511811059234 0 0.281301378132222 0.077070332993418686 0 0.26088390432219671 0.066127511811059234 0 0.26798113850225819 0.087677432866042945 0 0.281301378132222 0.077070332993418686 0 0.28089652605483129 0.060346196049411278 0 0.281301378132222 0.077070332993418686 0 0.30085258170844131 0.072913911989627683 0 0.281301378132222 0.077070332993418686 0 0.28967174673034629 0.09229827088293821 0 0.30085258170844131 0.072913911989627683 0 0.32278943763423701 0.079460645191375162 0 0.30085258170844131 0.072913911989627683 0 0.31034935558437737 0.10274955423871381 0 0.28967174673034629 0.09229827088293821 0 0.30085258170844131 0.072913911989627683 0 0.31034935558437737 0.10274955423871381 0 0.30653913579290692 0.12019764693746419 0 0.31034935558437737 0.10274955423871381 0 0.29388666351086379 0.11142904072123309 0 0.30653913579290692 0.12019764693746419 0 0.29388666351086379 0.11142904072123309 0 0.29662170248938841 0.12681783537333929 0 0.28967174673034629 0.09229827088293821 0 0.31034935558437737 0.10274955423871381 0 0.29388666351086379 0.11142904072123309 0 0.28967174673034629 0.09229827088293821 0 0.28294594627613617 0.1012626160931788 0 0.29388666351086379 0.11142904072123309 0 0.28294594627613617 0.1012626160931788 0 0.28475101855123131 0.11079863188986371 0 0.29388666351086379 0.11142904072123309 0 0.28709309173560549 0.1212755168240162 0 0.27507837268231972 0.1092273539210267 0 0.28217560686238119 0.13077727497601041 0 0.28475101855123131 0.11079863188986371 0 0.28709309173560549 0.1212755168240162 0 0.27507837268231972 0.1092273539210267 0 0.28475101855123131 0.11079863188986371 0 0.29388666351086379 0.11142904072123309 0 0.28709309173560549 0.1212755168240162 0 0.29388666351086379 0.11142904072123309 0 0.28709309173560549 0.1212755168240162 0 0.29662170248938841 0.12681783537333929 0 0.27507837268231972 0.1092273539210267 0 0.278143243796103 0.1267355649480589 0 0.28217560686238119 0.13077727497601041 0 0.27115498721962461 0.11571250150664671 0 0.27507837268231972 0.1092273539210267 0 0.278143243796103 0.1267355649480589 0 0.27507837268231972 0.1092273539210267 0 0.28217560686238119 0.13077727497601041 0 0.27115498721962461 0.11571250150664671 0 0.26926514788007888 0.1201703939348287 0 0.26237157581729093 0.1144899206592513 0 0.27115498721962461 0.11571250150664671 0 0.27091659592233042 0.10793927407006761 0 0.26237157581729093 0.1144899206592513 0 0.27115498721962461 0.11571250150664671 0 0.27507837268231972 0.1092273539210267 0 0.27091659592233042 0.10793927407006761 0 0.26926514788007888 0.1201703939348287 0 0.26978786166088181 0.1276230344721358 0 0.278143243796103 0.1267355649480589 0 0.27115498721962461 0.11571250150664671 0 0.26926514788007888 0.1201703939348287 0 0.278143243796103 0.1267355649480589 0 0.26926514788007888 0.1201703939348287 0 0.26232641746619728 0.1252165363608489 0 0.26978786166088181 0.1276230344721358 0 0.26798113850225819 0.087677432866042945 0 0.28294594627613617 0.1012626160931788 0 0.27507837268231972 0.1092273539210267 0 0.26798113850225819 0.087677432866042945 0 0.27507837268231972 0.1092273539210267 0 0.26798113850225819 0.087677432866042945 0 0.27507837268231972 0.1092273539210267 0 0.27091659592233042 0.10793927407006761 0 0.28294594627613617 0.1012626160931788 0 0.28475101855123131 0.11079863188986371 0 0.27507837268231972 0.1092273539210267 0 0.24642691049975721 0.095117186863803327 0 0.26798113850225819 0.087677432866042945 0 0.27091659592233042 0.10793927407006761 0 0.24642691049975721 0.095117186863803327 0 0.27091659592233042 0.10793927407006761 0 0.24642691049975721 0.095117186863803327 0 0.27091659592233042 0.10793927407006761 0 0.25566134152783809 0.1047212382227241 0 0.27091659592233042 0.10793927407006761 0 0.25566134152783809 0.1047212382227241 0 0.26237157581729093 0.1144899206592513 0 0.25566134152783809 0.1047212382227241 0 0.26237157581729093 0.1144899206592513 0 0.25266134424123848 0.1233677868070323 0 0.26926514788007888 0.1201703939348287 0 0.26237157581729093 0.1144899206592513 0 0.26232641746619728 0.1252165363608489 0 0.26237157581729093 0.1144899206592513 0 0.25266134424123848 0.1233677868070323 0 0.26232641746619728 0.1252165363608489 0 0.25266134424123848 0.1233677868070323 0 0.25663947787259039 0.13588046767203629 0 0.26232641746619728 0.1252165363608489 0 0.24387806189599451 0.13978034280615059 0 0.25266134424123848 0.1233677868070323 0 0.25663947787259039 0.13588046767203629 0 0.25663947787259039 0.13588046767203629 0 0.26666472409829711 0.13327538243545309 0 0.2650861019524729 0.14241248393850109 0 0.25663947787259039 0.13588046767203629 0 0.26232641746619728 0.1252165363608489 0 0.26666472409829711 0.13327538243545309 0 0.278143243796103 0.1267355649480589 0 0.28286280720522528 0.15462067422021719 0 0.26232641746619728 0.1252165363608489 0 0.26978786166088181 0.1276230344721358 0 0.26666472409829711 0.13327538243545309 0 0.27613702684980529 0.14002421327579459 0 0.278143243796103 0.1267355649480589 0 0.28286280720522528 0.15462067422021719 0 0.278143243796103 0.1267355649480589 0 0.28217560686238119 0.13077727497601041 0 0.28286280720522528 0.15462067422021719 0 0.26978786166088181 0.1276230344721358 0 0.27253977506373228 0.13271729468148921 0 0.26666472409829711 0.13327538243545309 0 0.26666472409829711 0.13327538243545309 0 0.27065124007207358 0.1391073747610532 0 0.2650861019524729 0.14241248393850109 0 0.27253977506373228 0.13271729468148921 0 0.27065124007207358 0.1391073747610532 0 0.27613702684980529 0.14002421327579459 0 0.27253977506373228 0.13271729468148921 0 0.26666472409829711 0.13327538243545309 0 0.27065124007207358 0.1391073747610532 0 0.27253977506373228 0.13271729468148921 0 0.27613702684980529 0.14002421327579459 0 0.278143243796103 0.1267355649480589 0 0.26978786166088181 0.1276230344721358 0 0.27253977506373228 0.13271729468148921 0 0.278143243796103 0.1267355649480589 0 0.27346524317033122 0.15550582408165911 0 0.27282857239606079 0.14710749947402829 0 0.28286280720522528 0.15462067422021719 0 0.27613702684980529 0.14002421327579459 0 0.27282857239606079 0.14710749947402829 0 0.28286280720522528 0.15462067422021719 0 0.27065124007207358 0.1391073747610532 0 0.27613702684980529 0.14002421327579459 0 0.27282857239606079 0.14710749947402829 0 0.27282857239606079 0.14710749947402829 0 0.26578366101409129 0.15259414377370811 0 0.2650861019524729 0.14241248393850109 0 0.27065124007207358 0.1391073747610532 0 0.27282857239606079 0.14710749947402829 0 0.2650861019524729 0.14241248393850109 0 0.27346524317033122 0.15550582408165911 0 0.27282857239606079 0.14710749947402829 0 0.26578366101409129 0.15259414377370811 0 0.26578366101409129 0.15259414377370811 0 0.25505124540521351 0.1479140067870168 0 0.2568489184092424 0.16147745026916921 0 0.26578366101409129 0.15259414377370811 0 0.2650861019524729 0.14241248393850109 0 0.25505124540521351 0.1479140067870168 0 0.25663947787259039 0.13588046767203629 0 0.2650861019524729 0.14241248393850109 0 0.25505124540521351 0.1479140067870168 0 0.24387806189599451 0.13978034280615059 0 0.25663947787259039 0.13588046767203629 0 0.25505124540521351 0.1479140067870168 0 0.24370057615855381 0.15485502339838919 0 0.25505124540521351 0.1479140067870168 0 0.2568489184092424 0.16147745026916921 0 0.24595870981047549 0.1684698146066165 0 0.2568489184092424 0.16147745026916921 0 0.25603680245521898 0.17582034698834251 0 0.2568489184092424 0.16147745026916921 0 0.26371410192820632 0.16908463056039269 0 0.25603680245521898 0.17582034698834251 0 0.2568489184092424 0.16147745026916921 0 0.26371410192820632 0.16908463056039269 0 0.26909392822566369 0.16142740371264419 0 0.26578366101409129 0.15259414377370811 0 0.2568489184092424 0.16147745026916921 0 0.26909392822566369 0.16142740371264419 0 0.24191774216627349 0.1846716171374552 0 0.26578832494382598 0.18972321521784691 0 0.24191774216627349 0.1846716171374552 0 0.25603680245521898 0.17582034698834251 0 0.26578832494382598 0.18972321521784691 0 0.26371410192820632 0.16908463056039269 0 0.25603680245521898 0.17582034698834251 0 0.26913445377661938 0.17621203409366859 0 0.25603680245521898 0.17582034698834251 0 0.26913445377661938 0.17621203409366859 0 0.26578832494382598 0.18972321521784691 0 0.27752781455665249 0.17992643861345139 0 0.28356750918766832 0.1835251327672198 0 0.26578832494382598 0.18972321521784691 0 0.26913445377661938 0.17621203409366859 0 0.27752781455665249 0.17992643861345139 0 0.26578832494382598 0.18972321521784691 0 0.26913445377661938 0.17621203409366859 0 0.27717124092777429 0.17404397259376411 0 0.27374192346263593 0.16857211725693519 0 0.26913445377661938 0.17621203409366859 0 0.27717124092777429 0.17404397259376411 0 0.27752781455665249 0.17992643861345139 0 0.27717124092777429 0.17404397259376411 0 0.28204226899366608 0.16910149899032809 0 0.28340974384929751 0.17640777401443711 0 0.27717124092777429 0.17404397259376411 0 0.27752781455665249 0.17992643861345139 0 0.28340974384929751 0.17640777401443711 0 0.27346524317033122 0.15550582408165911 0 0.26578366101409129 0.15259414377370811 0 0.26909392822566369 0.16142740371264419 0 0.26909392822566369 0.16142740371264419 0 0.27374192346263593 0.16857211725693519 0 0.27675724701061472 0.1617793992276978 0 0.27346524317033122 0.15550582408165911 0 0.26909392822566369 0.16142740371264419 0 0.27675724701061472 0.1617793992276978 0 0.26371410192820632 0.16908463056039269 0 0.26909392822566369 0.16142740371264419 0 0.27374192346263593 0.16857211725693519 0 0.26371410192820632 0.16908463056039269 0 0.26913445377661938 0.17621203409366859 0 0.27374192346263593 0.16857211725693519 0 0.27717124092777429 0.17404397259376411 0 0.27374192346263593 0.16857211725693519 0 0.28204226899366608 0.16910149899032809 0 0.27374192346263593 0.16857211725693519 0 0.27675724701061472 0.1617793992276978 0 0.28204226899366608 0.16910149899032809 0 0.27675724701061472 0.1617793992276978 0 0.28204226899366608 0.16910149899032809 0 0.28286280720522528 0.15462067422021719 0 0.27346524317033122 0.15550582408165911 0 0.27675724701061472 0.1617793992276978 0 0.28286280720522528 0.15462067422021719 0 0.28928612667187992 0.16540133566377019 0 0.28758237061434422 0.1825057834923762 0 0.29868039983869971 0.16529875690078419 0 0.28204226899366608 0.16910149899032809 0 0.28758237061434422 0.1825057834923762 0 0.28286280720522528 0.15462067422021719 0 0.28928612667187992 0.16540133566377019 0 0.28758237061434422 0.1825057834923762 0 0.28286280720522528 0.15462067422021719 0 0.28758237061434422 0.1825057834923762 0 0.28286280720522528 0.15462067422021719 0 0.28928612667187992 0.16540133566377019 0 0.29105502739941269 0.15872309364358611 0 0.28286280720522528 0.15462067422021719 0 0.28928612667187992 0.16540133566377019 0 0.29105502739941269 0.15872309364358611 0 0.29868039983869971 0.16529875690078419 0 0.29583873198796862 0.1567140306196545 0 0.29105502739941269 0.15872309364358611 0 0.29868039983869971 0.16529875690078419 0 0.28356750918766832 0.1835251327672198 0 0.28758237061434422 0.1825057834923762 0 0.28965890772137831 0.1947748132982394 0 0.27752781455665249 0.17992643861345139 0 0.28356750918766832 0.1835251327672198 0 0.28352568587617072 0.18039524488862629 0 0.28356750918766832 0.1835251327672198 0 0.28352568587617072 0.18039524488862629 0 0.28758237061434422 0.1825057834923762 0 0.28352568587617072 0.18039524488862629 0 0.28758237061434422 0.1825057834923762 0 0.28340974384929751 0.17640777401443711 0 0.28356750918766832 0.1835251327672198 0 0.28758237061434422 0.1825057834923762 0 0.28204226899366608 0.16910149899032809 0 0.28758237061434422 0.1825057834923762 0 0.28340974384929751 0.17640777401443711 0 0.27752781455665249 0.17992643861345139 0 0.28352568587617072 0.18039524488862629 0 0.28340974384929751 0.17640777401443711 0 0.28758237061434422 0.1825057834923762 0 0.29969609172115841 0.18723312101954709 0 0.29298250764237521 0.190104320853661 0 0.28758237061434422 0.1825057834923762 0 0.29868039983869971 0.16529875690078419 0 0.31402493064596548 0.175792175841024 0 0.28758237061434422 0.1825057834923762 0 0.31402493064596548 0.175792175841024 0 0.28758237061434422 0.1825057834923762 0 0.29969609172115841 0.18723312101954709 0 0.31402493064596548 0.175792175841024 0 0.29969609172115841 0.18723312101954709 0 0.30998331856614192 0.18996935678911869 0 0.31402493064596548 0.175792175841024 0 0.30241791428101461 0.15721423839015641 0 0.29868039983869971 0.16529875690078419 0 0.31055769727031263 0.1607406406549223 0 0.29583873198796862 0.1567140306196545 0 0.30241791428101461 0.15721423839015641 0 0.29868039983869971 0.16529875690078419 0 0.29868039983869971 0.16529875690078419 0 0.31055769727031263 0.1607406406549223 0 0.31402493064596548 0.175792175841024 0 0.30241791428101461 0.15721423839015641 0 0.31055769727031263 0.1607406406549223 0 0.30696535922363738 0.15161579823921439 0 0.31055769727031263 0.1607406406549223 0 0.30696535922363738 0.15161579823921439 0 0.31742867115831769 0.15244751705938661 0 0.30696535922363738 0.15161579823921439 0 0.31113933386399822 0.1441249513471142 0 0.31742867115831769 0.15244751705938661 0 0.30696535922363738 0.15161579823921439 0 0.29832766751046552 0.15102543438515451 0 0.3020413927779132 0.14418480257147129 0 0.30241791428101461 0.15721423839015641 0 0.30696535922363738 0.15161579823921439 0 0.29832766751046552 0.15102543438515451 0 0.29583873198796862 0.1567140306196545 0 0.30241791428101461 0.15721423839015641 0 0.29832766751046552 0.15102543438515451 0 0.3020413927779132 0.14418480257147129 0 0.29747159132678691 0.13684273777103029 0 0.29548460946057048 0.14482617762970551 0 0.29832766751046552 0.15102543438515451 0 0.3020413927779132 0.14418480257147129 0 0.29548460946057048 0.14482617762970551 0 0.30696535922363738 0.15161579823921439 0 0.3020413927779132 0.14418480257147129 0 0.31113933386399822 0.1441249513471142 0 0.3020413927779132 0.14418480257147129 0 0.31113933386399822 0.1441249513471142 0 0.30823411288239688 0.13414457456988491 0 0.30823411288239688 0.13414457456988491 0 0.29747159132678691 0.13684273777103029 0 0.29662170248938841 0.12681783537333929 0 0.30653913579290692 0.12019764693746419 0 0.30823411288239688 0.13414457456988491 0 0.29662170248938841 0.12681783537333929 0 0.3020413927779132 0.14418480257147129 0 0.30823411288239688 0.13414457456988491 0 0.29747159132678691 0.13684273777103029 0 0.29747159132678691 0.13684273777103029 0 0.29043007616544159 0.13979351236279541 0 0.29548460946057048 0.14482617762970551 0 0.29747159132678691 0.13684273777103029 0 0.29043007616544159 0.13979351236279541 0 0.29036690460996828 0.13158123430481641 0 0.29747159132678691 0.13684273777103029 0 0.29036690460996828 0.13158123430481641 0 0.29662170248938841 0.12681783537333929 0 0.28709309173560549 0.1212755168240162 0 0.29036690460996828 0.13158123430481641 0 0.29662170248938841 0.12681783537333929 0 0.28709309173560549 0.1212755168240162 0 0.29036690460996828 0.13158123430481641 0 0.28217560686238119 0.13077727497601041 0 0.29043007616544159 0.13979351236279541 0 0.29036690460996828 0.13158123430481641 0 0.28217560686238119 0.13077727497601041 0 0.28217560686238119 0.13077727497601041 0 0.28286280720522528 0.15462067422021719 0 0.28927284104244272 0.15232719603099409 0 0.28217560686238119 0.13077727497601041 0 0.28927284104244272 0.15232719603099409 0 0.29043007616544159 0.13979351236279541 0 0.28217560686238119 0.13077727497601041 0 0.28927284104244272 0.15232719603099409 0 0.29105502739941269 0.15872309364358611 0 0.28286280720522528 0.15462067422021719 0 0.28927284104244272 0.15232719603099409 0 0.29832766751046552 0.15102543438515451 0 0.28927284104244272 0.15232719603099409 0 0.29548460946057048 0.14482617762970551 0 0.29583873198796862 0.1567140306196545 0 0.29832766751046552 0.15102543438515451 0 0.28927284104244272 0.15232719603099409 0 0.29583873198796862 0.1567140306196545 0 0.29105502739941269 0.15872309364358611 0 0.28927284104244272 0.15232719603099409 0 0.29043007616544159 0.13979351236279541 0 0.28927284104244272 0.15232719603099409 0 0.29548460946057048 0.14482617762970551 0 0.27012241302880269 0.26119489644702071 0 0.27381645479044048 0.23769138237860171 0 0.25557305062055952 0.24415471472296749 0 0.2494897866862458 0.22074184696127461 0 0.27381645479044048 0.23769138237860171 0 0.25557305062055952 0.24415471472296749 0 0.2494897866862458 0.22074184696127461 0 0.27381645479044048 0.23769138237860171 0 0.2494897866862458 0.22074184696127461 0 0.27381645479044048 0.23769138237860171 0 0.26536501251867489 0.21691384739778 0 0.27381645479044048 0.23769138237860171 0 0.27990058719712613 0.22041767604307419 0 0.26536501251867489 0.21691384739778 0 0.27990058719712613 0.22041767604307419 0 0.27174494838572061 0.20402001909807041 0 0.26536501251867489 0.21691384739778 0 0.27990058719712613 0.22041767604307419 0 0.27174494838572061 0.20402001909807041 0 0.29161661123759969 0.2063417256882607 0 0.27174494838572061 0.20402001909807041 0 0.26536501251867489 0.21691384739778 0 0.25187328553384158 0.20169831250787909 0 0.2494897866862458 0.22074184696127461 0 0.26536501251867489 0.21691384739778 0 0.25187328553384158 0.20169831250787909 0 0.27174494838572061 0.20402001909807041 0 0.25187328553384158 0.20169831250787909 0 0.26578832494382598 0.18972321521784691 0 0.24191774216627349 0.1846716171374552 0 0.25187328553384158 0.20169831250787909 0 0.26578832494382598 0.18972321521784691 0 0.27174494838572061 0.20402001909807041 0 0.25187328553384158 0.20169831250787909 0 0.26578832494382598 0.18972321521784691 0 0.28965890772137831 0.1947748132982394 0 0.27174494838572061 0.20402001909807041 0 0.26578832494382598 0.18972321521784691 0 0.28965890772137831 0.1947748132982394 0 0.28356750918766832 0.1835251327672198 0 0.26578832494382598 0.18972321521784691 0 0.28965890772137831 0.1947748132982394 0 0.27174494838572061 0.20402001909807041 0 0.28965890772137831 0.1947748132982394 0 0.29161661123759969 0.2063417256882607 0 0.28758237061434422 0.1825057834923762 0 0.28965890772137831 0.1947748132982394 0 0.29499266051261991 0.1959035656044813 0 0.28965890772137831 0.1947748132982394 0 0.29161661123759969 0.2063417256882607 0 0.28965890772137831 0.1947748132982394 0 0.29161661123759969 0.2063417256882607 0 0.29969609172115841 0.18723312101954709 0 0.29499266051261991 0.1959035656044813 0 0.29298250764237521 0.190104320853661 0 0.28758237061434422 0.1825057834923762 0 0.28965890772137831 0.1947748132982394 0 0.29298250764237521 0.190104320853661 0 0.29499266051261991 0.1959035656044813 0 0.28965890772137831 0.1947748132982394 0 0.29499266051261991 0.1959035656044813 0 0.28965890772137831 0.1947748132982394 0 0.29298250764237521 0.190104320853661 0 0.29969609172115841 0.18723312101954709 0 0.29499266051261991 0.1959035656044813 0 0.30998331856614192 0.18996935678911869 0 0.29499266051261991 0.1959035656044813 0 0.30998331856614192 0.18996935678911869 0 0.3049405371702732 0.19996431703700041 0 0.29499266051261991 0.1959035656044813 0 0.3049405371702732 0.19996431703700041 0 0.29161661123759969 0.2063417256882607 0 0.3049405371702732 0.19996431703700041 0 0.3112806343165968 0.20863917267659271 0 0.29161661123759969 0.2063417256882607 0 0.3112806343165968 0.20863917267659271 0 0.29161661123759969 0.2063417256882607 0 0.29591246962328699 0.2317234125347559 0 0.3112806343165968 0.20863917267659271 0 0.29161661123759969 0.2063417256882607 0 0.27174494838572061 0.20402001909807041 0 0.29161661123759969 0.2063417256882607 0 0.29161661123759969 0.2063417256882607 0 0.29591246962328699 0.2317234125347559 0 0.27381645479044048 0.23769138237860171 0 0.27990058719712613 0.22041767604307419 0 0.29591246962328699 0.2317234125347559 0 0.27990058719712613 0.22041767604307419 0 0.29161661123759969 0.2063417256882607 0 0.29591246962328699 0.2317234125347559 0 0.3112806343165968 0.20863917267659271 0 0.29591246962328699 0.2317234125347559 0 0.31872185537617981 0.23025085327613939 0 0.29814312289463551 0.25464091779592879 0 0.3186824449277415 0.25109412416725818 0 0.29591246962328699 0.2317234125347559 0 0.3186824449277415 0.25109412416725818 0 0.29591246962328699 0.2317234125347559 0 0.31872185537617981 0.23025085327613939 0 0.29814312289463551 0.25464091779592879 0 0.27381645479044048 0.23769138237860171 0 0.29591246962328699 0.2317234125347559 0 0.29814312289463551 0.25464091779592879 0 0.27381645479044048 0.23769138237860171 0 0.3186824449277415 0.25109412416725818 0 0.3402510013676765 0.24175262842410189 0 0.31872185537617981 0.23025085327613939 0 0.31872185537617981 0.23025085327613939 0 0.33486050643315862 0.22597004348645161 0 0.33094465739559398 0.2109366196649238 0 0.3402510013676765 0.24175262842410189 0 0.31872185537617981 0.23025085327613939 0 0.33486050643315862 0.22597004348645161 0 0.3402510013676765 0.24175262842410189 0 0.33486050643315862 0.22597004348645161 0 0.34952451159318432 0.22094007258064141 0 0.33486050643315862 0.22597004348645161 0 0.33094465739559398 0.2109366196649238 0 0.34952451159318432 0.22094007258064141 0 0.34265836949895317 0.20536672314793261 0 0.33094465739559398 0.2109366196649238 0 0.32271418257027767 0.19747971795317051 0 0.34265836949895317 0.20536672314793261 0 0.33094465739559398 0.2109366196649238 0 0.34952451159318432 0.22094007258064141 0 0.3112806343165968 0.20863917267659271 0 0.31872185537617981 0.23025085327613939 0 0.33094465739559398 0.2109366196649238 0 0.3112806343165968 0.20863917267659271 0 0.33094465739559398 0.2109366196649238 0 0.32271418257027767 0.19747971795317051 0 0.3112806343165968 0.20863917267659271 0 0.33094465739559398 0.2109366196649238 0 0.30998331856614192 0.18996935678911869 0 0.3049405371702732 0.19996431703700041 0 0.32271418257027767 0.19747971795317051 0 0.30998331856614192 0.18996935678911869 0 0.32271418257027767 0.19747971795317051 0 0.33006067456560551 0.18352056415028811 0 0.3049405371702732 0.19996431703700041 0 0.3112806343165968 0.20863917267659271 0 0.32271418257027767 0.19747971795317051 0 0.34265836949895317 0.20536672314793261 0 0.32271418257027767 0.19747971795317051 0 0.34404371684221419 0.19136637612161761 0 0.32271418257027767 0.19747971795317051 0 0.34404371684221419 0.19136637612161761 0 0.33006067456560551 0.18352056415028811 0 0.34404371684221419 0.19136637612161761 0 0.35704888202280161 0.18892546443811889 0 0.36174768407509078 0.20338637709033461 0 0.34265836949895317 0.20536672314793261 0 0.34404371684221419 0.19136637612161761 0 0.36174768407509078 0.20338637709033461 0 0.36174768407509078 0.20338637709033461 0 0.36742348264488278 0.18299809724396759 0 0.38646202518841899 0.20260322283037499 0 0.35704888202280161 0.18892546443811889 0 0.36174768407509078 0.20338637709033461 0 0.36742348264488278 0.18299809724396759 0 0.36174768407509078 0.20338637709033461 0 0.37047613328414752 0.22476802175718169 0 0.38646202518841899 0.20260322283037499 0 0.36174768407509078 0.20338637709033461 0 0.34952451159318432 0.22094007258064141 0 0.37047613328414752 0.22476802175718169 0 0.34265836949895317 0.20536672314793261 0 0.36174768407509078 0.20338637709033461 0 0.34952451159318432 0.22094007258064141 0 0.3402510013676765 0.24175262842410189 0 0.34952451159318432 0.22094007258064141 0 0.35719020444575039 0.23983652838906749 0 0.34952451159318432 0.22094007258064141 0 0.37047613328414752 0.22476802175718169 0 0.35719020444575039 0.23983652838906749 0 0.37440942699423402 0.25128919554484919 0 0.37047613328414752 0.22476802175718169 0 0.35719020444575039 0.23983652838906749 0 0.34622310684857832 0.26087879424917748 0 0.3402510013676765 0.24175262842410189 0 0.35719020444575039 0.23983652838906749 0 0.33893947860222512 0.15018379820625191 0 0.33339060467745751 0.13909609705684761 0 0.32762202368190502 0.15394353436190131 0 0.33893947860222512 0.15018379820625191 0 0.32762202368190502 0.15394353436190131 0 0.33704611686630548 0.158106342439543 0 0.33893947860222512 0.15018379820625191 0 0.33704611686630548 0.158106342439543 0 0.3425720003760177 0.15631936195461471 0 0.33893947860222512 0.15018379820625191 0 0.3425720003760177 0.15631936195461471 0 0.34735573419700583 0.1530262511841784 0 0.33893947860222512 0.15018379820625191 0 0.33339060467745751 0.13909609705684761 0 0.34565039181465901 0.14061120224042631 0 0.33795087908552118 0.12871229664387199 0 0.33339060467745751 0.13909609705684761 0 0.34565039181465901 0.14061120224042631 0 0.3236884144666296 0.12490078767378859 0 0.33795087908552118 0.12871229664387199 0 0.33339060467745751 0.13909609705684761 0 0.3236884144666296 0.12490078767378859 0 0.33339060467745751 0.13909609705684761 0 0.32048990749622791 0.1408711032438445 0 0.3236884144666296 0.12490078767378859 0 0.30653913579290692 0.12019764693746419 0 0.30823411288239688 0.13414457456988491 0 0.3236884144666296 0.12490078767378859 0 0.30823411288239688 0.13414457456988491 0 0.32048990749622791 0.1408711032438445 0 0.31113933386399822 0.1441249513471142 0 0.30823411288239688 0.13414457456988491 0 0.32048990749622791 0.1408711032438445 0 0.31113933386399822 0.1441249513471142 0 0.32048990749622791 0.1408711032438445 0 0.31742867115831769 0.15244751705938661 0 0.33339060467745751 0.13909609705684761 0 0.32048990749622791 0.1408711032438445 0 0.32762202368190502 0.15394353436190131 0 0.32048990749622791 0.1408711032438445 0 0.32762202368190502 0.15394353436190131 0 0.31742867115831769 0.15244751705938661 0 0.32476658743616121 0.1638424730568345 0 0.31402493064596548 0.175792175841024 0 0.33711978564850142 0.16992853045016651 0 0.31055769727031263 0.1607406406549223 0 0.31742867115831769 0.15244751705938661 0 0.32476658743616121 0.1638424730568345 0 0.31055769727031263 0.1607406406549223 0 0.32476658743616121 0.1638424730568345 0 0.31402493064596548 0.175792175841024 0 0.32762202368190502 0.15394353436190131 0 0.31742867115831769 0.15244751705938661 0 0.32476658743616121 0.1638424730568345 0 0.30998331856614192 0.18996935678911869 0 0.31402493064596548 0.175792175841024 0 0.33006067456560551 0.18352056415028811 0 0.31402493064596548 0.175792175841024 0 0.33006067456560551 0.18352056415028811 0 0.33711978564850142 0.16992853045016651 0 0.31402493064596548 0.175792175841024 0 0.33711978564850142 0.16992853045016651 0 0.33006067456560551 0.18352056415028811 0 0.33711978564850142 0.16992853045016651 0 0.34046749067758691 0.16907856818967201 0 0.33006067456560551 0.18352056415028811 0 0.34122006365162288 0.18075632436882849 0 0.34046749067758691 0.16907856818967201 0 0.34404371684221419 0.19136637612161761 0 0.33006067456560551 0.18352056415028811 0 0.34122006365162288 0.18075632436882849 0 0.32762202368190502 0.15394353436190131 0 0.32476658743616121 0.1638424730568345 0 0.33248830243124611 0.16191092150606229 0 0.32762202368190502 0.15394353436190131 0 0.33248830243124611 0.16191092150606229 0 0.33704611686630548 0.158106342439543 0 0.32476658743616121 0.1638424730568345 0 0.33248830243124611 0.16191092150606229 0 0.33711978564850142 0.16992853045016651 0 0.33711978564850142 0.16992853045016651 0 0.34046749067758691 0.16907856818967201 0 0.33825831359769221 0.16406018108170881 0 0.33248830243124611 0.16191092150606229 0 0.33711978564850142 0.16992853045016651 0 0.33825831359769221 0.16406018108170881 0 0.33711978564850142 0.16992853045016651 0 0.34046749067758691 0.16907856818967201 0 0.34046749067758691 0.16907856818967201 0 0.34183021409855863 0.16517985206403341 0 0.33825831359769221 0.16406018108170881 0 0.34046749067758691 0.16907856818967201 0 0.34183021409855863 0.16517985206403341 0 0.34534927235000179 0.16455043090627541 0 0.34183021409855863 0.16517985206403341 0 0.34378042973864698 0.1616736955221372 0 0.34534927235000179 0.16455043090627541 0 0.34183021409855863 0.16517985206403341 0 0.33825831359769221 0.16406018108170881 0 0.34378042973864698 0.1616736955221372 0 0.33825831359769221 0.16406018108170881 0 0.33704611686630548 0.158106342439543 0 0.34378042973864698 0.1616736955221372 0 0.33248830243124611 0.16191092150606229 0 0.33825831359769221 0.16406018108170881 0 0.33704611686630548 0.158106342439543 0 0.33704611686630548 0.158106342439543 0 0.3425720003760177 0.15631936195461471 0 0.34378042973864698 0.1616736955221372 0 0.3425720003760177 0.15631936195461471 0 0.34875649180098761 0.15846204532730879 0 0.34378042973864698 0.1616736955221372 0 0.34046749067758691 0.16907856818967201 0 0.35674251755827652 0.1666070984515797 0 0.35030837252108532 0.17905978901373659 0 0.34046749067758691 0.16907856818967201 0 0.35201335951193458 0.16452896741773421 0 0.36611180466096621 0.1625676304299922 0 0.34046749067758691 0.16907856818967201 0 0.35674251755827652 0.1666070984515797 0 0.36611180466096621 0.1625676304299922 0 0.34046749067758691 0.16907856818967201 0 0.35674251755827652 0.1666070984515797 0 0.34046749067758691 0.16907856818967201 0 0.36611180466096621 0.1625676304299922 0 0.34865486772328202 0.1622910713378003 0 0.35201335951193458 0.16452896741773421 0 0.35373557170745978 0.16051553554132361 0 0.34865486772328202 0.1622910713378003 0 0.34534927235000179 0.16455043090627541 0 0.35201335951193458 0.16452896741773421 0 0.34875649180098761 0.15846204532730879 0 0.34865486772328202 0.1622910713378003 0 0.35373557170745978 0.16051553554132361 0 0.34865486772328202 0.1622910713378003 0 0.34378042973864698 0.1616736955221372 0 0.34534927235000179 0.16455043090627541 0 0.34875649180098761 0.15846204532730879 0 0.34865486772328202 0.1622910713378003 0 0.34378042973864698 0.1616736955221372 0 0.34046749067758691 0.16907856818967201 0 0.34534927235000179 0.16455043090627541 0 0.35201335951193458 0.16452896741773421 0 0.35201335951193458 0.16452896741773421 0 0.35623427507454142 0.1628628325898166 0 0.36611180466096621 0.1625676304299922 0 0.35623427507454142 0.1628628325898166 0 0.35819967215487197 0.16180923974994929 0 0.35373557170745978 0.16051553554132361 0 0.35917841354171459 0.15818055601246669 0 0.35373557170745978 0.16051553554132361 0 0.35458787270255299 0.1556869093291349 0 0.35819967215487197 0.16180923974994929 0 0.35917841354171459 0.15818055601246669 0 0.35373557170745978 0.16051553554132361 0 0.34875649180098761 0.15846204532730879 0 0.35373557170745978 0.16051553554132361 0 0.35458787270255299 0.1556869093291349 0 0.35201335951193458 0.16452896741773421 0 0.35623427507454142 0.1628628325898166 0 0.35373557170745978 0.16051553554132361 0 0.34404371684221419 0.19136637612161761 0 0.35704888202280161 0.18892546443811889 0 0.35030837252108532 0.17905978901373659 0 0.34404371684221419 0.19136637612161761 0 0.34122006365162288 0.18075632436882849 0 0.35030837252108532 0.17905978901373659 0 0.34122006365162288 0.18075632436882849 0 0.34046749067758691 0.16907856818967201 0 0.35030837252108532 0.17905978901373659 0 0.35674251755827652 0.1666070984515797 0 0.35030837252108532 0.17905978901373659 0 0.35968123142653258 0.17675531898210139 0 0.35704888202280161 0.18892546443811889 0 0.35030837252108532 0.17905978901373659 0 0.35968123142653258 0.17675531898210139 0 0.36742348264488278 0.18299809724396759 0 0.37301754443896618 0.16413562871348761 0 0.37766021611628509 0.17471872629154389 0 0.36742348264488278 0.18299809724396759 0 0.36456301916003692 0.17158675082408489 0 0.37301754443896618 0.16413562871348761 0 0.36742348264488278 0.18299809724396759 0 0.37301754443896618 0.16413562871348761 0 0.35704888202280161 0.18892546443811889 0 0.35968123142653258 0.17675531898210139 0 0.36742348264488278 0.18299809724396759 0 0.35968123142653258 0.17675531898210139 0 0.36742348264488278 0.18299809724396759 0 0.36456301916003692 0.17158675082408489 0 0.35674251755827652 0.1666070984515797 0 0.37301754443896618 0.16413562871348761 0 0.35674251755827652 0.1666070984515797 0 0.36611180466096621 0.1625676304299922 0 0.37301754443896618 0.16413562871348761 0 0.35674251755827652 0.1666070984515797 0 0.36456301916003692 0.17158675082408489 0 0.37301754443896618 0.16413562871348761 0 0.35819967215487197 0.16180923974994929 0 0.36611180466096621 0.1625676304299922 0 0.36174045070933158 0.16058028824646789 0 0.35623427507454142 0.1628628325898166 0 0.35819967215487197 0.16180923974994929 0 0.36611180466096621 0.1625676304299922 0 0.36611180466096621 0.1625676304299922 0 0.36347191247977362 0.15976372679346351 0 0.36174045070933158 0.16058028824646789 0 0.36347191247977362 0.15976372679346351 0 0.36768848401597898 0.15404170324536351 0 0.36255334251704768 0.1561538329271438 0 0.35917841354171459 0.15818055601246669 0 0.36347191247977362 0.15976372679346351 0 0.36255334251704768 0.1561538329271438 0 0.35917841354171459 0.15818055601246669 0 0.36347191247977362 0.15976372679346351 0 0.36174045070933158 0.16058028824646789 0 0.35819967215487197 0.16180923974994929 0 0.35917841354171459 0.15818055601246669 0 0.36174045070933158 0.16058028824646789 0 0.35674251755827652 0.1666070984515797 0 0.35968123142653258 0.17675531898210139 0 0.36456301916003692 0.17158675082408489 0 0.36611180466096621 0.1625676304299922 0 0.36347191247977362 0.15976372679346351 0 0.37365899889902737 0.16197272543997529 0 0.37301754443896618 0.16413562871348761 0 0.37365899889902737 0.16197272543997529 0 0.36347191247977362 0.15976372679346351 0 0.37365899889902737 0.16197272543997529 0 0.36347191247977362 0.15976372679346351 0 0.37365899889902737 0.16197272543997529 0 0.36768848401597898 0.15404170324536351 0 0.36611180466096621 0.1625676304299922 0 0.37301754443896618 0.16413562871348761 0 0.37365899889902737 0.16197272543997529 0 0.36768848401597898 0.15404170324536351 0 0.36714161547385771 0.14726590423558761 0 0.37823394289851148 0.14654659315980759 0 0.37365899889902737 0.16197272543997529 0 0.36768848401597898 0.15404170324536351 0 0.37823394289851148 0.14654659315980759 0 0.36714161547385771 0.14726590423558761 0 0.36864572535598772 0.13815612964251259 0 0.37823394289851148 0.14654659315980759 0 0.36714161547385771 0.14726590423558761 0 0.36006926212925472 0.14525908499613069 0 0.36864572535598772 0.13815612964251259 0 0.36714161547385771 0.14726590423558761 0 0.36006926212925472 0.14525908499613069 0 0.36107066296955548 0.15232601013412389 0 0.36768848401597898 0.15404170324536351 0 0.36107066296955548 0.15232601013412389 0 0.36255334251704768 0.1561538329271438 0 0.36768848401597898 0.15404170324536351 0 0.36714161547385771 0.14726590423558761 0 0.36107066296955548 0.15232601013412389 0 0.35917841354171459 0.15818055601246669 0 0.36107066296955548 0.15232601013412389 0 0.36255334251704768 0.1561538329271438 0 0.35917841354171459 0.15818055601246669 0 0.36107066296955548 0.15232601013412389 0 0.35458787270255299 0.1556869093291349 0 0.35458787270255299 0.1556869093291349 0 0.35395702585980932 0.14829218017525039 0 0.34735573419700583 0.1530262511841784 0 0.36107066296955548 0.15232601013412389 0 0.35458787270255299 0.1556869093291349 0 0.35395702585980932 0.14829218017525039 0 0.36006926212925472 0.14525908499613069 0 0.36107066296955548 0.15232601013412389 0 0.35395702585980932 0.14829218017525039 0 0.36006926212925472 0.14525908499613069 0 0.35395702585980932 0.14829218017525039 0 0.35633761434778433 0.13795219387278851 0 0.35395702585980932 0.14829218017525039 0 0.34565039181465901 0.14061120224042631 0 0.35633761434778433 0.13795219387278851 0 0.35395702585980932 0.14829218017525039 0 0.34735573419700583 0.1530262511841784 0 0.34565039181465901 0.14061120224042631 0 0.33893947860222512 0.15018379820625191 0 0.34735573419700583 0.1530262511841784 0 0.34565039181465901 0.14061120224042631 0 0.3425720003760177 0.15631936195461471 0 0.34875649180098761 0.15846204532730879 0 0.34735573419700583 0.1530262511841784 0 0.34875649180098761 0.15846204532730879 0 0.35458787270255299 0.1556869093291349 0 0.34735573419700583 0.1530262511841784 0 0.33795087908552118 0.12871229664387199 0 0.35013172691989519 0.12761961379250769 0 0.34565039181465901 0.14061120224042631 0 0.35013172691989519 0.12761961379250769 0 0.34565039181465901 0.14061120224042631 0 0.35633761434778433 0.13795219387278851 0 0.35013172691989519 0.12761961379250769 0 0.35633761434778433 0.13795219387278851 0 0.36083380916922969 0.13038030376578519 0 0.3632286595399925 0.11779127274187801 0 0.35013172691989519 0.12761961379250769 0 0.36083380916922969 0.13038030376578519 0 0.3632286595399925 0.11779127274187801 0 0.36083380916922969 0.13038030376578519 0 0.37229866834424741 0.12831022227002201 0 0.36006926212925472 0.14525908499613069 0 0.35633761434778433 0.13795219387278851 0 0.36864572535598772 0.13815612964251259 0 0.35633761434778433 0.13795219387278851 0 0.36083380916922969 0.13038030376578519 0 0.36864572535598772 0.13815612964251259 0 0.36864572535598772 0.13815612964251259 0 0.37229866834424741 0.12831022227002201 0 0.38275534518857762 0.13110458195952071 0 0.36083380916922969 0.13038030376578519 0 0.36864572535598772 0.13815612964251259 0 0.37229866834424741 0.12831022227002201 0 0.37229866834424741 0.12831022227002201 0 0.38275534518857762 0.13110458195952071 0 0.38493110345041598 0.1239646151974705 0 0.36864572535598772 0.13815612964251259 0 0.38275534518857762 0.13110458195952071 0 0.37823394289851148 0.14654659315980759 0 0.38275534518857762 0.13110458195952071 0 0.37823394289851148 0.14654659315980759 0 0.38275534518857762 0.13110458195952071 0 0.39300619256685121 0.13894941848069881 0 0.37823394289851148 0.14654659315980759 0 0.38275534518857762 0.13110458195952071 0 0.38960210610022522 0.130969262748169 0 0.39300619256685121 0.13894941848069881 0 0.38275534518857762 0.13110458195952071 0 0.38493110345041598 0.1239646151974705 0 0.39132737582231558 0.124927369394322 0 0.38275534518857762 0.13110458195952071 0 0.38960210610022522 0.130969262748169 0 0.39132737582231558 0.124927369394322 0 0.38275534518857762 0.13110458195952071 0 0.39132737582231558 0.124927369394322 0 0.38275534518857762 0.13110458195952071 0 0.38493110345041598 0.1239646151974705 0 0.39300619256685121 0.13894941848069881 0 0.40563750622669731 0.1416086001674704 0 0.39132737582231558 0.124927369394322 0 0.40563750622669731 0.1416086001674704 0 0.40961721455200512 0.13098667309822559 0 0.39132737582231558 0.124927369394322 0 0.38960210610022522 0.130969262748169 0 0.39300619256685121 0.13894941848069881 0 0.39132737582231558 0.124927369394322 0 0.40961721455200512 0.13098667309822559 0 0.39132737582231558 0.124927369394322 0 0.40563750622669731 0.1416086001674704 0 0.39132737582231558 0.124927369394322 0 0.40563750622669731 0.1416086001674704 0 0.39105140934362642 0.15009283447335461 0 0.39911830016041638 0.16017205750836469 0 0.39300619256685121 0.13894941848069881 0 0.40563750622669731 0.1416086001674704 0 0.39105140934362642 0.15009283447335461 0 0.39105140934362642 0.15009283447335461 0 0.37823394289851148 0.14654659315980759 0 0.37926110486565562 0.16318750305043159 0 0.39300619256685121 0.13894941848069881 0 0.39105140934362642 0.15009283447335461 0 0.37823394289851148 0.14654659315980759 0 0.37365899889902737 0.16197272543997529 0 0.37823394289851148 0.14654659315980759 0 0.37365899889902737 0.16197272543997529 0 0.37823394289851148 0.14654659315980759 0 0.37926110486565562 0.16318750305043159 0 0.37926110486565562 0.16318750305043159 0 0.39911830016041638 0.16017205750836469 0 0.39105140934362642 0.15009283447335461 0 0.37926110486565562 0.16318750305043159 0 0.39911830016041638 0.16017205750836469 0 0.37301754443896618 0.16413562871348761 0 0.37926110486565562 0.16318750305043159 0 0.37301754443896618 0.16413562871348761 0 0.37365899889902737 0.16197272543997529 0 0.37926110486565562 0.16318750305043159 0 0.37365899889902737 0.16197272543997529 0 0.37926110486565562 0.16318750305043159 0 0.37301754443896618 0.16413562871348761 0 0.37926110486565562 0.16318750305043159 0 0.37766021611628509 0.17471872629154389 0 0.36742348264488278 0.18299809724396759 0 0.38813489372934079 0.18193197016125259 0 0.37766021611628509 0.17471872629154389 0 0.37926110486565562 0.16318750305043159 0 0.38813489372934079 0.18193197016125259 0 0.37766021611628509 0.17471872629154389 0 0.38813489372934079 0.18193197016125259 0 0.4068343075673595 0.1691665597641295 0 0.40357066740720832 0.19176764302527979 0 0.37926110486565562 0.16318750305043159 0 0.39911830016041638 0.16017205750836469 0 0.4068343075673595 0.1691665597641295 0 0.37926110486565562 0.16318750305043159 0 0.38813489372934079 0.18193197016125259 0 0.4068343075673595 0.1691665597641295 0 0.37926110486565562 0.16318750305043159 0 0.4068343075673595 0.1691665597641295 0 0.39911830016041638 0.16017205750836469 0 0.4068343075673595 0.1691665597641295 0 0.41897549545517709 0.1571566119662961 0 0.39911830016041638 0.16017205750836469 0 0.41897549545517709 0.1571566119662961 0 0.4068343075673595 0.1691665597641295 0 0.41897549545517709 0.1571566119662961 0 0.42444834367213657 0.16669940542108591 0 0.4068343075673595 0.1691665597641295 0 0.43440751026906321 0.17514561647782781 0 0.4068343075673595 0.1691665597641295 0 0.43440751026906321 0.17514561647782781 0 0.42435510190050679 0.19319508608961811 0 0.4068343075673595 0.1691665597641295 0 0.40357066740720832 0.19176764302527979 0 0.42435510190050679 0.19319508608961811 0 0.43440751026906321 0.17514561647782781 0 0.42435510190050679 0.19319508608961811 0 0.45080563270179641 0.1942608066834339 0 0.4068343075673595 0.1691665597641295 0 0.43440751026906321 0.17514561647782781 0 0.42444834367213657 0.16669940542108591 0 0.41897549545517709 0.1571566119662961 0 0.42603132187306259 0.16538154531393101 0 0.43968919493574321 0.15401110063747081 0 0.41897549545517709 0.1571566119662961 0 0.42444834367213657 0.16669940542108591 0 0.42603132187306259 0.16538154531393101 0 0.41897549545517709 0.1571566119662961 0 0.42603132187306259 0.16538154531393101 0 0.43440751026906321 0.17514561647782781 0 0.42444834367213657 0.16669940542108591 0 0.42603132187306259 0.16538154531393101 0 0.42444834367213657 0.16669940542108591 0 0.42603132187306259 0.16538154531393101 0 0.43440751026906321 0.17514561647782781 0 0.42603132187306259 0.16538154531393101 0 0.43689214926123798 0.164539322092458 0 0.43440751026906321 0.17514561647782781 0 0.42603132187306259 0.16538154531393101 0 0.42603132187306259 0.16538154531393101 0 0.43689214926123798 0.164539322092458 0 0.43968919493574321 0.15401110063747081 0 0.42603132187306259 0.16538154531393101 0 0.43968919493574321 0.15401110063747081 0 0.43652181386553268 0.13913973858499271 0 0.42150048752900421 0.14149546930631721 0 0.43968919493574321 0.15401110063747081 0 0.41897549545517709 0.1571566119662961 0 0.43968919493574321 0.15401110063747081 0 0.41897549545517709 0.1571566119662961 0 0.42150048752900421 0.14149546930631721 0 0.43968919493574321 0.15401110063747081 0 0.42150048752900421 0.14149546930631721 0 0.4348257589340665 0.1248255313734104 0 0.42151566122729489 0.12086824579757351 0 0.43652181386553268 0.13913973858499271 0 0.42150048752900421 0.14149546930631721 0 0.4348257589340665 0.1248255313734104 0 0.40961721455200512 0.13098667309822559 0 0.42150048752900421 0.14149546930631721 0 0.42151566122729489 0.12086824579757351 0 0.40563750622669731 0.1416086001674704 0 0.40961721455200512 0.13098667309822559 0 0.42150048752900421 0.14149546930631721 0 0.40563750622669731 0.1416086001674704 0 0.39911830016041638 0.16017205750836469 0 0.41897549545517709 0.1571566119662961 0 0.40563750622669731 0.1416086001674704 0 0.41897549545517709 0.1571566119662961 0 0.42150048752900421 0.14149546930631721 0 0.40563750622669731 0.1416086001674704 0 0.41897549545517709 0.1571566119662961 0 0.40311380924952389 0.25228307292560043 0 0.39409548245543258 0.22940414538599441 0 0.41894834244883361 0.2336813084744758 0 0.37440942699423402 0.25128919554484919 0 0.37047613328414752 0.22476802175718169 0 0.39409548245543258 0.22940414538599441 0 0.37440942699423402 0.25128919554484919 0 0.40311380924952389 0.25228307292560043 0 0.39409548245543258 0.22940414538599441 0 0.37047613328414752 0.22476802175718169 0 0.39409548245543258 0.22940414538599441 0 0.38646202518841899 0.20260322283037499 0 0.39409548245543258 0.22940414538599441 0 0.38646202518841899 0.20260322283037499 0 0.41185355563522219 0.21270754037338191 0 0.36742348264488278 0.18299809724396759 0 0.38813489372934079 0.18193197016125259 0 0.38646202518841899 0.20260322283037499 0 0.38813489372934079 0.18193197016125259 0 0.38646202518841899 0.20260322283037499 0 0.40357066740720832 0.19176764302527979 0 0.38646202518841899 0.20260322283037499 0 0.40357066740720832 0.19176764302527979 0 0.41185355563522219 0.21270754037338191 0 0.40357066740720832 0.19176764302527979 0 0.42435510190050679 0.19319508608961811 0 0.41185355563522219 0.21270754037338191 0 0.42435510190050679 0.19319508608961811 0 0.41185355563522219 0.21270754037338191 0 0.43865893782239113 0.21612235021365681 0 0.39409548245543258 0.22940414538599441 0 0.41185355563522219 0.21270754037338191 0 0.41894834244883361 0.2336813084744758 0 0.41185355563522219 0.21270754037338191 0 0.41894834244883361 0.2336813084744758 0 0.43865893782239113 0.21612235021365681 0 0.41894834244883361 0.2336813084744758 0 0.4408279669982188 0.23889168089769919 0 0.43865893782239113 0.21612235021365681 0 0.42514030253221319 0.25267906105052262 0 0.41894834244883361 0.2336813084744758 0 0.4408279669982188 0.23889168089769919 0 0.40311380924952389 0.25228307292560043 0 0.42514030253221319 0.25267906105052262 0 0.41894834244883361 0.2336813084744758 0 0.46430198317330512 0.24649803851936819 0 0.4408279669982188 0.23889168089769919 0 0.45709515499022108 0.22841768577020499 0 0.46430198317330512 0.24649803851936819 0 0.45709515499022108 0.22841768577020499 0 0.48360187756726453 0.23249118709464481 0 0.44672249956687787 0.26431632251250292 0 0.46430198317330512 0.24649803851936819 0 0.4408279669982188 0.23889168089769919 0 0.4408279669982188 0.23889168089769919 0 0.45709515499022108 0.22841768577020499 0 0.43865893782239113 0.21612235021365681 0 0.45709515499022108 0.22841768577020499 0 0.46720375513453039 0.2133759968890393 0 0.43865893782239113 0.21612235021365681 0 0.46720375513453039 0.2133759968890393 0 0.45080563270179641 0.1942608066834339 0 0.46720375513453039 0.2133759968890393 0 0.43865893782239113 0.21612235021365681 0 0.45080563270179641 0.1942608066834339 0 0.42435510190050679 0.19319508608961811 0 0.43865893782239113 0.21612235021365681 0 0.45080563270179641 0.1942608066834339 0 0.46720375513453039 0.2133759968890393 0 0.46189685467679592 0.190787769659369 0 0.4749805430961701 0.1965451938436229 0 0.45080563270179641 0.1942608066834339 0 0.46189685467679592 0.190787769659369 0 0.45378610352448212 0.18246353354940259 0 0.46720375513453039 0.2133759968890393 0 0.45080563270179641 0.1942608066834339 0 0.46189685467679592 0.190787769659369 0 0.4749805430961701 0.1965451938436229 0 0.48536768017215498 0.20688839534488951 0 0.48582032660968832 0.1862941271545544 0 0.46189685467679592 0.190787769659369 0 0.4749805430961701 0.1965451938436229 0 0.47049834651850098 0.1829716626254087 0 0.4749805430961701 0.1965451938436229 0 0.47049834651850098 0.1829716626254087 0 0.48582032660968832 0.1862941271545544 0 0.5 0.1924842998496881 0 0.48536768017215498 0.20688839534488951 0 0.48582032660968832 0.1862941271545544 0 0.5 0.1924842998496881 0 0.48536768017215498 0.20688839534488951 0 0.5 0.222045338574969 0 0.46720375513453039 0.2133759968890393 0 0.4749805430961701 0.1965451938436229 0 0.48536768017215498 0.20688839534488951 0 0.46720375513453039 0.2133759968890393 0 0.48536768017215498 0.20688839534488951 0 0.48360187756726453 0.23249118709464481 0 0.46720375513453039 0.2133759968890393 0 0.48360187756726453 0.23249118709464481 0 0.45709515499022108 0.22841768577020499 0 0.46720375513453039 0.2133759968890393 0 0.48360187756726453 0.23249118709464481 0 0.48536768017215498 0.20688839534488951 0 0.48360187756726453 0.23249118709464481 0 0.5 0.222045338574969 0 0.49999999999999911 0.25160637730024987 0 0.48360187756726453 0.23249118709464481 0 0.49999999999999911 0.25160637730024987 0 0.48360187756726453 0.23249118709464481 0 0.48071748932874381 0.24888090484851699 0 0.49999999999999911 0.25160637730024987 0 0.48360187756726453 0.23249118709464481 0 0.5 0.222045338574969 0 0.46430198317330512 0.24649803851936819 0 0.48360187756726453 0.23249118709464481 0 0.48071748932874381 0.24888090484851699 0 0.43968919493574321 0.15401110063747081 0 0.46997829016543319 0.1496853842981688 0 0.45562841770348023 0.14074138800836131 0 0.43968919493574321 0.15401110063747081 0 0.46997829016543319 0.1496853842981688 0 0.43968919493574321 0.15401110063747081 0 0.4659531986978615 0.15783345298089141 0 0.46997829016543319 0.1496853842981688 0 0.4659531986978615 0.15783345298089141 0 0.46997829016543319 0.1496853842981688 0 0.45562841770348023 0.14074138800836131 0 0.46779166832612512 0.13862561093981601 0 0.46997829016543319 0.1496853842981688 0 0.45562841770348023 0.14074138800836131 0 0.47156764047121852 0.12747167537925311 0 0.45562841770348023 0.14074138800836131 0 0.46779166832612512 0.13862561093981601 0 0.47156764047121852 0.12747167537925311 0 0.45562841770348023 0.14074138800836131 0 0.47156764047121852 0.12747167537925311 0 0.45154112520196199 0.12483420048649189 0 0.43652181386553268 0.13913973858499271 0 0.45562841770348023 0.14074138800836131 0 0.45154112520196199 0.12483420048649189 0 0.43652181386553268 0.13913973858499271 0 0.45154112520196199 0.12483420048649189 0 0.4348257589340665 0.1248255313734104 0 0.43652181386553268 0.13913973858499271 0 0.45562841770348023 0.14074138800836131 0 0.43968919493574321 0.15401110063747081 0 0.45562841770348023 0.14074138800836131 0 0.43968919493574321 0.15401110063747081 0 0.43689214926123798 0.164539322092458 0 0.43968919493574321 0.15401110063747081 0 0.45025261624425039 0.16481337045794511 0 0.43968919493574321 0.15401110063747081 0 0.45025261624425039 0.16481337045794511 0 0.4659531986978615 0.15783345298089141 0 0.43440751026906321 0.17514561647782781 0 0.43689214926123798 0.164539322092458 0 0.45025261624425039 0.16481337045794511 0 0.43440751026906321 0.17514561647782781 0 0.45080563270179641 0.1942608066834339 0 0.43440751026906321 0.17514561647782781 0 0.45517636642731329 0.17964919809626409 0 0.43440751026906321 0.17514561647782781 0 0.45378610352448212 0.18246353354940259 0 0.45517636642731329 0.17964919809626409 0 0.43440751026906321 0.17514561647782781 0 0.45025261624425039 0.16481337045794511 0 0.45517636642731329 0.17964919809626409 0 0.43440751026906321 0.17514561647782781 0 0.45080563270179641 0.1942608066834339 0 0.45378610352448212 0.18246353354940259 0 0.45517636642731329 0.17964919809626409 0 0.4659531986978615 0.15783345298089141 0 0.47049834651850098 0.1829716626254087 0 0.46189685467679592 0.190787769659369 0 0.45378610352448212 0.18246353354940259 0 0.45517636642731329 0.17964919809626409 0 0.45378610352448212 0.18246353354940259 0 0.45517636642731329 0.17964919809626409 0 0.46189685467679592 0.190787769659369 0 0.45517636642731329 0.17964919809626409 0 0.47049834651850098 0.1829716626254087 0 0.45517636642731329 0.17964919809626409 0 0.47049834651850098 0.1829716626254087 0 0.45025261624425039 0.16481337045794511 0 0.45517636642731329 0.17964919809626409 0 0.4659531986978615 0.15783345298089141 0 0.45517636642731329 0.17964919809626409 0 0.4659531986978615 0.15783345298089141 0 0.4659531986978615 0.15783345298089141 0 0.48177635824546328 0.1679525259333938 0 0.47049834651850098 0.1829716626254087 0 0.4659531986978615 0.15783345298089141 0 0.48177635824546328 0.1679525259333938 0 0.48489191758234701 0.15161783406066739 0 0.48177635824546328 0.1679525259333938 0 0.47049834651850098 0.1829716626254087 0 0.48582032660968832 0.1862941271545544 0 0.47049834651850098 0.1829716626254087 0 0.48582032660968832 0.1862941271545544 0 0.48177635824546328 0.1679525259333938 0 0.48582032660968832 0.1862941271545544 0 0.5 0.16292326112440711 0 0.5 0.1924842998496881 0 0.48582032660968832 0.1862941271545544 0 0.5 0.16292326112440711 0 0.48177635824546328 0.1679525259333938 0 0.5 0.16292326112440711 0 0.48489191758234701 0.15161783406066739 0 0.5 0.16292326112440711 0 0.48489191758234701 0.15161783406066739 0 0.5 0.13336222239912629 0 0.4659531986978615 0.15783345298089141 0 0.48489191758234701 0.15161783406066739 0 0.46997829016543319 0.1496853842981688 0 0.48489191758234701 0.15161783406066739 0 0.46997829016543319 0.1496853842981688 0 0.4767300309684096 0.13601770786551851 0 0.46779166832612512 0.13862561093981601 0 0.46997829016543319 0.1496853842981688 0 0.4767300309684096 0.13601770786551851 0 0.46997829016543319 0.1496853842981688 0 0.4767300309684096 0.13601770786551851 0 0.4767300309684096 0.13601770786551851 0 0.48750686323895709 0.11420196275014539 0 0.47156764047121852 0.12747167537925311 0 0.4767300309684096 0.13601770786551851 0 0.48750686323895709 0.11420196275014539 0 0.46779166832612512 0.13862561093981601 0 0.47156764047121852 0.12747167537925311 0 0.4767300309684096 0.13601770786551851 0 0.4767300309684096 0.13601770786551851 0 0.5 0.13336222239912629 0 0.48750686323895709 0.11420196275014539 0 0.48489191758234701 0.15161783406066739 0 0.4767300309684096 0.13601770786551851 0 0.5 0.13336222239912629 0 0.5 0.13336222239912629 0 0.48750686323895709 0.11420196275014539 0 0.49999999999999922 0.1038011836738454 0 0.48750686323895709 0.11420196275014539 0 0.49999999999999922 0.1038011836738454 0 0.48750686323895709 0.11420196275014539 0 0.49687128782825363 0.095245381181133015 0 0.48750686323895709 0.11420196275014539 0 0.49687128782825363 0.095245381181133015 0 0.4806095821047362 0.098189419392110996 0 0.48750686323895709 0.11420196275014539 0 0.49999999999999922 0.1038011836738454 0 0.49687128782825363 0.095245381181133015 0 0.49999999999999922 0.1038011836738454 0 0.49687128782825363 0.095245381181133015 0 0.49999999999999989 0.091989083702918695 0 0.4806095821047362 0.098189419392110996 0 0.47026551807965739 0.1107553226984487 0 0.46430038451121158 0.088391607782799822 0 0.48750686323895709 0.11420196275014539 0 0.4806095821047362 0.098189419392110996 0 0.47026551807965739 0.1107553226984487 0 0.47156764047121852 0.12747167537925311 0 0.48750686323895709 0.11420196275014539 0 0.47156764047121852 0.12747167537925311 0 0.48750686323895709 0.11420196275014539 0 0.47026551807965739 0.1107553226984487 0 0.48520028902417739 0.065321454551364511 0 0.5 0.071460444506456278 0 0.48213957426861098 0.081048840469617411 0 0.48520028902417739 0.065321454551364511 0 0.5 0.071460444506456278 0 0.4999999999999995 0.050931805309993888 0 0.49687128782825363 0.095245381181133015 0 0.49999999999999989 0.091989083702918695 0 0.48213957426861098 0.081048840469617411 0 0.5 0.071460444506456278 0 0.49999999999999989 0.091989083702918695 0 0.48213957426861098 0.081048840469617411 0 0.49687128782825363 0.095245381181133015 0 0.4806095821047362 0.098189419392110996 0 0.48213957426861098 0.081048840469617411 0 0.49999999999999989 0.091989083702918695 0 0.48213957426861098 0.081048840469617411 0 0.48213957426861098 0.081048840469617411 0 0.46427914853722219 0.0701085972363161 0 0.46430038451121158 0.088391607782799822 0 0.4806095821047362 0.098189419392110996 0 0.48213957426861098 0.081048840469617411 0 0.46430038451121158 0.088391607782799822 0 0.48520028902417739 0.065321454551364511 0 0.48213957426861098 0.081048840469617411 0 0.46427914853722219 0.0701085972363161 0 0.48520028902417739 0.065321454551364511 0 0.46427914853722219 0.0701085972363161 0 0.47412138864294873 0.053746628030876029 0 0.48213957426861098 0.081048840469617411 0 0.46427914853722219 0.0701085972363161 0 0.46427914853722219 0.0701085972363161 0 0.46430038451121158 0.088391607782799822 0 0.44764870449929067 0.072256534640769698 0 0.46427914853722219 0.0701085972363161 0 0.44641872280583322 0.059168354003014803 0 0.46430038451121158 0.088391607782799822 0 0.44627544918484618 0.085330458964173905 0 0.4547532451911942 0.1039321336282439 0 0.46430038451121158 0.088391607782799822 0 0.44627544918484618 0.085330458964173905 0 0.44764870449929067 0.072256534640769698 0 0.46427914853722219 0.0701085972363161 0 0.44764870449929067 0.072256534640769698 0 0.44641872280583322 0.059168354003014803 0 0.44764870449929067 0.072256534640769698 0 0.43381499357674508 0.075691291952488041 0 0.44641872280583322 0.059168354003014803 0 0.44627544918484618 0.085330458964173905 0 0.44764870449929067 0.072256534640769698 0 0.43381499357674508 0.075691291952488041 0 0.47026551807965739 0.1107553226984487 0 0.4547532451911942 0.1039321336282439 0 0.45154112520196199 0.12483420048649189 0 0.47156764047121852 0.12747167537925311 0 0.47026551807965739 0.1107553226984487 0 0.45154112520196199 0.12483420048649189 0 0.47026551807965739 0.1107553226984487 0 0.46430038451121158 0.088391607782799822 0 0.4547532451911942 0.1039321336282439 0 0.44627544918484618 0.085330458964173905 0 0.4394784440783388 0.1097199998929083 0 0.42795942473066911 0.098529429107556188 0 0.44627544918484618 0.085330458964173905 0 0.4547532451911942 0.1039321336282439 0 0.4394784440783388 0.1097199998929083 0 0.45154112520196199 0.12483420048649189 0 0.4394784440783388 0.1097199998929083 0 0.4348257589340665 0.1248255313734104 0 0.4547532451911942 0.1039321336282439 0 0.45154112520196199 0.12483420048649189 0 0.4394784440783388 0.1097199998929083 0 0.4394784440783388 0.1097199998929083 0 0.4348257589340665 0.1248255313734104 0 0.42151566122729489 0.12086824579757351 0 0.4394784440783388 0.1097199998929083 0 0.42151566122729489 0.12086824579757351 0 0.42795942473066911 0.098529429107556188 0 0.40964340027649182 0.1117283992509384 0 0.42151566122729489 0.12086824579757351 0 0.42795942473066911 0.098529429107556188 0 0.40961721455200512 0.13098667309822559 0 0.40964340027649182 0.1117283992509384 0 0.42151566122729489 0.12086824579757351 0 0.40964340027649182 0.1117283992509384 0 0.42795942473066911 0.098529429107556188 0 0.40964340027649182 0.1117283992509384 0 0.42795942473066911 0.098529429107556188 0 0.41057215090909183 0.087902896460790927 0 0.44627544918484618 0.085330458964173905 0 0.42795942473066911 0.098529429107556188 0 0.44627544918484618 0.085330458964173905 0 0.42795942473066911 0.098529429107556188 0 0.43381499357674508 0.075691291952488041 0 0.42795942473066911 0.098529429107556188 0 0.43381499357674508 0.075691291952488041 0 0.41057215090909183 0.087902896460790927 0 0.43381499357674508 0.075691291952488041 0 0.41057215090909183 0.087902896460790927 0 0.42236416592884718 0.059376273472640378 0 0.43381499357674508 0.075691291952488041 0 0.42236416592884718 0.059376273472640378 0 0.44641872280583322 0.059168354003014803 0 0.41057215090909183 0.087902896460790927 0 0.39793126971424231 0.071920136697316006 0 0.42236416592884718 0.059376273472640378 0 0.41057215090909183 0.087902896460790927 0 0.39793126971424231 0.071920136697316006 0 0.38539665697233721 0.082812465397042734 0 0.41057215090909183 0.087902896460790927 0 0.38539665697233721 0.082812465397042734 0 0.3927147990080761 0.097718978679402518 0 0.37165695911841778 0.073486156160510657 0 0.39793126971424231 0.071920136697316006 0 0.38539665697233721 0.082812465397042734 0 0.37165695911841778 0.073486156160510657 0 0.39793126971424231 0.071920136697316006 0 0.39036100066247459 0.056803847911578727 0 0.36721757227365021 0.096822720063700796 0 0.38539665697233721 0.082812465397042734 0 0.3927147990080761 0.097718978679402518 0 0.38636212157916028 0.1191394031398727 0 0.3927147990080761 0.097718978679402518 0 0.36721757227365021 0.096822720063700796 0 0.38636212157916028 0.1191394031398727 0 0.36721757227365021 0.096822720063700796 0 0.38636212157916028 0.1191394031398727 0 0.3927147990080761 0.097718978679402518 0 0.3632286595399925 0.11779127274187801 0 0.38493110345041598 0.1239646151974705 0 0.38636212157916028 0.1191394031398727 0 0.38493110345041598 0.1239646151974705 0 0.38636212157916028 0.1191394031398727 0 0.38493110345041598 0.1239646151974705 0 0.38636212157916028 0.1191394031398727 0 0.39132737582231558 0.124927369394322 0 0.38636212157916028 0.1191394031398727 0 0.39132737582231558 0.124927369394322 0 0.38493110345041598 0.1239646151974705 0 0.39132737582231558 0.124927369394322 0 0.40964340027649182 0.1117283992509384 0 0.38636212157916028 0.1191394031398727 0 0.3927147990080761 0.097718978679402518 0 0.40964340027649182 0.1117283992509384 0 0.39132737582231558 0.124927369394322 0 0.40964340027649182 0.1117283992509384 0 0.38636212157916028 0.1191394031398727 0 0.39132737582231558 0.124927369394322 0 0.40961721455200512 0.13098667309822559 0 0.40964340027649182 0.1117283992509384 0 0.39132737582231558 0.124927369394322 0 0.40964340027649182 0.1117283992509384 0 0.41057215090909183 0.087902896460790927 0 0.3927147990080761 0.097718978679402518 0 0.40083607112589142 0.02305875653356795 0 0.39680215797364832 0.013484664388694331 0 0.38995439473729437 0.022646372704966649 0 0.39680215797364832 0.013484664388694331 0 0.38682299245285212 0.01293500483058151 0 0.38995439473729437 0.022646372704966649 0 0.40083607112589142 0.02305875653356795 0 0.38995439473729437 0.022646372704966649 0 0.39255715600544078 0.035582616453704627 0 0.40083607112589142 0.02305875653356795 0 0.39255715600544078 0.035582616453704627 0 0.4079198993693951 0.033774647908076418 0 0.40083607112589142 0.02305875653356795 0 0.39680215797364832 0.013484664388694331 0 0.40746159413529492 0.013199648435291599 0 0.40391773723439639 0.0041240766756458578 0 0.39680215797364832 0.013484664388694331 0 0.40746159413529492 0.013199648435291599 0 0.40391773723439639 0.0041240766756458578 0 0.39182015815616072 0.0049441271521124272 0 0.39680215797364832 0.013484664388694331 0 0.40391773723439639 0.0041240766756458578 0 0.39182015815616072 0.0049441271521124272 0 0.39464164433930171 -0.0080086334589892887 0 0.39182015815616072 0.0049441271521124272 0 0.39680215797364832 0.013484664388694331 0 0.38682299245285212 0.01293500483058151 0 0.37240517643244542 0.010270501034299721 0 0.39182015815616072 0.0049441271521124272 0 0.39464164433930171 -0.0080086334589892887 0 0.37240517643244542 0.010270501034299721 0 0.38202827712197018 0.00076162854680449782 0 0.39464164433930171 -0.0080086334589892887 0 0.37240517643244542 0.010270501034299721 0 0.39464164433930171 -0.0080086334589892887 0 0.37240517643244542 0.010270501034299721 0 0.39182015815616072 0.0049441271521124272 0 0.38682299245285212 0.01293500483058151 0 0.37240517643244542 0.010270501034299721 0 0.38682299245285212 0.01293500483058151 0 0.37799980810337758 0.020485080784420021 0 0.38682299245285212 0.01293500483058151 0 0.37799980810337758 0.020485080784420021 0 0.38995439473729437 0.022646372704966649 0 0.38995439473729437 0.022646372704966649 0 0.37793054046380248 0.03148795263766261 0 0.39255715600544078 0.035582616453704627 0 0.37799980810337758 0.020485080784420021 0 0.38995439473729437 0.022646372704966649 0 0.37793054046380248 0.03148795263766261 0 0.37793054046380248 0.03148795263766261 0 0.37609634596318392 0.050149592257320248 0 0.39255715600544078 0.035582616453704627 0 0.39036100066247459 0.056803847911578727 0 0.37609634596318392 0.050149592257320248 0 0.39255715600544078 0.035582616453704627 0 0.37165695911841778 0.073486156160510657 0 0.39036100066247459 0.056803847911578727 0 0.37609634596318392 0.050149592257320248 0 0.39036100066247459 0.056803847911578727 0 0.40435323353647817 0.049701279060056169 0 0.39255715600544078 0.035582616453704627 0 0.39793126971424231 0.071920136697316006 0 0.39036100066247459 0.056803847911578727 0 0.40435323353647817 0.049701279060056169 0 0.40435323353647817 0.049701279060056169 0 0.39255715600544078 0.035582616453704627 0 0.4079198993693951 0.033774647908076418 0 0.40435323353647817 0.049701279060056169 0 0.4079198993693951 0.033774647908076418 0 0.41865531287690871 0.042454826422632458 0 0.4079198993693951 0.033774647908076418 0 0.41865531287690871 0.042454826422632458 0 0.4193497820635948 0.03041829300698316 0 0.41865531287690871 0.042454826422632458 0 0.42682117859832169 0.036352129640023337 0 0.4193497820635948 0.03041829300698316 0 0.39793126971424231 0.071920136697316006 0 0.40435323353647817 0.049701279060056169 0 0.42236416592884718 0.059376273472640378 0 0.40435323353647817 0.049701279060056169 0 0.41865531287690871 0.042454826422632458 0 0.42236416592884718 0.059376273472640378 0 0.42236416592884718 0.059376273472640378 0 0.44824277728589801 0.056561450751758197 0 0.42236416592884718 0.059376273472640378 0 0.44824277728589801 0.056561450751758197 0 0.43848369184256752 0.050950849774820423 0 0.41865531287690871 0.042454826422632458 0 0.42236416592884718 0.059376273472640378 0 0.43232556506132203 0.045000496715382532 0 0.42236416592884718 0.059376273472640378 0 0.43232556506132203 0.045000496715382532 0 0.43848369184256752 0.050950849774820423 0 0.43232556506132203 0.045000496715382532 0 0.43848369184256752 0.050950849774820423 0 0.44156641883354059 0.045949676070563328 0 0.42682117859832169 0.036352129640023337 0 0.4303402840221241 0.02788062228529611 0 0.4193497820635948 0.03041829300698316 0 0.41865531287690871 0.042454826422632458 0 0.42682117859832169 0.036352129640023337 0 0.43232556506132203 0.045000496715382532 0 0.42682117859832169 0.036352129640023337 0 0.43232556506132203 0.045000496715382532 0 0.43692195129396821 0.036320314751435691 0 0.43232556506132203 0.045000496715382532 0 0.43692195129396821 0.036320314751435691 0 0.43872347562325142 0.041937281253273513 0 0.42682117859832169 0.036352129640023337 0 0.43692195129396821 0.036320314751435691 0 0.4303402840221241 0.02788062228529611 0 0.4303402840221241 0.02788062228529611 0 0.43666739683616762 0.022063860193694398 0 0.43889030218855218 0.028867894211014489 0 0.43692195129396821 0.036320314751435691 0 0.4303402840221241 0.02788062228529611 0 0.43889030218855218 0.028867894211014489 0 0.4303402840221241 0.02788062228529611 0 0.43666739683616762 0.022063860193694398 0 0.4301394150376403 0.01991963065837456 0 0.43666739683616762 0.022063860193694398 0 0.4301394150376403 0.01991963065837456 0 0.43417268968435252 0.01463971293519415 0 0.4301394150376403 0.01991963065837456 0 0.42682177839186503 0.013876895781920031 0 0.43417268968435252 0.01463971293519415 0 0.42269492625369243 0.0211370620957681 0 0.4174624470317615 0.013561100446188081 0 0.42682177839186503 0.013876895781920031 0 0.4303402840221241 0.02788062228529611 0 0.4301394150376403 0.01991963065837456 0 0.42269492625369243 0.0211370620957681 0 0.4301394150376403 0.01991963065837456 0 0.42269492625369243 0.0211370620957681 0 0.42682177839186503 0.013876895781920031 0 0.4303402840221241 0.02788062228529611 0 0.42269492625369243 0.0211370620957681 0 0.4193497820635948 0.03041829300698316 0 0.42269492625369243 0.0211370620957681 0 0.4193497820635948 0.03041829300698316 0 0.41181370261659161 0.022999470524539791 0 0.42269492625369243 0.0211370620957681 0 0.41181370261659161 0.022999470524539791 0 0.4174624470317615 0.013561100446188081 0 0.40083607112589142 0.02305875653356795 0 0.41181370261659161 0.022999470524539791 0 0.40746159413529492 0.013199648435291599 0 0.41181370261659161 0.022999470524539791 0 0.40746159413529492 0.013199648435291599 0 0.4174624470317615 0.013561100446188081 0 0.4079198993693951 0.033774647908076418 0 0.4193497820635948 0.03041829300698316 0 0.41181370261659161 0.022999470524539791 0 0.40083607112589142 0.02305875653356795 0 0.4079198993693951 0.033774647908076418 0 0.41181370261659161 0.022999470524539791 0 0.40391773723439639 0.0041240766756458578 0 0.41355102302063101 0.0046797402522057987 0 0.40905521474513612 -0.0035085889844944759 0 0.40391773723439639 0.0041240766756458578 0 0.41355102302063101 0.0046797402522057987 0 0.40746159413529492 0.013199648435291599 0 0.41355102302063101 0.0046797402522057987 0 0.40746159413529492 0.013199648435291599 0 0.4174624470317615 0.013561100446188081 0 0.41355102302063101 0.0046797402522057987 0 0.4174624470317615 0.013561100446188081 0 0.42460332046158339 0.0052431890641703588 0 0.41355102302063101 0.0046797402522057987 0 0.42460332046158339 0.0052431890641703588 0 0.41880582451561388 -0.0045409841235666219 0 0.42460332046158339 0.0052431890641703588 0 0.43445820998547208 0.0001180668504542441 0 0.42818743748886101 -0.0049828519390476183 0 0.4174624470317615 0.013561100446188081 0 0.42460332046158339 0.0052431890641703588 0 0.42682177839186503 0.013876895781920031 0 0.42460332046158339 0.0052431890641703588 0 0.42682177839186503 0.013876895781920031 0 0.43223233710615289 0.0077907245289833751 0 0.43417268968435252 0.01463971293519415 0 0.43223233710615289 0.0077907245289833751 0 0.44048138360157141 0.00710518106388931 0 0.42682177839186503 0.013876895781920031 0 0.43417268968435252 0.01463971293519415 0 0.43223233710615289 0.0077907245289833751 0 0.42460332046158339 0.0052431890641703588 0 0.43445820998547208 0.0001180668504542441 0 0.43223233710615289 0.0077907245289833751 0 0.43445820998547208 0.0001180668504542441 0 0.43223233710615289 0.0077907245289833751 0 0.44048138360157141 0.00710518106388931 0 0.43445820998547208 0.0001180668504542441 0 0.44048138360157141 0.00710518106388931 0 0.44519691802530431 -0.0025486359300904652 0 0.44048138360157141 0.00710518106388931 0 0.45309353529903013 0.0074541834144045841 0 0.44519691802530431 -0.0025486359300904652 0 0.44048138360157141 0.00710518106388931 0 0.45309353529903013 0.0074541834144045841 0 0.443630284500943 0.015720859788463631 0 0.45309353529903013 0.0074541834144045841 0 0.443630284500943 0.015720859788463631 0 0.45296295651199858 0.019193250645537719 0 0.43417268968435252 0.01463971293519415 0 0.44048138360157141 0.00710518106388931 0 0.443630284500943 0.015720859788463631 0 0.43666739683616762 0.022063860193694398 0 0.443630284500943 0.015720859788463631 0 0.44440374507253821 0.023868970478061659 0 0.43666739683616762 0.022063860193694398 0 0.43417268968435252 0.01463971293519415 0 0.443630284500943 0.015720859788463631 0 0.43889030218855218 0.028867894211014489 0 0.44440374507253821 0.023868970478061659 0 0.44665005909556921 0.033448677540908058 0 0.43666739683616762 0.022063860193694398 0 0.43889030218855218 0.028867894211014489 0 0.44440374507253821 0.023868970478061659 0 0.44440374507253821 0.023868970478061659 0 0.45296295651199858 0.019193250645537719 0 0.45833310581816261 0.02896142278841677 0 0.44440374507253821 0.023868970478061659 0 0.45833310581816261 0.02896142278841677 0 0.44665005909556921 0.033448677540908058 0 0.443630284500943 0.015720859788463631 0 0.44440374507253821 0.023868970478061659 0 0.45296295651199858 0.019193250645537719 0 0.45296295651199858 0.019193250645537719 0 0.45833310581816261 0.02896142278841677 0 0.4662860234456685 0.019823813818259959 0 0.45833310581816261 0.02896142278841677 0 0.4662860234456685 0.019823813818259959 0 0.4770651138773272 0.033083087684683432 0 0.45309353529903013 0.0074541834144045841 0 0.4662860234456685 0.019823813818259959 0 0.4683842162498828 0.0041041990538190961 0 0.45309353529903013 0.0074541834144045841 0 0.4683842162498828 0.0041041990538190961 0 0.45751780428683209 -0.0071526318388788236 0 0.45309353529903013 0.0074541834144045841 0 0.45296295651199858 0.019193250645537719 0 0.4662860234456685 0.019823813818259959 0 0.42236416592884718 0.059376273472640378 0 0.44641872280583322 0.059168354003014803 0 0.44824277728589801 0.056561450751758197 0 0.46427914853722219 0.0701085972363161 0 0.44641872280583322 0.059168354003014803 0 0.44824277728589801 0.056561450751758197 0 0.43848369184256752 0.050950849774820423 0 0.44791953210322988 0.04786635186375765 0 0.44156641883354059 0.045949676070563328 0 0.44824277728589801 0.056561450751758197 0 0.43848369184256752 0.050950849774820423 0 0.44791953210322988 0.04786635186375765 0 0.44824277728589801 0.056561450751758197 0 0.44791953210322988 0.04786635186375765 0 0.45409001479198202 0.046865745399272241 0 0.44791953210322988 0.04786635186375765 0 0.45179644283158121 0.041232454670001417 0 0.45409001479198202 0.046865745399272241 0 0.44791953210322988 0.04786635186375765 0 0.45179644283158121 0.041232454670001417 0 0.44407996730417493 0.040478637475712467 0 0.44791953210322988 0.04786635186375765 0 0.44156641883354059 0.045949676070563328 0 0.44407996730417493 0.040478637475712467 0 0.43232556506132203 0.045000496715382532 0 0.44156641883354059 0.045949676070563328 0 0.43872347562325142 0.041937281253273513 0 0.43692195129396821 0.036320314751435691 0 0.43872347562325142 0.041937281253273513 0 0.44407996730417493 0.040478637475712467 0 0.44156641883354059 0.045949676070563328 0 0.43872347562325142 0.041937281253273513 0 0.44407996730417493 0.040478637475712467 0 0.43692195129396821 0.036320314751435691 0 0.43889030218855218 0.028867894211014489 0 0.44665005909556921 0.033448677540908058 0 0.43692195129396821 0.036320314751435691 0 0.44407996730417493 0.040478637475712467 0 0.44665005909556921 0.033448677540908058 0 0.45833310581816261 0.02896142278841677 0 0.45179644283158121 0.041232454670001417 0 0.44665005909556921 0.033448677540908058 0 0.45179644283158121 0.041232454670001417 0 0.44407996730417493 0.040478637475712467 0 0.44665005909556921 0.033448677540908058 0 0.45833310581816261 0.02896142278841677 0 0.46169609086910229 0.039132282020761661 0 0.4770651138773272 0.033083087684683432 0 0.45833310581816261 0.02896142278841677 0 0.45179644283158121 0.041232454670001417 0 0.46169609086910229 0.039132282020761661 0 0.46169609086910229 0.039132282020761661 0 0.45409001479198202 0.046865745399272241 0 0.46079523087009849 0.049536187690082271 0 0.45179644283158121 0.041232454670001417 0 0.46169609086910229 0.039132282020761661 0 0.45409001479198202 0.046865745399272241 0 0.44824277728589801 0.056561450751758197 0 0.46079523087009849 0.049536187690082271 0 0.47412138864294873 0.053746628030876029 0 0.46427914853722219 0.0701085972363161 0 0.44824277728589801 0.056561450751758197 0 0.47412138864294873 0.053746628030876029 0 0.44824277728589801 0.056561450751758197 0 0.47412138864294873 0.053746628030876029 0 0.44824277728589801 0.056561450751758197 0 0.45409001479198202 0.046865745399272241 0 0.46079523087009849 0.049536187690082271 0 0.46169609086910229 0.039132282020761661 0 0.46079523087009849 0.049536187690082271 0 0.47412138864294873 0.053746628030876029 0 0.47412138864294873 0.053746628030876029 0 0.4770651138773272 0.033083087684683432 0 0.4999999999999995 0.050931805309993888 0 0.46169609086910229 0.039132282020761661 0 0.47412138864294873 0.053746628030876029 0 0.4770651138773272 0.033083087684683432 0 0.4770651138773272 0.033083087684683432 0 0.4999999999999995 0.050931805309993888 0 0.5 0.023197974005395031 0 0.47412138864294873 0.053746628030876029 0 0.4999999999999995 0.050931805309993888 0 0.48520028902417739 0.065321454551364511 0 0.47412138864294873 0.053746628030876029 0 0.4999999999999995 0.050931805309993888 0 0.4662860234456685 0.019823813818259959 0 0.4683842162498828 0.0041041990538190961 0 0.4790191883654078 0.01578768781908067 0 0.4683842162498828 0.0041041990538190961 0 0.48348106108218469 8.3419545698215506e-05 0 0.4790191883654078 0.01578768781908067 0 0.4662860234456685 0.019823813818259959 0 0.4770651138773272 0.033083087684683432 0 0.4790191883654078 0.01578768781908067 0 0.4770651138773272 0.033083087684683432 0 0.4790191883654078 0.01578768781908067 0 0.5 0.023197974005395031 0 0.48348106108218469 8.3419545698215506e-05 0 0.5 0.023197974005395031 0 0.5 -0.0045358572992038049 0 0.48348106108218469 8.3419545698215506e-05 0 0.4790191883654078 0.01578768781908067 0 0.5 0.023197974005395031 0 0.48348106108218469 8.3419545698215506e-05 0 0.5 -0.0045358572992038049 0 0.47990075857203618 -0.020432710518547129 0 0.48348106108218469 8.3419545698215506e-05 0 0.47034581143076071 -0.01005835882415747 0 0.47990075857203618 -0.020432710518547129 0 0.4683842162498828 0.0041041990538190961 0 0.48348106108218469 8.3419545698215506e-05 0 0.47034581143076071 -0.01005835882415747 0 0.47034581143076071 -0.01005835882415747 0 0.47990075857203618 -0.020432710518547129 0 0.45898633092198859 -0.021098712112988239 0 0.47990075857203618 -0.020432710518547129 0 0.5 -0.032269688603802582 0 0.48396234981247399 -0.039874135530884279 0 0.5 -0.0045358572992038049 0 0.47990075857203618 -0.020432710518547129 0 0.5 -0.032269688603802582 0 0.5 -0.032269688603802582 0 0.5 -0.060003519908401408 0 0.48396234981247399 -0.039874135530884279 0 0.5 -0.060003519908401408 0 0.47352645759920697 -0.051030248491224089 0 0.48396234981247399 -0.039874135530884279 0 0.5 -0.060003519908401408 0 0.47352645759920697 -0.051030248491224089 0 0.4760971080934342 -0.064591457845271677 0 0.47352645759920697 -0.051030248491224089 0 0.4760971080934342 -0.064591457845271677 0 0.46135104805987021 -0.062846036938856042 0 0.47990075857203618 -0.020432710518547129 0 0.48396234981247399 -0.039874135530884279 0 0.4663845328911268 -0.035634510132446139 0 0.47352645759920697 -0.051030248491224089 0 0.48396234981247399 -0.039874135530884279 0 0.4663845328911268 -0.035634510132446139 0 0.47352645759920697 -0.051030248491224089 0 0.4663845328911268 -0.035634510132446139 0 0.45768945482802392 -0.045149610638547437 0 0.4663845328911268 -0.035634510132446139 0 0.45768945482802392 -0.045149610638547437 0 0.45112394411077639 -0.034208041296036003 0 0.47352645759920697 -0.051030248491224089 0 0.45768945482802392 -0.045149610638547437 0 0.46135104805987021 -0.062846036938856042 0 0.44246928678328939 -0.056542632267481442 0 0.43911458015301408 -0.044566902445567172 0 0.46135104805987021 -0.062846036938856042 0 0.45768945482802392 -0.045149610638547437 0 0.43911458015301408 -0.044566902445567172 0 0.46135104805987021 -0.062846036938856042 0 0.43911458015301408 -0.044566902445567172 0 0.46135104805987021 -0.062846036938856042 0 0.45768945482802392 -0.045149610638547437 0 0.45112394411077639 -0.034208041296036003 0 0.43911458015301408 -0.044566902445567172 0 0.43911458015301408 -0.044566902445567172 0 0.44248244799287201 -0.032447157906191848 0 0.43468286456397942 -0.027293221897604639 0 0.45112394411077639 -0.034208041296036003 0 0.43911458015301408 -0.044566902445567172 0 0.44248244799287201 -0.032447157906191848 0 0.44500840314371792 -0.02372046598555962 0 0.43658498707149201 -0.01148609480187093 0 0.43468286456397942 -0.027293221897604639 0 0.44248244799287201 -0.032447157906191848 0 0.44500840314371792 -0.02372046598555962 0 0.43468286456397942 -0.027293221897604639 0 0.45112394411077639 -0.034208041296036003 0 0.44500840314371792 -0.02372046598555962 0 0.45898633092198859 -0.021098712112988239 0 0.45112394411077639 -0.034208041296036003 0 0.44248244799287201 -0.032447157906191848 0 0.44500840314371792 -0.02372046598555962 0 0.44500840314371792 -0.02372046598555962 0 0.44847468374547861 -0.01315302204955349 0 0.45898633092198859 -0.021098712112988239 0 0.44500840314371792 -0.02372046598555962 0 0.44847468374547861 -0.01315302204955349 0 0.43658498707149201 -0.01148609480187093 0 0.44519691802530431 -0.0025486359300904652 0 0.44847468374547861 -0.01315302204955349 0 0.43658498707149201 -0.01148609480187093 0 0.43445820998547208 0.0001180668504542441 0 0.44519691802530431 -0.0025486359300904652 0 0.43658498707149201 -0.01148609480187093 0 0.45309353529903013 0.0074541834144045841 0 0.44519691802530431 -0.0025486359300904652 0 0.45751780428683209 -0.0071526318388788236 0 0.44519691802530431 -0.0025486359300904652 0 0.44847468374547861 -0.01315302204955349 0 0.45751780428683209 -0.0071526318388788236 0 0.44847468374547861 -0.01315302204955349 0 0.45751780428683209 -0.0071526318388788236 0 0.45898633092198859 -0.021098712112988239 0 0.4683842162498828 0.0041041990538190961 0 0.47034581143076071 -0.01005835882415747 0 0.45751780428683209 -0.0071526318388788236 0 0.47034581143076071 -0.01005835882415747 0 0.45751780428683209 -0.0071526318388788236 0 0.45898633092198859 -0.021098712112988239 0 0.47990075857203618 -0.020432710518547129 0 0.4663845328911268 -0.035634510132446139 0 0.45898633092198859 -0.021098712112988239 0 0.4663845328911268 -0.035634510132446139 0 0.45112394411077639 -0.034208041296036003 0 0.45898633092198859 -0.021098712112988239 0 0.48033078257523493 -0.1071209368736557 0 0.46342367527338718 -0.1186763052342321 0 0.47802272190486222 -0.12724461224211919 0 0.5 -0.11547118251759921 0 0.48033078257523493 -0.1071209368736557 0 0.47802272190486222 -0.12724461224211919 0 0.5 -0.11547118251759921 0 0.48033078257523493 -0.1071209368736557 0 0.5 -0.087737351213000303 0 0.48033078257523493 -0.1071209368736557 0 0.47876651236523687 -0.091687307120934605 0 0.5 -0.087737351213000303 0 0.48033078257523493 -0.1071209368736557 0 0.47876651236523687 -0.091687307120934605 0 0.4622304528587835 -0.10123328050531789 0 0.48122782114462931 -0.077641621875241262 0 0.46544452039669809 -0.074687669513018806 0 0.4670587860124063 -0.087142425650820726 0 0.47876651236523687 -0.091687307120934605 0 0.4670587860124063 -0.087142425650820726 0 0.4622304528587835 -0.10123328050531789 0 0.47876651236523687 -0.091687307120934605 0 0.48122782114462931 -0.077641621875241262 0 0.4670587860124063 -0.087142425650820726 0 0.47876651236523687 -0.091687307120934605 0 0.5 -0.087737351213000303 0 0.48122782114462931 -0.077641621875241262 0 0.5 -0.060003519908401408 0 0.5 -0.087737351213000303 0 0.48122782114462931 -0.077641621875241262 0 0.5 -0.060003519908401408 0 0.48122782114462931 -0.077641621875241262 0 0.4760971080934342 -0.064591457845271677 0 0.48122782114462931 -0.077641621875241262 0 0.4760971080934342 -0.064591457845271677 0 0.46544452039669809 -0.074687669513018806 0 0.44246928678328939 -0.056542632267481442 0 0.46544452039669809 -0.074687669513018806 0 0.44246928678328939 -0.056542632267481442 0 0.46135104805987021 -0.062846036938856042 0 0.46544452039669809 -0.074687669513018806 0 0.4760971080934342 -0.064591457845271677 0 0.46135104805987021 -0.062846036938856042 0 0.46544452039669809 -0.074687669513018806 0 0.44246928678328939 -0.056542632267481442 0 0.46544452039669809 -0.074687669513018806 0 0.44719714043810832 -0.073740383191414155 0 0.44246928678328939 -0.056542632267481442 0 0.44719714043810832 -0.073740383191414155 0 0.4335652099212372 -0.06934992551264775 0 0.44719714043810832 -0.073740383191414155 0 0.43985341255497912 -0.082936311626606182 0 0.4335652099212372 -0.06934992551264775 0 0.44719714043810832 -0.073740383191414155 0 0.43985341255497912 -0.082936311626606182 0 0.45458120963561027 -0.086489761509255705 0 0.43985341255497912 -0.082936311626606182 0 0.44570294555268719 -0.0991984985683564 0 0.43367101638302707 -0.094960580356860613 0 0.43985341255497912 -0.082936311626606182 0 0.45458120963561027 -0.086489761509255705 0 0.44570294555268719 -0.0991984985683564 0 0.46544452039669809 -0.074687669513018806 0 0.44719714043810832 -0.073740383191414155 0 0.45458120963561027 -0.086489761509255705 0 0.46544452039669809 -0.074687669513018806 0 0.45458120963561027 -0.086489761509255705 0 0.4670587860124063 -0.087142425650820726 0 0.45458120963561027 -0.086489761509255705 0 0.4670587860124063 -0.087142425650820726 0 0.4622304528587835 -0.10123328050531789 0 0.48033078257523493 -0.1071209368736557 0 0.4622304528587835 -0.10123328050531789 0 0.46342367527338718 -0.1186763052342321 0 0.45458120963561027 -0.086489761509255705 0 0.4622304528587835 -0.10123328050531789 0 0.44570294555268719 -0.0991984985683564 0 0.4622304528587835 -0.10123328050531789 0 0.44570294555268719 -0.0991984985683564 0 0.44877171047018538 -0.1144400627912074 0 0.44570294555268719 -0.0991984985683564 0 0.44877171047018538 -0.1144400627912074 0 0.43174126257070378 -0.10983106469708891 0 0.44877171047018538 -0.1144400627912074 0 0.43663137100703681 -0.12654906671799421 0 0.45427944859568631 -0.13374395889561211 0 0.44877171047018538 -0.1144400627912074 0 0.43174126257070378 -0.10983106469708891 0 0.43663137100703681 -0.12654906671799421 0 0.4622304528587835 -0.10123328050531789 0 0.44877171047018538 -0.1144400627912074 0 0.46342367527338718 -0.1186763052342321 0 0.44877171047018538 -0.1144400627912074 0 0.46342367527338718 -0.1186763052342321 0 0.45427944859568631 -0.13374395889561211 0 0.41886952912429198 -0.1217331324110783 0 0.41865662864320019 -0.10581198009250931 0 0.40213599883774509 -0.10817376666017731 0 0.41886952912429198 -0.1217331324110783 0 0.40213599883774509 -0.10817376666017731 0 0.40357355082652618 -0.1301978955659783 0 0.41886952912429198 -0.1217331324110783 0 0.43174126257070378 -0.10983106469708891 0 0.41865662864320019 -0.10581198009250931 0 0.41886952912429198 -0.1217331324110783 0 0.43174126257070378 -0.10983106469708891 0 0.43663137100703681 -0.12654906671799421 0 0.43174126257070378 -0.10983106469708891 0 0.43367101638302707 -0.094960580356860613 0 0.41865662864320019 -0.10581198009250931 0 0.44570294555268719 -0.0991984985683564 0 0.43174126257070378 -0.10983106469708891 0 0.43367101638302707 -0.094960580356860613 0 0.43367101638302707 -0.094960580356860613 0 0.41865662864320019 -0.10581198009250931 0 0.42032761340204339 -0.092517126897126364 0 0.41865662864320019 -0.10581198009250931 0 0.40802054963570472 -0.091542890313773828 0 0.42032761340204339 -0.092517126897126364 0 0.41865662864320019 -0.10581198009250931 0 0.40802054963570472 -0.091542890313773828 0 0.40213599883774509 -0.10817376666017731 0 0.40802054963570472 -0.091542890313773828 0 0.42235862286527043 -0.079153904346777632 0 0.4071482200643588 -0.076960274744073937 0 0.40802054963570472 -0.091542890313773828 0 0.42032761340204339 -0.092517126897126364 0 0.42235862286527043 -0.079153904346777632 0 0.43985341255497912 -0.082936311626606182 0 0.43367101638302707 -0.094960580356860613 0 0.42235862286527043 -0.079153904346777632 0 0.43367101638302707 -0.094960580356860613 0 0.42032761340204339 -0.092517126897126364 0 0.42235862286527043 -0.079153904346777632 0 0.43985341255497912 -0.082936311626606182 0 0.42235862286527043 -0.079153904346777632 0 0.4335652099212372 -0.06934992551264775 0 0.42235862286527043 -0.079153904346777632 0 0.4335652099212372 -0.06934992551264775 0 0.42019774420014883 -0.061025929870063771 0 0.4335652099212372 -0.06934992551264775 0 0.42921395603444201 -0.059038867582171403 0 0.42019774420014883 -0.061025929870063771 0 0.42235862286527043 -0.079153904346777632 0 0.4071482200643588 -0.076960274744073937 0 0.42019774420014883 -0.061025929870063771 0 0.4071482200643588 -0.076960274744073937 0 0.40211107036387161 -0.063335302935202564 0 0.42019774420014883 -0.061025929870063771 0 0.40211107036387161 -0.063335302935202564 0 0.39459959224966329 -0.072677743256481284 0 0.39097585474334728 -0.055945043478193991 0 0.4071482200643588 -0.076960274744073937 0 0.40211107036387161 -0.063335302935202564 0 0.39459959224966329 -0.072677743256481284 0 0.39459959224966329 -0.072677743256481284 0 0.37887810819661699 -0.07763907136849893 0 0.39097585474334728 -0.055945043478193991 0 0.39459959224966329 -0.072677743256481284 0 0.37887810819661699 -0.07763907136849893 0 0.39388470788012192 -0.089509023756437003 0 0.37887810819661699 -0.07763907136849893 0 0.39388470788012192 -0.089509023756437003 0 0.38504172705288242 -0.10418146730625311 0 0.4071482200643588 -0.076960274744073937 0 0.39459959224966329 -0.072677743256481284 0 0.39388470788012192 -0.089509023756437003 0 0.40802054963570472 -0.091542890313773828 0 0.4071482200643588 -0.076960274744073937 0 0.39388470788012192 -0.089509023756437003 0 0.40802054963570472 -0.091542890313773828 0 0.39388470788012192 -0.089509023756437003 0 0.40213599883774509 -0.10817376666017731 0 0.39388470788012192 -0.089509023756437003 0 0.40213599883774509 -0.10817376666017731 0 0.38504172705288242 -0.10418146730625311 0 0.37887810819661699 -0.07763907136849893 0 0.38504172705288242 -0.10418146730625311 0 0.366709963262141 -0.1024939636199944 0 0.38504172705288242 -0.10418146730625311 0 0.366709963262141 -0.1024939636199944 0 0.37830609076239308 -0.12586228031163041 0 0.38504172705288242 -0.10418146730625311 0 0.3923125438222963 -0.1177392459957672 0 0.37830609076239308 -0.12586228031163041 0 0.40213599883774509 -0.10817376666017731 0 0.3923125438222963 -0.1177392459957672 0 0.40357355082652618 -0.1301978955659783 0 0.3923125438222963 -0.1177392459957672 0 0.40357355082652618 -0.1301978955659783 0 0.37830609076239308 -0.12586228031163041 0 0.40213599883774509 -0.10817376666017731 0 0.38504172705288242 -0.10418146730625311 0 0.3923125438222963 -0.1177392459957672 0 0.41687811224615801 -0.026287767952278291 0 0.41949405316988081 -0.038397595021944078 0 0.396518819556472 -0.020252557776406731 0 0.41687811224615801 -0.026287767952278291 0 0.41495424156486038 -0.014106731618065801 0 0.39464164433930171 -0.0080086334589892887 0 0.41949405316988081 -0.038397595021944078 0 0.396518819556472 -0.020252557776406731 0 0.41495424156486038 -0.014106731618065801 0 0.42648484541014392 -0.01424843668442514 0 0.42325001594628542 -0.020484039538093461 0 0.41687811224615801 -0.026287767952278291 0 0.41495424156486038 -0.014106731618065801 0 0.42325001594628542 -0.020484039538093461 0 0.41355102302063101 0.0046797402522057987 0 0.40905521474513612 -0.0035085889844944759 0 0.41880582451561388 -0.0045409841235666219 0 0.40905521474513612 -0.0035085889844944759 0 0.41880582451561388 -0.0045409841235666219 0 0.41495424156486038 -0.014106731618065801 0 0.41880582451561388 -0.0045409841235666219 0 0.41495424156486038 -0.014106731618065801 0 0.42648484541014392 -0.01424843668442514 0 0.41880582451561388 -0.0045409841235666219 0 0.42648484541014392 -0.01424843668442514 0 0.42818743748886101 -0.0049828519390476183 0 0.42460332046158339 0.0052431890641703588 0 0.41880582451561388 -0.0045409841235666219 0 0.42818743748886101 -0.0049828519390476183 0 0.43445820998547208 0.0001180668504542441 0 0.42818743748886101 -0.0049828519390476183 0 0.43658498707149201 -0.01148609480187093 0 0.42648484541014392 -0.01424843668442514 0 0.42818743748886101 -0.0049828519390476183 0 0.43658498707149201 -0.01148609480187093 0 0.42648484541014392 -0.01424843668442514 0 0.43658498707149201 -0.01148609480187093 0 0.43468286456397942 -0.027293221897604639 0 0.41687811224615801 -0.026287767952278291 0 0.42325001594628542 -0.020484039538093461 0 0.43468286456397942 -0.027293221897604639 0 0.42648484541014392 -0.01424843668442514 0 0.42325001594628542 -0.020484039538093461 0 0.43468286456397942 -0.027293221897604639 0 0.43911458015301408 -0.044566902445567172 0 0.41687811224615801 -0.026287767952278291 0 0.43911458015301408 -0.044566902445567172 0 0.41687811224615801 -0.026287767952278291 0 0.43468286456397942 -0.027293221897604639 0 0.43911458015301408 -0.044566902445567172 0 0.41687811224615801 -0.026287767952278291 0 0.41949405316988081 -0.038397595021944078 0 0.44246928678328939 -0.056542632267481442 0 0.43911458015301408 -0.044566902445567172 0 0.41949405316988081 -0.038397595021944078 0 0.44246928678328939 -0.056542632267481442 0 0.41949405316988081 -0.038397595021944078 0 0.44246928678328939 -0.056542632267481442 0 0.42309064552081571 -0.052047773682229417 0 0.42921395603444201 -0.059038867582171403 0 0.44246928678328939 -0.056542632267481442 0 0.42309064552081571 -0.052047773682229417 0 0.41949405316988081 -0.038397595021944078 0 0.44246928678328939 -0.056542632267481442 0 0.4335652099212372 -0.06934992551264775 0 0.42921395603444201 -0.059038867582171403 0 0.42309064552081571 -0.052047773682229417 0 0.42921395603444201 -0.059038867582171403 0 0.42019774420014883 -0.061025929870063771 0 0.40211107036387161 -0.063335302935202564 0 0.42019774420014883 -0.061025929870063771 0 0.40901231199176408 -0.050855425676960039 0 0.42309064552081571 -0.052047773682229417 0 0.42019774420014883 -0.061025929870063771 0 0.40901231199176408 -0.050855425676960039 0 0.42309064552081571 -0.052047773682229417 0 0.40901231199176408 -0.050855425676960039 0 0.41949405316988081 -0.038397595021944078 0 0.40901231199176408 -0.050855425676960039 0 0.41949405316988081 -0.038397595021944078 0 0.40004890071209681 -0.039656538374397268 0 0.41949405316988081 -0.038397595021944078 0 0.40004890071209681 -0.039656538374397268 0 0.396518819556472 -0.020252557776406731 0 0.40004890071209681 -0.039656538374397268 0 0.38351132843713798 -0.035200846274653967 0 0.396518819556472 -0.020252557776406731 0 0.40004890071209681 -0.039656538374397268 0 0.39097585474334728 -0.055945043478193991 0 0.38351132843713798 -0.035200846274653967 0 0.40211107036387161 -0.063335302935202564 0 0.40901231199176408 -0.050855425676960039 0 0.39097585474334728 -0.055945043478193991 0 0.40901231199176408 -0.050855425676960039 0 0.40004890071209681 -0.039656538374397268 0 0.39097585474334728 -0.055945043478193991 0 0.39097585474334728 -0.055945043478193991 0 0.38351132843713798 -0.035200846274653967 0 0.3698983633332778 -0.052379228955555301 0 0.37887810819661699 -0.07763907136849893 0 0.39097585474334728 -0.055945043478193991 0 0.3698983633332778 -0.052379228955555301 0 0.38351132843713798 -0.035200846274653967 0 0.3842972813135152 -0.017093504959598591 0 0.36478633711269381 -0.02276711583474748 0 0.38351132843713798 -0.035200846274653967 0 0.3842972813135152 -0.017093504959598591 0 0.396518819556472 -0.020252557776406731 0 0.41687811224615801 -0.026287767952278291 0 0.39464164433930171 -0.0080086334589892887 0 0.41687811224615801 -0.026287767952278291 0 0.396518819556472 -0.020252557776406731 0 0.39464164433930171 -0.0080086334589892887 0 0.40905521474513612 -0.0035085889844944759 0 0.41495424156486038 -0.014106731618065801 0 0.39464164433930171 -0.0080086334589892887 0 0.40391773723439639 0.0041240766756458578 0 0.40905521474513612 -0.0035085889844944759 0 0.39464164433930171 -0.0080086334589892887 0 0.3842972813135152 -0.017093504959598591 0 0.396518819556472 -0.020252557776406731 0 0.39464164433930171 -0.0080086334589892887 0 0.38202827712197018 0.00076162854680449782 0 0.3842972813135152 -0.017093504959598591 0 0.39464164433930171 -0.0080086334589892887 0 0.38202827712197018 0.00076162854680449782 0 0.3842972813135152 -0.017093504959598591 0 0.36478633711269381 -0.02276711583474748 0 0.38202827712197018 0.00076162854680449782 0 0.36478633711269381 -0.02276711583474748 0 0.38202827712197018 0.00076162854680449782 0 0.3642149709261312 -0.0041086796801032936 0 0.36478633711269381 -0.02276711583474748 0 0.36478633711269381 -0.02276711583474748 0 0.34517157143575727 -0.019394495833625802 0 0.34754439710341722 -0.046295860216299681 0 0.34977075328603469 0.0032824274781512899 0 0.3642149709261312 -0.0041086796801032936 0 0.34517157143575727 -0.019394495833625802 0 0.3642149709261312 -0.0041086796801032936 0 0.36478633711269381 -0.02276711583474748 0 0.34517157143575727 -0.019394495833625802 0 0.34517157143575727 -0.019394495833625802 0 0.33011070779852048 -0.00467757646497452 0 0.32517602397646961 -0.022041249693365069 0 0.34977075328603469 0.0032824274781512899 0 0.34517157143575727 -0.019394495833625802 0 0.33011070779852048 -0.00467757646497452 0 0.34517157143575727 -0.019394495833625802 0 0.32517602397646961 -0.022041249693365069 0 0.33266333161855388 -0.03757793425781461 0 0.32517602397646961 -0.022041249693365069 0 0.30541417913508478 -0.010149312297336059 0 0.31196486262975021 -0.02562457080643309 0 0.32517602397646961 -0.022041249693365069 0 0.31765250164689879 -0.04036831272816381 0 0.31196486262975021 -0.02562457080643309 0 0.32517602397646961 -0.022041249693365069 0 0.30541417913508478 -0.010149312297336059 0 0.31485579121468349 0.003100127620913112 0 0.33011070779852048 -0.00467757646497452 0 0.30541417913508478 -0.010149312297336059 0 0.33011070779852048 -0.00467757646497452 0 0.32517602397646961 -0.022041249693365069 0 0.33011070779852048 -0.00467757646497452 0 0.32517602397646961 -0.022041249693365069 0 0.30541417913508478 -0.010149312297336059 0 0.31806654203024382 -0.046763905991769147 0 0.31098886616037003 -0.071495664477518386 0 0.32274748663281688 -0.060053444763086453 0 0.33026484289583452 -0.052103149965364338 0 0.33030245709414069 -0.06982460459785178 0 0.32274748663281688 -0.060053444763086453 0 0.31806654203024382 -0.046763905991769147 0 0.31098886616037003 -0.071495664477518386 0 0.32274748663281688 -0.060053444763086453 0 0.31806654203024382 -0.046763905991769147 0 0.33026484289583452 -0.052103149965364338 0 0.31765250164689879 -0.04036831272816381 0 0.31806654203024382 -0.046763905991769147 0 0.3060779536689795 -0.055343016601558451 0 0.32517602397646961 -0.022041249693365069 0 0.31806654203024382 -0.046763905991769147 0 0.32517602397646961 -0.022041249693365069 0 0.31765250164689879 -0.04036831272816381 0 0.31806654203024382 -0.046763905991769147 0 0.32517602397646961 -0.022041249693365069 0 0.31806654203024382 -0.046763905991769147 0 0.33266333161855388 -0.03757793425781461 0 0.31806654203024382 -0.046763905991769147 0 0.33266333161855388 -0.03757793425781461 0 0.33026484289583452 -0.052103149965364338 0 0.33266333161855388 -0.03757793425781461 0 0.33026484289583452 -0.052103149965364338 0 0.34754439710341722 -0.046295860216299681 0 0.34517157143575727 -0.019394495833625802 0 0.33266333161855388 -0.03757793425781461 0 0.34754439710341722 -0.046295860216299681 0 0.34754439710341722 -0.046295860216299681 0 0.33030245709414069 -0.06982460459785178 0 0.33026484289583452 -0.052103149965364338 0 0.34754439710341722 -0.046295860216299681 0 0.33030245709414069 -0.06982460459785178 0 0.34754439710341722 -0.046295860216299681 0 0.3698983633332778 -0.052379228955555301 0 0.35369415440645358 -0.076427436560937756 0 0.36478633711269381 -0.02276711583474748 0 0.34754439710341722 -0.046295860216299681 0 0.38351132843713798 -0.035200846274653967 0 0.36478633711269381 -0.02276711583474748 0 0.3698983633332778 -0.052379228955555301 0 0.36478633711269381 -0.02276711583474748 0 0.34754439710341722 -0.046295860216299681 0 0.3698983633332778 -0.052379228955555301 0 0.37887810819661699 -0.07763907136849893 0 0.3698983633332778 -0.052379228955555301 0 0.35369415440645358 -0.076427436560937756 0 0.37887810819661699 -0.07763907136849893 0 0.35369415440645358 -0.076427436560937756 0 0.366709963262141 -0.1024939636199944 0 0.35369415440645358 -0.076427436560937756 0 0.366709963262141 -0.1024939636199944 0 0.34188925825140037 -0.095110126224309394 0 0.35369415440645358 -0.076427436560937756 0 0.34188925825140037 -0.095110126224309394 0 0.33958904350230418 -0.08181536653102324 0 0.34754439710341722 -0.046295860216299681 0 0.35369415440645358 -0.076427436560937756 0 0.33030245709414069 -0.06982460459785178 0 0.366709963262141 -0.1024939636199944 0 0.37830609076239308 -0.12586228031163041 0 0.366709963262141 -0.1024939636199944 0 0.35799017458160992 -0.1244861079550461 0 0.37830609076239308 -0.12586228031163041 0 0.366709963262141 -0.1024939636199944 0 0.34293575795269171 -0.1149767945819346 0 0.34188925825140037 -0.095110126224309394 0 0.366709963262141 -0.1024939636199944 0 0.35799017458160992 -0.1244861079550461 0 0.34293575795269171 -0.1149767945819346 0 0.34293575795269171 -0.1149767945819346 0 0.324825320210825 -0.1046744813846703 0 0.32442977675975049 -0.1214972656694701 0 0.34293575795269171 -0.1149767945819346 0 0.32442977675975049 -0.1214972656694701 0 0.33399948939777668 -0.1355162896901064 0 0.34293575795269171 -0.1149767945819346 0 0.34188925825140037 -0.095110126224309394 0 0.324825320210825 -0.1046744813846703 0 0.34188925825140037 -0.095110126224309394 0 0.324825320210825 -0.1046744813846703 0 0.32500862619258791 -0.086477713776523635 0 0.324825320210825 -0.1046744813846703 0 0.32500862619258791 -0.086477713776523635 0 0.30391119029049629 -0.096227422963267625 0 0.324825320210825 -0.1046744813846703 0 0.31249995042042361 -0.11083958786660621 0 0.30391119029049629 -0.096227422963267625 0 0.324825320210825 -0.1046744813846703 0 0.31249995042042361 -0.11083958786660621 0 0.32442977675975049 -0.1214972656694701 0 0.35369415440645358 -0.076427436560937756 0 0.33030245709414069 -0.06982460459785178 0 0.33958904350230418 -0.08181536653102324 0 0.34188925825140037 -0.095110126224309394 0 0.33958904350230418 -0.08181536653102324 0 0.32500862619258791 -0.086477713776523635 0 0.33030245709414069 -0.06982460459785178 0 0.33958904350230418 -0.08181536653102324 0 0.32500862619258791 -0.086477713776523635 0 0.32500862619258791 -0.086477713776523635 0 0.31098886616037003 -0.071495664477518386 0 0.30391119029049629 -0.096227422963267625 0 0.33030245709414069 -0.06982460459785178 0 0.32500862619258791 -0.086477713776523635 0 0.31098886616037003 -0.071495664477518386 0 0.32274748663281688 -0.060053444763086453 0 0.33030245709414069 -0.06982460459785178 0 0.31098886616037003 -0.071495664477518386 0 0.31098886616037003 -0.071495664477518386 0 0.29053534523342822 -0.068263527777374794 0 0.3060779536689795 -0.055343016601558451 0 0.31098886616037003 -0.071495664477518386 0 0.29196430724633959 -0.08361503023057075 0 0.29053534523342822 -0.068263527777374794 0 0.31098886616037003 -0.071495664477518386 0 0.30391119029049629 -0.096227422963267625 0 0.31098886616037003 -0.071495664477518386 0 0.29196430724633959 -0.08361503023057075 0 0.30391119029049629 -0.096227422963267625 0 0.29196430724633959 -0.08361503023057075 0 0.2847681394554466 -0.096040164404405756 0 0.27297646802579562 -0.082701873065000445 0 0.29196430724633959 -0.08361503023057075 0 0.29053534523342822 -0.068263527777374794 0 0.27297646802579562 -0.082701873065000445 0 0.29196430724633959 -0.08361503023057075 0 0.30391119029049629 -0.096227422963267625 0 0.2847681394554466 -0.096040164404405756 0 0.32442977675975049 -0.1214972656694701 0 0.2968335144206225 -0.12095918144901691 0 0.31249995042042361 -0.11083958786660621 0 0.30391119029049629 -0.096227422963267625 0 0.2968335144206225 -0.12095918144901691 0 0.31249995042042361 -0.11083958786660621 0 0.32442977675975049 -0.1214972656694701 0 0.2968335144206225 -0.12095918144901691 0 0.30391119029049629 -0.096227422963267625 0 0.2968335144206225 -0.12095918144901691 0 0.30391119029049629 -0.096227422963267625 0 0.28627792093660581 -0.1089355419571367 0 0.2847681394554466 -0.096040164404405756 0 0.30391119029049629 -0.096227422963267625 0 0.28627792093660581 -0.1089355419571367 0 0.2968335144206225 -0.12095918144901691 0 0.2968335144206225 -0.12095918144901691 0 0.27526164428704908 -0.1205385635123586 0 0.28457050260126271 -0.12963501625399029 0 0.2968335144206225 -0.12095918144901691 0 0.27526164428704908 -0.1205385635123586 0 0.28627792093660581 -0.1089355419571367 0 0.2968335144206225 -0.12095918144901691 0 0.27526164428704908 -0.1205385635123586 0 0.27526164428704908 -0.1205385635123586 0 0.270390047244915 -0.10704770457340999 0 0.25368977415347571 -0.1201179455757008 0 0.28627792093660581 -0.1089355419571367 0 0.27526164428704908 -0.1205385635123586 0 0.270390047244915 -0.10704770457340999 0 0.28627792093660581 -0.1089355419571367 0 0.2847681394554466 -0.096040164404405756 0 0.270390047244915 -0.10704770457340999 0 0.2847681394554466 -0.096040164404405756 0 0.270390047244915 -0.10704770457340999 0 0.27297646802579562 -0.082701873065000445 0 0.270390047244915 -0.10704770457340999 0 0.25310575603894703 -0.10371750821035609 0 0.25100345966672433 -0.087441889239145476 0 0.270390047244915 -0.10704770457340999 0 0.25100345966672433 -0.087441889239145476 0 0.27526164428704908 -0.1205385635123586 0 0.25368977415347571 -0.1201179455757008 0 0.25310575603894703 -0.10371750821035609 0 0.25368977415347571 -0.1201179455757008 0 0.24319076987413829 -0.1113971498615149 0 0.27526164428704908 -0.1205385635123586 0 0.25368977415347571 -0.1201179455757008 0 0.26431419697603198 -0.12861159401645059 0 0.270390047244915 -0.10704770457340999 0 0.25310575603894703 -0.10371750821035609 0 0.25368977415347571 -0.1201179455757008 0 0.27297646802579562 -0.082701873065000445 0 0.26005219352610748 -0.073504624433324145 0 0.26864052490101459 -0.059279031337768448 0 0.29053534523342822 -0.068263527777374794 0 0.27297646802579562 -0.082701873065000445 0 0.26864052490101459 -0.059279031337768448 0 0.270390047244915 -0.10704770457340999 0 0.27297646802579562 -0.082701873065000445 0 0.25100345966672433 -0.087441889239145476 0 0.27297646802579562 -0.082701873065000445 0 0.25100345966672433 -0.087441889239145476 0 0.26005219352610748 -0.073504624433324145 0 0.25100345966672433 -0.087441889239145476 0 0.26005219352610748 -0.073504624433324145 0 0.2441345365280726 -0.068734390642570767 0 0.26864052490101459 -0.059279031337768448 0 0.2441345365280726 -0.068734390642570767 0 0.26005219352610748 -0.073504624433324145 0 0.26864052490101459 -0.059279031337768448 0 0.2441345365280726 -0.068734390642570767 0 0.25105442044355342 -0.054374996215338929 0 0.26864052490101459 -0.059279031337768448 0 0.25203180914264539 -0.037448613758741513 0 0.25105442044355342 -0.054374996215338929 0 0.26864052490101459 -0.059279031337768448 0 0.2441345365280726 -0.068734390642570767 0 0.26864052490101459 -0.059279031337768448 0 0.29314651327395669 -0.049823672032966129 0 0.26864052490101459 -0.059279031337768448 0 0.27839407619297218 -0.035301127816334578 0 0.29314651327395669 -0.049823672032966129 0 0.26864052490101459 -0.059279031337768448 0 0.27839407619297218 -0.035301127816334578 0 0.25203180914264539 -0.037448613758741513 0 0.25203180914264539 -0.037448613758741513 0 0.26884207171817309 -0.017852994330023211 0 0.2421544736711094 -0.02121687934738847 0 0.25203180914264539 -0.037448613758741513 0 0.26884207171817309 -0.017852994330023211 0 0.26362807346362388 -0.002236244841430654 0 0.26884207171817309 -0.017852994330023211 0 0.2469535063018915 -0.0072240908428232416 0 0.26884207171817309 -0.017852994330023211 0 0.2421544736711094 -0.02121687934738847 0 0.2469535063018915 -0.0072240908428232416 0 0.24976299478907979 0.0065670448098260684 0 0.26362807346362388 -0.002236244841430654 0 0.2469535063018915 -0.0072240908428232416 0 0.28565233429370113 0.0017426250986947031 0 0.26884207171817309 -0.017852994330023211 0 0.28808679236149581 -0.01746304693164076 0 0.28565233429370113 0.0017426250986947031 0 0.26884207171817309 -0.017852994330023211 0 0.28565233429370113 0.0017426250986947031 0 0.26362807346362388 -0.002236244841430654 0 0.26884207171817309 -0.017852994330023211 0 0.27839407619297218 -0.035301127816334578 0 0.26884207171817309 -0.017852994330023211 0 0.28808679236149581 -0.01746304693164076 0 0.27839407619297218 -0.035301127816334578 0 0.25203180914264539 -0.037448613758741513 0 0.26884207171817309 -0.017852994330023211 0 0.27839407619297218 -0.035301127816334578 0 0.28808679236149581 -0.01746304693164076 0 0.29961674576054759 -0.02993940850686742 0 0.28565233429370113 0.0017426250986947031 0 0.30541417913508478 -0.010149312297336059 0 0.28565233429370113 0.0017426250986947031 0 0.28808679236149581 -0.01746304693164076 0 0.30541417913508478 -0.010149312297336059 0 0.28808679236149581 -0.01746304693164076 0 0.30541417913508478 -0.010149312297336059 0 0.29961674576054759 -0.02993940850686742 0 0.30541417913508478 -0.010149312297336059 0 0.31196486262975021 -0.02562457080643309 0 0.29961674576054759 -0.02993940850686742 0 0.31765250164689879 -0.04036831272816381 0 0.31196486262975021 -0.02562457080643309 0 0.29961674576054759 -0.02993940850686742 0 0.31765250164689879 -0.04036831272816381 0 0.29961674576054759 -0.02993940850686742 0 0.29314651327395669 -0.049823672032966129 0 0.31765250164689879 -0.04036831272816381 0 0.29314651327395669 -0.049823672032966129 0 0.31765250164689879 -0.04036831272816381 0 0.3060779536689795 -0.055343016601558451 0 0.29314651327395669 -0.049823672032966129 0 0.31806654203024382 -0.046763905991769147 0 0.31098886616037003 -0.071495664477518386 0 0.3060779536689795 -0.055343016601558451 0 0.29053534523342822 -0.068263527777374794 0 0.3060779536689795 -0.055343016601558451 0 0.29314651327395669 -0.049823672032966129 0 0.29053534523342822 -0.068263527777374794 0 0.26864052490101459 -0.059279031337768448 0 0.29314651327395669 -0.049823672032966129 0 0.27839407619297218 -0.035301127816334578 0 0.29961674576054759 -0.02993940850686742 0 0.29314651327395669 -0.049823672032966129 0 0.29905841233607677 -0.2120097918151187 0 0.28068657599286012 -0.20345563299131941 0 0.28598111395833431 -0.2176592990565645 0 0.29905841233607677 -0.2120097918151187 0 0.28068657599286012 -0.20345563299131941 0 0.28598111395833431 -0.2176592990565645 0 0.29905841233607677 -0.2120097918151187 0 0.29426804281546298 -0.2256580764612138 0 0.29954433538230679 -0.1935148522352651 0 0.29905841233607677 -0.2120097918151187 0 0.28068657599286012 -0.20345563299131941 0 0.29954433538230679 -0.1935148522352651 0 0.28068657599286012 -0.20345563299131941 0 0.28034431394147757 -0.18497603228891049 0 0.29954433538230679 -0.1935148522352651 0 0.31209795410740948 -0.20710549490491251 0 0.31685630368036161 -0.1974229189757512 0 0.29954433538230679 -0.1935148522352651 0 0.31830356001833249 -0.18489245901516749 0 0.31685630368036161 -0.1974229189757512 0 0.31209795410740948 -0.20710549490491251 0 0.29905841233607677 -0.2120097918151187 0 0.31743024867929348 -0.22056395063891801 0 0.29954433538230679 -0.1935148522352651 0 0.31209795410740948 -0.20710549490491251 0 0.29905841233607677 -0.2120097918151187 0 0.29905841233607677 -0.2120097918151187 0 0.31743024867929348 -0.22056395063891801 0 0.29905841233607677 -0.2120097918151187 0 0.30459671160132379 -0.22871679890116511 0 0.29426804281546298 -0.2256580764612138 0 0.29905841233607677 -0.2120097918151187 0 0.30459671160132379 -0.22871679890116511 0 0.31743024867929348 -0.22056395063891801 0 0.30459671160132379 -0.22871679890116511 0 0.29524272451193267 -0.23869905108718001 0 0.29426804281546298 -0.2256580764612138 0 0.30459671160132379 -0.22871679890116511 0 0.30485742915228758 -0.24563863158527291 0 0.31754923913343902 -0.23316313145866061 0 0.30459671160132379 -0.22871679890116511 0 0.30485742915228758 -0.24563863158527291 0 0.29524272451193267 -0.23869905108718001 0 0.28684067419007042 -0.24982071577335299 0 0.29524272451193267 -0.23869905108718001 0 0.28646125166964781 -0.23120544144604069 0 0.30485742915228758 -0.24563863158527291 0 0.28684067419007042 -0.24982071577335299 0 0.29524272451193267 -0.23869905108718001 0 0.28684067419007042 -0.24982071577335299 0 0.28646125166964781 -0.23120544144604069 0 0.27552080228749037 -0.23789732821939169 0 0.29524272451193267 -0.23869905108718001 0 0.29426804281546298 -0.2256580764612138 0 0.28646125166964781 -0.23120544144604069 0 0.28598111395833431 -0.2176592990565645 0 0.29426804281546298 -0.2256580764612138 0 0.28646125166964781 -0.23120544144604069 0 0.28598111395833431 -0.2176592990565645 0 0.28646125166964781 -0.23120544144604069 0 0.27015159251557957 -0.22239421142108129 0 0.28646125166964781 -0.23120544144604069 0 0.27015159251557957 -0.22239421142108129 0 0.27552080228749037 -0.23789732821939169 0 0.27015159251557957 -0.22239421142108129 0 0.27552080228749037 -0.23789732821939169 0 0.26370910835577599 -0.23675556896868219 0 0.28684067419007042 -0.24982071577335299 0 0.27552080228749037 -0.23789732821939169 0 0.27044138470637807 -0.24931070348780121 0 0.27552080228749037 -0.23789732821939169 0 0.27044138470637807 -0.24931070348780121 0 0.26370910835577599 -0.23675556896868219 0 0.25055431257156929 -0.2476244210299253 0 0.26370910835577599 -0.23675556896868219 0 0.2499903799080597 -0.23088783354580261 0 0.27044138470637807 -0.24931070348780121 0 0.25055431257156929 -0.2476244210299253 0 0.26370910835577599 -0.23675556896868219 0 0.27015159251557957 -0.22239421142108129 0 0.26370910835577599 -0.23675556896868219 0 0.2499903799080597 -0.23088783354580261 0 0.27015159251557957 -0.22239421142108129 0 0.2499903799080597 -0.23088783354580261 0 0.25382110125665708 -0.21689023263611151 0 0.27015159251557957 -0.22239421142108129 0 0.26405772888341289 -0.20799845288650889 0 0.25382110125665708 -0.21689023263611151 0 0.26405772888341289 -0.20799845288650889 0 0.25382110125665708 -0.21689023263611151 0 0.2458738645678101 -0.20395232292394461 0 0.27015159251557957 -0.22239421142108129 0 0.26405772888341289 -0.20799845288650889 0 0.28068657599286012 -0.20345563299131941 0 0.28598111395833431 -0.2176592990565645 0 0.27015159251557957 -0.22239421142108129 0 0.28068657599286012 -0.20345563299131941 0 0.28068657599286012 -0.20345563299131941 0 0.26231473964964441 -0.19490147416751799 0 0.28068657599286012 -0.20345563299131941 0 0.26231473964964441 -0.19490147416751799 0 0.28034431394147757 -0.18497603228891049 0 0.26405772888341289 -0.20799845288650889 0 0.28068657599286012 -0.20345563299131941 0 0.26231473964964441 -0.19490147416751799 0 0.26231473964964441 -0.19490147416751799 0 0.28034431394147757 -0.18497603228891049 0 0.26231473964964441 -0.19490147416751799 0 0.2458738645678101 -0.20395232292394461 0 0.26405772888341289 -0.20799845288650889 0 0.26231473964964441 -0.19490147416751799 0 0.2458738645678101 -0.20395232292394461 0 0.26231473964964441 -0.19490147416751799 0 0.25034359869537398 -0.1781688976643297 0 0.26580199825802953 -0.17955376157810071 0 0.25034359869537398 -0.1781688976643297 0 0.25900740813555889 -0.16636974165205981 0 0.26580199825802953 -0.17955376157810071 0 0.25034359869537398 -0.1781688976643297 0 0.25900740813555889 -0.16636974165205981 0 0.24620921260847181 -0.16610965000205441 0 0.25900740813555889 -0.16636974165205981 0 0.2562512824769097 -0.1547624544879081 0 0.24620921260847181 -0.16610965000205441 0 0.25900740813555889 -0.16636974165205981 0 0.2562512824769097 -0.1547624544879081 0 0.26702827270776119 -0.15314027554221729 0 0.25900740813555889 -0.16636974165205981 0 0.27197587294543452 -0.16824360206039191 0 0.26580199825802953 -0.17955376157810071 0 0.25900740813555889 -0.16636974165205981 0 0.27197587294543452 -0.16824360206039191 0 0.26702827270776119 -0.15314027554221729 0 0.27197587294543452 -0.16824360206039191 0 0.26702827270776119 -0.15314027554221729 0 0.28102048258217449 -0.15577798891650449 0 0.27197587294543452 -0.16824360206039191 0 0.28102048258217449 -0.15577798891650449 0 0.28541930872414378 -0.16920103453129659 0 0.27197587294543452 -0.16824360206039191 0 0.28034431394147757 -0.18497603228891049 0 0.28541930872414378 -0.16920103453129659 0 0.26231473964964441 -0.19490147416751799 0 0.28034431394147757 -0.18497603228891049 0 0.26580199825802953 -0.17955376157810071 0 0.27197587294543452 -0.16824360206039191 0 0.28034431394147757 -0.18497603228891049 0 0.26580199825802953 -0.17955376157810071 0 0.26431419697603198 -0.12861159401645059 0 0.25603412633680639 -0.14260477470172331 0 0.24323844598614019 -0.12791634825073361 0 0.25368977415347571 -0.1201179455757008 0 0.26431419697603198 -0.12861159401645059 0 0.24323844598614019 -0.12791634825073361 0 0.26431419697603198 -0.12861159401645059 0 0.25603412633680639 -0.14260477470172331 0 0.27449718625858821 -0.13810881581306469 0 0.25603412633680639 -0.14260477470172331 0 0.2562512824769097 -0.1547624544879081 0 0.2450473566072236 -0.15357494113895201 0 0.25603412633680639 -0.14260477470172331 0 0.2562512824769097 -0.1547624544879081 0 0.26702827270776119 -0.15314027554221729 0 0.26702827270776119 -0.15314027554221729 0 0.28102048258217449 -0.15577798891650449 0 0.27449718625858821 -0.13810881581306469 0 0.25603412633680639 -0.14260477470172331 0 0.26702827270776119 -0.15314027554221729 0 0.27449718625858821 -0.13810881581306469 0 0.27526164428704908 -0.1205385635123586 0 0.26431419697603198 -0.12861159401645059 0 0.27449718625858821 -0.13810881581306469 0 0.27526164428704908 -0.1205385635123586 0 0.27449718625858821 -0.13810881581306469 0 0.28457050260126271 -0.12963501625399029 0 0.27449718625858821 -0.13810881581306469 0 0.28457050260126271 -0.12963501625399029 0 0.29168966543879088 -0.1389335042415209 0 0.2968335144206225 -0.12095918144901691 0 0.29168966543879088 -0.1389335042415209 0 0.2968335144206225 -0.12095918144901691 0 0.28457050260126271 -0.12963501625399029 0 0.29168966543879088 -0.1389335042415209 0 0.28102048258217449 -0.15577798891650449 0 0.29168966543879088 -0.1389335042415209 0 0.29806656780626911 -0.15560537765515189 0 0.28102048258217449 -0.15577798891650449 0 0.27449718625858821 -0.13810881581306469 0 0.29168966543879088 -0.1389335042415209 0 0.29168966543879088 -0.1389335042415209 0 0.29806656780626911 -0.15560537765515189 0 0.31142601847614648 -0.13646369560174579 0 0.29806656780626911 -0.15560537765515189 0 0.31142601847614648 -0.13646369560174579 0 0.31321555257523048 -0.15193244128662811 0 0.2968335144206225 -0.12095918144901691 0 0.29168966543879088 -0.1389335042415209 0 0.31142601847614648 -0.13646369560174579 0 0.32442977675975049 -0.1214972656694701 0 0.2968335144206225 -0.12095918144901691 0 0.31142601847614648 -0.13646369560174579 0 0.28034431394147757 -0.18497603228891049 0 0.28541930872414378 -0.16920103453129659 0 0.29837388823331151 -0.1750505904103041 0 0.29954433538230679 -0.1935148522352651 0 0.28034431394147757 -0.18497603228891049 0 0.29837388823331151 -0.1750505904103041 0 0.28034431394147757 -0.18497603228891049 0 0.29837388823331151 -0.1750505904103041 0 0.28102048258217449 -0.15577798891650449 0 0.29806656780626911 -0.15560537765515189 0 0.28541930872414378 -0.16920103453129659 0 0.29806656780626911 -0.15560537765515189 0 0.28541930872414378 -0.16920103453129659 0 0.29837388823331151 -0.1750505904103041 0 0.29806656780626911 -0.15560537765515189 0 0.314560276356737 -0.1678942369184005 0 0.31321555257523048 -0.15193244128662811 0 0.29806656780626911 -0.15560537765515189 0 0.29837388823331151 -0.1750505904103041 0 0.314560276356737 -0.1678942369184005 0 0.29954433538230679 -0.1935148522352651 0 0.29837388823331151 -0.1750505904103041 0 0.31830356001833249 -0.18489245901516749 0 0.29837388823331151 -0.1750505904103041 0 0.31830356001833249 -0.18489245901516749 0 0.314560276356737 -0.1678942369184005 0 0.31830356001833249 -0.18489245901516749 0 0.314560276356737 -0.1678942369184005 0 0.33314620631831071 -0.17018090029780991 0 0.314560276356737 -0.1678942369184005 0 0.33314620631831071 -0.17018090029780991 0 0.328210238142984 -0.15081438955119941 0 0.314560276356737 -0.1678942369184005 0 0.31321555257523048 -0.15193244128662811 0 0.328210238142984 -0.15081438955119941 0 0.33314620631831071 -0.17018090029780991 0 0.328210238142984 -0.15081438955119941 0 0.3434470302893185 -0.15311897735759761 0 0.33314620631831071 -0.17018090029780991 0 0.3434470302893185 -0.15311897735759761 0 0.35224207185289341 -0.16483803420680249 0 0.33314620631831071 -0.17018090029780991 0 0.33487609523913092 -0.18552180241466171 0 0.35057524940648288 -0.18283498059800929 0 0.31830356001833249 -0.18489245901516749 0 0.33314620631831071 -0.17018090029780991 0 0.33487609523913092 -0.18552180241466171 0 0.32442977675975049 -0.1214972656694701 0 0.31142601847614648 -0.13646369560174579 0 0.33399948939777668 -0.1355162896901064 0 0.31142601847614648 -0.13646369560174579 0 0.31321555257523048 -0.15193244128662811 0 0.328210238142984 -0.15081438955119941 0 0.31142601847614648 -0.13646369560174579 0 0.328210238142984 -0.15081438955119941 0 0.33399948939777668 -0.1355162896901064 0 0.328210238142984 -0.15081438955119941 0 0.3434470302893185 -0.15311897735759761 0 0.33399948939777668 -0.1355162896901064 0 0.35799017458160992 -0.1244861079550461 0 0.34293575795269171 -0.1149767945819346 0 0.33399948939777668 -0.1355162896901064 0 0.33399948939777668 -0.1355162896901064 0 0.36195085383021031 -0.14237344334668761 0 0.35799017458160992 -0.1244861079550461 0 0.33399948939777668 -0.1355162896901064 0 0.36195085383021031 -0.14237344334668761 0 0.3434470302893185 -0.15311897735759761 0 0.36195085383021031 -0.14237344334668761 0 0.35224207185289341 -0.16483803420680249 0 0.3434470302893185 -0.15311897735759761 0 0.33399948939777668 -0.1355162896901064 0 0.36195085383021031 -0.14237344334668761 0 0.35799017458160992 -0.1244861079550461 0 0.36195085383021031 -0.14237344334668761 0 0.37830609076239308 -0.12586228031163041 0 0.35057524940648288 -0.18283498059800929 0 0.35224207185289341 -0.16483803420680249 0 0.36880357898605298 -0.1719088403725702 0 0.33314620631831071 -0.17018090029780991 0 0.35057524940648288 -0.18283498059800929 0 0.35224207185289341 -0.16483803420680249 0 0.36195085383021031 -0.14237344334668761 0 0.36880357898605298 -0.1719088403725702 0 0.38265745702566262 -0.1634003938948293 0 0.36195085383021031 -0.14237344334668761 0 0.35224207185289341 -0.16483803420680249 0 0.36880357898605298 -0.1719088403725702 0 0.36880357898605298 -0.1719088403725702 0 0.36286077631938568 -0.20125224459040739 0 0.38553050370983938 -0.1803393628813105 0 0.35057524940648288 -0.18283498059800929 0 0.36880357898605298 -0.1719088403725702 0 0.36286077631938568 -0.20125224459040739 0 0.36286077631938568 -0.20125224459040739 0 0.3544847692310148 -0.21620118753478779 0 0.37962146127284258 -0.2158869844921453 0 0.36286077631938568 -0.20125224459040739 0 0.3544847692310148 -0.21620118753478779 0 0.33747936521339761 -0.20417886974765989 0 0.36286077631938568 -0.20125224459040739 0 0.33747936521339761 -0.20417886974765989 0 0.35057524940648288 -0.18283498059800929 0 0.36286077631938568 -0.20125224459040739 0 0.33747936521339761 -0.20417886974765989 0 0.33487609523913092 -0.18552180241466171 0 0.35057524940648288 -0.18283498059800929 0 0.33747936521339761 -0.20417886974765989 0 0.31830356001833249 -0.18489245901516749 0 0.33487609523913092 -0.18552180241466171 0 0.33747936521339761 -0.20417886974765989 0 0.3544847692310148 -0.21620118753478779 0 0.33747936521339761 -0.20417886974765989 0 0.33622910145761659 -0.2276663285144363 0 0.33747936521339761 -0.20417886974765989 0 0.31743024867929348 -0.22056395063891801 0 0.33622910145761659 -0.2276663285144363 0 0.31209795410740948 -0.20710549490491251 0 0.33747936521339761 -0.20417886974765989 0 0.31743024867929348 -0.22056395063891801 0 0.31209795410740948 -0.20710549490491251 0 0.33747936521339761 -0.20417886974765989 0 0.31209795410740948 -0.20710549490491251 0 0.33747936521339761 -0.20417886974765989 0 0.31685630368036161 -0.1974229189757512 0 0.31830356001833249 -0.18489245901516749 0 0.33747936521339761 -0.20417886974765989 0 0.31685630368036161 -0.1974229189757512 0 0.30485742915228758 -0.24563863158527291 0 0.32463270477667378 -0.2432299476535108 0 0.31754923913343902 -0.23316313145866061 0 0.32463270477667378 -0.2432299476535108 0 0.31754923913343902 -0.23316313145866061 0 0.33622910145761659 -0.2276663285144363 0 0.30485742915228758 -0.24563863158527291 0 0.32463270477667378 -0.2432299476535108 0 0.31708589969742262 -0.25830438135509742 0 0.31754923913343902 -0.23316313145866061 0 0.31743024867929348 -0.22056395063891801 0 0.33622910145761659 -0.2276663285144363 0 0.30459671160132379 -0.22871679890116511 0 0.31754923913343902 -0.23316313145866061 0 0.31743024867929348 -0.22056395063891801 0 0.32463270477667378 -0.2432299476535108 0 0.33622910145761659 -0.2276663285144363 0 0.34492115556190789 -0.2470179375721081 0 0.32463270477667378 -0.2432299476535108 0 0.34492115556190789 -0.2470179375721081 0 0.33008311233115611 -0.25413155736955623 0 0.34492115556190789 -0.2470179375721081 0 0.36014393054317678 -0.2336367380394824 0 0.36681920747689278 -0.25756773860619658 0 0.33622910145761659 -0.2276663285144363 0 0.34492115556190789 -0.2470179375721081 0 0.36014393054317678 -0.2336367380394824 0 0.3544847692310148 -0.21620118753478779 0 0.33622910145761659 -0.2276663285144363 0 0.36014393054317678 -0.2336367380394824 0 0.36014393054317678 -0.2336367380394824 0 0.38334675614006802 -0.23723246761391889 0 0.37962146127284258 -0.2158869844921453 0 0.3544847692310148 -0.21620118753478779 0 0.36014393054317678 -0.2336367380394824 0 0.37962146127284258 -0.2158869844921453 0 0.36014393054317678 -0.2336367380394824 0 0.38334675614006802 -0.23723246761391889 0 0.36681920747689278 -0.25756773860619658 0 0.38334675614006802 -0.23723246761391889 0 0.4077044736527336 -0.2390842795504953 0 0.39297786952748048 -0.25728747911236599 0 0.38334675614006802 -0.23723246761391889 0 0.4077044736527336 -0.2390842795504953 0 0.40635498200609438 -0.2210631150052759 0 0.38334675614006802 -0.23723246761391889 0 0.37962146127284258 -0.2158869844921453 0 0.40635498200609438 -0.2210631150052759 0 0.37962146127284258 -0.2158869844921453 0 0.38824218742537392 -0.19832561943315491 0 0.40387222157045771 -0.20430513308308651 0 0.36286077631938568 -0.20125224459040739 0 0.37962146127284258 -0.2158869844921453 0 0.38824218742537392 -0.19832561943315491 0 0.36286077631938568 -0.20125224459040739 0 0.38824218742537392 -0.19832561943315491 0 0.38553050370983938 -0.1803393628813105 0 0.36286077631938568 -0.20125224459040739 0 0.38824218742537392 -0.19832561943315491 0 0.38824218742537392 -0.19832561943315491 0 0.40939249015917639 -0.1885070577074395 0 0.38553050370983938 -0.1803393628813105 0 0.38824218742537392 -0.19832561943315491 0 0.40387222157045771 -0.20430513308308651 0 0.40939249015917639 -0.1885070577074395 0 0.37962146127284258 -0.2158869844921453 0 0.40387222157045771 -0.20430513308308651 0 0.40635498200609438 -0.2210631150052759 0 0.40387222157045771 -0.20430513308308651 0 0.42682292449872661 -0.202255519485151 0 0.40635498200609438 -0.2210631150052759 0 0.40387222157045771 -0.20430513308308651 0 0.40939249015917639 -0.1885070577074395 0 0.42682292449872661 -0.202255519485151 0 0.40939249015917639 -0.1885070577074395 0 0.42682292449872661 -0.202255519485151 0 0.42976719118050999 -0.18010742573970989 0 0.42682292449872661 -0.202255519485151 0 0.42976719118050999 -0.18010742573970989 0 0.44440992023450659 -0.1868218529522718 0 0.42682292449872661 -0.202255519485151 0 0.43559747689000528 -0.22779537499098321 0 0.40635498200609438 -0.2210631150052759 0 0.43559747689000528 -0.22779537499098321 0 0.42024528370001979 -0.25204296102993229 0 0.43559747689000528 -0.22779537499098321 0 0.44189210452420657 -0.25341202842420618 0 0.42024528370001979 -0.25204296102993229 0 0.43559747689000528 -0.22779537499098321 0 0.4077044736527336 -0.2390842795504953 0 0.42024528370001979 -0.25204296102993229 0 0.4077044736527336 -0.2390842795504953 0 0.39297786952748048 -0.25728747911236599 0 0.42024528370001979 -0.25204296102993229 0 0.43559747689000528 -0.22779537499098321 0 0.4077044736527336 -0.2390842795504953 0 0.40635498200609438 -0.2210631150052759 0 0.40357355082652618 -0.1301978955659783 0 0.38990221826264432 -0.14923059700326699 0 0.41373442087020118 -0.14056782440988361 0 0.40357355082652618 -0.1301978955659783 0 0.37830609076239308 -0.12586228031163041 0 0.38990221826264432 -0.14923059700326699 0 0.37830609076239308 -0.12586228031163041 0 0.38990221826264432 -0.14923059700326699 0 0.36195085383021031 -0.14237344334668761 0 0.37830609076239308 -0.12586228031163041 0 0.38990221826264432 -0.14923059700326699 0 0.36195085383021031 -0.14237344334668761 0 0.38990221826264432 -0.14923059700326699 0 0.36195085383021031 -0.14237344334668761 0 0.38990221826264432 -0.14923059700326699 0 0.38265745702566262 -0.1634003938948293 0 0.38990221826264432 -0.14923059700326699 0 0.41377021247656909 -0.15508600002643441 0 0.38990221826264432 -0.14923059700326699 0 0.41377021247656909 -0.15508600002643441 0 0.41373442087020118 -0.14056782440988361 0 0.38990221826264432 -0.14923059700326699 0 0.39964735421091091 -0.168868827355353 0 0.38265745702566262 -0.1634003938948293 0 0.38990221826264432 -0.14923059700326699 0 0.39964735421091091 -0.168868827355353 0 0.41377021247656909 -0.15508600002643441 0 0.38990221826264432 -0.14923059700326699 0 0.39964735421091091 -0.168868827355353 0 0.39964735421091091 -0.168868827355353 0 0.38265745702566262 -0.1634003938948293 0 0.38553050370983938 -0.1803393628813105 0 0.36880357898605298 -0.1719088403725702 0 0.38265745702566262 -0.1634003938948293 0 0.38553050370983938 -0.1803393628813105 0 0.40939249015917639 -0.1885070577074395 0 0.39964735421091091 -0.168868827355353 0 0.40939249015917639 -0.1885070577074395 0 0.39964735421091091 -0.168868827355353 0 0.38553050370983938 -0.1803393628813105 0 0.40939249015917639 -0.1885070577074395 0 0.39964735421091091 -0.168868827355353 0 0.41586304185216483 -0.17135751345971431 0 0.40939249015917639 -0.1885070577074395 0 0.42976719118050999 -0.18010742573970989 0 0.41586304185216483 -0.17135751345971431 0 0.42976719118050999 -0.18010742573970989 0 0.43011404101669048 -0.1584964524296788 0 0.44820795214333209 -0.16889832767138091 0 0.42976719118050999 -0.18010742573970989 0 0.43011404101669048 -0.1584964524296788 0 0.41586304185216483 -0.17135751345971431 0 0.39964735421091091 -0.168868827355353 0 0.41586304185216483 -0.17135751345971431 0 0.41377021247656909 -0.15508600002643441 0 0.43011404101669048 -0.1584964524296788 0 0.41586304185216483 -0.17135751345971431 0 0.41377021247656909 -0.15508600002643441 0 0.41377021247656909 -0.15508600002643441 0 0.42498329363326348 -0.1467373743804925 0 0.41373442087020118 -0.14056782440988361 0 0.43011404101669048 -0.1584964524296788 0 0.41377021247656909 -0.15508600002643441 0 0.42498329363326348 -0.1467373743804925 0 0.43011404101669048 -0.1584964524296788 0 0.42498329363326348 -0.1467373743804925 0 0.43959257808040952 -0.14527847249897319 0 0.42498329363326348 -0.1467373743804925 0 0.42653369720094358 -0.1342677090140052 0 0.43959257808040952 -0.14527847249897319 0 0.41886952912429198 -0.1217331324110783 0 0.42653369720094358 -0.1342677090140052 0 0.43663137100703681 -0.12654906671799421 0 0.42653369720094358 -0.1342677090140052 0 0.43663137100703681 -0.12654906671799421 0 0.43959257808040952 -0.14527847249897319 0 0.41886952912429198 -0.1217331324110783 0 0.40357355082652618 -0.1301978955659783 0 0.41373442087020118 -0.14056782440988361 0 0.41886952912429198 -0.1217331324110783 0 0.42653369720094358 -0.1342677090140052 0 0.41373442087020118 -0.14056782440988361 0 0.42498329363326348 -0.1467373743804925 0 0.42653369720094358 -0.1342677090140052 0 0.41373442087020118 -0.14056782440988361 0 0.46342367527338718 -0.1186763052342321 0 0.45427944859568631 -0.13374395889561211 0 0.47802272190486222 -0.12724461224211919 0 0.43663137100703681 -0.12654906671799421 0 0.45427944859568631 -0.13374395889561211 0 0.43959257808040952 -0.14527847249897319 0 0.43959257808040952 -0.14527847249897319 0 0.4597055619153822 -0.15282257671413599 0 0.44820795214333209 -0.16889832767138091 0 0.45427944859568631 -0.13374395889561211 0 0.43959257808040952 -0.14527847249897319 0 0.4597055619153822 -0.15282257671413599 0 0.45427944859568631 -0.13374395889561211 0 0.4597055619153822 -0.15282257671413599 0 0.47624285529977289 -0.1461610001349061 0 0.4623084674187164 -0.16623459441466831 0 0.44820795214333209 -0.16889832767138091 0 0.46630186326997353 -0.1793002029130831 0 0.4597055619153822 -0.15282257671413599 0 0.4623084674187164 -0.16623459441466831 0 0.44820795214333209 -0.16889832767138091 0 0.4597055619153822 -0.15282257671413599 0 0.4623084674187164 -0.16623459441466831 0 0.47582675246983441 -0.1642563868584721 0 0.4623084674187164 -0.16623459441466831 0 0.46630186326997353 -0.1793002029130831 0 0.47582675246983441 -0.1642563868584721 0 0.43011404101669048 -0.1584964524296788 0 0.43959257808040952 -0.14527847249897319 0 0.44820795214333209 -0.16889832767138091 0 0.43011404101669048 -0.1584964524296788 0 0.44820795214333209 -0.16889832767138091 0 0.44820795214333209 -0.16889832767138091 0 0.44440992023450659 -0.1868218529522718 0 0.46630186326997353 -0.1793002029130831 0 0.42976719118050999 -0.18010742573970989 0 0.44820795214333209 -0.16889832767138091 0 0.44440992023450659 -0.1868218529522718 0 0.44820795214333209 -0.16889832767138091 0 0.46630186326997353 -0.1793002029130831 0 0.46630186326997353 -0.1793002029130831 0 0.47582675246983441 -0.1642563868584721 0 0.4831509316349874 -0.18898643967223919 0 0.46630186326997353 -0.1793002029130831 0 0.4831509316349874 -0.18898643967223919 0 0.5 -0.170938845126797 0 0.4831509316349874 -0.18898643967223919 0 0.500000000000001 -0.19867267643139599 0 0.5 -0.170938845126797 0 0.47582675246983441 -0.1642563868584721 0 0.4831509316349874 -0.18898643967223919 0 0.5 -0.170938845126797 0 0.47582675246983441 -0.1642563868584721 0 0.48847604336253653 -0.15601263742596649 0 0.5 -0.170938845126797 0 0.5 -0.14320501382219811 0 0.48847604336253653 -0.15601263742596649 0 0.46630186326997353 -0.1793002029130831 0 0.47582675246983441 -0.1642563868584721 0 0.47582675246983441 -0.1642563868584721 0 0.47624285529977289 -0.1461610001349061 0 0.48847604336253653 -0.15601263742596649 0 0.4597055619153822 -0.15282257671413599 0 0.47582675246983441 -0.1642563868584721 0 0.47624285529977289 -0.1461610001349061 0 0.47624285529977289 -0.1461610001349061 0 0.5 -0.14320501382219811 0 0.48847604336253653 -0.15601263742596649 0 0.5 -0.11547118251759921 0 0.5 -0.14320501382219811 0 0.47802272190486222 -0.12724461224211919 0 0.47624285529977289 -0.1461610001349061 0 0.5 -0.14320501382219811 0 0.47802272190486222 -0.12724461224211919 0 0.45427944859568631 -0.13374395889561211 0 0.47624285529977289 -0.1461610001349061 0 0.47802272190486222 -0.12724461224211919 0 0.45831677359856648 -0.22275696828765759 0 0.45648949893016849 -0.24158792944027421 0 0.47942304626819893 -0.24066805052129089 0 0.43559747689000528 -0.22779537499098321 0 0.45648949893016849 -0.24158792944027421 0 0.44189210452420657 -0.25341202842420618 0 0.43559747689000528 -0.22779537499098321 0 0.45831677359856648 -0.22275696828765759 0 0.45648949893016849 -0.24158792944027421 0 0.43559747689000528 -0.22779537499098321 0 0.45831677359856648 -0.22275696828765759 0 0.45094967007999082 -0.20354778895203399 0 0.42682292449872661 -0.202255519485151 0 0.43559747689000528 -0.22779537499098321 0 0.45094967007999082 -0.20354778895203399 0 0.43559747689000528 -0.22779537499098321 0 0.45094967007999082 -0.20354778895203399 0 0.42682292449872661 -0.202255519485151 0 0.44440992023450659 -0.1868218529522718 0 0.45094967007999082 -0.20354778895203399 0 0.46630186326997353 -0.1793002029130831 0 0.45094967007999082 -0.20354778895203399 0 0.46736128415725542 -0.1969548290549526 0 0.46630186326997353 -0.1793002029130831 0 0.45094967007999082 -0.20354778895203399 0 0.44440992023450659 -0.1868218529522718 0 0.46630186326997353 -0.1793002029130831 0 0.45094967007999082 -0.20354778895203399 0 0.45831677359856648 -0.22275696828765759 0 0.45094967007999082 -0.20354778895203399 0 0.47570685463208989 -0.21255658408204189 0 0.45094967007999082 -0.20354778895203399 0 0.46736128415725542 -0.1969548290549526 0 0.47570685463208989 -0.21255658408204189 0 0.46736128415725542 -0.1969548290549526 0 0.47570685463208989 -0.21255658408204189 0 0.4831509316349874 -0.18898643967223919 0 0.46630186326997353 -0.1793002029130831 0 0.46736128415725542 -0.1969548290549526 0 0.4831509316349874 -0.18898643967223919 0 0.47570685463208989 -0.21255658408204189 0 0.4831509316349874 -0.18898643967223919 0 0.500000000000001 -0.19867267643139599 0 0.4831509316349874 -0.18898643967223919 0 0.500000000000001 -0.19867267643139599 0 0.47570685463208989 -0.21255658408204189 0 0.500000000000001 -0.19867267643139599 0 0.5 -0.22168321047805731 0 0.47570685463208989 -0.21255658408204189 0 0.5 -0.22168321047805731 0 0.47942304626819893 -0.24066805052129089 0 0.45831677359856648 -0.22275696828765759 0 0.47570685463208989 -0.21255658408204189 0 0.47942304626819893 -0.24066805052129089 0 0.45648949893016849 -0.24158792944027421 0 0.47942304626819893 -0.24066805052129089 0 0.47185301880654701 -0.25648153736926321 0 0.5 -0.22168321047805731 0 0.47942304626819893 -0.24066805052129089 0 0.5 -0.24469374452471859 0 0.47942304626819893 -0.24066805052129089 0 0.48971152313409883 -0.26569143156966618 0 0.47942304626819893 -0.24066805052129089 0 0.5 -0.24469374452471859 0 0.48971152313409883 -0.26569143156966618 0 0.5 -0.24469374452471859 0 0.5 -0.26770427857138002 0 0.48971152313409883 -0.26569143156966618 0 0.48971152313409883 -0.26569143156966618 0 0.49999999999999928 -0.29071481261804127 0 0.48971152313409883 -0.26569143156966618 0 0.49999999999999928 -0.29071481261804127 0 0.48589296101786622 -0.28285715246718962 0 0.5 -0.26770427857138002 0 0.48971152313409883 -0.26569143156966618 0 0.49999999999999928 -0.29071481261804127 0 0.48971152313409883 -0.26569143156966618 0 0.47496630035254428 -0.27195026835139108 0 0.48589296101786622 -0.28285715246718962 0 0.47496630035254428 -0.27195026835139108 0 0.47490513592934569 -0.28714445197015132 0 0.48589296101786622 -0.28285715246718962 0 0.47496630035254428 -0.27195026835139108 0 0.45978587197004939 -0.27998860118068708 0 0.47490513592934569 -0.28714445197015132 0 0.48971152313409883 -0.26569143156966618 0 0.47496630035254428 -0.27195026835139108 0 0.47185301880654701 -0.25648153736926321 0 0.47942304626819893 -0.24066805052129089 0 0.48971152313409883 -0.26569143156966618 0 0.47185301880654701 -0.25648153736926321 0 0.47496630035254428 -0.27195026835139108 0 0.47185301880654701 -0.25648153736926321 0 0.45731547100098052 -0.26263988278876571 0 0.45648949893016849 -0.24158792944027421 0 0.47185301880654701 -0.25648153736926321 0 0.45731547100098052 -0.26263988278876571 0 0.47496630035254428 -0.27195026835139108 0 0.45731547100098052 -0.26263988278876571 0 0.45978587197004939 -0.27998860118068708 0 0.45731547100098052 -0.26263988278876571 0 0.45978587197004939 -0.27998860118068708 0 0.43916778574891502 -0.27302084147507782 0 0.45648949893016849 -0.24158792944027421 0 0.45731547100098052 -0.26263988278876571 0 0.44189210452420657 -0.25341202842420618 0 0.45731547100098052 -0.26263988278876571 0 0.43916778574891502 -0.27302084147507782 0 0.44189210452420657 -0.25341202842420618 0 0.44166944310104711 -0.31240494559680182 0 0.45006548671100882 -0.29310307850782491 0 0.43465412488065802 -0.29145341844001937 0 0.44166944310104711 -0.31240494559680182 0 0.45006548671100882 -0.29310307850782491 0 0.46514396150531789 -0.29991795336490262 0 0.43916778574891502 -0.27302084147507782 0 0.45006548671100882 -0.29310307850782491 0 0.43465412488065802 -0.29145341844001937 0 0.45978587197004939 -0.27998860118068708 0 0.43916778574891502 -0.27302084147507782 0 0.45006548671100882 -0.29310307850782491 0 0.45978587197004939 -0.27998860118068708 0 0.45006548671100882 -0.29310307850782491 0 0.46514396150531789 -0.29991795336490262 0 0.45978587197004939 -0.27998860118068708 0 0.46514396150531789 -0.29991795336490262 0 0.47490513592934569 -0.28714445197015132 0 0.44166944310104711 -0.31240494559680182 0 0.46514396150531789 -0.29991795336490262 0 0.47075126264709011 -0.31901727930725943 0 0.46514396150531789 -0.29991795336490262 0 0.48278222018326988 -0.29947054636460552 0 0.47075126264709011 -0.31901727930725943 0 0.48278222018326988 -0.29947054636460552 0 0.47490513592934569 -0.28714445197015132 0 0.48589296101786622 -0.28285715246718962 0 0.46514396150531789 -0.29991795336490262 0 0.48278222018326988 -0.29947054636460552 0 0.47490513592934569 -0.28714445197015132 0 0.48278222018326988 -0.29947054636460552 0 0.49999999999999928 -0.29071481261804127 0 0.48589296101786622 -0.28285715246718962 0 0.48278222018326988 -0.29947054636460552 0 0.49999999999999928 -0.29071481261804127 0 0.5 -0.31717162846008867 0 0.48278222018326988 -0.29947054636460552 0 0.5 -0.31717162846008867 0 0.47075126264709011 -0.31901727930725943 0 0.5 -0.31717162846008867 0 0.5 -0.3436284443021364 0 0.48018623803836441 -0.3353270541766098 0 0.5 -0.31717162846008867 0 0.48018623803836441 -0.3353270541766098 0 0.47075126264709011 -0.31901727930725943 0 0.49999999999999939 -0.37008526014418403 0 0.47672664251491031 -0.35563439298591631 0 0.48367909260985609 -0.38802615999293177 0 0.49999999999999939 -0.37008526014418403 0 0.47672664251491031 -0.35563439298591631 0 0.5 -0.3436284443021364 0 0.49999999999999939 -0.37008526014418403 0 0.47672664251491031 -0.35563439298591631 0 0.5 -0.3436284443021364 0 0.48018623803836441 -0.3353270541766098 0 0.47672664251491031 -0.35563439298591631 0 0.48018623803836441 -0.3353270541766098 0 0.47672664251491031 -0.35563439298591631 0 0.45345328502982141 -0.34118352582764822 0 0.47672664251491031 -0.35563439298591631 0 0.45190459696852731 -0.3633523912081435 0 0.46254006200279668 -0.38293920383583269 0 0.47672664251491031 -0.35563439298591631 0 0.45345328502982141 -0.34118352582764822 0 0.47672664251491031 -0.35563439298591631 0 0.45190459696852731 -0.3633523912081435 0 0.45345328502982141 -0.34118352582764822 0 0.45190459696852731 -0.3633523912081435 0 0.45345328502982141 -0.34118352582764822 0 0.43087209862425691 -0.3548423731548726 0 0.45190459696852731 -0.3633523912081435 0 0.43087209862425691 -0.3548423731548726 0 0.43593089667085139 -0.38216246023644768 0 0.44166944310104711 -0.31240494559680182 0 0.47075126264709011 -0.31901727930725943 0 0.45345328502982141 -0.34118352582764822 0 0.48018623803836441 -0.3353270541766098 0 0.47075126264709011 -0.31901727930725943 0 0.45345328502982141 -0.34118352582764822 0 0.44166944310104711 -0.31240494559680182 0 0.45345328502982141 -0.34118352582764822 0 0.42957638541302129 -0.33421742783440228 0 0.45345328502982141 -0.34118352582764822 0 0.42957638541302129 -0.33421742783440228 0 0.43087209862425691 -0.3548423731548726 0 0.44166944310104711 -0.31240494559680182 0 0.42957638541302129 -0.33421742783440228 0 0.41081467580480979 -0.32122258800651549 0 0.42957638541302129 -0.33421742783440228 0 0.41107242450517129 -0.34143370658617378 0 0.43087209862425691 -0.3548423731548726 0 0.42957638541302129 -0.33421742783440228 0 0.41107242450517129 -0.34143370658617378 0 0.41081467580480979 -0.32122258800651549 0 0.43087209862425691 -0.3548423731548726 0 0.41198277433293901 -0.36464196206035548 0 0.43593089667085139 -0.38216246023644768 0 0.41107242450517129 -0.34143370658617378 0 0.41198277433293901 -0.36464196206035548 0 0.3973441234580295 -0.35382989864636688 0 0.41107242450517129 -0.34143370658617378 0 0.43087209862425691 -0.3548423731548726 0 0.41198277433293901 -0.36464196206035548 0 0.41198277433293901 -0.36464196206035548 0 0.3973441234580295 -0.35382989864636688 0 0.38629009474348808 -0.370013760196305 0 0.41198277433293901 -0.36464196206035548 0 0.38629009474348808 -0.370013760196305 0 0.41038700799583711 -0.38556957354196741 0 0.3973441234580295 -0.35382989864636688 0 0.38629009474348808 -0.370013760196305 0 0.36748977472022398 -0.34623523764832381 0 0.3973441234580295 -0.35382989864636688 0 0.38789650635024259 -0.33269364726132022 0 0.36748977472022398 -0.34623523764832381 0 0.41081467580480979 -0.32122258800651549 0 0.3936262837838142 -0.31610881242921007 0 0.38789650635024259 -0.33269364726132022 0 0.41107242450517129 -0.34143370658617378 0 0.41081467580480979 -0.32122258800651549 0 0.38789650635024259 -0.33269364726132022 0 0.41107242450517129 -0.34143370658617378 0 0.3973441234580295 -0.35382989864636688 0 0.38789650635024259 -0.33269364726132022 0 0.38789650635024259 -0.33269364726132022 0 0.37845939303001741 -0.3109370887984958 0 0.36236822411567549 -0.32103701415941871 0 0.3936262837838142 -0.31610881242921007 0 0.38789650635024259 -0.33269364726132022 0 0.37845939303001741 -0.3109370887984958 0 0.37845939303001741 -0.3109370887984958 0 0.39825368117976029 -0.2973954892283151 0 0.37538827704564698 -0.29361808214020502 0 0.3936262837838142 -0.31610881242921007 0 0.37845939303001741 -0.3109370887984958 0 0.39825368117976029 -0.2973954892283151 0 0.41081467580480979 -0.32122258800651549 0 0.3936262837838142 -0.31610881242921007 0 0.39825368117976029 -0.2973954892283151 0 0.39825368117976029 -0.2973954892283151 0 0.38133162866000903 -0.27645657289584652 0 0.40489309051003441 -0.27629054706888151 0 0.39825368117976029 -0.2973954892283151 0 0.37538827704564698 -0.29361808214020502 0 0.38133162866000903 -0.27645657289584652 0 0.38133162866000903 -0.27645657289584652 0 0.39297786952748048 -0.25728747911236599 0 0.36681920747689278 -0.25756773860619658 0 0.38334675614006802 -0.23723246761391889 0 0.39297786952748048 -0.25728747911236599 0 0.36681920747689278 -0.25756773860619658 0 0.39297786952748048 -0.25728747911236599 0 0.40489309051003441 -0.27629054706888151 0 0.42024528370001979 -0.25204296102993229 0 0.38133162866000903 -0.27645657289584652 0 0.39297786952748048 -0.25728747911236599 0 0.40489309051003441 -0.27629054706888151 0 0.40489309051003441 -0.27629054706888151 0 0.42024528370001979 -0.25204296102993229 0 0.42096662772004972 -0.28164880524750779 0 0.40489309051003441 -0.27629054706888151 0 0.42024528370001979 -0.25204296102993229 0 0.43916778574891502 -0.27302084147507782 0 0.44189210452420657 -0.25341202842420618 0 0.42024528370001979 -0.25204296102993229 0 0.43916778574891502 -0.27302084147507782 0 0.42024528370001979 -0.25204296102993229 0 0.42096662772004972 -0.28164880524750779 0 0.43465412488065802 -0.29145341844001937 0 0.42097749602792839 -0.30194160431026829 0 0.42096662772004972 -0.28164880524750779 0 0.43916778574891502 -0.27302084147507782 0 0.43465412488065802 -0.29145341844001937 0 0.42096662772004972 -0.28164880524750779 0 0.44166944310104711 -0.31240494559680182 0 0.41081467580480979 -0.32122258800651549 0 0.42097749602792839 -0.30194160431026829 0 0.44166944310104711 -0.31240494559680182 0 0.43465412488065802 -0.29145341844001937 0 0.42097749602792839 -0.30194160431026829 0 0.41081467580480979 -0.32122258800651549 0 0.39825368117976029 -0.2973954892283151 0 0.42097749602792839 -0.30194160431026829 0 0.39825368117976029 -0.2973954892283151 0 0.40489309051003441 -0.27629054706888151 0 0.42096662772004972 -0.28164880524750779 0 0.39825368117976029 -0.2973954892283151 0 0.42097749602792839 -0.30194160431026829 0 0.42096662772004972 -0.28164880524750779 0 0.44126349643634671 -0.49999999999999861 0 0.44310043718619929 -0.47847184480963312 0 0.44126349643634671 -0.49999999999999861 0 0.44310043718619929 -0.47847184480963312 0 0.46657058724807482 -0.4698724990599048 0 0.44126349643634671 -0.49999999999999861 0 0.46657058724807482 -0.4698724990599048 0 0.5 -0.5 0 0.46657058724807482 -0.4698724990599048 0 0.5 -0.5 0 0.5 -0.44313715559629357 0 0.46657058724807482 -0.4698724990599048 0 0.5 -0.44313715559629357 0 0.4701222119298516 -0.44068230433423428 0 0.4701222119298516 -0.44068230433423428 0 0.44493737793605198 -0.45694368961926768 0 0.45067512227633061 -0.42834182244528801 0 0.46657058724807482 -0.4698724990599048 0 0.4701222119298516 -0.44068230433423428 0 0.44493737793605198 -0.45694368961926768 0 0.44310043718619929 -0.47847184480963312 0 0.46657058724807482 -0.4698724990599048 0 0.44493737793605198 -0.45694368961926768 0 0.44310043718619929 -0.47847184480963312 0 0.44493737793605198 -0.45694368961926768 0 0.44310043718619929 -0.47847184480963312 0 0.44493737793605198 -0.45694368961926768 0 0.42782968349068601 -0.46102162568129018 0 0.44493737793605198 -0.45694368961926768 0 0.45067512227633061 -0.42834182244528801 0 0.42839771733943832 -0.43257907721995048 0 0.45067512227633061 -0.42834182244528801 0 0.44432696321094872 -0.4068251261371697 0 0.42839771733943832 -0.43257907721995048 0 0.45067512227633061 -0.42834182244528801 0 0.44432696321094872 -0.4068251261371697 0 0.46448138697462732 -0.4114130092126112 0 0.4701222119298516 -0.44068230433423428 0 0.45067512227633061 -0.42834182244528801 0 0.46448138697462732 -0.4114130092126112 0 0.4701222119298516 -0.44068230433423428 0 0.46448138697462732 -0.4114130092126112 0 0.48505693069892791 -0.42090103817075808 0 0.5 -0.44313715559629357 0 0.48505693069892791 -0.42090103817075808 0 0.5 -0.40112607936915629 0 0.46448138697462732 -0.4114130092126112 0 0.48505693069892791 -0.42090103817075808 0 0.48367909260985609 -0.38802615999293177 0 0.5 -0.44313715559629357 0 0.4701222119298516 -0.44068230433423428 0 0.48505693069892791 -0.42090103817075808 0 0.46448138697462732 -0.4114130092126112 0 0.48367909260985609 -0.38802615999293177 0 0.46254006200279668 -0.38293920383583269 0 0.48505693069892791 -0.42090103817075808 0 0.5 -0.40112607936915629 0 0.48367909260985609 -0.38802615999293177 0 0.47672664251491031 -0.35563439298591631 0 0.48367909260985609 -0.38802615999293177 0 0.46254006200279668 -0.38293920383583269 0 0.49999999999999939 -0.37008526014418403 0 0.5 -0.40112607936915629 0 0.48367909260985609 -0.38802615999293177 0 0.44432696321094872 -0.4068251261371697 0 0.46448138697462732 -0.4114130092126112 0 0.46254006200279668 -0.38293920383583269 0 0.44432696321094872 -0.4068251261371697 0 0.46254006200279668 -0.38293920383583269 0 0.43593089667085139 -0.38216246023644768 0 0.45190459696852731 -0.3633523912081435 0 0.46254006200279668 -0.38293920383583269 0 0.43593089667085139 -0.38216246023644768 0 0.42393659400164801 -0.40351518387288848 0 0.41038700799583711 -0.38556957354196741 0 0.3995304308004296 -0.41717377652570109 0 0.43593089667085139 -0.38216246023644768 0 0.41038700799583711 -0.38556957354196741 0 0.43593089667085139 -0.38216246023644768 0 0.42393659400164801 -0.40351518387288848 0 0.41038700799583711 -0.38556957354196741 0 0.44432696321094872 -0.4068251261371697 0 0.43593089667085139 -0.38216246023644768 0 0.42393659400164801 -0.40351518387288848 0 0.41198277433293901 -0.36464196206035548 0 0.43593089667085139 -0.38216246023644768 0 0.41038700799583711 -0.38556957354196741 0 0.41038700799583711 -0.38556957354196741 0 0.3848431193208226 -0.38897668684748721 0 0.41038700799583711 -0.38556957354196741 0 0.3848431193208226 -0.38897668684748721 0 0.3995304308004296 -0.41717377652570109 0 0.38629009474348808 -0.370013760196305 0 0.41038700799583711 -0.38556957354196741 0 0.3848431193208226 -0.38897668684748721 0 0.38629009474348808 -0.370013760196305 0 0.3848431193208226 -0.38897668684748721 0 0.37117280264001762 -0.38027325049036431 0 0.3848431193208226 -0.38897668684748721 0 0.3995304308004296 -0.41717377652570109 0 0.37125387822661582 -0.41355976914856102 0 0.3995304308004296 -0.41717377652570109 0 0.37818670087885908 -0.43780709605612411 0 0.37125387822661582 -0.41355976914856102 0 0.3995304308004296 -0.41717377652570109 0 0.39801147536407822 -0.43933323187008211 0 0.37818670087885908 -0.43780709605612411 0 0.3995304308004296 -0.41717377652570109 0 0.42839771733943832 -0.43257907721995048 0 0.39801147536407822 -0.43933323187008211 0 0.42393659400164801 -0.40351518387288848 0 0.3995304308004296 -0.41717377652570109 0 0.42839771733943832 -0.43257907721995048 0 0.44432696321094872 -0.4068251261371697 0 0.42393659400164801 -0.40351518387288848 0 0.42839771733943832 -0.43257907721995048 0 0.42839771733943832 -0.43257907721995048 0 0.42782968349068601 -0.46102162568129018 0 0.41128656061123342 -0.45505271814663362 0 0.44493737793605198 -0.45694368961926768 0 0.42839771733943832 -0.43257907721995048 0 0.42782968349068601 -0.46102162568129018 0 0.42782968349068601 -0.46102162568129018 0 0.41128656061123342 -0.45505271814663362 0 0.41971052382581892 -0.47853502017052529 0 0.42839771733943832 -0.43257907721995048 0 0.41128656061123342 -0.45505271814663362 0 0.42839771733943832 -0.43257907721995048 0 0.41128656061123342 -0.45505271814663362 0 0.39801147536407822 -0.43933323187008211 0 0.41128656061123342 -0.45505271814663362 0 0.39801147536407822 -0.43933323187008211 0 0.38581415882335618 -0.45652511062522422 0 0.37818670087885908 -0.43780709605612411 0 0.38581415882335618 -0.45652511062522422 0 0.36427889488180543 -0.45646354209850859 0 0.39801147536407822 -0.43933323187008211 0 0.37818670087885908 -0.43780709605612411 0 0.38581415882335618 -0.45652511062522422 0 0.41128656061123342 -0.45505271814663362 0 0.39417540388302857 -0.47752635907331648 0 0.41128656061123342 -0.45505271814663362 0 0.38581415882335618 -0.45652511062522422 0 0.39417540388302857 -0.47752635907331648 0 0.38581415882335618 -0.45652511062522422 0 0.39417540388302857 -0.47752635907331648 0 0.36987202878178338 -0.47314167619299968 0 0.39417540388302857 -0.47752635907331648 0 0.37113411968751497 -0.48663944775412371 0 0.36987202878178338 -0.47314167619299968 0 0.39417540388302857 -0.47752635907331648 0 0.37706424715482401 -0.49999999999999972 0 0.39846399691533158 -0.5 0 0.39417540388302857 -0.47752635907331648 0 0.37706424715482401 -0.49999999999999972 0 0.37113411968751497 -0.48663944775412371 0 0.39417540388302857 -0.47752635907331648 0 0.37706424715482401 -0.49999999999999972 0 0.39417540388302857 -0.47752635907331648 0 0.39846399691533158 -0.5 0 0.41971052382581892 -0.47853502017052529 0 0.39846399691533158 -0.5 0 0.41986374667583909 -0.5 0 0.41971052382581892 -0.47853502017052529 0 0.41128656061123342 -0.45505271814663362 0 0.39417540388302857 -0.47752635907331648 0 0.41971052382581892 -0.47853502017052529 0 0.44310043718619929 -0.47847184480963312 0 0.42782968349068601 -0.46102162568129018 0 0.41971052382581892 -0.47853502017052529 0 0.44126349643634671 -0.49999999999999861 0 0.44310043718619929 -0.47847184480963312 0 0.41971052382581892 -0.47853502017052529 0 0.44126349643634671 -0.49999999999999861 0 0.41986374667583909 -0.5 0 0.41971052382581892 -0.47853502017052529 0 0.32562592798689921 -0.49202505996318541 0 0.31649608272935098 -0.5 0 0.30966048499509369 -0.49292062915805102 0 0.32562592798689921 -0.49202505996318541 0 0.30517403678361382 -0.48405011992636998 0 0.32562592798689921 -0.49202505996318541 0 0.30517403678361382 -0.48405011992636998 0 0.30966048499509369 -0.49292062915805102 0 0.32562592798689921 -0.49202505996318541 0 0.31818259664476878 -0.4746237890016769 0 0.30517403678361382 -0.48405011992636998 0 0.32562592798689921 -0.49202505996318541 0 0.31818259664476878 -0.4746237890016769 0 0.33684188276873422 -0.48005963771187632 0 0.31818259664476878 -0.4746237890016769 0 0.33684188276873422 -0.48005963771187632 0 0.33198234498102058 -0.46639911331085482 0 0.33684188276873422 -0.48005963771187632 0 0.34619472236409737 -0.46478066049123712 0 0.33198234498102058 -0.46639911331085482 0 0.32562592798689921 -0.49202505996318541 0 0.34607781919018449 -0.50000000000000056 0 0.32562592798689921 -0.49202505996318541 0 0.33684188276873422 -0.48005963771187632 0 0.34607781919018449 -0.50000000000000056 0 0.32562592798689921 -0.49202505996318541 0 0.31649608272935098 -0.5 0 0.34607781919018449 -0.50000000000000056 0 0.34607781919018449 -0.50000000000000056 0 0.36157103317250427 -0.5 0 0.35298788544543502 -0.48252920350430228 0 0.33684188276873422 -0.48005963771187632 0 0.34607781919018449 -0.50000000000000056 0 0.35298788544543502 -0.48252920350430228 0 0.36157103317250427 -0.5 0 0.37113411968751497 -0.48663944775412371 0 0.35298788544543502 -0.48252920350430228 0 0.37706424715482401 -0.49999999999999972 0 0.36157103317250427 -0.5 0 0.37113411968751497 -0.48663944775412371 0 0.36987202878178338 -0.47314167619299968 0 0.35298788544543502 -0.48252920350430228 0 0.35779056682553873 -0.47010132033902979 0 0.37113411968751497 -0.48663944775412371 0 0.36987202878178338 -0.47314167619299968 0 0.35298788544543502 -0.48252920350430228 0 0.33684188276873422 -0.48005963771187632 0 0.35298788544543502 -0.48252920350430228 0 0.34619472236409737 -0.46478066049123712 0 0.35298788544543502 -0.48252920350430228 0 0.35779056682553873 -0.47010132033902979 0 0.34619472236409737 -0.46478066049123712 0 0.35779056682553873 -0.47010132033902979 0 0.34619472236409737 -0.46478066049123712 0 0.36427889488180543 -0.45646354209850859 0 0.34619472236409737 -0.46478066049123712 0 0.36427889488180543 -0.45646354209850859 0 0.35007659321821388 -0.4510948349817141 0 0.34619472236409737 -0.46478066049123712 0 0.35007659321821388 -0.4510948349817141 0 0.33765844383168903 -0.45145570030047261 0 0.36987202878178338 -0.47314167619299968 0 0.35779056682553873 -0.47010132033902979 0 0.36427889488180543 -0.45646354209850859 0 0.38581415882335618 -0.45652511062522422 0 0.36987202878178338 -0.47314167619299968 0 0.36427889488180543 -0.45646354209850859 0 0.37818670087885908 -0.43780709605612411 0 0.36427889488180543 -0.45646354209850859 0 0.35550650959583657 -0.43557181743271678 0 0.36427889488180543 -0.45646354209850859 0 0.35007659321821388 -0.4510948349817141 0 0.35550650959583657 -0.43557181743271678 0 0.35007659321821388 -0.4510948349817141 0 0.3410065667094288 -0.4428517253232751 0 0.35550650959583657 -0.43557181743271678 0 0.3410065667094288 -0.4428517253232751 0 0.32780660952705332 -0.4426681895370293 0 0.33905471397837789 -0.43282358177158331 0 0.33765844383168903 -0.45145570030047261 0 0.32201234635877402 -0.45497668923944901 0 0.32780660952705332 -0.4426681895370293 0 0.3410065667094288 -0.4428517253232751 0 0.33765844383168903 -0.45145570030047261 0 0.32780660952705332 -0.4426681895370293 0 0.35007659321821388 -0.4510948349817141 0 0.3410065667094288 -0.4428517253232751 0 0.33765844383168903 -0.45145570030047261 0 0.34619472236409737 -0.46478066049123712 0 0.33198234498102058 -0.46639911331085482 0 0.32201234635877402 -0.45497668923944901 0 0.34619472236409737 -0.46478066049123712 0 0.32201234635877402 -0.45497668923944901 0 0.34619472236409737 -0.46478066049123712 0 0.33765844383168903 -0.45145570030047261 0 0.32201234635877402 -0.45497668923944901 0 0.33198234498102058 -0.46639911331085482 0 0.31100520673497872 -0.46025147469792221 0 0.31818259664476878 -0.4746237890016769 0 0.33198234498102058 -0.46639911331085482 0 0.31100520673497872 -0.46025147469792221 0 0.33198234498102058 -0.46639911331085482 0 0.32201234635877402 -0.45497668923944901 0 0.31100520673497872 -0.46025147469792221 0 0.32201234635877402 -0.45497668923944901 0 0.31764421942757121 -0.44305430707041532 0 0.29782997035344982 -0.44517271798766228 0 0.31764421942757121 -0.44305430707041532 0 0.322927951471007 -0.42939963151751942 0 0.29782997035344982 -0.44517271798766228 0 0.31764421942757121 -0.44305430707041532 0 0.32780660952705332 -0.4426681895370293 0 0.322927951471007 -0.42939963151751942 0 0.32201234635877402 -0.45497668923944901 0 0.31764421942757121 -0.44305430707041532 0 0.32780660952705332 -0.4426681895370293 0 0.322927951471007 -0.42939963151751942 0 0.32513673809401511 -0.40498764132676718 0 0.30789732284213328 -0.42340848947181131 0 0.32513673809401511 -0.40498764132676718 0 0.30496986153607047 -0.40841511724334212 0 0.30789732284213328 -0.42340848947181131 0 0.32513673809401511 -0.40498764132676718 0 0.30789732284213328 -0.42340848947181131 0 0.322927951471007 -0.42939963151751942 0 0.34802593258856368 -0.41362654504737573 0 0.322927951471007 -0.42939963151751942 0 0.34802593258856368 -0.41362654504737573 0 0.32513673809401511 -0.40498764132676718 0 0.322927951471007 -0.42939963151751942 0 0.33905471397837789 -0.43282358177158331 0 0.34802593258856368 -0.41362654504737573 0 0.32780660952705332 -0.4426681895370293 0 0.322927951471007 -0.42939963151751942 0 0.33905471397837789 -0.43282358177158331 0 0.33905471397837789 -0.43282358177158331 0 0.35550650959583657 -0.43557181743271678 0 0.34802593258856368 -0.41362654504737573 0 0.3410065667094288 -0.4428517253232751 0 0.33905471397837789 -0.43282358177158331 0 0.35550650959583657 -0.43557181743271678 0 0.37818670087885908 -0.43780709605612411 0 0.35550650959583657 -0.43557181743271678 0 0.37125387822661582 -0.41355976914856102 0 0.37125387822661582 -0.41355976914856102 0 0.34802593258856368 -0.41362654504737573 0 0.35929923064580821 -0.39238380015300689 0 0.35550650959583657 -0.43557181743271678 0 0.37125387822661582 -0.41355976914856102 0 0.34802593258856368 -0.41362654504737573 0 0.34802593258856368 -0.41362654504737573 0 0.35929923064580821 -0.39238380015300689 0 0.34237615334589683 -0.38656679318172321 0 0.3848431193208226 -0.38897668684748721 0 0.37125387822661582 -0.41355976914856102 0 0.35929923064580821 -0.39238380015300689 0 0.3848431193208226 -0.38897668684748721 0 0.35929923064580821 -0.39238380015300689 0 0.3848431193208226 -0.38897668684748721 0 0.35929923064580821 -0.39238380015300689 0 0.37117280264001762 -0.38027325049036431 0 0.35929923064580821 -0.39238380015300689 0 0.37117280264001762 -0.38027325049036431 0 0.35961556859777838 -0.3681459450366793 0 0.34237615334589683 -0.38656679318172321 0 0.35961556859777838 -0.3681459450366793 0 0.35929923064580821 -0.39238380015300689 0 0.34237615334589683 -0.38656679318172321 0 0.35961556859777838 -0.3681459450366793 0 0.34237615334589683 -0.38656679318172321 0 0.32418377127085812 -0.38658290145261021 0 0.32952024162480281 -0.37368835211814971 0 0.34237615334589683 -0.38656679318172321 0 0.32513673809401511 -0.40498764132676718 0 0.34237615334589683 -0.38656679318172321 0 0.32513673809401511 -0.40498764132676718 0 0.32418377127085812 -0.38658290145261021 0 0.34802593258856368 -0.41362654504737573 0 0.34237615334589683 -0.38656679318172321 0 0.32513673809401511 -0.40498764132676718 0 0.32513673809401511 -0.40498764132676718 0 0.3118649237342711 -0.39506091778107938 0 0.30496986153607047 -0.40841511724334212 0 0.32513673809401511 -0.40498764132676718 0 0.32418377127085812 -0.38658290145261021 0 0.3118649237342711 -0.39506091778107938 0 0.32418377127085812 -0.38658290145261021 0 0.3118649237342711 -0.39506091778107938 0 0.31202079955530482 -0.37261080285533138 0 0.32418377127085812 -0.38658290145261021 0 0.32952024162480281 -0.37368835211814971 0 0.31202079955530482 -0.37261080285533138 0 0.30060511491861308 -0.38509652967206792 0 0.31202079955530482 -0.37261080285533138 0 0.29316657613898628 -0.37306349980384662 0 0.30060511491861308 -0.38509652967206792 0 0.3118649237342711 -0.39506091778107938 0 0.31202079955530482 -0.37261080285533138 0 0.3118649237342711 -0.39506091778107938 0 0.29802740458981453 -0.39811996626693369 0 0.30496986153607047 -0.40841511724334212 0 0.29802740458981453 -0.39811996626693369 0 0.29198123075085192 -0.40960494161336769 0 0.30496986153607047 -0.40841511724334212 0 0.30060511491861308 -0.38509652967206792 0 0.3118649237342711 -0.39506091778107938 0 0.29802740458981453 -0.39811996626693369 0 0.29802740458981453 -0.39811996626693369 0 0.28794587057468829 -0.38662746165314787 0 0.2804518952016401 -0.40200067821645002 0 0.29802740458981453 -0.39811996626693369 0 0.2804518952016401 -0.40200067821645002 0 0.29198123075085192 -0.40960494161336769 0 0.30060511491861308 -0.38509652967206792 0 0.29802740458981453 -0.39811996626693369 0 0.28794587057468829 -0.38662746165314787 0 0.30060511491861308 -0.38509652967206792 0 0.28794587057468829 -0.38662746165314787 0 0.29316657613898628 -0.37306349980384662 0 0.28794587057468829 -0.38662746165314787 0 0.29316657613898628 -0.37306349980384662 0 0.28060987338039561 -0.37454731990653262 0 0.27300847671072398 -0.38477324275981323 0 0.25496122487686712 -0.37909187205610068 0 0.26939478011790557 -0.36887463635517498 0 0.28794587057468829 -0.38662746165314787 0 0.27300847671072398 -0.38477324275981323 0 0.28060987338039561 -0.37454731990653262 0 0.27300847671072398 -0.38477324275981323 0 0.26939478011790557 -0.36887463635517498 0 0.28060987338039561 -0.37454731990653262 0 0.25496122487686712 -0.37909187205610068 0 0.26088703439237082 -0.39947924417218789 0 0.2426789066796087 -0.3932493085865163 0 0.27300847671072398 -0.38477324275981323 0 0.25496122487686712 -0.37909187205610068 0 0.26088703439237082 -0.39947924417218789 0 0.26088703439237082 -0.39947924417218789 0 0.2804518952016401 -0.40200067821645002 0 0.26998478537215242 -0.4144746863567732 0 0.27300847671072398 -0.38477324275981323 0 0.26088703439237082 -0.39947924417218789 0 0.2804518952016401 -0.40200067821645002 0 0.28794587057468829 -0.38662746165314787 0 0.27300847671072398 -0.38477324275981323 0 0.2804518952016401 -0.40200067821645002 0 0.2804518952016401 -0.40200067821645002 0 0.26998478537215242 -0.4144746863567732 0 0.2827343012797886 -0.41898039205167331 0 0.26088703439237082 -0.39947924417218789 0 0.26998478537215242 -0.4144746863567732 0 0.25526308612564969 -0.418378464194676 0 0.26998478537215242 -0.4144746863567732 0 0.25526308612564969 -0.418378464194676 0 0.26324959490120847 -0.43115321027943609 0 0.26088703439237082 -0.39947924417218789 0 0.25526308612564969 -0.418378464194676 0 0.2452484179480478 -0.40864469128694753 0 0.25526308612564969 -0.418378464194676 0 0.25591542751626611 -0.44410665790115061 0 0.25526308612564969 -0.418378464194676 0 0.25591542751626611 -0.44410665790115061 0 0.24677314110426879 -0.43146609470332958 0 0.25526308612564969 -0.418378464194676 0 0.26324959490120847 -0.43115321027943609 0 0.25591542751626611 -0.44410665790115061 0 0.26998478537215242 -0.4144746863567732 0 0.2827343012797886 -0.41898039205167331 0 0.28233341683694368 -0.43889013578216662 0 0.26998478537215242 -0.4144746863567732 0 0.28233341683694368 -0.43889013578216662 0 0.26324959490120847 -0.43115321027943609 0 0.28233341683694368 -0.43889013578216662 0 0.26998478537215242 -0.4144746863567732 0 0.26324959490120847 -0.43115321027943609 0 0.28233341683694368 -0.43889013578216662 0 0.29170689955089102 -0.42848342038451992 0 0.2827343012797886 -0.41898039205167331 0 0.28233341683694368 -0.43889013578216662 0 0.29170689955089102 -0.42848342038451992 0 0.29050620298887581 -0.44220353064720919 0 0.28233341683694368 -0.43889013578216662 0 0.29170689955089102 -0.42848342038451992 0 0.30789732284213328 -0.42340848947181131 0 0.29050620298887581 -0.44220353064720919 0 0.29170689955089102 -0.42848342038451992 0 0.2827343012797886 -0.41898039205167331 0 0.29491154920533719 -0.4193087470000933 0 0.2804518952016401 -0.40200067821645002 0 0.2827343012797886 -0.41898039205167331 0 0.29198123075085192 -0.40960494161336769 0 0.2827343012797886 -0.41898039205167331 0 0.29198123075085192 -0.40960494161336769 0 0.29491154920533719 -0.4193087470000933 0 0.29491154920533719 -0.4193087470000933 0 0.30496986153607047 -0.40841511724334212 0 0.30789732284213328 -0.42340848947181131 0 0.29198123075085192 -0.40960494161336769 0 0.29491154920533719 -0.4193087470000933 0 0.30496986153607047 -0.40841511724334212 0 0.30789732284213328 -0.42340848947181131 0 0.29050620298887581 -0.44220353064720919 0 0.322927951471007 -0.42939963151751942 0 0.30789732284213328 -0.42340848947181131 0 0.29782997035344982 -0.44517271798766228 0 0.29170689955089102 -0.42848342038451992 0 0.29491154920533719 -0.4193087470000933 0 0.30789732284213328 -0.42340848947181131 0 0.30789732284213328 -0.42340848947181131 0 0.29782997035344982 -0.44517271798766228 0 0.29050620298887581 -0.44220353064720919 0 0.322927951471007 -0.42939963151751942 0 0.29782997035344982 -0.44517271798766228 0 0.32201234635877402 -0.45497668923944901 0 0.29782997035344982 -0.44517271798766228 0 0.32201234635877402 -0.45497668923944901 0 0.29782997035344982 -0.44517271798766228 0 0.31100520673497872 -0.46025147469792221 0 0.31100520673497872 -0.46025147469792221 0 0.29002806848893697 -0.4541038360849885 0 0.29760105263627579 -0.46907697800567921 0 0.29782997035344982 -0.44517271798766228 0 0.31100520673497872 -0.46025147469792221 0 0.29002806848893697 -0.4541038360849885 0 0.31100520673497872 -0.46025147469792221 0 0.29002806848893697 -0.4541038360849885 0 0.31100520673497872 -0.46025147469792221 0 0.29760105263627579 -0.46907697800567921 0 0.30799072319990928 -0.47200059040791198 0 0.29002806848893697 -0.4541038360849885 0 0.28580434640553071 -0.46104619472247521 0 0.29760105263627579 -0.46907697800567921 0 0.29002806848893697 -0.4541038360849885 0 0.29760105263627579 -0.46907697800567921 0 0.28580434640553071 -0.46104619472247521 0 0.28384255175312778 -0.46775417332645502 0 0.29760105263627579 -0.46907697800567921 0 0.29002806848893697 -0.4541038360849885 0 0.28580434640553071 -0.46104619472247521 0 0.28565712265006582 -0.45282287034510038 0 0.29002806848893697 -0.4541038360849885 0 0.28565712265006582 -0.45282287034510038 0 0.28565712265006582 -0.45282287034510038 0 0.28848221655858558 -0.45104741078535843 0 0.28233341683694368 -0.43889013578216662 0 0.29002806848893697 -0.4541038360849885 0 0.28565712265006582 -0.45282287034510038 0 0.28848221655858558 -0.45104741078535843 0 0.28565712265006582 -0.45282287034510038 0 0.28848221655858558 -0.45104741078535843 0 0.29782997035344982 -0.44517271798766228 0 0.28848221655858558 -0.45104741078535843 0 0.29782997035344982 -0.44517271798766228 0 0.28848221655858558 -0.45104741078535843 0 0.29050620298887581 -0.44220353064720919 0 0.29002806848893697 -0.4541038360849885 0 0.28848221655858558 -0.45104741078535843 0 0.29782997035344982 -0.44517271798766228 0 0.29002806848893697 -0.4541038360849885 0 0.28848221655858558 -0.45104741078535843 0 0.29782997035344982 -0.44517271798766228 0 0.29050620298887581 -0.44220353064720919 0 0.29050620298887581 -0.44220353064720919 0 0.28233341683694368 -0.43889013578216662 0 0.28848221655858558 -0.45104741078535843 0 0.28233341683694368 -0.43889013578216662 0 0.28848221655858558 -0.45104741078535843 0 0.29050620298887581 -0.44220353064720919 0 0.28233341683694368 -0.43889013578216662 0 0.27078627508316577 -0.44846476412312591 0 0.25591542751626611 -0.44410665790115061 0 0.27189293649924728 -0.46147311585015133 0 0.26324959490120847 -0.43115321027943609 0 0.28233341683694368 -0.43889013578216662 0 0.27078627508316577 -0.44846476412312591 0 0.28565712265006582 -0.45282287034510038 0 0.28233341683694368 -0.43889013578216662 0 0.27078627508316577 -0.44846476412312591 0 0.28565712265006582 -0.45282287034510038 0 0.27078627508316577 -0.44846476412312591 0 0.26324959490120847 -0.43115321027943609 0 0.27078627508316577 -0.44846476412312591 0 0.25591542751626611 -0.44410665790115061 0 0.27078627508316577 -0.44846476412312591 0 0.25591542751626611 -0.44410665790115061 0 0.25591542751626611 -0.44410665790115061 0 0.25654743482366149 -0.46903288006405158 0 0.25591542751626611 -0.44410665790115061 0 0.27189293649924728 -0.46147311585015133 0 0.25654743482366149 -0.46903288006405158 0 0.27189293649924728 -0.46147311585015133 0 0.2659480895075651 -0.47415478966305841 0 0.25654743482366149 -0.46903288006405158 0 0.28580434640553071 -0.46104619472247521 0 0.28565712265006582 -0.45282287034510038 0 0.27189293649924728 -0.46147311585015133 0 0.28565712265006582 -0.45282287034510038 0 0.27189293649924728 -0.46147311585015133 0 0.28565712265006582 -0.45282287034510038 0 0.27078627508316577 -0.44846476412312591 0 0.27189293649924728 -0.46147311585015133 0 0.28384255175312778 -0.46775417332645502 0 0.27189293649924728 -0.46147311585015133 0 0.27557681148513502 -0.47168864193346272 0 0.28580434640553071 -0.46104619472247521 0 0.28384255175312778 -0.46775417332645502 0 0.27189293649924728 -0.46147311585015133 0 0.27557681148513502 -0.47168864193346272 0 0.27843351318114989 -0.47997750724489219 0 0.28797698194593979 -0.47734435957506038 0 0.27843351318114989 -0.47997750724489219 0 0.26931434760476802 -0.48338847071750529 0 0.2759122227892376 -0.48903977696929252 0 0.27557681148513502 -0.47168864193346272 0 0.27843351318114989 -0.47997750724489219 0 0.26931434760476802 -0.48338847071750529 0 0.27843351318114989 -0.47997750724489219 0 0.2759122227892376 -0.48903977696929252 0 0.28797698194593979 -0.47734435957506038 0 0.27557681148513502 -0.47168864193346272 0 0.26931434760476802 -0.48338847071750529 0 0.2659480895075651 -0.47415478966305841 0 0.27189293649924728 -0.46147311585015133 0 0.27557681148513502 -0.47168864193346272 0 0.2659480895075651 -0.47415478966305841 0 0.2659480895075651 -0.47415478966305841 0 0.25654743482366149 -0.46903288006405158 0 0.25717944213105748 -0.49395910222695277 0 0.26931434760476802 -0.48338847071750529 0 0.2659480895075651 -0.47415478966305841 0 0.25717944213105748 -0.49395910222695277 0 0.25654743482366149 -0.46903288006405158 0 0.25717944213105748 -0.49395910222695277 0 0.25717944213105748 -0.49395910222695277 0 0.25733260980768419 -0.5 0 0.2759122227892376 -0.48903977696929252 0 0.25717944213105748 -0.49395910222695277 0 0.25733260980768419 -0.5 0 0.25733260980768419 -0.5 0 0.2759122227892376 -0.48903977696929252 0 0.28691434626851758 -0.5 0 0.26931434760476802 -0.48338847071750529 0 0.25717944213105748 -0.49395910222695277 0 0.2759122227892376 -0.48903977696929252 0 0.2759122227892376 -0.48903977696929252 0 0.28691434626851758 -0.5 0 0.29205198231507917 -0.48844294424760998 0 0.2759122227892376 -0.48903977696929252 0 0.29205198231507917 -0.48844294424760998 0 0.28797698194593979 -0.47734435957506038 0 0.28691434626851758 -0.5 0 0.29205198231507917 -0.48844294424760998 0 0.30205938661833109 -0.49308273866640617 0 0.29205198231507917 -0.48844294424760998 0 0.28797698194593979 -0.47734435957506038 0 0.30517403678361382 -0.48405011992636998 0 0.28797698194593979 -0.47734435957506038 0 0.30517403678361382 -0.48405011992636998 0 0.28384255175312778 -0.46775417332645502 0 0.27557681148513502 -0.47168864193346272 0 0.28797698194593979 -0.47734435957506038 0 0.28384255175312778 -0.46775417332645502 0 0.28797698194593979 -0.47734435957506038 0 0.29760105263627579 -0.46907697800567921 0 0.28797698194593979 -0.47734435957506038 0 0.29760105263627579 -0.46907697800567921 0 0.30517403678361382 -0.48405011992636998 0 0.29760105263627579 -0.46907697800567921 0 0.30517403678361382 -0.48405011992636998 0 0.29760105263627579 -0.46907697800567921 0 0.30799072319990928 -0.47200059040791198 0 0.30517403678361382 -0.48405011992636998 0 0.31818259664476878 -0.4746237890016769 0 0.31100520673497872 -0.46025147469792221 0 0.30799072319990928 -0.47200059040791198 0 0.31818259664476878 -0.4746237890016769 0 0.30799072319990928 -0.47200059040791198 0 0.30517403678361382 -0.48405011992636998 0 0.31649608272935098 -0.5 0 0.28691434626851758 -0.5 0 0.30205938661833109 -0.49308273866640617 0 0.30517403678361382 -0.48405011992636998 0 0.30966048499509369 -0.49292062915805102 0 0.30517403678361382 -0.48405011992636998 0 0.30966048499509369 -0.49292062915805102 0 0.30205938661833109 -0.49308273866640617 0 0.31649608272935098 -0.5 0 0.30966048499509369 -0.49292062915805102 0 0.30205938661833109 -0.49308273866640617 0 0.29205198231507917 -0.48844294424760998 0 0.30517403678361382 -0.48405011992636998 0 0.30205938661833109 -0.49308273866640617 0 0.34189444587742129 -0.28619255085170919 0 0.32217585448612751 -0.29106053982964042 0 0.32984268896418228 -0.28007941611384812 0 0.34189444587742129 -0.28619255085170919 0 0.32217585448612751 -0.29106053982964042 0 0.34189444587742129 -0.28619255085170919 0 0.33515423762641122 -0.30067778026847108 0 0.32217585448612751 -0.29106053982964042 0 0.33515423762641122 -0.30067778026847108 0 0.34860806926061028 -0.30848170168746541 0 0.3279385808814852 -0.31697632870506948 0 0.33515423762641122 -0.30067778026847108 0 0.32217585448612751 -0.29106053982964042 0 0.3279385808814852 -0.31697632870506948 0 0.34189444587742129 -0.28619255085170919 0 0.33515423762641122 -0.30067778026847108 0 0.34860806926061028 -0.30848170168746541 0 0.31408434816112202 -0.30672734013353492 0 0.32217585448612751 -0.29106053982964042 0 0.3279385808814852 -0.31697632870506948 0 0.32217585448612751 -0.29106053982964042 0 0.3279385808814852 -0.31697632870506948 0 0.31408434816112202 -0.30672734013353492 0 0.3279385808814852 -0.31697632870506948 0 0.32217585448612751 -0.29106053982964042 0 0.31850302299550232 -0.27454330146786399 0 0.30841357360431648 -0.28495049069307088 0 0.32217585448612751 -0.29106053982964042 0 0.31850302299550232 -0.27454330146786399 0 0.32217585448612751 -0.29106053982964042 0 0.31850302299550232 -0.27454330146786399 0 0.32984268896418228 -0.28007941611384812 0 0.31850302299550232 -0.27454330146786399 0 0.33594988424460598 -0.2663699157171569 0 0.32984268896418228 -0.28007941611384812 0 0.31850302299550232 -0.27454330146786399 0 0.31708589969742262 -0.25830438135509742 0 0.30941613514555949 -0.26751437066251671 0 0.31850302299550232 -0.27454330146786399 0 0.31708589969742262 -0.25830438135509742 0 0.33594988424460598 -0.2663699157171569 0 0.31708589969742262 -0.25830438135509742 0 0.33008311233115611 -0.25413155736955623 0 0.33594988424460598 -0.2663699157171569 0 0.32463270477667378 -0.2432299476535108 0 0.31708589969742262 -0.25830438135509742 0 0.33008311233115611 -0.25413155736955623 0 0.34492115556190789 -0.2470179375721081 0 0.33008311233115611 -0.25413155736955623 0 0.33594988424460598 -0.2663699157171569 0 0.34189444587742129 -0.28619255085170919 0 0.33594988424460598 -0.2663699157171569 0 0.32984268896418228 -0.28007941611384812 0 0.34189444587742129 -0.28619255085170919 0 0.33594988424460598 -0.2663699157171569 0 0.35176454899619658 -0.26758949186022379 0 0.34189444587742129 -0.28619255085170919 0 0.35176454899619658 -0.26758949186022379 0 0.36161303726871519 -0.28132456187377791 0 0.34492115556190789 -0.2470179375721081 0 0.35176454899619658 -0.26758949186022379 0 0.36681920747689278 -0.25756773860619658 0 0.34492115556190789 -0.2470179375721081 0 0.33594988424460598 -0.2663699157171569 0 0.35176454899619658 -0.26758949186022379 0 0.38133162866000903 -0.27645657289584652 0 0.36161303726871519 -0.28132456187377791 0 0.35176454899619658 -0.26758949186022379 0 0.36681920747689278 -0.25756773860619658 0 0.36161303726871519 -0.28132456187377791 0 0.38133162866000903 -0.27645657289584652 0 0.36681920747689278 -0.25756773860619658 0 0.36161303726871519 -0.28132456187377791 0 0.37538827704564698 -0.29361808214020502 0 0.38133162866000903 -0.27645657289584652 0 0.36161303726871519 -0.28132456187377791 0 0.37538827704564698 -0.29361808214020502 0 0.35996424937348709 -0.29671365056308707 0 0.36161303726871519 -0.28132456187377791 0 0.34189444587742129 -0.28619255085170919 0 0.35996424937348709 -0.29671365056308707 0 0.36161303726871519 -0.28132456187377791 0 0.34189444587742129 -0.28619255085170919 0 0.36161303726871519 -0.28132456187377791 0 0.35996424937348709 -0.29671365056308707 0 0.34860806926061028 -0.30848170168746541 0 0.36236822411567549 -0.32103701415941871 0 0.34189444587742129 -0.28619255085170919 0 0.35996424937348709 -0.29671365056308707 0 0.34860806926061028 -0.30848170168746541 0 0.37845939303001741 -0.3109370887984958 0 0.35996424937348709 -0.29671365056308707 0 0.36236822411567549 -0.32103701415941871 0 0.37845939303001741 -0.3109370887984958 0 0.37538827704564698 -0.29361808214020502 0 0.35996424937348709 -0.29671365056308707 0 0.38789650635024259 -0.33269364726132022 0 0.36236822411567549 -0.32103701415941871 0 0.36748977472022398 -0.34623523764832381 0 0.34771417780085467 -0.33160578317669648 0 0.36748977472022398 -0.34623523764832381 0 0.35115072199827202 -0.34981109306843727 0 0.36236822411567549 -0.32103701415941871 0 0.34771417780085467 -0.33160578317669648 0 0.36748977472022398 -0.34623523764832381 0 0.34771417780085467 -0.33160578317669648 0 0.36748977472022398 -0.34623523764832381 0 0.34860806926061028 -0.30848170168746541 0 0.36236822411567549 -0.32103701415941871 0 0.34771417780085467 -0.33160578317669648 0 0.38629009474348808 -0.370013760196305 0 0.37117280264001762 -0.38027325049036431 0 0.35961556859777838 -0.3681459450366793 0 0.38629009474348808 -0.370013760196305 0 0.35961556859777838 -0.3681459450366793 0 0.36748977472022398 -0.34623523764832381 0 0.35961556859777838 -0.3681459450366793 0 0.36748977472022398 -0.34623523764832381 0 0.35115072199827202 -0.34981109306843727 0 0.34771417780085467 -0.33160578317669648 0 0.35115072199827202 -0.34981109306843727 0 0.33549113573192729 -0.35094122718292392 0 0.34237615334589683 -0.38656679318172321 0 0.35961556859777838 -0.3681459450366793 0 0.34170542638805318 -0.36434343159538207 0 0.35961556859777838 -0.3681459450366793 0 0.35115072199827202 -0.34981109306843727 0 0.34170542638805318 -0.36434343159538207 0 0.34237615334589683 -0.38656679318172321 0 0.34170542638805318 -0.36434343159538207 0 0.32952024162480281 -0.37368835211814971 0 0.34170542638805318 -0.36434343159538207 0 0.32952024162480281 -0.37368835211814971 0 0.32503481295306569 -0.35862389997814997 0 0.34170542638805318 -0.36434343159538207 0 0.33549113573192729 -0.35094122718292392 0 0.32503481295306569 -0.35862389997814997 0 0.35115072199827202 -0.34981109306843727 0 0.34170542638805318 -0.36434343159538207 0 0.33549113573192729 -0.35094122718292392 0 0.33549113573192729 -0.35094122718292392 0 0.32503481295306569 -0.35862389997814997 0 0.32053711924094919 -0.34111488948773888 0 0.32503481295306569 -0.35862389997814997 0 0.32053711924094919 -0.34111488948773888 0 0.31184549270299811 -0.35222912293533359 0 0.32503481295306569 -0.35862389997814997 0 0.31202079955530482 -0.37261080285533138 0 0.31184549270299811 -0.35222912293533359 0 0.32952024162480281 -0.37368835211814971 0 0.32503481295306569 -0.35862389997814997 0 0.31202079955530482 -0.37261080285533138 0 0.34771417780085467 -0.33160578317669648 0 0.33171485830670611 -0.33395877794399681 0 0.3279385808814852 -0.31697632870506948 0 0.34860806926061028 -0.30848170168746541 0 0.34771417780085467 -0.33160578317669648 0 0.3279385808814852 -0.31697632870506948 0 0.34771417780085467 -0.33160578317669648 0 0.3279385808814852 -0.31697632870506948 0 0.33171485830670611 -0.33395877794399681 0 0.3279385808814852 -0.31697632870506948 0 0.34771417780085467 -0.33160578317669648 0 0.33549113573192729 -0.35094122718292392 0 0.33171485830670611 -0.33395877794399681 0 0.33549113573192729 -0.35094122718292392 0 0.33171485830670611 -0.33395877794399681 0 0.33549113573192729 -0.35094122718292392 0 0.33171485830670611 -0.33395877794399681 0 0.32053711924094919 -0.34111488948773888 0 0.33171485830670611 -0.33395877794399681 0 0.32053711924094919 -0.34111488948773888 0 0.31710632413262563 -0.32615027120696999 0 0.32053711924094919 -0.34111488948773888 0 0.31710632413262563 -0.32615027120696999 0 0.30319864309063688 -0.33401365740122468 0 0.31408434816112202 -0.30672734013353492 0 0.31710632413262563 -0.32615027120696999 0 0.3279385808814852 -0.31697632870506948 0 0.33171485830670611 -0.33395877794399681 0 0.31710632413262563 -0.32615027120696999 0 0.3279385808814852 -0.31697632870506948 0 0.30515969807405019 -0.31874385876574002 0 0.30319864309063688 -0.33401365740122468 0 0.2900780203827002 -0.31570149712700568 0 0.31408434816112202 -0.30672734013353492 0 0.31710632413262563 -0.32615027120696999 0 0.30515969807405019 -0.31874385876574002 0 0.30515969807405019 -0.31874385876574002 0 0.2900780203827002 -0.31570149712700568 0 0.30238804551465748 -0.30941276189707101 0 0.31710632413262563 -0.32615027120696999 0 0.30515969807405019 -0.31874385876574002 0 0.30319864309063688 -0.33401365740122468 0 0.32053711924094919 -0.34111488948773888 0 0.30319864309063688 -0.33401365740122468 0 0.31184549270299811 -0.35222912293533359 0 0.30319864309063688 -0.33401365740122468 0 0.282109063304333 -0.33700760384722389 0 0.29448266062548678 -0.34706133354706348 0 0.30319864309063688 -0.33401365740122468 0 0.282109063304333 -0.33700760384722389 0 0.2900780203827002 -0.31570149712700568 0 0.282109063304333 -0.33700760384722389 0 0.2900780203827002 -0.31570149712700568 0 0.27230752953758741 -0.32076912532111929 0 0.31202079955530482 -0.37261080285533138 0 0.29864416891596879 -0.35973232611360212 0 0.31184549270299811 -0.35222912293533359 0 0.31202079955530482 -0.37261080285533138 0 0.29864416891596879 -0.35973232611360212 0 0.29316657613898628 -0.37306349980384662 0 0.30319864309063688 -0.33401365740122468 0 0.31184549270299811 -0.35222912293533359 0 0.29448266062548678 -0.34706133354706348 0 0.29864416891596879 -0.35973232611360212 0 0.31184549270299811 -0.35222912293533359 0 0.29448266062548678 -0.34706133354706348 0 0.282109063304333 -0.33700760384722389 0 0.29448266062548678 -0.34706133354706348 0 0.28338671093761442 -0.35856381553055588 0 0.29864416891596879 -0.35973232611360212 0 0.29448266062548678 -0.34706133354706348 0 0.28338671093761442 -0.35856381553055588 0 0.28338671093761442 -0.35856381553055588 0 0.29316657613898628 -0.37306349980384662 0 0.28060987338039561 -0.37454731990653262 0 0.29864416891596879 -0.35973232611360212 0 0.28338671093761442 -0.35856381553055588 0 0.29316657613898628 -0.37306349980384662 0 0.28338671093761442 -0.35856381553055588 0 0.26939478011790557 -0.36887463635517498 0 0.28060987338039561 -0.37454731990653262 0 0.28338671093761442 -0.35856381553055588 0 0.26939478011790557 -0.36887463635517498 0 0.26716712966366379 -0.35112387734039691 0 0.282109063304333 -0.33700760384722389 0 0.28338671093761442 -0.35856381553055588 0 0.26716712966366379 -0.35112387734039691 0 0.26716712966366379 -0.35112387734039691 0 0.25174265769791682 -0.34647927139999951 0 0.25566904606284913 -0.36228207659806511 0 0.25496122487686712 -0.37909187205610068 0 0.26939478011790557 -0.36887463635517498 0 0.25566904606284913 -0.36228207659806511 0 0.25496122487686712 -0.37909187205610068 0 0.25566904606284913 -0.36228207659806511 0 0.2456644098544882 -0.36868582498308777 0 0.26939478011790557 -0.36887463635517498 0 0.26716712966366379 -0.35112387734039691 0 0.25566904606284913 -0.36228207659806511 0 0.2900780203827002 -0.31570149712700568 0 0.27230752953758741 -0.32076912532111929 0 0.27214618375337951 -0.30341151768924979 0 0.282109063304333 -0.33700760384722389 0 0.26716712966366379 -0.35112387734039691 0 0.26070051986136422 -0.33353586031136162 0 0.282109063304333 -0.33700760384722389 0 0.27230752953758741 -0.32076912532111929 0 0.26070051986136422 -0.33353586031136162 0 0.25174265769791682 -0.34647927139999951 0 0.26070051986136422 -0.33353586031136162 0 0.2439305041995572 -0.33358395837439808 0 0.26716712966366379 -0.35112387734039691 0 0.25174265769791682 -0.34647927139999951 0 0.26070051986136422 -0.33353586031136162 0 0.27230752953758741 -0.32076912532111929 0 0.26070051986136422 -0.33353586031136162 0 0.24406225206600121 -0.31034468381649638 0 0.27230752953758741 -0.32076912532111929 0 0.27214618375337951 -0.30341151768924979 0 0.24406225206600121 -0.31034468381649638 0 0.2609681915954179 -0.29123875012753753 0 0.27214618375337951 -0.30341151768924979 0 0.24406225206600121 -0.31034468381649638 0 0.27214618375337951 -0.30341151768924979 0 0.24406225206600121 -0.31034468381649638 0 0.2609681915954179 -0.29123875012753753 0 0.27369394488357679 -0.27802365456696038 0 0.25684106048193239 -0.27579997066707251 0 0.2609681915954179 -0.29123875012753753 0 0.25684106048193239 -0.27579997066707251 0 0.24245546093792331 -0.28969601822927588 0 0.2609681915954179 -0.29123875012753753 0 0.27828159483192622 -0.29218137280658307 0 0.27369394488357679 -0.27802365456696038 0 0.27828159483192622 -0.29218137280658307 0 0.28945988777087062 -0.27764730862961812 0 0.27369394488357679 -0.27802365456696038 0 0.2609681915954179 -0.29123875012753753 0 0.27828159483192622 -0.29218137280658307 0 0.27214618375337951 -0.30341151768924979 0 0.27214618375337951 -0.30341151768924979 0 0.30023011544075751 -0.29647835156200208 0 0.2900780203827002 -0.31570149712700568 0 0.27214618375337951 -0.30341151768924979 0 0.30023011544075751 -0.29647835156200208 0 0.27828159483192622 -0.29218137280658307 0 0.27214618375337951 -0.30341151768924979 0 0.30023011544075751 -0.29647835156200208 0 0.27828159483192622 -0.29218137280658307 0 0.29079387657605932 -0.28949767596381898 0 0.30023011544075751 -0.29647835156200208 0 0.27828159483192622 -0.29218137280658307 0 0.29079387657605932 -0.28949767596381898 0 0.28945988777087062 -0.27764730862961812 0 0.29079387657605932 -0.28949767596381898 0 0.29857081115829998 -0.28546390797362747 0 0.28945988777087062 -0.27764730862961812 0 0.29079387657605932 -0.28949767596381898 0 0.30023011544075751 -0.29647835156200208 0 0.29857081115829998 -0.28546390797362747 0 0.29079387657605932 -0.28949767596381898 0 0.30023011544075751 -0.29647835156200208 0 0.32217585448612751 -0.29106053982964042 0 0.30023011544075751 -0.29647835156200208 0 0.30841357360431648 -0.28495049069307088 0 0.32217585448612751 -0.29106053982964042 0 0.30023011544075751 -0.29647835156200208 0 0.29857081115829998 -0.28546390797362747 0 0.30841357360431648 -0.28495049069307088 0 0.30121952548229403 -0.27566699224481211 0 0.30023011544075751 -0.29647835156200208 0 0.29857081115829998 -0.28546390797362747 0 0.30841357360431648 -0.28495049069307088 0 0.2900780203827002 -0.31570149712700568 0 0.30023011544075751 -0.29647835156200208 0 0.30238804551465748 -0.30941276189707101 0 0.31408434816112202 -0.30672734013353492 0 0.32217585448612751 -0.29106053982964042 0 0.30023011544075751 -0.29647835156200208 0 0.31408434816112202 -0.30672734013353492 0 0.30023011544075751 -0.29647835156200208 0 0.31408434816112202 -0.30672734013353492 0 0.30023011544075751 -0.29647835156200208 0 0.30238804551465748 -0.30941276189707101 0 0.31408434816112202 -0.30672734013353492 0 0.30515969807405019 -0.31874385876574002 0 0.30238804551465748 -0.30941276189707101 0 0.30485742915228758 -0.24563863158527291 0 0.28684067419007042 -0.24982071577335299 0 0.30088026057326761 -0.26072399760767689 0 0.31708589969742262 -0.25830438135509742 0 0.30088026057326761 -0.26072399760767689 0 0.30941613514555949 -0.26751437066251671 0 0.30485742915228758 -0.24563863158527291 0 0.31708589969742262 -0.25830438135509742 0 0.30088026057326761 -0.26072399760767689 0 0.31850302299550232 -0.27454330146786399 0 0.30941613514555949 -0.26751437066251671 0 0.30121952548229403 -0.27566699224481211 0 0.31850302299550232 -0.27454330146786399 0 0.30841357360431648 -0.28495049069307088 0 0.30121952548229403 -0.27566699224481211 0 0.30088026057326761 -0.26072399760767689 0 0.30941613514555949 -0.26751437066251671 0 0.30121952548229403 -0.27566699224481211 0 0.30088026057326761 -0.26072399760767689 0 0.30121952548229403 -0.27566699224481211 0 0.28587700487587642 -0.26688713779087481 0 0.28945988777087062 -0.27764730862961812 0 0.28587700487587642 -0.26688713779087481 0 0.27369394488357679 -0.27802365456696038 0 0.30121952548229403 -0.27566699224481211 0 0.28945988777087062 -0.27764730862961812 0 0.28587700487587642 -0.26688713779087481 0 0.29857081115829998 -0.28546390797362747 0 0.30121952548229403 -0.27566699224481211 0 0.28945988777087062 -0.27764730862961812 0 0.28684067419007042 -0.24982071577335299 0 0.28587700487587642 -0.26688713779087481 0 0.27846115796300253 -0.25767487038369852 0 0.28684067419007042 -0.24982071577335299 0 0.30088026057326761 -0.26072399760767689 0 0.28587700487587642 -0.26688713779087481 0 0.28684067419007042 -0.24982071577335299 0 0.27044138470637807 -0.24931070348780121 0 0.27846115796300253 -0.25767487038369852 0 0.28587700487587642 -0.26688713779087481 0 0.27846115796300253 -0.25767487038369852 0 0.27068556807968502 -0.26468092448276509 0 0.27044138470637807 -0.24931070348780121 0 0.27068556807968502 -0.26468092448276509 0 0.25785855345818648 -0.26137144765234249 0 0.27044138470637807 -0.24931070348780121 0 0.27846115796300253 -0.25767487038369852 0 0.27068556807968502 -0.26468092448276509 0 0.27068556807968502 -0.26468092448276509 0 0.27369394488357679 -0.27802365456696038 0 0.25684106048193239 -0.27579997066707251 0 0.28587700487587642 -0.26688713779087481 0 0.27068556807968502 -0.26468092448276509 0 0.27369394488357679 -0.27802365456696038 0 0.25684106048193239 -0.27579997066707251 0 0.25785855345818648 -0.26137144765234249 0 0.24200913483504119 -0.26632664577065118 0 0.27068556807968502 -0.26468092448276509 0 0.25684106048193239 -0.27579997066707251 0 0.25785855345818648 -0.26137144765234249 0 0.25055431257156929 -0.2476244210299253 0 0.25785855345818648 -0.26137144765234249 0 0.24200913483504119 -0.26632664577065118 0 0.27044138470637807 -0.24931070348780121 0 0.25055431257156929 -0.2476244210299253 0 0.25785855345818648 -0.26137144765234249 0 0.25055431257156929 -0.2476244210299253 0 0.24200913483504119 -0.26632664577065118 0 0.23182134719151731 -0.25192540700083182 0 0.24200913483504119 -0.26632664577065118 0 0.226072980996992 -0.28208323942000751 0 0.24245546093792331 -0.28969601822927588 0 0.25684106048193239 -0.27579997066707251 0 0.24200913483504119 -0.26632664577065118 0 0.24245546093792331 -0.28969601822927588 0 0.24200913483504119 -0.26632664577065118 0 0.22332128188096989 -0.26326547815319662 0 0.226072980996992 -0.28208323942000751 0 0.22332128188096989 -0.26326547815319662 0 0.2120103839499051 -0.27351979179389518 0 0.226072980996992 -0.28208323942000751 0 0.23182134719151731 -0.25192540700083182 0 0.22332128188096989 -0.26326547815319662 0 0.2158999495975234 -0.24662314191780491 0 0.24200913483504119 -0.26632664577065118 0 0.23182134719151731 -0.25192540700083182 0 0.22332128188096989 -0.26326547815319662 0 0.22332128188096989 -0.26326547815319662 0 0.21119839506351931 -0.25828092126584251 0 0.2158999495975234 -0.24662314191780491 0 0.21119839506351931 -0.25828092126584251 0 0.2158999495975234 -0.24662314191780491 0 0.20020069926681641 -0.24959606771576409 0 0.21119839506351931 -0.25828092126584251 0 0.2023277387777502 -0.26315238167690252 0 0.20020069926681641 -0.24959606771576409 0 0.21119839506351931 -0.25828092126584251 0 0.2120103839499051 -0.27351979179389518 0 0.2023277387777502 -0.26315238167690252 0 0.22332128188096989 -0.26326547815319662 0 0.21119839506351931 -0.25828092126584251 0 0.2120103839499051 -0.27351979179389518 0 0.2120103839499051 -0.27351979179389518 0 0.19848735031912859 -0.27720162103235252 0 0.2023277387777502 -0.26315238167690252 0 0.19848735031912859 -0.27720162103235252 0 0.18974186528938161 -0.25716350657665771 0 0.2023277387777502 -0.26315238167690252 0 0.19848735031912859 -0.27720162103235252 0 0.18974186528938161 -0.25716350657665771 0 0.19848735031912859 -0.27720162103235252 0 0.18974186528938161 -0.25716350657665771 0 0.18617442925474689 -0.27456504529668652 0 0.18974186528938161 -0.25716350657665771 0 0.20020069926681641 -0.24959606771576409 0 0.18257117037002091 -0.24995147181335481 0 0.18974186528938161 -0.25716350657665771 0 0.2023277387777502 -0.26315238167690252 0 0.20020069926681641 -0.24959606771576409 0 0.19641634696591981 -0.30802343101192942 0 0.18949748082032161 -0.29264311616914701 0 0.1784435389662761 -0.30949473924462451 0 0.19641634696591981 -0.30802343101192942 0 0.18949748082032161 -0.29264311616914701 0 0.20723283534887571 -0.29723973548804739 0 0.19848735031912859 -0.27720162103235252 0 0.18949748082032161 -0.29264311616914701 0 0.20723283534887571 -0.29723973548804739 0 0.19848735031912859 -0.27720162103235252 0 0.20723283534887571 -0.29723973548804739 0 0.19848735031912859 -0.27720162103235252 0 0.18949748082032161 -0.29264311616914701 0 0.18617442925474689 -0.27456504529668652 0 0.2120103839499051 -0.27351979179389518 0 0.19848735031912859 -0.27720162103235252 0 0.20723283534887571 -0.29723973548804739 0 0.2120103839499051 -0.27351979179389518 0 0.20723283534887571 -0.29723973548804739 0 0.226072980996992 -0.28208323942000751 0 0.19641634696591981 -0.30802343101192942 0 0.20723283534887571 -0.29723973548804739 0 0.21597832037862261 -0.31727784994374242 0 0.20723283534887571 -0.29723973548804739 0 0.2271327609078673 -0.29947966557562722 0 0.21597832037862261 -0.31727784994374242 0 0.20723283534887571 -0.29723973548804739 0 0.21597832037862261 -0.31727784994374242 0 0.2271327609078673 -0.29947966557562722 0 0.24406225206600121 -0.31034468381649638 0 0.21597832037862261 -0.31727784994374242 0 0.20723283534887571 -0.29723973548804739 0 0.2271327609078673 -0.29947966557562722 0 0.226072980996992 -0.28208323942000751 0 0.2271327609078673 -0.29947966557562722 0 0.226072980996992 -0.28208323942000751 0 0.24245546093792331 -0.28969601822927588 0 0.2271327609078673 -0.29947966557562722 0 0.24245546093792331 -0.28969601822927588 0 0.24406225206600121 -0.31034468381649638 0 0.2609681915954179 -0.29123875012753753 0 0.24245546093792331 -0.28969601822927588 0 0.24406225206600121 -0.31034468381649638 0 0.26070051986136422 -0.33353586031136162 0 0.24406225206600121 -0.31034468381649638 0 0.2439305041995572 -0.33358395837439808 0 0.24406225206600121 -0.31034468381649638 0 0.2439305041995572 -0.33358395837439808 0 0.2321837032148458 -0.32637274837510588 0 0.25174265769791682 -0.34647927139999951 0 0.2439305041995572 -0.33358395837439808 0 0.2402983038174 -0.34579566510683141 0 0.2439305041995572 -0.33358395837439808 0 0.23404121215510951 -0.33750581578727779 0 0.2402983038174 -0.34579566510683141 0 0.2439305041995572 -0.33358395837439808 0 0.23404121215510951 -0.33750581578727779 0 0.2321837032148458 -0.32637274837510588 0 0.22290622727493839 -0.33315143395361457 0 0.22983413417125401 -0.34902501796348689 0 0.23404121215510951 -0.33750581578727779 0 0.22290622727493839 -0.33315143395361457 0 0.22983413417125401 -0.34902501796348689 0 0.23404121215510951 -0.33750581578727779 0 0.22290622727493839 -0.33315143395361457 0 0.2321837032148458 -0.32637274837510588 0 0.24406225206600121 -0.31034468381649638 0 0.2321837032148458 -0.32637274837510588 0 0.21597832037862261 -0.31727784994374242 0 0.22290622727493839 -0.33315143395361457 0 0.2321837032148458 -0.32637274837510588 0 0.21597832037862261 -0.31727784994374242 0 0.24406225206600121 -0.31034468381649638 0 0.21597832037862261 -0.31727784994374242 0 0.22290622727493839 -0.33315143395361457 0 0.21597832037862261 -0.31727784994374242 0 0.2456644098544882 -0.36868582498308777 0 0.23508128169216619 -0.36709553440968112 0 0.23702505215156849 -0.37788508441040741 0 0.25566904606284913 -0.36228207659806511 0 0.2456644098544882 -0.36868582498308777 0 0.2410801749989411 -0.35738920106858291 0 0.23508128169216619 -0.36709553440968112 0 0.2410801749989411 -0.35738920106858291 0 0.22701241532909441 -0.35933401691827171 0 0.2456644098544882 -0.36868582498308777 0 0.23508128169216619 -0.36709553440968112 0 0.2410801749989411 -0.35738920106858291 0 0.25174265769791682 -0.34647927139999951 0 0.25566904606284913 -0.36228207659806511 0 0.2410801749989411 -0.35738920106858291 0 0.25174265769791682 -0.34647927139999951 0 0.2410801749989411 -0.35738920106858291 0 0.2402983038174 -0.34579566510683141 0 0.23404121215510951 -0.33750581578727779 0 0.2402983038174 -0.34579566510683141 0 0.22983413417125401 -0.34902501796348689 0 0.2410801749989411 -0.35738920106858291 0 0.2402983038174 -0.34579566510683141 0 0.22983413417125401 -0.34902501796348689 0 0.22290622727493839 -0.33315143395361457 0 0.22983413417125401 -0.34902501796348689 0 0.21683000799688509 -0.35281885989177009 0 0.22983413417125401 -0.34902501796348689 0 0.22701241532909441 -0.35933401691827171 0 0.21683000799688509 -0.35281885989177009 0 0.2410801749989411 -0.35738920106858291 0 0.22983413417125401 -0.34902501796348689 0 0.22701241532909441 -0.35933401691827171 0 0.22701241532909441 -0.35933401691827171 0 0.21057897528355449 -0.37113371956774432 0 0.22701241532909441 -0.35933401691827171 0 0.2246243561267387 -0.37218354466805592 0 0.21057897528355449 -0.37113371956774432 0 0.23508128169216619 -0.36709553440968112 0 0.22701241532909441 -0.35933401691827171 0 0.2246243561267387 -0.37218354466805592 0 0.23508128169216619 -0.36709553440968112 0 0.2246243561267387 -0.37218354466805592 0 0.23702505215156849 -0.37788508441040741 0 0.21057897528355449 -0.37113371956774432 0 0.21683000799688509 -0.35281885989177009 0 0.20101464102561989 -0.35498169240132971 0 0.22701241532909441 -0.35933401691827171 0 0.21057897528355449 -0.37113371956774432 0 0.21683000799688509 -0.35281885989177009 0 0.21683000799688509 -0.35281885989177009 0 0.20101464102561989 -0.35498169240132971 0 0.20902250581048079 -0.34364265778972869 0 0.20101464102561989 -0.35498169240132971 0 0.18995647985377151 -0.36832695383283798 0 0.18445782458804461 -0.35224366433621151 0 0.20101464102561989 -0.35498169240132971 0 0.19524205262098279 -0.34172429898968582 0 0.18445782458804461 -0.35224366433621151 0 0.20101464102561989 -0.35498169240132971 0 0.20902250581048079 -0.34364265778972869 0 0.19524205262098279 -0.34172429898968582 0 0.21057897528355449 -0.37113371956774432 0 0.18995647985377151 -0.36832695383283798 0 0.19414553523801381 -0.38293342221721588 0 0.21057897528355449 -0.37113371956774432 0 0.20101464102561989 -0.35498169240132971 0 0.18995647985377151 -0.36832695383283798 0 0.21597832037862261 -0.31727784994374242 0 0.19092955931550271 -0.32346171421408548 0 0.22290622727493839 -0.33315143395361457 0 0.21597832037862261 -0.31727784994374242 0 0.20681573308010551 -0.33185159097817141 0 0.21597832037862261 -0.31727784994374242 0 0.20681573308010551 -0.33185159097817141 0 0.19092955931550271 -0.32346171421408548 0 0.22290622727493839 -0.33315143395361457 0 0.21683000799688509 -0.35281885989177009 0 0.20902250581048079 -0.34364265778972869 0 0.22290622727493839 -0.33315143395361457 0 0.20902250581048079 -0.34364265778972869 0 0.20681573308010551 -0.33185159097817141 0 0.20902250581048079 -0.34364265778972869 0 0.20681573308010551 -0.33185159097817141 0 0.19524205262098279 -0.34172429898968582 0 0.20681573308010551 -0.33185159097817141 0 0.19524205262098279 -0.34172429898968582 0 0.19092955931550271 -0.32346171421408548 0 0.19524205262098279 -0.34172429898968582 0 0.19092955931550271 -0.32346171421408548 0 0.1809604886791891 -0.33875819503315419 0 0.19641634696591981 -0.30802343101192942 0 0.19092955931550271 -0.32346171421408548 0 0.1784435389662761 -0.30949473924462451 0 0.19641634696591981 -0.30802343101192942 0 0.21597832037862261 -0.31727784994374242 0 0.19092955931550271 -0.32346171421408548 0 0.19092955931550271 -0.32346171421408548 0 0.16588079825238261 -0.32964557848442799 0 0.19092955931550271 -0.32346171421408548 0 0.16588079825238261 -0.32964557848442799 0 0.1784435389662761 -0.30949473924462451 0 0.19092955931550271 -0.32346171421408548 0 0.1809604886791891 -0.33875819503315419 0 0.16588079825238261 -0.32964557848442799 0 0.16588079825238261 -0.32964557848442799 0 0.16829220861903291 -0.3467157191413604 0 0.15261364189020821 -0.34367485346691018 0 0.1809604886791891 -0.33875819503315419 0 0.16588079825238261 -0.32964557848442799 0 0.16829220861903291 -0.3467157191413604 0 0.16588079825238261 -0.32964557848442799 0 0.15745441662035359 -0.31569089141618972 0 0.1784435389662761 -0.30949473924462451 0 0.18995647985377151 -0.36832695383283798 0 0.17016841534044691 -0.3633609174414657 0 0.17876233856058121 -0.37966368627661612 0 0.18995647985377151 -0.36832695383283798 0 0.18445782458804461 -0.35224366433621151 0 0.17016841534044691 -0.3633609174414657 0 0.18445782458804461 -0.35224366433621151 0 0.16829220861903291 -0.3467157191413604 0 0.17016841534044691 -0.3633609174414657 0 0.1809604886791891 -0.33875819503315419 0 0.18445782458804461 -0.35224366433621151 0 0.16829220861903291 -0.3467157191413604 0 0.19524205262098279 -0.34172429898968582 0 0.1809604886791891 -0.33875819503315419 0 0.18445782458804461 -0.35224366433621151 0 0.16829220861903291 -0.3467157191413604 0 0.17016841534044691 -0.3633609174414657 0 0.15547040917393029 -0.35424141769396528 0 0.16829220861903291 -0.3467157191413604 0 0.15547040917393029 -0.35424141769396528 0 0.15261364189020821 -0.34367485346691018 0 0.17016841534044691 -0.3633609174414657 0 0.17876233856058121 -0.37966368627661612 0 0.16337914188314839 -0.37639395033601741 0 0.17016841534044691 -0.3633609174414657 0 0.15130765114767331 -0.36790644680409901 0 0.15547040917393029 -0.35424141769396528 0 0.17016841534044691 -0.3633609174414657 0 0.15130765114767331 -0.36790644680409901 0 0.16337914188314839 -0.37639395033601741 0 0.15130765114767331 -0.36790644680409901 0 0.16337914188314839 -0.37639395033601741 0 0.14412354467536481 -0.38027434014001188 0 0.15130765114767331 -0.36790644680409901 0 0.13743792569041899 -0.36538214272436492 0 0.14412354467536481 -0.38027434014001188 0 0.15130765114767331 -0.36790644680409901 0 0.14673922532273859 -0.36021679970710663 0 0.15547040917393029 -0.35424141769396528 0 0.15130765114767331 -0.36790644680409901 0 0.14673922532273859 -0.36021679970710663 0 0.13743792569041899 -0.36538214272436492 0 0.14673922532273859 -0.36021679970710663 0 0.1427409152789316 -0.35333719160599752 0 0.13743792569041899 -0.36538214272436492 0 0.14673922532273859 -0.36021679970710663 0 0.1427409152789316 -0.35333719160599752 0 0.15547040917393029 -0.35424141769396528 0 0.1427409152789316 -0.35333719160599752 0 0.15547040917393029 -0.35424141769396528 0 0.15261364189020821 -0.34367485346691018 0 0.1427409152789316 -0.35333719160599752 0 0.14038624456958279 -0.34666838786969539 0 0.15261364189020821 -0.34367485346691018 0 0.14038624456958279 -0.34666838786969539 0 0.12905554143536191 -0.35339582610953951 0 0.1408320371892626 -0.33582944275477039 0 0.12905554143536191 -0.35339582610953951 0 0.1408320371892626 -0.33582944275477039 0 0.1157832761261425 -0.3420133070251129 0 0.1427409152789316 -0.35333719160599752 0 0.14038624456958279 -0.34666838786969539 0 0.12905554143536191 -0.35339582610953951 0 0.1427409152789316 -0.35333719160599752 0 0.12905554143536191 -0.35339582610953951 0 0.13743792569041899 -0.36538214272436492 0 0.13743792569041899 -0.36538214272436492 0 0.14412354467536481 -0.38027434014001188 0 0.12009365802938569 -0.37386703103262708 0 0.12905554143536191 -0.35339582610953951 0 0.13743792569041899 -0.36538214272436492 0 0.12009365802938569 -0.37386703103262708 0 0.16588079825238261 -0.32964557848442799 0 0.15745441662035359 -0.31569089141618972 0 0.14356418630084661 -0.3221490255784778 0 0.16588079825238261 -0.32964557848442799 0 0.14356418630084661 -0.3221490255784778 0 0.14068088664114031 -0.33230010803983789 0 0.15745441662035359 -0.31569089141618972 0 0.14356418630084661 -0.3221490255784778 0 0.14355562395918239 -0.31205533056309048 0 0.16588079825238261 -0.32964557848442799 0 0.14068088664114031 -0.33230010803983789 0 0.1408320371892626 -0.33582944275477039 0 0.16588079825238261 -0.32964557848442799 0 0.15261364189020821 -0.34367485346691018 0 0.1408320371892626 -0.33582944275477039 0 0.16588079825238261 -0.32964557848442799 0 0.1408320371892626 -0.33582944275477039 0 0.14038624456958279 -0.34666838786969539 0 0.15261364189020821 -0.34367485346691018 0 0.1408320371892626 -0.33582944275477039 0 0.1408320371892626 -0.33582944275477039 0 0.12462587448395419 -0.32924580640186091 0 0.1157832761261425 -0.3420133070251129 0 0.14068088664114031 -0.33230010803983789 0 0.1408320371892626 -0.33582944275477039 0 0.12462587448395419 -0.32924580640186091 0 0.1408320371892626 -0.33582944275477039 0 0.1157832761261425 -0.3420133070251129 0 0.14068088664114031 -0.33230010803983789 0 0.11807910399469369 -0.31391160293810139 0 0.14356418630084661 -0.3221490255784778 0 0.14068088664114031 -0.33230010803983789 0 0.11807910399469369 -0.31391160293810139 0 0.14356418630084661 -0.3221490255784778 0 0.13378669453931441 -0.30958629116924452 0 0.11807910399469369 -0.31391160293810139 0 0.14356418630084661 -0.3221490255784778 0 0.11807910399469369 -0.31391160293810139 0 0.14068088664114031 -0.33230010803983789 0 0.11807910399469369 -0.31391160293810139 0 0.12462587448395419 -0.32924580640186091 0 0.14356418630084661 -0.3221490255784778 0 0.13378669453931441 -0.30958629116924452 0 0.14355562395918239 -0.31205533056309048 0 0.1406588536978112 -0.30233778898300873 0 0.13811013384656329 -0.29247125282881109 0 0.12397411391509761 -0.29694485944156712 0 0.13378669453931441 -0.30958629116924452 0 0.1406588536978112 -0.30233778898300873 0 0.12397411391509761 -0.29694485944156712 0 0.13378669453931441 -0.30958629116924452 0 0.12397411391509761 -0.29694485944156712 0 0.11807910399469369 -0.31391160293810139 0 0.13378669453931441 -0.30958629116924452 0 0.14355562395918239 -0.31205533056309048 0 0.1406588536978112 -0.30233778898300873 0 0.14355562395918239 -0.31205533056309048 0 0.1406588536978112 -0.30233778898300873 0 0.1501480966092287 -0.3058662181264879 0 0.1406588536978112 -0.30233778898300873 0 0.14848867289566381 -0.29615749872423708 0 0.13811013384656329 -0.29247125282881109 0 0.1406588536978112 -0.30233778898300873 0 0.1501480966092287 -0.3058662181264879 0 0.14848867289566381 -0.29615749872423708 0 0.1501480966092287 -0.3058662181264879 0 0.14848867289566381 -0.29615749872423708 0 0.1618607480720867 -0.29983804137889097 0 0.15745441662035359 -0.31569089141618972 0 0.14355562395918239 -0.31205533056309048 0 0.1501480966092287 -0.3058662181264879 0 0.1552704411346984 -0.28924670512707612 0 0.14501409141538529 -0.28705962260957463 0 0.1481145994854452 -0.27691063120674159 0 0.1552704411346984 -0.28924670512707612 0 0.1481145994854452 -0.27691063120674159 0 0.158230007698963 -0.28144462919941771 0 0.14848867289566381 -0.29615749872423708 0 0.1552704411346984 -0.28924670512707612 0 0.1618607480720867 -0.29983804137889097 0 0.14848867289566381 -0.29615749872423708 0 0.1552704411346984 -0.28924670512707612 0 0.14501409141538529 -0.28705962260957463 0 0.14848867289566381 -0.29615749872423708 0 0.14501409141538529 -0.28705962260957463 0 0.13811013384656329 -0.29247125282881109 0 0.14501409141538529 -0.28705962260957463 0 0.1328877249207743 -0.2820014786769296 0 0.1481145994854452 -0.27691063120674159 0 0.14501409141538529 -0.28705962260957463 0 0.1328877249207743 -0.2820014786769296 0 0.13811013384656329 -0.29247125282881109 0 0.1328877249207743 -0.2820014786769296 0 0.13811013384656329 -0.29247125282881109 0 0.12397411391509761 -0.29694485944156712 0 0.1328877249207743 -0.2820014786769296 0 0.133739349299385 -0.26661608594268232 0 0.1215665297401935 -0.27297764788960188 0 0.1328877249207743 -0.2820014786769296 0 0.133739349299385 -0.26661608594268232 0 0.1481145994854452 -0.27691063120674159 0 0.133739349299385 -0.26661608594268232 0 0.15226520197445501 -0.26166457225987189 0 0.13169437747279461 -0.24895566974178149 0 0.133739349299385 -0.26661608594268232 0 0.11490225559752749 -0.25909029604839579 0 0.13169437747279461 -0.24895566974178149 0 0.15226520197445501 -0.26166457225987189 0 0.15069042738418159 -0.24552194781281819 0 0.13169437747279461 -0.24895566974178149 0 0.133739349299385 -0.26661608594268232 0 0.15226520197445501 -0.26166457225987189 0 0.1481145994854452 -0.27691063120674159 0 0.15226520197445501 -0.26166457225987189 0 0.1481145994854452 -0.27691063120674159 0 0.16208478684916239 -0.274043811627524 0 0.1481145994854452 -0.27691063120674159 0 0.16208478684916239 -0.274043811627524 0 0.158230007698963 -0.28144462919941771 0 0.16208478684916239 -0.274043811627524 0 0.158230007698963 -0.28144462919941771 0 0.167450203326546 -0.28557736883632912 0 0.15226520197445501 -0.26166457225987189 0 0.16208478684916239 -0.274043811627524 0 0.16802813110747969 -0.26705433643009918 0 0.16208478684916239 -0.274043811627524 0 0.16802813110747969 -0.26705433643009918 0 0.17432499640238069 -0.27487466562503671 0 0.16802813110747969 -0.26705433643009918 0 0.17432499640238069 -0.27487466562503671 0 0.16208478684916239 -0.274043811627524 0 0.16802813110747969 -0.26705433643009918 0 0.16208478684916239 -0.274043811627524 0 0.17432499640238069 -0.27487466562503671 0 0.167450203326546 -0.28557736883632912 0 0.16802813110747969 -0.26705433643009918 0 0.15069042738418159 -0.24552194781281819 0 0.16802813110747969 -0.26705433643009918 0 0.16620895813804101 -0.25077283653489851 0 0.15069042738418159 -0.24552194781281819 0 0.15226520197445501 -0.26166457225987189 0 0.16802813110747969 -0.26705433643009918 0 0.15069042738418159 -0.24552194781281819 0 0.16802813110747969 -0.26705433643009918 0 0.18014098421946559 -0.26007216235558639 0 0.18257117037002091 -0.24995147181335481 0 0.16802813110747969 -0.26705433643009918 0 0.16620895813804101 -0.25077283653489851 0 0.18257117037002091 -0.24995147181335481 0 0.16802813110747969 -0.26705433643009918 0 0.18257117037002091 -0.24995147181335481 0 0.16802813110747969 -0.26705433643009918 0 0.18014098421946559 -0.26007216235558639 0 0.18022277011098031 -0.26611933460223391 0 0.18974186528938161 -0.25716350657665771 0 0.18014098421946559 -0.26007216235558639 0 0.18022277011098031 -0.26611933460223391 0 0.18974186528938161 -0.25716350657665771 0 0.18014098421946559 -0.26007216235558639 0 0.18257117037002091 -0.24995147181335481 0 0.18974186528938161 -0.25716350657665771 0 0.18022277011098031 -0.26611933460223391 0 0.18617442925474689 -0.27456504529668652 0 0.17432499640238069 -0.27487466562503671 0 0.18617442925474689 -0.27456504529668652 0 0.1781693283804209 -0.28434622413165728 0 0.16802813110747969 -0.26705433643009918 0 0.17432499640238069 -0.27487466562503671 0 0.18022277011098031 -0.26611933460223391 0 0.17432499640238069 -0.27487466562503671 0 0.18022277011098031 -0.26611933460223391 0 0.18617442925474689 -0.27456504529668652 0 0.18949748082032161 -0.29264311616914701 0 0.18617442925474689 -0.27456504529668652 0 0.1781693283804209 -0.28434622413165728 0 0.1781693283804209 -0.28434622413165728 0 0.17508425991313031 -0.29437989795212982 0 0.167450203326546 -0.28557736883632912 0 0.17432499640238069 -0.27487466562503671 0 0.1781693283804209 -0.28434622413165728 0 0.167450203326546 -0.28557736883632912 0 0.18949748082032161 -0.29264311616914701 0 0.1781693283804209 -0.28434622413165728 0 0.17508425991313031 -0.29437989795212982 0 0.18949748082032161 -0.29264311616914701 0 0.17508425991313031 -0.29437989795212982 0 0.1784435389662761 -0.30949473924462451 0 0.15745441662035359 -0.31569089141618972 0 0.1501480966092287 -0.3058662181264879 0 0.1618607480720867 -0.29983804137889097 0 0.15745441662035359 -0.31569089141618972 0 0.1784435389662761 -0.30949473924462451 0 0.1618607480720867 -0.29983804137889097 0 0.17508425991313031 -0.29437989795212982 0 0.1784435389662761 -0.30949473924462451 0 0.1618607480720867 -0.29983804137889097 0 0.1552704411346984 -0.28924670512707612 0 0.1618607480720867 -0.29983804137889097 0 0.167450203326546 -0.28557736883632912 0 0.1552704411346984 -0.28924670512707612 0 0.158230007698963 -0.28144462919941771 0 0.167450203326546 -0.28557736883632912 0 0.17508425991313031 -0.29437989795212982 0 0.1618607480720867 -0.29983804137889097 0 0.167450203326546 -0.28557736883632912 0 0.19299245572300019 -0.47800462667192339 0 0.2062934608112621 -0.5 0 0.18077388631305111 -0.5 0 0.19299245572300019 -0.47800462667192339 0 0.2158783375078587 -0.48474087075451028 0 0.213135343086686 -0.46581345065810142 0 0.2062934608112621 -0.5 0 0.2158783375078587 -0.48474087075451028 0 0.23181303530947331 -0.5 0 0.19299245572300019 -0.47800462667192339 0 0.2062934608112621 -0.5 0 0.2158783375078587 -0.48474087075451028 0 0.2158783375078587 -0.48474087075451028 0 0.23181303530947331 -0.5 0 0.23515739260887189 -0.47988627644252702 0 0.25717944213105748 -0.49395910222695277 0 0.23515739260887189 -0.47988627644252702 0 0.25717944213105748 -0.49395910222695277 0 0.23181303530947331 -0.5 0 0.23515739260887189 -0.47988627644252702 0 0.25717944213105748 -0.49395910222695277 0 0.25733260980768419 -0.5 0 0.23181303530947331 -0.5 0 0.25654743482366149 -0.46903288006405158 0 0.25717944213105748 -0.49395910222695277 0 0.23515739260887189 -0.47988627644252702 0 0.2158783375078587 -0.48474087075451028 0 0.23515739260887189 -0.47988627644252702 0 0.213135343086686 -0.46581345065810142 0 0.23515739260887189 -0.47988627644252702 0 0.213135343086686 -0.46581345065810142 0 0.23515739260887189 -0.47988627644252702 0 0.23490744714928249 -0.45722100576579489 0 0.213135343086686 -0.46581345065810142 0 0.23490744714928249 -0.45722100576579489 0 0.21627669411832581 -0.44772354956671462 0 0.213135343086686 -0.46581345065810142 0 0.25654743482366149 -0.46903288006405158 0 0.23515739260887189 -0.47988627644252702 0 0.23490744714928249 -0.45722100576579489 0 0.25591542751626611 -0.44410665790115061 0 0.25654743482366149 -0.46903288006405158 0 0.23490744714928249 -0.45722100576579489 0 0.25591542751626611 -0.44410665790115061 0 0.23225406170660901 -0.43717236951633642 0 0.25591542751626611 -0.44410665790115061 0 0.23225406170660901 -0.43717236951633642 0 0.24677314110426879 -0.43146609470332958 0 0.25591542751626611 -0.44410665790115061 0 0.23490744714928249 -0.45722100576579489 0 0.23225406170660901 -0.43717236951633642 0 0.23490744714928249 -0.45722100576579489 0 0.21627669411832581 -0.44772354956671462 0 0.23225406170660901 -0.43717236951633642 0 0.21627669411832581 -0.44772354956671462 0 0.20859269589695181 -0.43023808113152201 0 0.23225406170660901 -0.43717236951633642 0 0.21627669411832581 -0.44772354956671462 0 0.1911132935645001 -0.45174062487367578 0 0.20859269589695181 -0.43023808113152201 0 0.21627669411832581 -0.44772354956671462 0 0.213135343086686 -0.46581345065810142 0 0.1911132935645001 -0.45174062487367578 0 0.213135343086686 -0.46581345065810142 0 0.1911132935645001 -0.45174062487367578 0 0.19299245572300019 -0.47800462667192339 0 0.213135343086686 -0.46581345065810142 0 0.1911132935645001 -0.45174062487367578 0 0.1911132935645001 -0.45174062487367578 0 0.18820265603638101 -0.43126001556276827 0 0.20859269589695181 -0.43023808113152201 0 0.18820265603638101 -0.43126001556276827 0 0.19870402376923191 -0.41427353026641922 0 0.20859269589695181 -0.43023808113152201 0 0.18820265603638101 -0.43126001556276827 0 0.19870402376923191 -0.41427353026641922 0 0.1763056012004546 -0.41647207974590278 0 0.19870402376923191 -0.41427353026641922 0 0.18958441484080549 -0.40173857590775958 0 0.1763056012004546 -0.41647207974590278 0 0.19870402376923191 -0.41427353026641922 0 0.20859269589695181 -0.43023808113152201 0 0.2259958469720531 -0.41207548724422299 0 0.19870402376923191 -0.41427353026641922 0 0.2259958469720531 -0.41207548724422299 0 0.2048992843226578 -0.39752028093778891 0 0.20859269589695181 -0.43023808113152201 0 0.23225406170660901 -0.43717236951633642 0 0.2259958469720531 -0.41207548724422299 0 0.23225406170660901 -0.43717236951633642 0 0.24141721557055659 -0.42004095223713422 0 0.2259958469720531 -0.41207548724422299 0 0.20859269589695181 -0.43023808113152201 0 0.23225406170660901 -0.43717236951633642 0 0.23225406170660901 -0.43717236951633642 0 0.24677314110426879 -0.43146609470332958 0 0.24141721557055659 -0.42004095223713422 0 0.25526308612564969 -0.418378464194676 0 0.24677314110426879 -0.43146609470332958 0 0.24141721557055659 -0.42004095223713422 0 0.2452484179480478 -0.40864469128694753 0 0.24141721557055659 -0.42004095223713422 0 0.2259958469720531 -0.41207548724422299 0 0.25526308612564969 -0.418378464194676 0 0.2452484179480478 -0.40864469128694753 0 0.24141721557055659 -0.42004095223713422 0 0.2259958469720531 -0.41207548724422299 0 0.2426789066796087 -0.3932493085865163 0 0.21841222095881141 -0.38809136540186562 0 0.2426789066796087 -0.3932493085865163 0 0.21841222095881141 -0.38809136540186562 0 0.26088703439237082 -0.39947924417218789 0 0.2452484179480478 -0.40864469128694753 0 0.2426789066796087 -0.3932493085865163 0 0.2452484179480478 -0.40864469128694753 0 0.2259958469720531 -0.41207548724422299 0 0.2426789066796087 -0.3932493085865163 0 0.25496122487686712 -0.37909187205610068 0 0.2426789066796087 -0.3932493085865163 0 0.23702505215156849 -0.37788508441040741 0 0.25496122487686712 -0.37909187205610068 0 0.2456644098544882 -0.36868582498308777 0 0.23702505215156849 -0.37788508441040741 0 0.2246243561267387 -0.37218354466805592 0 0.23702505215156849 -0.37788508441040741 0 0.21841222095881141 -0.38809136540186562 0 0.2426789066796087 -0.3932493085865163 0 0.23702505215156849 -0.37788508441040741 0 0.21841222095881141 -0.38809136540186562 0 0.21841222095881141 -0.38809136540186562 0 0.19414553523801381 -0.38293342221721588 0 0.21057897528355449 -0.37113371956774432 0 0.21841222095881141 -0.38809136540186562 0 0.19414553523801381 -0.38293342221721588 0 0.21841222095881141 -0.38809136540186562 0 0.2048992843226578 -0.39752028093778891 0 0.19414553523801381 -0.38293342221721588 0 0.2246243561267387 -0.37218354466805592 0 0.21057897528355449 -0.37113371956774432 0 0.21841222095881141 -0.38809136540186562 0 0.2259958469720531 -0.41207548724422299 0 0.21841222095881141 -0.38809136540186562 0 0.2048992843226578 -0.39752028093778891 0 0.2048992843226578 -0.39752028093778891 0 0.18958441484080549 -0.40173857590775958 0 0.19414553523801381 -0.38293342221721588 0 0.19870402376923191 -0.41427353026641922 0 0.2048992843226578 -0.39752028093778891 0 0.18958441484080549 -0.40173857590775958 0 0.21057897528355449 -0.37113371956774432 0 0.19414553523801381 -0.38293342221721588 0 0.18995647985377151 -0.36832695383283798 0 0.19414553523801381 -0.38293342221721588 0 0.17876233856058121 -0.37966368627661612 0 0.17876233856058121 -0.37966368627661612 0 0.17386762967366939 -0.3974935663714716 0 0.16854983043678221 -0.38642030681570699 0 0.19414553523801381 -0.38293342221721588 0 0.17386762967366939 -0.3974935663714716 0 0.19414553523801381 -0.38293342221721588 0 0.17876233856058121 -0.37966368627661612 0 0.17386762967366939 -0.3974935663714716 0 0.19414553523801381 -0.38293342221721588 0 0.17876233856058121 -0.37966368627661612 0 0.18958441484080549 -0.40173857590775958 0 0.17386762967366939 -0.3974935663714716 0 0.1763056012004546 -0.41647207974590278 0 0.18958441484080549 -0.40173857590775958 0 0.19414553523801381 -0.38293342221721588 0 0.17386762967366939 -0.3974935663714716 0 0.17386762967366939 -0.3974935663714716 0 0.15358972410932439 -0.41205371052572609 0 0.17386762967366939 -0.3974935663714716 0 0.15819021162972949 -0.39213002427872312 0 0.15358972410932439 -0.41205371052572609 0 0.17386762967366939 -0.3974935663714716 0 0.15819021162972949 -0.39213002427872312 0 0.16854983043678221 -0.38642030681570699 0 0.15819021162972949 -0.39213002427872312 0 0.16854983043678221 -0.38642030681570699 0 0.16337914188314839 -0.37639395033601741 0 0.17876233856058121 -0.37966368627661612 0 0.16337914188314839 -0.37639395033601741 0 0.17876233856058121 -0.37966368627661612 0 0.16854983043678221 -0.38642030681570699 0 0.16337914188314839 -0.37639395033601741 0 0.15819021162972949 -0.39213002427872312 0 0.14412354467536481 -0.38027434014001188 0 0.13012585441158761 -0.39454921447214097 0 0.15819021162972949 -0.39213002427872312 0 0.16337914188314839 -0.37639395033601741 0 0.14412354467536481 -0.38027434014001188 0 0.14412354467536481 -0.38027434014001188 0 0.13012585441158761 -0.39454921447214097 0 0.12009365802938569 -0.37386703103262708 0 0.13012585441158761 -0.39454921447214097 0 0.13180800882358501 -0.41191310076940868 0 0.1164910534240563 -0.40935483964016361 0 0.13012585441158761 -0.39454921447214097 0 0.15358972410932439 -0.41205371052572609 0 0.13180800882358501 -0.41191310076940868 0 0.15819021162972949 -0.39213002427872312 0 0.13012585441158761 -0.39454921447214097 0 0.15358972410932439 -0.41205371052572609 0 0.15358972410932439 -0.41205371052572609 0 0.13331181854497931 -0.4266138546799807 0 0.15358972410932439 -0.41205371052572609 0 0.13180800882358501 -0.41191310076940868 0 0.13331181854497931 -0.4266138546799807 0 0.13180800882358501 -0.41191310076940868 0 0.13331181854497931 -0.4266138546799807 0 0.1187420837642548 -0.42935601953018648 0 0.13331181854497931 -0.4266138546799807 0 0.12830157154544039 -0.44082565005824348 0 0.113281310231686 -0.44203785999738349 0 0.13331181854497931 -0.4266138546799807 0 0.15212732824757949 -0.43319868153117808 0 0.1419422433399245 -0.44694552068300802 0 0.15358972410932439 -0.41205371052572609 0 0.13331181854497931 -0.4266138546799807 0 0.15212732824757949 -0.43319868153117808 0 0.15212732824757949 -0.43319868153117808 0 0.1632632206347896 -0.42413466370655079 0 0.16909124404231421 -0.43766779908925019 0 0.15358972410932439 -0.41205371052572609 0 0.15212732824757949 -0.43319868153117808 0 0.1632632206347896 -0.42413466370655079 0 0.1632632206347896 -0.42413466370655079 0 0.1763056012004546 -0.41647207974590278 0 0.16909124404231421 -0.43766779908925019 0 0.15358972410932439 -0.41205371052572609 0 0.1632632206347896 -0.42413466370655079 0 0.1763056012004546 -0.41647207974590278 0 0.17386762967366939 -0.3974935663714716 0 0.15358972410932439 -0.41205371052572609 0 0.1763056012004546 -0.41647207974590278 0 0.18820265603638101 -0.43126001556276827 0 0.1763056012004546 -0.41647207974590278 0 0.16909124404231421 -0.43766779908925019 0 0.1911132935645001 -0.45174062487367578 0 0.16909124404231421 -0.43766779908925019 0 0.1911132935645001 -0.45174062487367578 0 0.18820265603638101 -0.43126001556276827 0 0.16909124404231421 -0.43766779908925019 0 0.1911132935645001 -0.45174062487367578 0 0.17213823562690511 -0.46057529558689791 0 0.16909124404231421 -0.43766779908925019 0 0.19299245572300019 -0.47800462667192339 0 0.1911132935645001 -0.45174062487367578 0 0.17213823562690511 -0.46057529558689791 0 0.17213823562690511 -0.46057529558689791 0 0.1566399440098292 -0.46722039328057541 0 0.15801484356203549 -0.45073523791264453 0 0.15212732824757949 -0.43319868153117808 0 0.15801484356203549 -0.45073523791264453 0 0.16909124404231421 -0.43766779908925019 0 0.17213823562690511 -0.46057529558689791 0 0.15801484356203549 -0.45073523791264453 0 0.16909124404231421 -0.43766779908925019 0 0.15212732824757949 -0.43319868153117808 0 0.15801484356203549 -0.45073523791264453 0 0.1419422433399245 -0.44694552068300802 0 0.1419422433399245 -0.44694552068300802 0 0.12830157154544039 -0.44082565005824348 0 0.12795555353799851 -0.45653401452542619 0 0.12830157154544039 -0.44082565005824348 0 0.12795555353799851 -0.45653401452542619 0 0.1212413922167431 -0.44700701580527019 0 0.13331181854497931 -0.4266138546799807 0 0.1419422433399245 -0.44694552068300802 0 0.12830157154544039 -0.44082565005824348 0 0.1419422433399245 -0.44694552068300802 0 0.12795555353799851 -0.45653401452542619 0 0.1413308478911767 -0.46328497760959869 0 0.12795555353799851 -0.45653401452542619 0 0.1413308478911767 -0.46328497760959869 0 0.12464685222031779 -0.47583471730655302 0 0.15801484356203549 -0.45073523791264453 0 0.1419422433399245 -0.44694552068300802 0 0.1413308478911767 -0.46328497760959869 0 0.1566399440098292 -0.46722039328057541 0 0.15801484356203549 -0.45073523791264453 0 0.1413308478911767 -0.46328497760959869 0 0.15801484356203549 -0.45073523791264453 0 0.1413308478911767 -0.46328497760959869 0 0.1566399440098292 -0.46722039328057541 0 0.1413308478911767 -0.46328497760959869 0 0.1454307210187572 -0.48073719664834119 0 0.1566399440098292 -0.46722039328057541 0 0.1454307210187572 -0.48073719664834119 0 0.1662850719502714 -0.48076925864539521 0 0.1413308478911767 -0.46328497760959869 0 0.1454307210187572 -0.48073719664834119 0 0.12464685222031779 -0.47583471730655302 0 0.1413308478911767 -0.46328497760959869 0 0.12464685222031779 -0.47583471730655302 0 0.1454307210187572 -0.48073719664834119 0 0.12973473731662899 -0.50000000000000111 0 0.12464685222031779 -0.47583471730655302 0 0.1454307210187572 -0.48073719664834119 0 0.15525431181484009 -0.5 0 0.1662850719502714 -0.48076925864539521 0 0.1454307210187572 -0.48073719664834119 0 0.12973473731662899 -0.50000000000000111 0 0.15525431181484009 -0.5 0 0.15525431181484009 -0.5 0 0.1662850719502714 -0.48076925864539521 0 0.18077388631305111 -0.5 0 0.17213823562690511 -0.46057529558689791 0 0.1566399440098292 -0.46722039328057541 0 0.1662850719502714 -0.48076925864539521 0 0.19299245572300019 -0.47800462667192339 0 0.17213823562690511 -0.46057529558689791 0 0.1662850719502714 -0.48076925864539521 0 0.19299245572300019 -0.47800462667192339 0 0.1662850719502714 -0.48076925864539521 0 0.18077388631305111 -0.5 0 0.073616619411662643 -0.5 0 0.082349077419945196 -0.47471921806695622 0 0.056697922886867917 -0.48104666106599597 0 0.082349077419945196 -0.47471921806695622 0 0.0586834165930913 -0.46209332213199172 0 0.056697922886867917 -0.48104666106599597 0 0.082349077419945196 -0.47471921806695622 0 0.098235978226780929 -0.47243141317085302 0 0.09493207300113693 -0.46296983361488359 0 0.082349077419945196 -0.47471921806695622 0 0.092520809642682181 -0.50000000000000144 0 0.1060147382467989 -0.48734511400192071 0 0.073616619411662643 -0.5 0 0.082349077419945196 -0.47471921806695622 0 0.092520809642682181 -0.50000000000000144 0 0.092520809642682181 -0.50000000000000144 0 0.1055579074453248 -0.49019346521932672 0 0.1060147382467989 -0.48734511400192071 0 0.092520809642682181 -0.50000000000000144 0 0.1055579074453248 -0.49019346521932672 0 0.1039850932796524 -0.49999999999999611 0 0.092520809642682181 -0.50000000000000144 0 0.1055579074453248 -0.49019346521932672 0 0.1055579074453248 -0.49019346521932672 0 0.1060147382467989 -0.48734511400192071 0 0.1079628565494594 -0.48838445700350791 0 0.1055579074453248 -0.49019346521932672 0 0.1060147382467989 -0.48734511400192071 0 0.1079628565494594 -0.48838445700350791 0 0.1055579074453248 -0.49019346521932672 0 0.1079628565494594 -0.48838445700350791 0 0.1060147382467989 -0.48734511400192071 0 0.1055579074453248 -0.49019346521932672 0 0.1039850932796524 -0.49999999999999611 0 0.1079628565494594 -0.48838445700350791 0 0.1055579074453248 -0.49019346521932672 0 0.1039850932796524 -0.49999999999999611 0 0.12973473731662899 -0.50000000000000111 0 0.1079628565494594 -0.48838445700350791 0 0.1039850932796524 -0.49999999999999611 0 0.12973473731662899 -0.50000000000000111 0 0.1079628565494594 -0.48838445700350791 0 0.12464685222031779 -0.47583471730655302 0 0.12973473731662899 -0.50000000000000111 0 0.1079628565494594 -0.48838445700350791 0 0.1060147382467989 -0.48734511400192071 0 0.12464685222031779 -0.47583471730655302 0 0.1096480242392424 -0.46469148699965213 0 0.1079628565494594 -0.48838445700350791 0 0.1060147382467989 -0.48734511400192071 0 0.12464685222031779 -0.47583471730655302 0 0.1079628565494594 -0.48838445700350791 0 0.12464685222031779 -0.47583471730655302 0 0.082349077419945196 -0.47471921806695622 0 0.1060147382467989 -0.48734511400192071 0 0.098235978226780929 -0.47243141317085302 0 0.1060147382467989 -0.48734511400192071 0 0.1096480242392424 -0.46469148699965213 0 0.1060147382467989 -0.48734511400192071 0 0.098235978226780929 -0.47243141317085302 0 0.1096480242392424 -0.46469148699965213 0 0.082349077419945196 -0.47471921806695622 0 0.1060147382467989 -0.48734511400192071 0 0.098235978226780929 -0.47243141317085302 0 0.09493207300113693 -0.46296983361488359 0 0.1096480242392424 -0.46469148699965213 0 0.1048946071740023 -0.45335203669556567 0 0.1096480242392424 -0.46469148699965213 0 0.113281310231686 -0.44203785999738349 0 0.09493207300113693 -0.46296983361488359 0 0.0968091466958486 -0.45390370656746781 0 0.1048946071740023 -0.45335203669556567 0 0.09493207300113693 -0.46296983361488359 0 0.1048946071740023 -0.45335203669556567 0 0.1096480242392424 -0.46469148699965213 0 0.12795555353799851 -0.45653401452542619 0 0.1096480242392424 -0.46469148699965213 0 0.1212413922167431 -0.44700701580527019 0 0.12795555353799851 -0.45653401452542619 0 0.12464685222031779 -0.47583471730655302 0 0.1096480242392424 -0.46469148699965213 0 0.1096480242392424 -0.46469148699965213 0 0.113281310231686 -0.44203785999738349 0 0.1096480242392424 -0.46469148699965213 0 0.1212413922167431 -0.44700701580527019 0 0.113281310231686 -0.44203785999738349 0 0.12830157154544039 -0.44082565005824348 0 0.1212413922167431 -0.44700701580527019 0 0.113281310231686 -0.44203785999738349 0 0.113281310231686 -0.44203785999738349 0 0.1092556671153611 -0.44043949119833919 0 0.10654737116170659 -0.44438594575201179 0 0.113281310231686 -0.44203785999738349 0 0.1092556671153611 -0.44043949119833919 0 0.1112629637077671 -0.43590667028239821 0 0.1092556671153611 -0.44043949119833919 0 0.1079460200326957 -0.43718394270923638 0 0.1112629637077671 -0.43590667028239821 0 0.1092556671153611 -0.44043949119833919 0 0.1033989289976059 -0.4394406265007712 0 0.1079460200326957 -0.43718394270923638 0 0.1092556671153611 -0.44043949119833919 0 0.10654737116170659 -0.44438594575201179 0 0.1033989289976059 -0.4394406265007712 0 0.10654737116170659 -0.44438594575201179 0 0.1033989289976059 -0.4394406265007712 0 0.1003040428484105 -0.44572475344220452 0 0.1048946071740023 -0.45335203669556567 0 0.10654737116170659 -0.44438594575201179 0 0.1003040428484105 -0.44572475344220452 0 0.1048946071740023 -0.45335203669556567 0 0.113281310231686 -0.44203785999738349 0 0.10654737116170659 -0.44438594575201179 0 0.0968091466958486 -0.45390370656746781 0 0.1003040428484105 -0.44572475344220452 0 0.088383849062743103 -0.44924194603890011 0 0.0968091466958486 -0.45390370656746781 0 0.1048946071740023 -0.45335203669556567 0 0.1003040428484105 -0.44572475344220452 0 0.1003040428484105 -0.44572475344220452 0 0.088383849062743103 -0.44924194603890011 0 0.098539273357294038 -0.4364625768921705 0 0.1033989289976059 -0.4394406265007712 0 0.1003040428484105 -0.44572475344220452 0 0.098539273357294038 -0.4364625768921705 0 0.088383849062743103 -0.44924194603890011 0 0.089658129363268141 -0.43291787330694809 0 0.078326168812453079 -0.43739624411359962 0 0.088383849062743103 -0.44924194603890011 0 0.089658129363268141 -0.43291787330694809 0 0.098539273357294038 -0.4364625768921705 0 0.088383849062743103 -0.44924194603890011 0 0.071434414307701907 -0.45024426450795701 0 0.078326168812453079 -0.43739624411359962 0 0.082349077419945196 -0.47471921806695622 0 0.09493207300113693 -0.46296983361488359 0 0.088383849062743103 -0.44924194603890011 0 0.082349077419945196 -0.47471921806695622 0 0.088383849062743103 -0.44924194603890011 0 0.071434414307701907 -0.45024426450795701 0 0.09493207300113693 -0.46296983361488359 0 0.0968091466958486 -0.45390370656746781 0 0.088383849062743103 -0.44924194603890011 0 0.082349077419945196 -0.47471921806695622 0 0.071434414307701907 -0.45024426450795701 0 0.0586834165930913 -0.46209332213199172 0 0.082349077419945196 -0.47471921806695622 0 0.0586834165930913 -0.46209332213199172 0 0.071434414307701907 -0.45024426450795701 0 0.078326168812453079 -0.43739624411359962 0 0.061531620901314983 -0.43490462773433158 0 0.071434414307701907 -0.45024426450795701 0 0.061531620901314983 -0.43490462773433158 0 0.0586834165930913 -0.46209332213199172 0 0.080622830427237224 -0.41967250897986103 0 0.078326168812453079 -0.43739624411359962 0 0.061531620901314983 -0.43490462773433158 0 0.064379825209537167 -0.40771593333667139 0 0.061531620901314983 -0.43490462773433158 0 0.064379825209537167 -0.40771593333667139 0 0.080622830427237224 -0.41967250897986103 0 0.079832237009915305 -0.39675836557205829 0 0.064379825209537167 -0.40771593333667139 0 0.080622830427237224 -0.41967250897986103 0 0.061531620901314983 -0.43490462773433158 0 0.092226328975946459 -0.4063876043094603 0 0.080622830427237224 -0.41967250897986103 0 0.079832237009915305 -0.39675836557205829 0 0.092226328975946459 -0.4063876043094603 0 0.080622830427237224 -0.41967250897986103 0 0.099083098191222296 -0.42003463329043889 0 0.080622830427237224 -0.41967250897986103 0 0.089658129363268141 -0.43291787330694809 0 0.078326168812453079 -0.43739624411359962 0 0.080622830427237224 -0.41967250897986103 0 0.089658129363268141 -0.43291787330694809 0 0.099083098191222296 -0.42003463329043889 0 0.089658129363268141 -0.43291787330694809 0 0.098539273357294038 -0.4364625768921705 0 0.099083098191222296 -0.42003463329043889 0 0.098539273357294038 -0.4364625768921705 0 0.1073371346458898 -0.43137989913999358 0 0.099083098191222296 -0.42003463329043889 0 0.1073371346458898 -0.43137989913999358 0 0.1110872113980229 -0.42070596461755672 0 0.099083098191222296 -0.42003463329043889 0 0.1033989289976059 -0.4394406265007712 0 0.098539273357294038 -0.4364625768921705 0 0.1073371346458898 -0.43137989913999358 0 0.1033989289976059 -0.4394406265007712 0 0.1073371346458898 -0.43137989913999358 0 0.1079460200326957 -0.43718394270923638 0 0.1073371346458898 -0.43137989913999358 0 0.1079460200326957 -0.43718394270923638 0 0.1112629637077671 -0.43590667028239821 0 0.1073371346458898 -0.43137989913999358 0 0.1112629637077671 -0.43590667028239821 0 0.1187420837642548 -0.42935601953018648 0 0.13331181854497931 -0.4266138546799807 0 0.113281310231686 -0.44203785999738349 0 0.1187420837642548 -0.42935601953018648 0 0.13331181854497931 -0.4266138546799807 0 0.113281310231686 -0.44203785999738349 0 0.113281310231686 -0.44203785999738349 0 0.1112629637077671 -0.43590667028239821 0 0.1187420837642548 -0.42935601953018648 0 0.1073371346458898 -0.43137989913999358 0 0.1187420837642548 -0.42935601953018648 0 0.1110872113980229 -0.42070596461755672 0 0.1187420837642548 -0.42935601953018648 0 0.1164910534240563 -0.40935483964016361 0 0.1110872113980229 -0.42070596461755672 0 0.13180800882358501 -0.41191310076940868 0 0.1187420837642548 -0.42935601953018648 0 0.1164910534240563 -0.40935483964016361 0 0.1164910534240563 -0.40935483964016361 0 0.1110872113980229 -0.42070596461755672 0 0.099083098191222296 -0.42003463329043889 0 0.092226328975946459 -0.4063876043094603 0 0.1164910534240563 -0.40935483964016361 0 0.099083098191222296 -0.42003463329043889 0 0.092226328975946459 -0.4063876043094603 0 0.1164910534240563 -0.40935483964016361 0 0.1008681218625375 -0.39357676942453279 0 0.13012585441158761 -0.39454921447214097 0 0.1164910534240563 -0.40935483964016361 0 0.1008681218625375 -0.39357676942453279 0 0.13012585441158761 -0.39454921447214097 0 0.1008681218625375 -0.39357676942453279 0 0.12009365802938569 -0.37386703103262708 0 0.1008681218625375 -0.39357676942453279 0 0.095801318462784307 -0.37088697035999318 0 0.1008681218625375 -0.39357676942453279 0 0.12009365802938569 -0.37386703103262708 0 0.095801318462784307 -0.37088697035999318 0 0.1008681218625375 -0.39357676942453279 0 0.082119332175267373 -0.3790692006038302 0 0.079832237009915305 -0.39675836557205829 0 0.1008681218625375 -0.39357676942453279 0 0.082119332175267373 -0.3790692006038302 0 0.095801318462784307 -0.37088697035999318 0 0.092226328975946459 -0.4063876043094603 0 0.1008681218625375 -0.39357676942453279 0 0.079832237009915305 -0.39675836557205829 0 0.064379825209537167 -0.40771593333667139 0 0.079832237009915305 -0.39675836557205829 0 0.067228029517759344 -0.38052723893901119 0 0.064379825209537167 -0.40771593333667139 0 0.067228029517759344 -0.38052723893901119 0 0.082119332175267373 -0.3790692006038302 0 0.079832237009915305 -0.39675836557205829 0 0.067228029517759344 -0.38052723893901119 0 0.067228029517759344 -0.38052723893901119 0 0.056215930657498081 -0.37633373426190803 0 0.069337519437153078 -0.37061231728397359 0 0.082119332175267373 -0.3790692006038302 0 0.067228029517759344 -0.38052723893901119 0 0.069337519437153078 -0.37061231728397359 0 0.067228029517759344 -0.38052723893901119 0 0.050539389615038788 -0.38904078700341999 0 0.056215930657498081 -0.37633373426190803 0 0.050539389615038788 -0.38904078700341999 0 0.046967556927861927 -0.3760802679957278 0 0.056215930657498081 -0.37633373426190803 0 0.064379825209537167 -0.40771593333667139 0 0.050539389615038788 -0.38904078700341999 0 0.046929381130523237 -0.40688232550816289 0 0.064379825209537167 -0.40771593333667139 0 0.067228029517759344 -0.38052723893901119 0 0.050539389615038788 -0.38904078700341999 0 0.050539389615038788 -0.38904078700341999 0 0.037648495067783852 -0.39585119332984608 0 0.046929381130523237 -0.40688232550816289 0 0.037648495067783852 -0.39585119332984608 0 0.033092537436555013 -0.41271817721747073 0 0.046929381130523237 -0.40688232550816289 0 0.050539389615038788 -0.38904078700341999 0 0.037648495067783852 -0.39585119332984608 0 0.035216962254712221 -0.37806085272299961 0 0.037648495067783852 -0.39585119332984608 0 0.035216962254712221 -0.37806085272299961 0 0.02246420490208996 -0.39255382419717749 0 0.050539389615038788 -0.38904078700341999 0 0.046967556927861927 -0.3760802679957278 0 0.035216962254712221 -0.37806085272299961 0 0.035216962254712221 -0.37806085272299961 0 0.018914327586529951 -0.37755199024912028 0 0.02246420490208996 -0.39255382419717749 0 0.018914327586529951 -0.37755199024912028 0 0.005794174751154433 -0.38760123843937189 0 0.02246420490208996 -0.39255382419717749 0 0.035216962254712221 -0.37806085272299961 0 0.02246420490208996 -0.39255382419717749 0 0.018914327586529951 -0.37755199024912028 0 0.005794174751154433 -0.38760123843937189 0 0.002942391382764642 -0.36987068143337393 0 -0.0075537544394073692 -0.38135874763525868 0 0.005794174751154433 -0.38760123843937189 0 0.002942391382764642 -0.36987068143337393 0 0.005794174751154433 -0.38760123843937189 0 0.010973890533581729 -0.40357323746365259 0 0.02246420490208996 -0.39255382419717749 0 -0.0076677579998080704 -0.40070457706422502 0 0.005794174751154433 -0.38760123843937189 0 0.010973890533581729 -0.40357323746365259 0 0.037648495067783852 -0.39585119332984608 0 0.02246420490208996 -0.39255382419717749 0 0.033092537436555013 -0.41271817721747073 0 0.010973890533581729 -0.40357323746365259 0 0.02246420490208996 -0.39255382419717749 0 0.033092537436555013 -0.41271817721747073 0 0.010973890533581729 -0.40357323746365259 0 0.01465664452217663 -0.41831117743417789 0 0.033092537436555013 -0.41271817721747073 0 0.01465664452217663 -0.41831117743417789 0 0.029576580882036709 -0.42870343657925941 0 0.033092537436555013 -0.41271817721747073 0 -0.0076677579998080704 -0.40070457706422502 0 0.010973890533581729 -0.40357323746365259 0 0.00076786515994940675 -0.41588390697324201 0 0.010973890533581729 -0.40357323746365259 0 0.01465664452217663 -0.41831117743417789 0 0.00076786515994940675 -0.41588390697324201 0 0.01465664452217663 -0.41831117743417789 0 0.0023886683407352421 -0.43205944146753561 0 0.018170629518116831 -0.43094068785550521 0 0.01465664452217663 -0.41831117743417789 0 0.00076786515994940675 -0.41588390697324201 0 0.0023886683407352421 -0.43205944146753561 0 0.0023886683407352421 -0.43205944146753561 0 0.018170629518116831 -0.43094068785550521 0 0.026060624327518711 -0.44468869594104821 0 0.018170629518116831 -0.43094068785550521 0 0.029576580882036709 -0.42870343657925941 0 0.026060624327518711 -0.44468869594104821 0 0.029576580882036709 -0.42870343657925941 0 0.026060624327518711 -0.44468869594104821 0 0.01465664452217663 -0.41831117743417789 0 0.018170629518116831 -0.43094068785550521 0 0.029576580882036709 -0.42870343657925941 0 0.029576580882036709 -0.42870343657925941 0 0.041315495734966817 -0.43717044918270681 0 0.026060624327518711 -0.44468869594104821 0 0.029576580882036709 -0.42870343657925941 0 0.041315495734966817 -0.43717044918270681 0 0.047036632103658757 -0.42416447662237472 0 0.033092537436555013 -0.41271817721747073 0 0.046929381130523237 -0.40688232550816289 0 0.047036632103658757 -0.42416447662237472 0 0.029576580882036709 -0.42870343657925941 0 0.033092537436555013 -0.41271817721747073 0 0.047036632103658757 -0.42416447662237472 0 0.029576580882036709 -0.42870343657925941 0 0.033092537436555013 -0.41271817721747073 0 0.064379825209537167 -0.40771593333667139 0 0.046929381130523237 -0.40688232550816289 0 0.047036632103658757 -0.42416447662237472 0 0.064379825209537167 -0.40771593333667139 0 0.047036632103658757 -0.42416447662237472 0 0.061531620901314983 -0.43490462773433158 0 0.041315495734966817 -0.43717044918270681 0 0.047036632103658757 -0.42416447662237472 0 0.061531620901314983 -0.43490462773433158 0 0.061531620901314983 -0.43490462773433158 0 0.0586834165930913 -0.46209332213199172 0 0.041315495734966817 -0.43717044918270681 0 0.061531620901314983 -0.43490462773433158 0 0.042372020460304902 -0.45339100903652008 0 0.061531620901314983 -0.43490462773433158 0 0.0586834165930913 -0.46209332213199172 0 0.042372020460304902 -0.45339100903652008 0 0.0586834165930913 -0.46209332213199172 0 0.042372020460304902 -0.45339100903652008 0 0.0586834165930913 -0.46209332213199172 0 0.047566572078789081 -0.46475333179869199 0 0.042372020460304902 -0.45339100903652008 0 0.0586834165930913 -0.46209332213199172 0 0.047566572078789081 -0.46475333179869199 0 0.051945962218512949 -0.47552067438342283 0 0.042372020460304902 -0.45339100903652008 0 0.037264889043247457 -0.46800832164283312 0 0.022583815867981829 -0.46049596890224359 0 0.047566572078789081 -0.46475333179869199 0 0.042372020460304902 -0.45339100903652008 0 0.037264889043247457 -0.46800832164283312 0 0.041315495734966817 -0.43717044918270681 0 0.042372020460304902 -0.45339100903652008 0 0.026060624327518711 -0.44468869594104821 0 0.042372020460304902 -0.45339100903652008 0 0.026060624327518711 -0.44468869594104821 0 0.026060624327518711 -0.44468869594104821 0 0.003734319687895928 -0.4508506205958418 0 0.022583815867981829 -0.46049596890224359 0 0.026060624327518711 -0.44468869594104821 0 0.022583815867981829 -0.46049596890224359 0 0.042372020460304902 -0.45339100903652008 0 0.026060624327518711 -0.44468869594104821 0 0.022583815867981829 -0.46049596890224359 0 0.0023886683407352421 -0.43205944146753561 0 0.026060624327518711 -0.44468869594104821 0 0.0023886683407352421 -0.43205944146753561 0 0.026060624327518711 -0.44468869594104821 0 0.003734319687895928 -0.4508506205958418 0 0.003734319687895928 -0.4508506205958418 0 0.022583815867981829 -0.46049596890224359 0 0.003734319687895928 -0.4508506205958418 0 0.0042236857574974376 -0.46753925583388589 0 0.022583815867981829 -0.46049596890224359 0 0.037264889043247457 -0.46800832164283312 0 0.022583815867981829 -0.46049596890224359 0 0.037264889043247457 -0.46800832164283312 0 0.018239361582800939 -0.48024798445112271 0 0.031331914743292728 -0.48618697073113382 0 0.037264889043247457 -0.46800832164283312 0 0.022583815867981829 -0.46049596890224359 0 0.018239361582800939 -0.48024798445112271 0 0.022583815867981829 -0.46049596890224359 0 0.018239361582800939 -0.48024798445112271 0 0.0042236857574974376 -0.46753925583388589 0 0.022583815867981829 -0.46049596890224359 0 0.018239361582800939 -0.48024798445112271 0 0.0042236857574974376 -0.46753925583388589 0 0.018239361582800939 -0.48024798445112271 0 0.0020093075809049662 -0.48402745145511827 0 0.018239361582800939 -0.48024798445112271 0 0.0020093075809049662 -0.48402745145511827 0 0.01389490729762091 -0.500000000000002 0 -0.01124759835667311 -0.5 0 0.0020093075809049662 -0.48402745145511827 0 0.01389490729762091 -0.500000000000002 0 0.01389490729762091 -0.500000000000002 0 0.03430366823913189 -0.5 0 0.031331914743292728 -0.48618697073113382 0 0.018239361582800939 -0.48024798445112271 0 0.01389490729762091 -0.500000000000002 0 0.018239361582800939 -0.48024798445112271 0 0.01389490729762091 -0.500000000000002 0 0.031331914743292728 -0.48618697073113382 0 0.03430366823913189 -0.5 0 0.042084103890243217 -0.48893516386436597 0 0.054712429180643021 -0.50000000000000011 0 0.042084103890243217 -0.48893516386436597 0 0.042204558406711487 -0.47993035442847942 0 0.049528995316595742 -0.48508657074845279 0 0.03430366823913189 -0.5 0 0.042084103890243217 -0.48893516386436597 0 0.031331914743292728 -0.48618697073113382 0 0.042084103890243217 -0.48893516386436597 0 0.031331914743292728 -0.48618697073113382 0 0.042204558406711487 -0.47993035442847942 0 0.037264889043247457 -0.46800832164283312 0 0.031331914743292728 -0.48618697073113382 0 0.042204558406711487 -0.47993035442847942 0 0.037264889043247457 -0.46800832164283312 0 0.042204558406711487 -0.47993035442847942 0 0.051945962218512949 -0.47552067438342283 0 0.037264889043247457 -0.46800832164283312 0 0.051945962218512949 -0.47552067438342283 0 0.047566572078789081 -0.46475333179869199 0 0.037264889043247457 -0.46800832164283312 0 0.051945962218512949 -0.47552067438342283 0 0.0586834165930913 -0.46209332213199172 0 0.051945962218512949 -0.47552067438342283 0 0.056697922886867917 -0.48104666106599597 0 0.0586834165930913 -0.46209332213199172 0 0.056697922886867917 -0.48104666106599597 0 0.042204558406711487 -0.47993035442847942 0 0.051945962218512949 -0.47552067438342283 0 0.049528995316595742 -0.48508657074845279 0 0.051945962218512949 -0.47552067438342283 0 0.056697922886867917 -0.48104666106599597 0 0.049528995316595742 -0.48508657074845279 0 0.056697922886867917 -0.48104666106599597 0 0.054712429180643021 -0.50000000000000011 0 0.049528995316595742 -0.48508657074845279 0 0.073616619411662643 -0.5 0 0.056697922886867917 -0.48104666106599597 0 0.054712429180643021 -0.50000000000000011 0 0.056697922886867917 -0.48104666106599597 0 0.054712429180643021 -0.50000000000000011 0 0.042084103890243217 -0.48893516386436597 0 0.054712429180643021 -0.50000000000000011 0 0.049528995316595742 -0.48508657074845279 0 0.090516309367109221 -0.29148688549187951 0 0.094804504850916599 -0.26744839964157552 0 0.094133332513963594 -0.28826463631656551 0 0.090516309367109221 -0.29148688549187951 0 0.074847235087159625 -0.27873873828405049 0 0.081018209474546451 -0.29025665214631902 0 0.090516309367109221 -0.29148688549187951 0 0.074847235087159625 -0.27873873828405049 0 0.080969159368394494 -0.29555586918951882 0 0.081018209474546451 -0.29025665214631902 0 0.073016749640806733 -0.29199523940361838 0 0.085476388268901998 -0.2939029023183049 0 0.081018209474546451 -0.29025665214631902 0 0.090516309367109221 -0.29148688549187951 0 0.085476388268901998 -0.2939029023183049 0 0.080969159368394494 -0.29555586918951882 0 0.08494828819244718 -0.29744138409043491 0 0.085476388268901998 -0.2939029023183049 0 0.080969159368394494 -0.29555586918951882 0 0.081018209474546451 -0.29025665214631902 0 0.090516309367109221 -0.29148688549187951 0 0.094133332513963594 -0.28826463631656551 0 0.090516309367109221 -0.29148688549187951 0 0.089929974942010257 -0.29477372067337182 0 0.095529843970910633 -0.3007086709643616 0 0.085476388268901998 -0.2939029023183049 0 0.090516309367109221 -0.29148688549187951 0 0.089929974942010257 -0.29477372067337182 0 0.085476388268901998 -0.2939029023183049 0 0.089929974942010257 -0.29477372067337182 0 0.08494828819244718 -0.29744138409043491 0 0.090516309367109221 -0.29148688549187951 0 0.089929974942010257 -0.29477372067337182 0 0.089929974942010257 -0.29477372067337182 0 0.088236697775618697 -0.304265783094192 0 0.095529843970910633 -0.3007086709643616 0 0.089929974942010257 -0.29477372067337182 0 0.088236697775618697 -0.304265783094192 0 0.084566401407605379 -0.30307945055519608 0 0.088236697775618697 -0.304265783094192 0 0.087470928400824349 -0.30855848298395039 0 0.10315790088515631 -0.3090886930161465 0 0.089929974942010257 -0.29477372067337182 0 0.088236697775618697 -0.304265783094192 0 0.089929974942010257 -0.29477372067337182 0 0.084566401407605379 -0.30307945055519608 0 0.089929974942010257 -0.29477372067337182 0 0.08494828819244718 -0.29744138409043491 0 0.084566401407605379 -0.30307945055519608 0 0.088236697775618697 -0.304265783094192 0 0.084566401407605379 -0.30307945055519608 0 0.088236697775618697 -0.304265783094192 0 0.087470928400824349 -0.30855848298395039 0 0.088236697775618697 -0.304265783094192 0 0.087470928400824349 -0.30855848298395039 0 0.084566401407605379 -0.30307945055519608 0 0.081663288483184979 -0.30757504879990549 0 0.084566401407605379 -0.30307945055519608 0 0.087470928400824349 -0.30855848298395039 0 0.081663288483184979 -0.30757504879990549 0 0.084566401407605379 -0.30307945055519608 0 0.081663288483184979 -0.30757504879990549 0 0.080355446446996354 -0.3017183634959737 0 0.07656176494063574 -0.30492417011921419 0 0.080969159368394494 -0.29555586918951882 0 0.08494828819244718 -0.29744138409043491 0 0.081982588536133535 -0.2983291307970935 0 0.082543719464495097 -0.30018913243954792 0 0.08494828819244718 -0.29744138409043491 0 0.084566401407605379 -0.30307945055519608 0 0.082543719464495097 -0.30018913243954792 0 0.08494828819244718 -0.29744138409043491 0 0.081982588536133535 -0.2983291307970935 0 0.081663288483184979 -0.30757504879990549 0 0.084566401407605379 -0.30307945055519608 0 0.080355446446996354 -0.3017183634959737 0 0.082543719464495097 -0.30018913243954792 0 0.084566401407605379 -0.30307945055519608 0 0.080355446446996354 -0.3017183634959737 0 0.084566401407605379 -0.30307945055519608 0 0.080355446446996354 -0.3017183634959737 0 0.081663288483184979 -0.30757504879990549 0 0.080355446446996354 -0.3017183634959737 0 0.080355446446996354 -0.3017183634959737 0 0.080016384039652194 -0.30019999830869082 0 0.080969159368394494 -0.29555586918951882 0 0.080016384039652194 -0.30019999830869082 0 0.081982588536133535 -0.2983291307970935 0 0.082543719464495097 -0.30018913243954792 0 0.080016384039652194 -0.30019999830869082 0 0.081982588536133535 -0.2983291307970935 0 0.082543719464495097 -0.30018913243954792 0 0.080355446446996354 -0.3017183634959737 0 0.080016384039652194 -0.30019999830869082 0 0.080355446446996354 -0.3017183634959737 0 0.065857396633387674 -0.29703222741286228 0 0.080355446446996354 -0.3017183634959737 0 0.080016384039652194 -0.30019999830869082 0 0.065857396633387674 -0.29703222741286228 0 0.080355446446996354 -0.3017183634959737 0 0.07656176494063574 -0.30492417011921419 0 0.065857396633387674 -0.29703222741286228 0 0.072220645141838749 -0.30660929418233762 0 0.065857396633387674 -0.29703222741286228 0 0.055209962036623178 -0.30556895177181959 0 0.072220645141838749 -0.30660929418233762 0 0.066141386037092839 -0.31462046568954882 0 0.055209962036623178 -0.30556895177181959 0 0.072220645141838749 -0.30660929418233762 0 0.07656176494063574 -0.30492417011921419 0 0.065857396633387674 -0.29703222741286228 0 0.081663288483184979 -0.30757504879990549 0 0.072220645141838749 -0.30660929418233762 0 0.066141386037092839 -0.31462046568954882 0 0.081663288483184979 -0.30757504879990549 0 0.072220645141838749 -0.30660929418233762 0 0.07656176494063574 -0.30492417011921419 0 0.065857396633387674 -0.29703222741286228 0 0.073016749640806733 -0.29199523940361838 0 0.060932743903641347 -0.28106177646718988 0 0.080969159368394494 -0.29555586918951882 0 0.080016384039652194 -0.30019999830869082 0 0.073016749640806733 -0.29199523940361838 0 0.080016384039652194 -0.30019999830869082 0 0.065857396633387674 -0.29703222741286228 0 0.073016749640806733 -0.29199523940361838 0 0.081018209474546451 -0.29025665214631902 0 0.073016749640806733 -0.29199523940361838 0 0.074847235087159625 -0.27873873828405049 0 0.073016749640806733 -0.29199523940361838 0 0.074847235087159625 -0.27873873828405049 0 0.060932743903641347 -0.28106177646718988 0 0.074847235087159625 -0.27873873828405049 0 0.059178160807211562 -0.26599059107621947 0 0.060932743903641347 -0.28106177646718988 0 0.074847235087159625 -0.27873873828405049 0 0.059178160807211562 -0.26599059107621947 0 0.074847235087159625 -0.27873873828405049 0 0.068298362681051231 -0.25811527544431628 0 0.059178160807211562 -0.26599059107621947 0 0.074847235087159625 -0.27873873828405049 0 0.068298362681051231 -0.25811527544431628 0 0.081349711395514904 -0.25500122782576939 0 0.068298362681051231 -0.25811527544431628 0 0.081349711395514904 -0.25500122782576939 0 0.068934026892629688 -0.23991323664967901 0 0.081349711395514904 -0.25500122782576939 0 0.094804504850916599 -0.26744839964157552 0 0.099092700334722755 -0.24340991379127119 0 0.090516309367109221 -0.29148688549187951 0 0.074847235087159625 -0.27873873828405049 0 0.094804504850916599 -0.26744839964157552 0 0.090516309367109221 -0.29148688549187951 0 0.094804504850916599 -0.26744839964157552 0 0.074847235087159625 -0.27873873828405049 0 0.081349711395514904 -0.25500122782576939 0 0.094804504850916599 -0.26744839964157552 0 0.094804504850916599 -0.26744839964157552 0 0.1065912937279187 -0.27706956165457808 0 0.094133332513963594 -0.28826463631656551 0 0.094804504850916599 -0.26744839964157552 0 0.1065912937279187 -0.27706956165457808 0 0.11490225559752749 -0.25909029604839579 0 0.094804504850916599 -0.26744839964157552 0 0.099092700334722755 -0.24340991379127119 0 0.094804504850916599 -0.26744839964157552 0 0.11490225559752749 -0.25909029604839579 0 0.099092700334722755 -0.24340991379127119 0 0.133739349299385 -0.26661608594268232 0 0.11490225559752749 -0.25909029604839579 0 0.1215665297401935 -0.27297764788960188 0 0.1065912937279187 -0.27706956165457808 0 0.11490225559752749 -0.25909029604839579 0 0.1215665297401935 -0.27297764788960188 0 0.1065912937279187 -0.27706956165457808 0 0.1215665297401935 -0.27297764788960188 0 0.11747960353755631 -0.28343913802955678 0 0.1328877249207743 -0.2820014786769296 0 0.1215665297401935 -0.27297764788960188 0 0.11747960353755631 -0.28343913802955678 0 0.1057112013759467 -0.29036243251991661 0 0.10480125008215339 -0.30310892032539971 0 0.12397411391509761 -0.29694485944156712 0 0.11747960353755631 -0.28343913802955678 0 0.1057112013759467 -0.29036243251991661 0 0.12397411391509761 -0.29694485944156712 0 0.1328877249207743 -0.2820014786769296 0 0.11747960353755631 -0.28343913802955678 0 0.12397411391509761 -0.29694485944156712 0 0.1065912937279187 -0.27706956165457808 0 0.11747960353755631 -0.28343913802955678 0 0.1057112013759467 -0.29036243251991661 0 0.1065912937279187 -0.27706956165457808 0 0.1057112013759467 -0.29036243251991661 0 0.094133332513963594 -0.28826463631656551 0 0.090516309367109221 -0.29148688549187951 0 0.1057112013759467 -0.29036243251991661 0 0.10480125008215339 -0.30310892032539971 0 0.090516309367109221 -0.29148688549187951 0 0.1057112013759467 -0.29036243251991661 0 0.094133332513963594 -0.28826463631656551 0 0.087470928400824349 -0.30855848298395039 0 0.10315790088515631 -0.3090886930161465 0 0.094978628626484526 -0.31875826611190711 0 0.088236697775618697 -0.304265783094192 0 0.10315790088515631 -0.3090886930161465 0 0.088236697775618697 -0.304265783094192 0 0.095529843970910633 -0.3007086709643616 0 0.10315790088515631 -0.3090886930161465 0 0.090516309367109221 -0.29148688549187951 0 0.10480125008215339 -0.30310892032539971 0 0.095529843970910633 -0.3007086709643616 0 0.10480125008215339 -0.30310892032539971 0 0.10315790088515631 -0.3090886930161465 0 0.090516309367109221 -0.29148688549187951 0 0.095529843970910633 -0.3007086709643616 0 0.10480125008215339 -0.30310892032539971 0 0.10480125008215339 -0.30310892032539971 0 0.10315790088515631 -0.3090886930161465 0 0.11807910399469369 -0.31391160293810139 0 0.10480125008215339 -0.30310892032539971 0 0.12397411391509761 -0.29694485944156712 0 0.11807910399469369 -0.31391160293810139 0 0.10315790088515631 -0.3090886930161465 0 0.11807910399469369 -0.31391160293810139 0 0.10480125008215339 -0.30310892032539971 0 0.11807910399469369 -0.31391160293810139 0 0.11807910399469369 -0.31391160293810139 0 0.12462587448395419 -0.32924580640186091 0 0.107743273578947 -0.3232403724437245 0 0.10315790088515631 -0.3090886930161465 0 0.11807910399469369 -0.31391160293810139 0 0.107743273578947 -0.3232403724437245 0 0.12462587448395419 -0.32924580640186091 0 0.1157832761261425 -0.3420133070251129 0 0.107743273578947 -0.3232403724437245 0 0.10234364131636869 -0.33501225642797822 0 0.095575404756396254 -0.32874081984448561 0 0.107743273578947 -0.3232403724437245 0 0.1157832761261425 -0.3420133070251129 0 0.10234364131636869 -0.33501225642797822 0 0.090734515063022436 -0.34819717129545558 0 0.1157832761261425 -0.3420133070251129 0 0.10234364131636869 -0.33501225642797822 0 0.107743273578947 -0.3232403724437245 0 0.10234364131636869 -0.33501225642797822 0 0.095575404756396254 -0.32874081984448561 0 0.090734515063022436 -0.34819717129545558 0 0.095575404756396254 -0.32874081984448561 0 0.094978628626484526 -0.31875826611190711 0 0.107743273578947 -0.3232403724437245 0 0.10315790088515631 -0.3090886930161465 0 0.094978628626484526 -0.31875826611190711 0 0.107743273578947 -0.3232403724437245 0 0.12905554143536191 -0.35339582610953951 0 0.12009365802938569 -0.37386703103262708 0 0.10611473316380909 -0.35667327975420798 0 0.12905554143536191 -0.35339582610953951 0 0.1157832761261425 -0.3420133070251129 0 0.10611473316380909 -0.35667327975420798 0 0.1157832761261425 -0.3420133070251129 0 0.090734515063022436 -0.34819717129545558 0 0.1157832761261425 -0.3420133070251129 0 0.10611473316380909 -0.35667327975420798 0 0.090734515063022436 -0.34819717129545558 0 0.10611473316380909 -0.35667327975420798 0 0.095801318462784307 -0.37088697035999318 0 0.090734515063022436 -0.34819717129545558 0 0.12009365802938569 -0.37386703103262708 0 0.10611473316380909 -0.35667327975420798 0 0.095801318462784307 -0.37088697035999318 0 0.095801318462784307 -0.37088697035999318 0 0.090734515063022436 -0.34819717129545558 0 0.095801318462784307 -0.37088697035999318 0 0.082629574837672637 -0.36353301906705049 0 0.090734515063022436 -0.34819717129545558 0 0.082119332175267373 -0.3790692006038302 0 0.095801318462784307 -0.37088697035999318 0 0.082629574837672637 -0.36353301906705049 0 0.090734515063022436 -0.34819717129545558 0 0.078215042169023086 -0.34516207951971323 0 0.072057443466753177 -0.3528080370954747 0 0.082629574837672637 -0.36353301906705049 0 0.090734515063022436 -0.34819717129545558 0 0.072057443466753177 -0.3528080370954747 0 0.090734515063022436 -0.34819717129545558 0 0.072057443466753177 -0.3528080370954747 0 0.090734515063022436 -0.34819717129545558 0 0.078215042169023086 -0.34516207951971323 0 0.081376456158424801 -0.3396249475202528 0 0.072057443466753177 -0.3528080370954747 0 0.068691753987891888 -0.34001816216766939 0 0.053380371870483903 -0.35741890289549377 0 0.072057443466753177 -0.3528080370954747 0 0.053380371870483903 -0.35741890289549377 0 0.072057443466753177 -0.3528080370954747 0 0.063870129448253307 -0.3608604960955929 0 0.053380371870483903 -0.35741890289549377 0 0.078215042169023086 -0.34516207951971323 0 0.072057443466753177 -0.3528080370954747 0 0.068691753987891888 -0.34001816216766939 0 0.072057443466753177 -0.3528080370954747 0 0.073359708300310647 -0.36214616132184752 0 0.063870129448253307 -0.3608604960955929 0 0.082629574837672637 -0.36353301906705049 0 0.073359708300310647 -0.36214616132184752 0 0.069337519437153078 -0.37061231728397359 0 0.082629574837672637 -0.36353301906705049 0 0.072057443466753177 -0.3528080370954747 0 0.073359708300310647 -0.36214616132184752 0 0.073359708300310647 -0.36214616132184752 0 0.063870129448253307 -0.3608604960955929 0 0.069337519437153078 -0.37061231728397359 0 0.082119332175267373 -0.3790692006038302 0 0.082629574837672637 -0.36353301906705049 0 0.069337519437153078 -0.37061231728397359 0 0.087470928400824349 -0.30855848298395039 0 0.081663288483184979 -0.30757504879990549 0 0.086198901773107656 -0.3278861100476797 0 0.081663288483184979 -0.30757504879990549 0 0.086198901773107656 -0.3278861100476797 0 0.087470928400824349 -0.30855848298395039 0 0.094978628626484526 -0.31875826611190711 0 0.086198901773107656 -0.3278861100476797 0 0.081663288483184979 -0.30757504879990549 0 0.084003136105300011 -0.32261742143984518 0 0.086198901773107656 -0.3278861100476797 0 0.095575404756396254 -0.32874081984448561 0 0.094978628626484526 -0.31875826611190711 0 0.086198901773107656 -0.3278861100476797 0 0.086198901773107656 -0.3278861100476797 0 0.081376456158424801 -0.3396249475202528 0 0.068691753987891888 -0.34001816216766939 0 0.084003136105300011 -0.32261742143984518 0 0.086198901773107656 -0.3278861100476797 0 0.068691753987891888 -0.34001816216766939 0 0.095575404756396254 -0.32874081984448561 0 0.090734515063022436 -0.34819717129545558 0 0.086198901773107656 -0.3278861100476797 0 0.090734515063022436 -0.34819717129545558 0 0.086198901773107656 -0.3278861100476797 0 0.081376456158424801 -0.3396249475202528 0 0.090734515063022436 -0.34819717129545558 0 0.086198901773107656 -0.3278861100476797 0 0.084003136105300011 -0.32261742143984518 0 0.068691753987891888 -0.34001816216766939 0 0.066776712465718896 -0.33062756751214101 0 0.084003136105300011 -0.32261742143984518 0 0.068691753987891888 -0.34001816216766939 0 0.078215042169023086 -0.34516207951971323 0 0.081376456158424801 -0.3396249475202528 0 0.068691753987891888 -0.34001816216766939 0 0.081663288483184979 -0.30757504879990549 0 0.066776712465718896 -0.33062756751214101 0 0.081663288483184979 -0.30757504879990549 0 0.066776712465718896 -0.33062756751214101 0 0.066141386037092839 -0.31462046568954882 0 0.081663288483184979 -0.30757504879990549 0 0.084003136105300011 -0.32261742143984518 0 0.066776712465718896 -0.33062756751214101 0 0.066776712465718896 -0.33062756751214101 0 0.066141386037092839 -0.31462046568954882 0 0.054152500240032979 -0.32291980159714001 0 0.066141386037092839 -0.31462046568954882 0 0.054152500240032979 -0.32291980159714001 0 0.055209962036623178 -0.30556895177181959 0 0.054152500240032979 -0.32291980159714001 0 0.039798293557268993 -0.31396751754436197 0 0.055209962036623178 -0.30556895177181959 0 0.066776712465718896 -0.33062756751214101 0 0.054152500240032979 -0.32291980159714001 0 0.053425302157979408 -0.33730821105276559 0 0.066776712465718896 -0.33062756751214101 0 0.051890136448251932 -0.35368008622437569 0 0.068691753987891888 -0.34001816216766939 0 0.066776712465718896 -0.33062756751214101 0 0.051890136448251932 -0.35368008622437569 0 0.066776712465718896 -0.33062756751214101 0 0.053425302157979408 -0.33730821105276559 0 0.051890136448251932 -0.35368008622437569 0 0.047702289768605979 -0.34359576059420638 0 0.053425302157979408 -0.33730821105276559 0 0.046604871867287227 -0.33571783933596522 0 0.054152500240032979 -0.32291980159714001 0 0.053425302157979408 -0.33730821105276559 0 0.046604871867287227 -0.33571783933596522 0 0.054152500240032979 -0.32291980159714001 0 0.046604871867287227 -0.33571783933596522 0 0.033170467339544298 -0.33261149830019721 0 0.047702289768605979 -0.34359576059420638 0 0.046604871867287227 -0.33571783933596522 0 0.038531679614681749 -0.34415226538094862 0 0.046604871867287227 -0.33571783933596522 0 0.033170467339544298 -0.33261149830019721 0 0.038531679614681749 -0.34415226538094862 0 0.033170467339544298 -0.33261149830019721 0 0.038531679614681749 -0.34415226538094862 0 0.025818836425573252 -0.34289694092049022 0 0.054152500240032979 -0.32291980159714001 0 0.033170467339544298 -0.33261149830019721 0 0.039798293557268993 -0.31396751754436197 0 0.069337519437153078 -0.37061231728397359 0 0.047969719607333983 -0.36356788124882122 0 0.056215930657498081 -0.37633373426190803 0 0.069337519437153078 -0.37061231728397359 0 0.047969719607333983 -0.36356788124882122 0 0.063870129448253307 -0.3608604960955929 0 0.047969719607333983 -0.36356788124882122 0 0.053380371870483903 -0.35741890289549377 0 0.063870129448253307 -0.3608604960955929 0 0.069337519437153078 -0.37061231728397359 0 0.047969719607333983 -0.36356788124882122 0 0.046967556927861927 -0.3760802679957278 0 0.056215930657498081 -0.37633373426190803 0 0.047969719607333983 -0.36356788124882122 0 0.047969719607333983 -0.36356788124882122 0 0.053380371870483903 -0.35741890289549377 0 0.039621358334499188 -0.36081563265733269 0 0.047969719607333983 -0.36356788124882122 0 0.053380371870483903 -0.35741890289549377 0 0.047702289768605979 -0.34359576059420638 0 0.053425302157979408 -0.33730821105276559 0 0.051890136448251932 -0.35368008622437569 0 0.068691753987891888 -0.34001816216766939 0 0.051890136448251932 -0.35368008622437569 0 0.053380371870483903 -0.35741890289549377 0 0.068691753987891888 -0.34001816216766939 0 0.053380371870483903 -0.35741890289549377 0 0.051890136448251932 -0.35368008622437569 0 0.053380371870483903 -0.35741890289549377 0 0.043720989083631367 -0.35315871158502188 0 0.047702289768605979 -0.34359576059420638 0 0.051890136448251932 -0.35368008622437569 0 0.043720989083631367 -0.35315871158502188 0 0.047702289768605979 -0.34359576059420638 0 0.038531679614681749 -0.34415226538094862 0 0.043720989083631367 -0.35315871158502188 0 0.032327749459427853 -0.35089279688658193 0 0.038531679614681749 -0.34415226538094862 0 0.025818836425573252 -0.34289694092049022 0 0.032327749459427853 -0.35089279688658193 0 0.038531679614681749 -0.34415226538094862 0 0.043720989083631367 -0.35315871158502188 0 0.032327749459427853 -0.35089279688658193 0 0.043720989083631367 -0.35315871158502188 0 0.039621358334499188 -0.36081563265733269 0 0.053380371870483903 -0.35741890289549377 0 0.043720989083631367 -0.35315871158502188 0 0.039621358334499188 -0.36081563265733269 0 0.053380371870483903 -0.35741890289549377 0 0.039621358334499188 -0.36081563265733269 0 0.035216962254712221 -0.37806085272299961 0 0.039621358334499188 -0.36081563265733269 0 0.031658211797973609 -0.36796690750987893 0 0.035216962254712221 -0.37806085272299961 0 0.047969719607333983 -0.36356788124882122 0 0.039621358334499188 -0.36081563265733269 0 0.047969719607333983 -0.36356788124882122 0 0.039621358334499188 -0.36081563265733269 0 0.046967556927861927 -0.3760802679957278 0 0.035216962254712221 -0.37806085272299961 0 0.047969719607333983 -0.36356788124882122 0 0.035216962254712221 -0.37806085272299961 0 0.047969719607333983 -0.36356788124882122 0 0.035216962254712221 -0.37806085272299961 0 0.018914327586529951 -0.37755199024912028 0 0.031658211797973609 -0.36796690750987893 0 0.039621358334499188 -0.36081563265733269 0 0.031658211797973609 -0.36796690750987893 0 0.02128187485863213 -0.36534315704535431 0 0.039621358334499188 -0.36081563265733269 0 0.02128187485863213 -0.36534315704535431 0 0.014609283069287471 -0.35256976898790549 0 0.039621358334499188 -0.36081563265733269 0 0.02128187485863213 -0.36534315704535431 0 0.018914327586529951 -0.37755199024912028 0 0.031658211797973609 -0.36796690750987893 0 0.02128187485863213 -0.36534315704535431 0 0.032327749459427853 -0.35089279688658193 0 0.014609283069287471 -0.35256976898790549 0 0.025818836425573252 -0.34289694092049022 0 0.039621358334499188 -0.36081563265733269 0 0.014609283069287471 -0.35256976898790549 0 0.032327749459427853 -0.35089279688658193 0 0.039621358334499188 -0.36081563265733269 0 0.014609283069287471 -0.35256976898790549 0 -0.01040279219592505 -0.34432390531848039 0 0.014609283069287471 -0.35256976898790549 0 -0.01040279219592505 -0.34432390531848039 0 0.014609283069287471 -0.35256976898790549 0 0.002942391382764642 -0.36987068143337393 0 0.02128187485863213 -0.36534315704535431 0 0.002942391382764642 -0.36987068143337393 0 0.018914327586529951 -0.37755199024912028 0 0.02128187485863213 -0.36534315704535431 0 0.002942391382764642 -0.36987068143337393 0 0.02128187485863213 -0.36534315704535431 0 0.014609283069287471 -0.35256976898790549 0 0.002942391382764642 -0.36987068143337393 0 0.033170467339544298 -0.33261149830019721 0 0.039798293557268993 -0.31396751754436197 0 0.020220964458904891 -0.31272809700530979 0 0.033170467339544298 -0.33261149830019721 0 0.020220964458904891 -0.31272809700530979 0 0.011781801105993389 -0.33251704524440068 0 0.033170467339544298 -0.33261149830019721 0 0.020220964458904891 -0.31272809700530979 0 0.033170467339544298 -0.33261149830019721 0 0.025818836425573252 -0.34289694092049022 0 0.011781801105993389 -0.33251704524440068 0 0.014609283069287471 -0.35256976898790549 0 0.025818836425573252 -0.34289694092049022 0 0.011781801105993389 -0.33251704524440068 0 -0.01040279219592505 -0.34432390531848039 0 0.014609283069287471 -0.35256976898790549 0 0.011781801105993389 -0.33251704524440068 0 -0.01163755279138529 -0.32736491789025463 0 0.011781801105993389 -0.33251704524440068 0 0.00079918170466464981 -0.31783493605041579 0 0.020220964458904891 -0.31272809700530979 0 0.011781801105993389 -0.33251704524440068 0 0.00079918170466464981 -0.31783493605041579 0 -0.0016643215767601341 -0.30548924849953318 0 0.020220964458904891 -0.31272809700530979 0 0.0072714615782653747 -0.29284469571042249 0 -0.0016643215767601341 -0.30548924849953318 0 0.020220964458904891 -0.31272809700530979 0 0.00079918170466464981 -0.31783493605041579 0 0.020220964458904891 -0.31272809700530979 0 0.0072714615782653747 -0.29284469571042249 0 0.0072714615782653747 -0.29284469571042249 0 0.01315909736859645 -0.28017143415431112 0 0.0042600240525320953 -0.27079245067264929 0 0.0072714615782653747 -0.29284469571042249 0 0.021509193530021221 -0.28799305905691441 0 0.0072714615782653747 -0.29284469571042249 0 0.021509193530021221 -0.28799305905691441 0 0.01315909736859645 -0.28017143415431112 0 0.021509193530021221 -0.28799305905691441 0 0.036155247610304413 -0.29640023392494308 0 0.03411362319889627 -0.28000097357578008 0 0.020220964458904891 -0.31272809700530979 0 0.021509193530021221 -0.28799305905691441 0 0.036155247610304413 -0.29640023392494308 0 0.020220964458904891 -0.31272809700530979 0 0.0072714615782653747 -0.29284469571042249 0 0.021509193530021221 -0.28799305905691441 0 0.039798293557268993 -0.31396751754436197 0 0.020220964458904891 -0.31272809700530979 0 0.036155247610304413 -0.29640023392494308 0 0.039798293557268993 -0.31396751754436197 0 0.036155247610304413 -0.29640023392494308 0 0.055209962036623178 -0.30556895177181959 0 0.036155247610304413 -0.29640023392494308 0 0.042607417440773412 -0.2861909119814639 0 0.03411362319889627 -0.28000097357578008 0 0.036155247610304413 -0.29640023392494308 0 0.042607417440773412 -0.2861909119814639 0 0.05135934681977903 -0.29234609132975059 0 0.065857396633387674 -0.29703222741286228 0 0.05135934681977903 -0.29234609132975059 0 0.060932743903641347 -0.28106177646718988 0 0.05135934681977903 -0.29234609132975059 0 0.060932743903641347 -0.28106177646718988 0 0.047180202957019607 -0.27714462571162252 0 0.042607417440773412 -0.2861909119814639 0 0.05135934681977903 -0.29234609132975059 0 0.047180202957019607 -0.27714462571162252 0 0.065857396633387674 -0.29703222741286228 0 0.05135934681977903 -0.29234609132975059 0 0.036155247610304413 -0.29640023392494308 0 0.05135934681977903 -0.29234609132975059 0 0.055209962036623178 -0.30556895177181959 0 0.065857396633387674 -0.29703222741286228 0 0.05135934681977903 -0.29234609132975059 0 0.055209962036623178 -0.30556895177181959 0 0.05718267922274041 -0.25093258338586338 0 0.059178160807211562 -0.26599059107621947 0 0.043509086527263457 -0.25324244386838851 0 0.053552938573467469 -0.2626849379726014 0 0.059178160807211562 -0.26599059107621947 0 0.043509086527263457 -0.25324244386838851 0 0.059178160807211562 -0.26599059107621947 0 0.043509086527263457 -0.25324244386838851 0 0.068298362681051231 -0.25811527544431628 0 0.05718267922274041 -0.25093258338586338 0 0.059178160807211562 -0.26599059107621947 0 0.059178160807211562 -0.26599059107621947 0 0.060932743903641347 -0.28106177646718988 0 0.052753560435438267 -0.27048427827761728 0 0.053552938573467469 -0.2626849379726014 0 0.059178160807211562 -0.26599059107621947 0 0.052753560435438267 -0.27048427827761728 0 0.060932743903641347 -0.28106177646718988 0 0.047180202957019607 -0.27714462571162252 0 0.052753560435438267 -0.27048427827761728 0 0.047180202957019607 -0.27714462571162252 0 0.052753560435438267 -0.27048427827761728 0 0.048413509335244631 -0.26916826360396112 0 0.053552938573467469 -0.2626849379726014 0 0.048413509335244631 -0.26916826360396112 0 0.04016733537505314 -0.26635921245400301 0 0.053552938573467469 -0.2626849379726014 0 0.052753560435438267 -0.27048427827761728 0 0.048413509335244631 -0.26916826360396112 0 0.047180202957019607 -0.27714462571162252 0 0.048413509335244631 -0.26916826360396112 0 0.04016733537505314 -0.26635921245400301 0 0.04016733537505314 -0.26635921245400301 0 0.03411362319889627 -0.28000097357578008 0 0.023458098337786601 -0.27151003320556211 0 0.042607417440773412 -0.2861909119814639 0 0.047180202957019607 -0.27714462571162252 0 0.03411362319889627 -0.28000097357578008 0 0.047180202957019607 -0.27714462571162252 0 0.04016733537505314 -0.26635921245400301 0 0.03411362319889627 -0.28000097357578008 0 0.053552938573467469 -0.2626849379726014 0 0.04016733537505314 -0.26635921245400301 0 0.028493320861897761 -0.25884974835217078 0 0.053552938573467469 -0.2626849379726014 0 0.043509086527263457 -0.25324244386838851 0 0.028493320861897761 -0.25884974835217078 0 0.053552938573467469 -0.2626849379726014 0 0.028493320861897761 -0.25884974835217078 0 0.043509086527263457 -0.25324244386838851 0 0.028493320861897761 -0.25884974835217078 0 0.032653404022560402 -0.24708104427208619 0 0.028493320861897761 -0.25884974835217078 0 0.0034337031503280401 -0.25501455873174012 0 0.019032405788940381 -0.24517759670760619 0 0.028493320861897761 -0.25884974835217078 0 0.019032405788940381 -0.24517759670760619 0 0.032653404022560402 -0.24708104427208619 0 0.04016733537505314 -0.26635921245400301 0 0.028493320861897761 -0.25884974835217078 0 0.023458098337786601 -0.27151003320556211 0 0.028493320861897761 -0.25884974835217078 0 0.0034337031503280401 -0.25501455873174012 0 0.028493320861897761 -0.25884974835217078 0 0.023458098337786601 -0.27151003320556211 0 0.014262845543907251 -0.26551545084827283 0 0.021509193530021221 -0.28799305905691441 0 0.023458098337786601 -0.27151003320556211 0 0.01315909736859645 -0.28017143415431112 0 0.021509193530021221 -0.28799305905691441 0 0.03411362319889627 -0.28000097357578008 0 0.023458098337786601 -0.27151003320556211 0 0.023458098337786601 -0.27151003320556211 0 0.01166908131699175 -0.27141046327924129 0 0.014262845543907251 -0.26551545084827283 0 0.023458098337786601 -0.27151003320556211 0 0.01315909736859645 -0.28017143415431112 0 0.01166908131699175 -0.27141046327924129 0 -0.0086003042226896267 -0.268474286159745 0 0.0072714615782653747 -0.29284469571042249 0 0.0042600240525320953 -0.27079245067264929 0 0.01315909736859645 -0.28017143415431112 0 0.01166908131699175 -0.27141046327924129 0 0.0042600240525320953 -0.27079245067264929 0 0.01166908131699175 -0.27141046327924129 0 0.0042600240525320953 -0.27079245067264929 0 0.014262845543907251 -0.26551545084827283 0 -0.0058819999006187711 -0.26170431814745848 0 0.0042600240525320953 -0.27079245067264929 0 0.0034337031503280401 -0.25501455873174012 0 0.0042600240525320953 -0.27079245067264929 0 0.014262845543907251 -0.26551545084827283 0 0.0034337031503280401 -0.25501455873174012 0 0.028493320861897761 -0.25884974835217078 0 0.014262845543907251 -0.26551545084827283 0 0.0034337031503280401 -0.25501455873174012 0 0.0034337031503280401 -0.25501455873174012 0 0.0042707322605524001 -0.2399886637588371 0 0.019032405788940381 -0.24517759670760619 0 0.0042707322605524001 -0.2399886637588371 0 0.015989893664255399 -0.23378384020259399 0 0.019032405788940381 -0.24517759670760619 0 0.0054379178707140976 -0.22437727815153249 0 0.015989893664255399 -0.23378384020259399 0 0.02209048061816286 -0.22388300655252599 0 0.0042707322605524001 -0.2399886637588371 0 0.0054379178707140976 -0.22437727815153249 0 0.015989893664255399 -0.23378384020259399 0 0.0054379178707140976 -0.22437727815153249 0 0.02209048061816286 -0.22388300655252599 0 0.02014744858000633 -0.20967736092921979 0 0.015989893664255399 -0.23378384020259399 0 0.02209048061816286 -0.22388300655252599 0 0.029116636587858669 -0.23444280298537579 0 0.02209048061816286 -0.22388300655252599 0 0.029116636587858669 -0.23444280298537579 0 0.037257837138285788 -0.22147320254459771 0 0.029116636587858669 -0.23444280298537579 0 0.019032405788940381 -0.24517759670760619 0 0.032653404022560402 -0.24708104427208619 0 0.015989893664255399 -0.23378384020259399 0 0.029116636587858669 -0.23444280298537579 0 0.019032405788940381 -0.24517759670760619 0 -0.0034982255341270128 -0.20899236195552789 0 0.0081104827930698481 -0.19388353839388359 0 0.02014744858000633 -0.20967736092921979 0 -0.0034982255341270128 -0.20899236195552789 0 0.0054379178707140976 -0.22437727815153249 0 0.02014744858000633 -0.20967736092921979 0 0.02209048061816286 -0.22388300655252599 0 0.02014744858000633 -0.20967736092921979 0 0.037257837138285788 -0.22147320254459771 0 0.02014744858000633 -0.20967736092921979 0 0.027564202161638341 -0.19183395552553301 0 0.041212183223537611 -0.205396803218347 0 0.0081104827930698481 -0.19388353839388359 0 0.02014744858000633 -0.20967736092921979 0 0.027564202161638341 -0.19183395552553301 0 0.041212183223537611 -0.205396803218347 0 0.04227707318649037 -0.17807323524675639 0 0.027564202161638341 -0.19183395552553301 0 0.041212183223537611 -0.205396803218347 0 0.04227707318649037 -0.17807323524675639 0 0.041212183223537611 -0.205396803218347 0 0.061745234046197188 -0.21776518418292859 0 0.037257837138285788 -0.22147320254459771 0 0.02014744858000633 -0.20967736092921979 0 0.041212183223537611 -0.205396803218347 0 0.037257837138285788 -0.22147320254459771 0 0.041212183223537611 -0.205396803218347 0 0.061745234046197188 -0.21776518418292859 0 0.06110703756251204 -0.20288037580948839 0 0.041212183223537611 -0.205396803218347 0 0.06110703756251204 -0.20288037580948839 0 0.06173009667117442 -0.18560697012453581 0 0.041212183223537611 -0.205396803218347 0 0.06173009667117442 -0.18560697012453581 0 0.04227707318649037 -0.17807323524675639 0 0.043509086527263457 -0.25324244386838851 0 0.032653404022560402 -0.24708104427208619 0 0.047688841963298041 -0.2375365066189852 0 0.029116636587858669 -0.23444280298537579 0 0.032653404022560402 -0.24708104427208619 0 0.047688841963298041 -0.2375365066189852 0 0.029116636587858669 -0.23444280298537579 0 0.037257837138285788 -0.22147320254459771 0 0.047688841963298041 -0.2375365066189852 0 0.061745234046197188 -0.21776518418292859 0 0.047688841963298041 -0.2375365066189852 0 0.068934026892629688 -0.23991323664967901 0 0.061745234046197188 -0.21776518418292859 0 0.037257837138285788 -0.22147320254459771 0 0.047688841963298041 -0.2375365066189852 0 0.05718267922274041 -0.25093258338586338 0 0.043509086527263457 -0.25324244386838851 0 0.047688841963298041 -0.2375365066189852 0 0.05718267922274041 -0.25093258338586338 0 0.047688841963298041 -0.2375365066189852 0 0.068934026892629688 -0.23991323664967901 0 0.068298362681051231 -0.25811527544431628 0 0.05718267922274041 -0.25093258338586338 0 0.068934026892629688 -0.23991323664967901 0 0.081349711395514904 -0.25500122782576939 0 0.068934026892629688 -0.23991323664967901 0 0.083396814620243759 -0.24083385132162419 0 0.083396814620243759 -0.24083385132162419 0 0.084210819858107688 -0.22501102701977729 0 0.099092700334722755 -0.24340991379127119 0 0.068934026892629688 -0.23991323664967901 0 0.083396814620243759 -0.24083385132162419 0 0.084210819858107688 -0.22501102701977729 0 0.081349711395514904 -0.25500122782576939 0 0.083396814620243759 -0.24083385132162419 0 0.099092700334722755 -0.24340991379127119 0 0.061745234046197188 -0.21776518418292859 0 0.068934026892629688 -0.23991323664967901 0 0.084210819858107688 -0.22501102701977729 0 0.061745234046197188 -0.21776518418292859 0 0.084210819858107688 -0.22501102701977729 0 0.07974063630913894 -0.20275254571214221 0 0.061745234046197188 -0.21776518418292859 0 0.06110703756251204 -0.20288037580948839 0 0.07974063630913894 -0.20275254571214221 0 0.06110703756251204 -0.20288037580948839 0 0.07974063630913894 -0.20275254571214221 0 0.06173009667117442 -0.18560697012453581 0 0.07974063630913894 -0.20275254571214221 0 0.082009979831280777 -0.18335538642434371 0 0.06173009667117442 -0.18560697012453581 0 0.07974063630913894 -0.20275254571214221 0 0.092172549595643458 -0.19434271943551609 0 0.082009979831280777 -0.18335538642434371 0 0.07974063630913894 -0.20275254571214221 0 0.092172549595643458 -0.19434271943551609 0 0.093434798576750827 -0.20736213243981311 0 0.084210819858107688 -0.22501102701977729 0 0.07974063630913894 -0.20275254571214221 0 0.093434798576750827 -0.20736213243981311 0 0.084210819858107688 -0.22501102701977729 0 0.093434798576750827 -0.20736213243981311 0 0.1033808958185289 -0.21937142794096701 0 0.1076690913023351 -0.19533294209066271 0 0.1033808958185289 -0.21937142794096701 0 0.093434798576750827 -0.20736213243981311 0 0.1076690913023351 -0.19533294209066271 0 0.1033808958185289 -0.21937142794096701 0 0.1076690913023351 -0.19533294209066271 0 0.1160150199375856 -0.20245717057825571 0 0.1033808958185289 -0.21937142794096701 0 0.1076690913023351 -0.19533294209066271 0 0.1160150199375856 -0.20245717057825571 0 0.098677316214287589 -0.18092478196097461 0 0.1160150199375856 -0.20245717057825571 0 0.098677316214287589 -0.18092478196097461 0 0.092172549595643458 -0.19434271943551609 0 0.1076690913023351 -0.19533294209066271 0 0.098677316214287589 -0.18092478196097461 0 0.092172549595643458 -0.19434271943551609 0 0.093434798576750827 -0.20736213243981311 0 0.1076690913023351 -0.19533294209066271 0 0.1160150199375856 -0.20245717057825571 0 0.1248279552417812 -0.19218539302960611 0 0.1150094876198442 -0.18621960005528901 0 0.1160150199375856 -0.20245717057825571 0 0.1150094876198442 -0.18621960005528901 0 0.098677316214287589 -0.18092478196097461 0 0.1160150199375856 -0.20245717057825571 0 0.1248279552417812 -0.19218539302960611 0 0.13052954160760449 -0.20498323091795109 0 0.1160150199375856 -0.20245717057825571 0 0.1333527236608836 -0.22398955919553701 0 0.1160150199375856 -0.20245717057825571 0 0.1033808958185289 -0.21937142794096701 0 0.1333527236608836 -0.22398955919553701 0 0.11647539816854049 -0.2375752570050442 0 0.1033808958185289 -0.21937142794096701 0 0.1333527236608836 -0.22398955919553701 0 0.11490225559752749 -0.25909029604839579 0 0.11647539816854049 -0.2375752570050442 0 0.13169437747279461 -0.24895566974178149 0 0.11490225559752749 -0.25909029604839579 0 0.11647539816854049 -0.2375752570050442 0 0.099092700334722755 -0.24340991379127119 0 0.11647539816854049 -0.2375752570050442 0 0.099092700334722755 -0.24340991379127119 0 0.1033808958185289 -0.21937142794096701 0 0.099092700334722755 -0.24340991379127119 0 0.1033808958185289 -0.21937142794096701 0 0.084210819858107688 -0.22501102701977729 0 0.099092700334722755 -0.24340991379127119 0 0.1033808958185289 -0.21937142794096701 0 0.095438301882243712 -0.15339463254651109 0 0.1106927591389696 -0.14145846937306469 0 0.087117276920020248 -0.1347819801046593 0 0.095438301882243712 -0.15339463254651109 0 0.1106927591389696 -0.14145846937306469 0 0.1053494601240522 -0.1645136333931399 0 0.1106927591389696 -0.14145846937306469 0 0.087117276920020248 -0.1347819801046593 0 0.1106927591389696 -0.14145846937306469 0 0.087117276920020248 -0.1347819801046593 0 0.1046067607135739 -0.11879760640734301 0 0.1225311439884845 -0.13214601855067781 0 0.1106927591389696 -0.14145846937306469 0 0.13426824135791879 -0.14813495864147011 0 0.1225311439884845 -0.13214601855067781 0 0.1106927591389696 -0.14145846937306469 0 0.1046067607135739 -0.11879760640734301 0 0.1106927591389696 -0.14145846937306469 0 0.12256768775730539 -0.16382821368001771 0 0.13426824135791879 -0.14813495864147011 0 0.1106927591389696 -0.14145846937306469 0 0.13426824135791879 -0.14813495864147011 0 0.1106927591389696 -0.14145846937306469 0 0.12256768775730539 -0.16382821368001771 0 0.1053494601240522 -0.1645136333931399 0 0.12256768775730539 -0.16382821368001771 0 0.1134299364026872 -0.17450461325416611 0 0.1053494601240522 -0.1645136333931399 0 0.12256768775730539 -0.16382821368001771 0 0.1134299364026872 -0.17450461325416611 0 0.1255457302979465 -0.17703683718140939 0 0.1248279552417812 -0.19218539302960611 0 0.1150094876198442 -0.18621960005528901 0 0.1255457302979465 -0.17703683718140939 0 0.1134299364026872 -0.17450461325416611 0 0.1150094876198442 -0.18621960005528901 0 0.1255457302979465 -0.17703683718140939 0 0.1134299364026872 -0.17450461325416611 0 0.1150094876198442 -0.18621960005528901 0 0.098677316214287589 -0.18092478196097461 0 0.1134299364026872 -0.17450461325416611 0 0.098677316214287589 -0.18092478196097461 0 0.1053494601240522 -0.1645136333931399 0 0.098677316214287589 -0.18092478196097461 0 0.1053494601240522 -0.1645136333931399 0 0.088653707372417151 -0.16685033905174329 0 0.095438301882243712 -0.15339463254651109 0 0.1053494601240522 -0.1645136333931399 0 0.088653707372417151 -0.16685033905174329 0 0.095438301882243712 -0.15339463254651109 0 0.088653707372417151 -0.16685033905174329 0 0.080592630143334884 -0.15364635038791169 0 0.088653707372417151 -0.16685033905174329 0 0.069854556039303836 -0.1652672495975793 0 0.080592630143334884 -0.15364635038791169 0 0.088653707372417151 -0.16685033905174329 0 0.082009979831280777 -0.18335538642434371 0 0.069854556039303836 -0.1652672495975793 0 0.098677316214287589 -0.18092478196097461 0 0.088653707372417151 -0.16685033905174329 0 0.082009979831280777 -0.18335538642434371 0 0.092172549595643458 -0.19434271943551609 0 0.098677316214287589 -0.18092478196097461 0 0.082009979831280777 -0.18335538642434371 0 0.082009979831280777 -0.18335538642434371 0 0.069854556039303836 -0.1652672495975793 0 0.06173009667117442 -0.18560697012453581 0 0.069854556039303836 -0.1652672495975793 0 0.069536143725400498 -0.14382639804079861 0 0.080592630143334884 -0.15364635038791169 0 0.069854556039303836 -0.1652672495975793 0 0.069536143725400498 -0.14382639804079861 0 0.059578185412285323 -0.15065180886288779 0 0.069536143725400498 -0.14382639804079861 0 0.061450392171803647 -0.12857953318735879 0 0.059578185412285323 -0.15065180886288779 0 0.069536143725400498 -0.14382639804079861 0 0.080592630143334884 -0.15364635038791169 0 0.087117276920020248 -0.1347819801046593 0 0.095438301882243712 -0.15339463254651109 0 0.080592630143334884 -0.15364635038791169 0 0.087117276920020248 -0.1347819801046593 0 0.087117276920020248 -0.1347819801046593 0 0.063541794701070811 -0.1281054908362543 0 0.084074277707322398 -0.1234515486217988 0 0.087117276920020248 -0.1347819801046593 0 0.084074277707322398 -0.1234515486217988 0 0.1046067607135739 -0.11879760640734301 0 0.069536143725400498 -0.14382639804079861 0 0.063541794701070811 -0.1281054908362543 0 0.061450392171803647 -0.12857953318735879 0 0.069536143725400498 -0.14382639804079861 0 0.087117276920020248 -0.1347819801046593 0 0.063541794701070811 -0.1281054908362543 0 0.087117276920020248 -0.1347819801046593 0 0.063541794701070811 -0.1281054908362543 0 0.063541794701070811 -0.1281054908362543 0 0.084074277707322398 -0.1234515486217988 0 0.063541794701070811 -0.1281054908362543 0 0.061450392171803647 -0.12857953318735879 0 0.061450392171803647 -0.12857953318735879 0 0.044052315851010507 -0.13252302320827411 0 0.048732547807020868 -0.1239115669519814 0 0.061450392171803647 -0.12857953318735879 0 0.043341963149443392 -0.15074966727516581 0 0.061450392171803647 -0.12857953318735879 0 0.048732547807020868 -0.1239115669519814 0 0.061450392171803647 -0.12857953318735879 0 0.044052315851010507 -0.13252302320827411 0 0.061450392171803647 -0.12857953318735879 0 0.043341963149443392 -0.15074966727516581 0 0.044052315851010507 -0.13252302320827411 0 0.059578185412285323 -0.15065180886288779 0 0.043341963149443392 -0.15074966727516581 0 0.053707871975477592 -0.16483619621353829 0 0.061450392171803647 -0.12857953318735879 0 0.059578185412285323 -0.15065180886288779 0 0.043341963149443392 -0.15074966727516581 0 0.043341963149443392 -0.15074966727516581 0 0.044052315851010507 -0.13252302320827411 0 0.043341963149443392 -0.15074966727516581 0 0.036195610434814743 -0.13430384304345089 0 0.022520480161458949 -0.1512649448713233 0 0.043341963149443392 -0.15074966727516581 0 0.036195610434814743 -0.13430384304345089 0 0.044052315851010507 -0.13252302320827411 0 0.036195610434814743 -0.13430384304345089 0 0.02463580762356684 -0.1257081004954568 0 0.035236150631532751 -0.1225089964735301 0 0.036195610434814743 -0.13430384304345089 0 0.044052315851010507 -0.13252302320827411 0 0.035236150631532751 -0.1225089964735301 0 0.044052315851010507 -0.13252302320827411 0 0.048732547807020868 -0.1239115669519814 0 0.044545884162597062 -0.11985875950087881 0 0.044052315851010507 -0.13252302320827411 0 0.044545884162597062 -0.11985875950087881 0 0.036195610434814743 -0.13430384304345089 0 0.044052315851010507 -0.13252302320827411 0 0.06173009667117442 -0.18560697012453581 0 0.053707871975477592 -0.16483619621353829 0 0.04227707318649037 -0.17807323524675639 0 0.069854556039303836 -0.1652672495975793 0 0.06173009667117442 -0.18560697012453581 0 0.053707871975477592 -0.16483619621353829 0 0.069854556039303836 -0.1652672495975793 0 0.059578185412285323 -0.15065180886288779 0 0.053707871975477592 -0.16483619621353829 0 0.043341963149443392 -0.15074966727516581 0 0.04227707318649037 -0.17807323524675639 0 0.025726222971256731 -0.17231660283452471 0 0.043341963149443392 -0.15074966727516581 0 0.053707871975477592 -0.16483619621353829 0 0.04227707318649037 -0.17807323524675639 0 0.043341963149443392 -0.15074966727516581 0 0.025726222971256731 -0.17231660283452471 0 0.043341963149443392 -0.15074966727516581 0 0.04227707318649037 -0.17807323524675639 0 0.027564202161638341 -0.19183395552553301 0 0.04227707318649037 -0.17807323524675639 0 0.025726222971256731 -0.17231660283452471 0 0.0081104827930698481 -0.19388353839388359 0 0.025726222971256731 -0.17231660283452471 0 0.020405152699351069 -0.17682178924718969 0 0.0081104827930698481 -0.19388353839388359 0 0.025726222971256731 -0.17231660283452471 0 0.0081104827930698481 -0.19388353839388359 0 0.027564202161638341 -0.19183395552553301 0 0.025726222971256731 -0.17231660283452471 0 0.043341963149443392 -0.15074966727516581 0 0.025726222971256731 -0.17231660283452471 0 0.022520480161458949 -0.1512649448713233 0 0.020405152699351069 -0.17682178924718969 0 0.022520480161458949 -0.1512649448713233 0 0.020405152699351069 -0.17682178924718969 0 0.0094441431551452997 -0.1634676334781115 0 0.022520480161458949 -0.1512649448713233 0 0.025726222971256731 -0.17231660283452471 0 0.020405152699351069 -0.17682178924718969 0 0.022520480161458949 -0.1512649448713233 0 -0.0092673078468807259 -0.16149984975947931 0 0.0094441431551452997 -0.1634676334781115 0 0.0020832655351234581 -0.1774751613748361 0 -0.0092673078468807259 -0.16149984975947931 0 0.0094441431551452997 -0.1634676334781115 0 0.0019767011482468679 -0.15150133246779099 0 -0.0068146204434379708 -0.1906789143586739 0 0.0081104827930698481 -0.19388353839388359 0 0.0020832655351234581 -0.1774751613748361 0 0.020405152699351069 -0.17682178924718969 0 0.0094441431551452997 -0.1634676334781115 0 0.0020832655351234581 -0.1774751613748361 0 0.0081104827930698481 -0.19388353839388359 0 0.020405152699351069 -0.17682178924718969 0 0.0020832655351234581 -0.1774751613748361 0 0.02463580762356684 -0.1257081004954568 0 0.022520480161458949 -0.1512649448713233 0 0.02463580762356684 -0.1257081004954568 0 0.022520480161458949 -0.1512649448713233 0 0.01205589555676331 -0.13792812145277941 0 0.036195610434814743 -0.13430384304345089 0 0.02463580762356684 -0.1257081004954568 0 0.022520480161458949 -0.1512649448713233 0 0.0094441431551452997 -0.1634676334781115 0 0.022520480161458949 -0.1512649448713233 0 0.0019767011482468679 -0.15150133246779099 0 0.022520480161458949 -0.1512649448713233 0 0.0019767011482468679 -0.15150133246779099 0 0.01205589555676331 -0.13792812145277941 0 -8.9064710683626341e-05 -0.13610607263457511 0 0.0019767011482468679 -0.15150133246779099 0 0.01205589555676331 -0.13792812145277941 0 -0.0080899239004419213 -0.1230633723073452 0 -8.9064710683626341e-05 -0.13610607263457511 0 0.0081058847615504206 -0.12617303294616269 0 -8.9064710683626341e-05 -0.13610607263457511 0 0.01205589555676331 -0.13792812145277941 0 0.0081058847615504206 -0.12617303294616269 0 0.02463580762356684 -0.1257081004954568 0 0.01205589555676331 -0.13792812145277941 0 0.0081058847615504206 -0.12617303294616269 0 0.02463580762356684 -0.1257081004954568 0 0.0081058847615504206 -0.12617303294616269 0 0.0077113208860084903 -0.1106855909522378 0 -0.0080899239004419213 -0.1230633723073452 0 0.0081058847615504206 -0.12617303294616269 0 0.0077113208860084903 -0.1106855909522378 0 0.02463580762356684 -0.1257081004954568 0 0.02675113508567472 -0.1001512561195905 0 0.035236150631532751 -0.1225089964735301 0 0.02463580762356684 -0.1257081004954568 0 0.0077113208860084903 -0.1106855909522378 0 0.02675113508567472 -0.1001512561195905 0 0.02463580762356684 -0.1257081004954568 0 0.02675113508567472 -0.1001512561195905 0 -0.01334899535835604 -0.098156587133310491 0 0.0077113208860084903 -0.1106855909522378 0 0.0070382975511950104 -0.092374413671730382 0 0.0077113208860084903 -0.1106855909522378 0 0.02675113508567472 -0.1001512561195905 0 0.0070382975511950104 -0.092374413671730382 0 0.0070382975511950104 -0.092374413671730382 0 0.00050840658200911742 -0.071588872935494957 0 0.02868845376048754 -0.071718249555144484 0 0.00050840658200911742 -0.071588872935494957 0 0.02868845376048754 -0.071718249555144484 0 0.014365808522374301 -0.04502115873767934 0 0.02675113508567472 -0.1001512561195905 0 0.0070382975511950104 -0.092374413671730382 0 0.02868845376048754 -0.071718249555144484 0 0.02675113508567472 -0.1001512561195905 0 0.02868845376048754 -0.071718249555144484 0 0.043127283382642191 -0.085628948665334728 0 0.02868845376048754 -0.071718249555144484 0 0.045039494271826727 -0.066580328412296247 0 0.040130967138390143 -0.050001874731652442 0 0.02868845376048754 -0.071718249555144484 0 0.043127283382642191 -0.085628948665334728 0 0.045039494271826727 -0.066580328412296247 0 0.045039494271826727 -0.066580328412296247 0 0.057597685453578157 -0.076555738222450653 0 0.059922176906006118 -0.054142092015476727 0 0.043127283382642191 -0.085628948665334728 0 0.045039494271826727 -0.066580328412296247 0 0.057597685453578157 -0.076555738222450653 0 0.057597685453578157 -0.076555738222450653 0 0.055060608996939653 -0.093060868837417821 0 0.06855943286128291 -0.093256802107036685 0 0.043127283382642191 -0.085628948665334728 0 0.057597685453578157 -0.076555738222450653 0 0.055060608996939653 -0.093060868837417821 0 0.055060608996939653 -0.093060868837417821 0 0.059528224835563227 -0.10600363791939391 0 0.06855943286128291 -0.093256802107036685 0 0.043127283382642191 -0.085628948665334728 0 0.055060608996939653 -0.093060868837417821 0 0.0464904184516318 -0.1038592172728731 0 0.055060608996939653 -0.093060868837417821 0 0.059528224835563227 -0.10600363791939391 0 0.0464904184516318 -0.1038592172728731 0 0.059528224835563227 -0.10600363791939391 0 0.05226793102684521 -0.1148020699585716 0 0.0464904184516318 -0.1038592172728731 0 0.05226793102684521 -0.1148020699585716 0 0.044545884162597062 -0.11985875950087881 0 0.0464904184516318 -0.1038592172728731 0 0.059528224835563227 -0.10600363791939391 0 0.059802046450128168 -0.11656016988525281 0 0.05226793102684521 -0.1148020699585716 0 0.061450392171803647 -0.12857953318735879 0 0.059802046450128168 -0.11656016988525281 0 0.048732547807020868 -0.1239115669519814 0 0.048732547807020868 -0.1239115669519814 0 0.05226793102684521 -0.1148020699585716 0 0.044545884162597062 -0.11985875950087881 0 0.059802046450128168 -0.11656016988525281 0 0.048732547807020868 -0.1239115669519814 0 0.05226793102684521 -0.1148020699585716 0 0.02675113508567472 -0.1001512561195905 0 0.044545884162597062 -0.11985875950087881 0 0.035236150631532751 -0.1225089964735301 0 0.044052315851010507 -0.13252302320827411 0 0.044545884162597062 -0.11985875950087881 0 0.035236150631532751 -0.1225089964735301 0 0.02675113508567472 -0.1001512561195905 0 0.044545884162597062 -0.11985875950087881 0 0.0464904184516318 -0.1038592172728731 0 0.02675113508567472 -0.1001512561195905 0 0.043127283382642191 -0.085628948665334728 0 0.0464904184516318 -0.1038592172728731 0 0.02589313575640146 4.8119339443261102e-05 0 0.0070688155495127634 -0.01806774124728449 0 0.028223210462739481 -0.01845344453986374 0 -0.0083105007237313025 -0.001840793044749302 0 0.013105670965335461 0.01033346592208974 0 0.0070688155495127634 -0.01806774124728449 0 0.013105670965335461 0.01033346592208974 0 0.02589313575640146 4.8119339443261102e-05 0 0.0070688155495127634 -0.01806774124728449 0 0.0070688155495127634 -0.01806774124728449 0 0.028223210462739481 -0.01845344453986374 0 0.014365808522374301 -0.04502115873767934 0 0.014365808522374301 -0.04502115873767934 0 0.040130967138390143 -0.050001874731652442 0 0.03802789292182767 -0.033858551987445661 0 0.028223210462739481 -0.01845344453986374 0 0.014365808522374301 -0.04502115873767934 0 0.03802789292182767 -0.033858551987445661 0 0.028223210462739481 -0.01845344453986374 0 0.014365808522374301 -0.04502115873767934 0 -0.0062540702358467254 -0.043593839414577888 0 0.0070688155495127634 -0.01806774124728449 0 0.014365808522374301 -0.04502115873767934 0 0.00050840658200911742 -0.071588872935494957 0 0.014365808522374301 -0.04502115873767934 0 -0.0062540702358467254 -0.043593839414577888 0 0.00050840658200911742 -0.071588872935494957 0 0.014365808522374301 -0.04502115873767934 0 0.02868845376048754 -0.071718249555144484 0 0.014365808522374301 -0.04502115873767934 0 0.040130967138390143 -0.050001874731652442 0 0.045039494271826727 -0.066580328412296247 0 0.040130967138390143 -0.050001874731652442 0 0.059922176906006118 -0.054142092015476727 0 0.040130967138390143 -0.050001874731652442 0 0.059922176906006118 -0.054142092015476727 0 0.056953498897105048 -0.034802024035401197 0 0.059922176906006118 -0.054142092015476727 0 0.056953498897105048 -0.034802024035401197 0 0.067946415726569273 -0.040850912829498633 0 0.040130967138390143 -0.050001874731652442 0 0.056953498897105048 -0.034802024035401197 0 0.03802789292182767 -0.033858551987445661 0 0.028223210462739481 -0.01845344453986374 0 0.03802789292182767 -0.033858551987445661 0 0.050465979588529393 -0.021014257892631592 0 0.056953498897105048 -0.034802024035401197 0 0.03802789292182767 -0.033858551987445661 0 0.050465979588529393 -0.021014257892631592 0 0.056953498897105048 -0.034802024035401197 0 0.050465979588529393 -0.021014257892631592 0 0.065546176366081579 -0.02342361710346846 0 0.050465979588529393 -0.021014257892631592 0 0.064828466160707449 -0.01171493017658482 0 0.065546176366081579 -0.02342361710346846 0 0.050465979588529393 -0.021014257892631592 0 0.055066552928941637 -0.0052443292311335123 0 0.064828466160707449 -0.01171493017658482 0 0.050465979588529393 -0.021014257892631592 0 0.055066552928941637 -0.0052443292311335123 0 0.042080612403104629 0.0081142696579518253 0 0.028223210462739481 -0.01845344453986374 0 0.042080612403104629 0.0081142696579518253 0 0.028223210462739481 -0.01845344453986374 0 0.055066552928941637 -0.0052443292311335123 0 0.028223210462739481 -0.01845344453986374 0 0.050465979588529393 -0.021014257892631592 0 0.055066552928941637 -0.0052443292311335123 0 0.02589313575640146 4.8119339443261102e-05 0 0.042080612403104629 0.0081142696579518253 0 0.028223210462739481 -0.01845344453986374 0 0.081770668825100284 -0.0068354150012594362 0 0.064828466160707449 -0.01171493017658482 0 0.079939961110634339 -0.02245729735359436 0 0.081770668825100284 -0.0068354150012594362 0 0.067686034631411138 -7.1118521947880633e-05 0 0.064828466160707449 -0.01171493017658482 0 0.055066552928941637 -0.0052443292311335123 0 0.067686034631411138 -7.1118521947880633e-05 0 0.064828466160707449 -0.01171493017658482 0 0.064828466160707449 -0.01171493017658482 0 0.065546176366081579 -0.02342361710346846 0 0.079939961110634339 -0.02245729735359436 0 0.056953498897105048 -0.034802024035401197 0 0.065546176366081579 -0.02342361710346846 0 0.071154836918402811 -0.031351898500030978 0 0.079939961110634339 -0.02245729735359436 0 0.082453997737068019 -0.033995624854150232 0 0.071154836918402811 -0.031351898500030978 0 0.065546176366081579 -0.02342361710346846 0 0.079939961110634339 -0.02245729735359436 0 0.071154836918402811 -0.031351898500030978 0 0.079939961110634339 -0.02245729735359436 0 0.094426889370999828 -0.031810517372343132 0 0.097931625018802537 -0.01745407030530249 0 0.081770668825100284 -0.0068354150012594362 0 0.079939961110634339 -0.02245729735359436 0 0.097931625018802537 -0.01745407030530249 0 0.079939961110634339 -0.02245729735359436 0 0.082453997737068019 -0.033995624854150232 0 0.094426889370999828 -0.031810517372343132 0 0.08593201601649314 -0.040526132983178517 0 0.082453997737068019 -0.033995624854150232 0 0.067946415726569273 -0.040850912829498633 0 0.08593201601649314 -0.040526132983178517 0 0.082453997737068019 -0.033995624854150232 0 0.094426889370999828 -0.031810517372343132 0 0.08593201601649314 -0.040526132983178517 0 0.082453997737068019 -0.033995624854150232 0 0.08593201601649314 -0.040526132983178517 0 0.067946415726569273 -0.040850912829498633 0 0.08593201601649314 -0.040526132983178517 0 0.067946415726569273 -0.040850912829498633 0 0.07698778857836544 -0.050427059830325867 0 0.082453997737068019 -0.033995624854150232 0 0.071154836918402811 -0.031351898500030978 0 0.067946415726569273 -0.040850912829498633 0 0.056953498897105048 -0.034802024035401197 0 0.071154836918402811 -0.031351898500030978 0 0.067946415726569273 -0.040850912829498633 0 0.059922176906006118 -0.054142092015476727 0 0.07698778857836544 -0.050427059830325867 0 0.074142353222557036 -0.064404924419047563 0 0.059922176906006118 -0.054142092015476727 0 0.067946415726569273 -0.040850912829498633 0 0.07698778857836544 -0.050427059830325867 0 0.08593201601649314 -0.040526132983178517 0 0.095293957216013109 -0.058104601005816811 0 0.08593201601649314 -0.040526132983178517 0 0.07698778857836544 -0.050427059830325867 0 0.095293957216013109 -0.058104601005816811 0 0.07698778857836544 -0.050427059830325867 0 0.095293957216013109 -0.058104601005816811 0 0.074142353222557036 -0.064404924419047563 0 0.095293957216013109 -0.058104601005816811 0 0.1116512064350918 -0.052659051831873853 0 0.1102075748644842 -0.040087770507367497 0 0.095293957216013109 -0.058104601005816811 0 0.1116512064350918 -0.052659051831873853 0 0.11525306402513349 -0.062708968280921956 0 0.1116512064350918 -0.052659051831873853 0 0.1102075748644842 -0.040087770507367497 0 0.1258502296347363 -0.049734867533389147 0 0.11525306402513349 -0.062708968280921956 0 0.1258502296347363 -0.049734867533389147 0 0.12672430449100289 -0.060976817583559023 0 0.1116512064350918 -0.052659051831873853 0 0.11525306402513349 -0.062708968280921956 0 0.1258502296347363 -0.049734867533389147 0 0.11525306402513349 -0.062708968280921956 0 0.1258502296347363 -0.049734867533389147 0 0.1102075748644842 -0.040087770507367497 0 0.13448313371247531 -0.039649408031559807 0 0.1102075748644842 -0.040087770507367497 0 0.1180777848127692 -0.014959554405506141 0 0.13448313371247531 -0.039649408031559807 0 0.1102075748644842 -0.040087770507367497 0 0.13448313371247531 -0.039649408031559807 0 0.1258502296347363 -0.049734867533389147 0 0.08593201601649314 -0.040526132983178517 0 0.095293957216013109 -0.058104601005816811 0 0.1102075748644842 -0.040087770507367497 0 0.08593201601649314 -0.040526132983178517 0 0.1102075748644842 -0.040087770507367497 0 0.094426889370999828 -0.031810517372343132 0 0.08593201601649314 -0.040526132983178517 0 0.1102075748644842 -0.040087770507367497 0 0.1102075748644842 -0.040087770507367497 0 0.097931625018802537 -0.01745407030530249 0 0.1180777848127692 -0.014959554405506141 0 0.1102075748644842 -0.040087770507367497 0 0.094426889370999828 -0.031810517372343132 0 0.097931625018802537 -0.01745407030530249 0 0.101672435913064 0.0097302992205480984 0 0.1180777848127692 -0.014959554405506141 0 0.1161239663012833 -7.2133498809336116e-05 0 0.1180777848127692 -0.014959554405506141 0 0.1161239663012833 -7.2133498809336116e-05 0 0.1315524059452465 -0.017318276671514241 0 0.1161239663012833 -7.2133498809336116e-05 0 0.1315524059452465 -0.017318276671514241 0 0.101672435913064 0.0097302992205480984 0 0.1180777848127692 -0.014959554405506141 0 0.101672435913064 0.0097302992205480984 0 0.097931625018802537 -0.01745407030530249 0 0.1180777848127692 -0.014959554405506141 0 0.101672435913064 0.0097302992205480984 0 0.081770668825100284 -0.0068354150012594362 0 0.097931625018802537 -0.01745407030530249 0 0.076323791115590761 -0.11037004364421781 0 0.06855943286128291 -0.093256802107036685 0 0.090489844765560698 -0.093026556336336302 0 0.076323791115590761 -0.11037004364421781 0 0.090489844765560698 -0.093026556336336302 0 0.09272694820693804 -0.1093238719534067 0 0.076323791115590761 -0.11037004364421781 0 0.090489844765560698 -0.093026556336336302 0 0.09272694820693804 -0.1093238719534067 0 0.084074277707322398 -0.1234515486217988 0 0.076323791115590761 -0.11037004364421781 0 0.061450392171803647 -0.12857953318735879 0 0.076323791115590761 -0.11037004364421781 0 0.063541794701070811 -0.1281054908362543 0 0.061450392171803647 -0.12857953318735879 0 0.076323791115590761 -0.11037004364421781 0 0.061450392171803647 -0.12857953318735879 0 0.059802046450128168 -0.11656016988525281 0 0.076323791115590761 -0.11037004364421781 0 0.059528224835563227 -0.10600363791939391 0 0.059802046450128168 -0.11656016988525281 0 0.076323791115590761 -0.11037004364421781 0 0.063541794701070811 -0.1281054908362543 0 0.084074277707322398 -0.1234515486217988 0 0.076323791115590761 -0.11037004364421781 0 0.059528224835563227 -0.10600363791939391 0 0.076323791115590761 -0.11037004364421781 0 0.06855943286128291 -0.093256802107036685 0 0.057597685453578157 -0.076555738222450653 0 0.06855943286128291 -0.093256802107036685 0 0.07319100549564761 -0.078280214029631173 0 0.06855943286128291 -0.093256802107036685 0 0.07319100549564761 -0.078280214029631173 0 0.090489844765560698 -0.093026556336336302 0 0.057597685453578157 -0.076555738222450653 0 0.07319100549564761 -0.078280214029631173 0 0.074142353222557036 -0.064404924419047563 0 0.057597685453578157 -0.076555738222450653 0 0.059922176906006118 -0.054142092015476727 0 0.074142353222557036 -0.064404924419047563 0 0.095293957216013109 -0.058104601005816811 0 0.074142353222557036 -0.064404924419047563 0 0.08738263929880026 -0.073764631099607278 0 0.07319100549564761 -0.078280214029631173 0 0.074142353222557036 -0.064404924419047563 0 0.08738263929880026 -0.073764631099607278 0 0.07319100549564761 -0.078280214029631173 0 0.08738263929880026 -0.073764631099607278 0 0.090489844765560698 -0.093026556336336302 0 0.08738263929880026 -0.073764631099607278 0 0.090489844765560698 -0.093026556336336302 0 0.1046558984155319 -0.075683069028455813 0 0.090489844765560698 -0.093026556336336302 0 0.1046558984155319 -0.075683069028455813 0 0.090489844765560698 -0.093026556336336302 0 0.1046558984155319 -0.075683069028455813 0 0.1081400667326424 -0.1009736047573376 0 0.095293957216013109 -0.058104601005816811 0 0.1046558984155319 -0.075683069028455813 0 0.095293957216013109 -0.058104601005816811 0 0.1046558984155319 -0.075683069028455813 0 0.11525306402513349 -0.062708968280921956 0 0.095293957216013109 -0.058104601005816811 0 0.08738263929880026 -0.073764631099607278 0 0.1046558984155319 -0.075683069028455813 0 0.1046558984155319 -0.075683069028455813 0 0.11525306402513349 -0.062708968280921956 0 0.1221770134623497 -0.071088402435225434 0 0.1046558984155319 -0.075683069028455813 0 0.1221770134623497 -0.071088402435225434 0 0.1224669218249371 -0.082577516630855718 0 0.1046558984155319 -0.075683069028455813 0 0.11525306402513349 -0.062708968280921956 0 0.11525306402513349 -0.062708968280921956 0 0.1221770134623497 -0.071088402435225434 0 0.12672430449100289 -0.060976817583559023 0 0.1046558984155319 -0.075683069028455813 0 0.1224669218249371 -0.082577516630855718 0 0.115512020548291 -0.096067088933450701 0 0.1046558984155319 -0.075683069028455813 0 0.115512020548291 -0.096067088933450701 0 0.1081400667326424 -0.1009736047573376 0 0.1224669218249371 -0.082577516630855718 0 0.115512020548291 -0.096067088933450701 0 0.13508513641593289 -0.083039904400159181 0 0.1046558984155319 -0.075683069028455813 0 0.115512020548291 -0.096067088933450701 0 0.115512020548291 -0.096067088933450701 0 0.12513924371982549 -0.1141436641928875 0 0.13252629097502869 -0.099528335125146319 0 0.115512020548291 -0.096067088933450701 0 0.1081400667326424 -0.1009736047573376 0 0.12513924371982549 -0.1141436641928875 0 0.115512020548291 -0.096067088933450701 0 0.12513924371982549 -0.1141436641928875 0 0.115512020548291 -0.096067088933450701 0 0.1081400667326424 -0.1009736047573376 0 0.09272694820693804 -0.1093238719534067 0 0.090489844765560698 -0.093026556336336302 0 0.1081400667326424 -0.1009736047573376 0 0.084074277707322398 -0.1234515486217988 0 0.1046067607135739 -0.11879760640734301 0 0.09272694820693804 -0.1093238719534067 0 0.084074277707322398 -0.1234515486217988 0 0.1046067607135739 -0.11879760640734301 0 0.09272694820693804 -0.1093238719534067 0 0.1081400667326424 -0.1009736047573376 0 0.1046067607135739 -0.11879760640734301 0 0.1081400667326424 -0.1009736047573376 0 0.1046067607135739 -0.11879760640734301 0 0.12513924371982549 -0.1141436641928875 0 0.1225311439884845 -0.13214601855067781 0 0.1046067607135739 -0.11879760640734301 0 0.12513924371982549 -0.1141436641928875 0 0.1046067607135739 -0.11879760640734301 0 0.12513924371982549 -0.1141436641928875 0 0.12513924371982549 -0.1141436641928875 0 0.1470068836280139 -0.1091870920886632 0 0.12513924371982549 -0.1141436641928875 0 0.1399237613564718 -0.1184678633310589 0 0.1470068836280139 -0.1091870920886632 0 0.12513924371982549 -0.1141436641928875 0 0.1399237613564718 -0.1184678633310589 0 0.14011550844689119 -0.12587103757281989 0 0.1399237613564718 -0.1184678633310589 0 0.14011550844689119 -0.12587103757281989 0 0.14858783586014571 -0.12521207105814261 0 0.1399237613564718 -0.1184678633310589 0 0.1508264802161273 -0.11748129659863581 0 0.14858783586014571 -0.12521207105814261 0 0.1399237613564718 -0.1184678633310589 0 0.1508264802161273 -0.11748129659863581 0 0.1470068836280139 -0.1091870920886632 0 0.1508264802161273 -0.11748129659863581 0 0.1470068836280139 -0.1091870920886632 0 0.15954826658584309 -0.1138361892101345 0 0.1508264802161273 -0.11748129659863581 0 0.1576028583098005 -0.12203921462205811 0 0.15954826658584309 -0.1138361892101345 0 0.1508264802161273 -0.11748129659863581 0 0.1576028583098005 -0.12203921462205811 0 0.14858783586014571 -0.12521207105814261 0 0.14579682232824881 -0.1006763386978666 0 0.14924017520815941 -0.086513831400228391 0 0.17222273108119809 -0.09644705010772503 0 0.1470068836280139 -0.1091870920886632 0 0.14579682232824881 -0.1006763386978666 0 0.1688745235362023 -0.1042305199844393 0 0.1470068836280139 -0.1091870920886632 0 0.14579682232824881 -0.1006763386978666 0 0.13252629097502869 -0.099528335125146319 0 0.14579682232824881 -0.1006763386978666 0 0.13252629097502869 -0.099528335125146319 0 0.14066210623184239 -0.092439602405850127 0 0.12513924371982549 -0.1141436641928875 0 0.1470068836280139 -0.1091870920886632 0 0.13252629097502869 -0.099528335125146319 0 0.13252629097502869 -0.099528335125146319 0 0.13508513641593289 -0.083039904400159181 0 0.14066210623184239 -0.092439602405850127 0 0.115512020548291 -0.096067088933450701 0 0.13508513641593289 -0.083039904400159181 0 0.115512020548291 -0.096067088933450701 0 0.13252629097502869 -0.099528335125146319 0 0.13508513641593289 -0.083039904400159181 0 0.1224669218249371 -0.082577516630855718 0 0.13508513641593289 -0.083039904400159181 0 0.13362152820636691 -0.068858883856169811 0 0.1221770134623497 -0.071088402435225434 0 0.13362152820636691 -0.068858883856169811 0 0.12672430449100289 -0.060976817583559023 0 0.1221770134623497 -0.071088402435225434 0 0.1224669218249371 -0.082577516630855718 0 0.13362152820636691 -0.068858883856169811 0 0.1224669218249371 -0.082577516630855718 0 0.13362152820636691 -0.068858883856169811 0 0.13508513641593289 -0.083039904400159181 0 0.15465825228357519 -0.070012719866867801 0 0.13508513641593289 -0.083039904400159181 0 0.13362152820636691 -0.068858883856169811 0 0.15465825228357519 -0.070012719866867801 0 0.13362152820636691 -0.068858883856169811 0 0.15465825228357519 -0.070012719866867801 0 0.14477613458779731 -0.055140251081484327 0 0.15465825228357519 -0.070012719866867801 0 0.14477613458779731 -0.055140251081484327 0 0.15465825228357519 -0.070012719866867801 0 0.14924017520815941 -0.086513831400228391 0 0.16344049168238731 -0.083229884987295999 0 0.13508513641593289 -0.083039904400159181 0 0.15465825228357519 -0.070012719866867801 0 0.14924017520815941 -0.086513831400228391 0 0.14579682232824881 -0.1006763386978666 0 0.14066210623184239 -0.092439602405850127 0 0.14924017520815941 -0.086513831400228391 0 0.13508513641593289 -0.083039904400159181 0 0.14066210623184239 -0.092439602405850127 0 0.14924017520815941 -0.086513831400228391 0 0.14924017520815941 -0.086513831400228391 0 0.16344049168238731 -0.083229884987295999 0 0.17222273108119809 -0.09644705010772503 0 0.16344049168238731 -0.083229884987295999 0 0.1732428497621312 -0.071556176224060491 0 0.17711598871464049 -0.084360307285796229 0 0.16344049168238731 -0.083229884987295999 0 0.17222273108119809 -0.09644705010772503 0 0.16344049168238731 -0.083229884987295999 0 0.17711598871464049 -0.084360307285796229 0 0.17222273108119809 -0.09644705010772503 0 0.15465825228357519 -0.070012719866867801 0 0.1742575449750936 -0.056968112950883228 0 0.15465825228357519 -0.070012719866867801 0 0.1732428497621312 -0.071556176224060491 0 0.1742575449750936 -0.056968112950883228 0 0.15465825228357519 -0.070012719866867801 0 0.16344049168238731 -0.083229884987295999 0 0.1732428497621312 -0.071556176224060491 0 0.15465825228357519 -0.070012719866867801 0 0.16344049168238731 -0.083229884987295999 0 0.1732428497621312 -0.071556176224060491 0 0.18671839330260459 -0.062739924273174041 0 0.1742575449750936 -0.056968112950883228 0 0.1732428497621312 -0.071556176224060491 0 0.184711277851525 -0.076372675182768551 0 0.17711598871464049 -0.084360307285796229 0 0.1732428497621312 -0.071556176224060491 0 0.184711277851525 -0.076372675182768551 0 0.18671839330260459 -0.062739924273174041 0 0.184711277851525 -0.076372675182768551 0 0.17711598871464049 -0.084360307285796229 0 0.20033726642572519 -0.091947508212637641 0 0.17711598871464049 -0.084360307285796229 0 0.17222273108119809 -0.09644705010772503 0 0.20033726642572519 -0.091947508212637641 0 0.17222273108119809 -0.09644705010772503 0 0.20033726642572519 -0.091947508212637641 0 0.17222273108119809 -0.09644705010772503 0 0.17767992919091671 -0.1046600679082611 0 0.20033726642572519 -0.091947508212637641 0 0.17222273108119809 -0.09644705010772503 0 0.17767992919091671 -0.1046600679082611 0 0.17222273108119809 -0.09644705010772503 0 0.17767992919091671 -0.1046600679082611 0 0.1688745235362023 -0.1042305199844393 0 0.17767992919091671 -0.1046600679082611 0 0.17351378989704461 -0.1114192122950485 0 0.1688745235362023 -0.1042305199844393 0 0.17767992919091671 -0.1046600679082611 0 0.1800279990686256 -0.11802229308207619 0 0.1943735100413142 -0.11386953210988671 0 0.1800279990686256 -0.11802229308207619 0 0.1729313715346866 -0.1172903581443908 0 0.17373485304912711 -0.12718481872430401 0 0.17767992919091671 -0.1046600679082611 0 0.1800279990686256 -0.11802229308207619 0 0.17351378989704461 -0.1114192122950485 0 0.1800279990686256 -0.11802229308207619 0 0.1729313715346866 -0.1172903581443908 0 0.17351378989704461 -0.1114192122950485 0 0.17351378989704461 -0.1114192122950485 0 0.16805512615479179 -0.1128928223560749 0 0.1688745235362023 -0.1042305199844393 0 0.16805512615479179 -0.1128928223560749 0 0.15954826658584309 -0.1138361892101345 0 0.1688745235362023 -0.1042305199844393 0 0.16805512615479179 -0.1128928223560749 0 0.16588289217842259 -0.1197696188429317 0 0.15954826658584309 -0.1138361892101345 0 0.1729313715346866 -0.1172903581443908 0 0.16805512615479179 -0.1128928223560749 0 0.16588289217842259 -0.1197696188429317 0 0.1729313715346866 -0.1172903581443908 0 0.17351378989704461 -0.1114192122950485 0 0.16805512615479179 -0.1128928223560749 0 0.16588289217842259 -0.1197696188429317 0 0.1646258107112438 -0.12665523550063709 0 0.17373485304912711 -0.12718481872430401 0 0.1729313715346866 -0.1172903581443908 0 0.16588289217842259 -0.1197696188429317 0 0.17373485304912711 -0.12718481872430401 0 0.16588289217842259 -0.1197696188429317 0 0.1576028583098005 -0.12203921462205811 0 0.1646258107112438 -0.12665523550063709 0 0.16588289217842259 -0.1197696188429317 0 0.1576028583098005 -0.12203921462205811 0 0.15954826658584309 -0.1138361892101345 0 0.14579682232824881 -0.1006763386978666 0 0.17222273108119809 -0.09644705010772503 0 0.1470068836280139 -0.1091870920886632 0 0.15954826658584309 -0.1138361892101345 0 0.1688745235362023 -0.1042305199844393 0 0.14579682232824881 -0.1006763386978666 0 0.17222273108119809 -0.09644705010772503 0 0.1688745235362023 -0.1042305199844393 0 0.1470068836280139 -0.1091870920886632 0 0.1688745235362023 -0.1042305199844393 0 0.1483365536521071 -0.0069817059065535262 0 0.1315524059452465 -0.017318276671514241 0 0.1503760955808964 -0.02100097398700328 0 0.14456834883326211 0.0040887524329263876 0 0.1483365536521071 -0.0069817059065535262 0 0.13261671272633771 -0.001436830180237918 0 0.15595888068604311 0.00381635166917778 0 0.1483365536521071 -0.0069817059065535262 0 0.1612889851362527 -0.003585222843482002 0 0.1483365536521071 -0.0069817059065535262 0 0.1503760955808964 -0.02100097398700328 0 0.16161703343750811 -0.013897188437730549 0 0.1483365536521071 -0.0069817059065535262 0 0.13261671272633771 -0.001436830180237918 0 0.1315524059452465 -0.017318276671514241 0 0.1161239663012833 -7.2133498809336116e-05 0 0.13261671272633771 -0.001436830180237918 0 0.1315524059452465 -0.017318276671514241 0 0.1315524059452465 -0.017318276671514241 0 0.1469808455892084 -0.034564419844220443 0 0.1180777848127692 -0.014959554405506141 0 0.1315524059452465 -0.017318276671514241 0 0.13448313371247531 -0.039649408031559807 0 0.1315524059452465 -0.017318276671514241 0 0.13735561683604119 -0.035925645196375817 0 0.13448313371247531 -0.039649408031559807 0 0.1315524059452465 -0.017318276671514241 0 0.1469808455892084 -0.034564419844220443 0 0.13735561683604119 -0.035925645196375817 0 0.1180777848127692 -0.014959554405506141 0 0.13448313371247531 -0.039649408031559807 0 0.1315524059452465 -0.017318276671514241 0 0.1503760955808964 -0.02100097398700328 0 0.1469808455892084 -0.034564419844220443 0 0.1503760955808964 -0.02100097398700328 0 0.1469808455892084 -0.034564419844220443 0 0.16339363928041009 -0.03224327907499859 0 0.1469808455892084 -0.034564419844220443 0 0.15771279882737149 -0.039229932064977852 0 0.16339363928041009 -0.03224327907499859 0 0.15383874807579301 -0.04223028696217751 0 0.15125888355859751 -0.039346475387158353 0 0.14477613458779731 -0.055140251081484327 0 0.15125888355859751 -0.039346475387158353 0 0.13448313371247531 -0.039649408031559807 0 0.14477613458779731 -0.055140251081484327 0 0.15125888355859751 -0.039346475387158353 0 0.13735561683604119 -0.035925645196375817 0 0.13448313371247531 -0.039649408031559807 0 0.15383874807579301 -0.04223028696217751 0 0.14477613458779731 -0.055140251081484327 0 0.15771279882737149 -0.039229932064977852 0 0.15125888355859751 -0.039346475387158353 0 0.13448313371247531 -0.039649408031559807 0 0.1469808455892084 -0.034564419844220443 0 0.16339363928041009 -0.03224327907499859 0 0.15125888355859751 -0.039346475387158353 0 0.1469808455892084 -0.034564419844220443 0 0.15771279882737149 -0.039229932064977852 0 0.15125888355859751 -0.039346475387158353 0 0.1469808455892084 -0.034564419844220443 0 0.15383874807579301 -0.04223028696217751 0 0.15125888355859751 -0.039346475387158353 0 0.15771279882737149 -0.039229932064977852 0 0.15125888355859751 -0.039346475387158353 0 0.15771279882737149 -0.039229932064977852 0 0.15383874807579301 -0.04223028696217751 0 0.15125888355859751 -0.039346475387158353 0 0.1469808455892084 -0.034564419844220443 0 0.13735561683604119 -0.035925645196375817 0 0.15125888355859751 -0.039346475387158353 0 0.1469808455892084 -0.034564419844220443 0 0.13735561683604119 -0.035925645196375817 0 0.13362152820636691 -0.068858883856169811 0 0.12672430449100289 -0.060976817583559023 0 0.14477613458779731 -0.055140251081484327 0 0.13448313371247531 -0.039649408031559807 0 0.1258502296347363 -0.049734867533389147 0 0.14477613458779731 -0.055140251081484327 0 0.1258502296347363 -0.049734867533389147 0 0.12672430449100289 -0.060976817583559023 0 0.14477613458779731 -0.055140251081484327 0 0.13448313371247531 -0.039649408031559807 0 0.14477613458779731 -0.055140251081484327 0 0.13362152820636691 -0.068858883856169811 0 0.14477613458779731 -0.055140251081484327 0 0.14477613458779731 -0.055140251081484327 0 0.15964332023210001 -0.054014190847187581 0 0.15771279882737149 -0.039229932064977852 0 0.14477613458779731 -0.055140251081484327 0 0.15771279882737149 -0.039229932064977852 0 0.15465825228357519 -0.070012719866867801 0 0.14477613458779731 -0.055140251081484327 0 0.15964332023210001 -0.054014190847187581 0 0.15465825228357519 -0.070012719866867801 0 0.15964332023210001 -0.054014190847187581 0 0.1742575449750936 -0.056968112950883228 0 0.15964332023210001 -0.054014190847187581 0 0.1742575449750936 -0.056968112950883228 0 0.17465764565236239 -0.038923945906104949 0 0.1742575449750936 -0.056968112950883228 0 0.19385683766661219 -0.043923506034898613 0 0.18671839330260459 -0.062739924273174041 0 0.1742575449750936 -0.056968112950883228 0 0.19385683766661219 -0.043923506034898613 0 0.17465764565236239 -0.038923945906104949 0 0.16339363928041009 -0.03224327907499859 0 0.18744839455627521 -0.028841391851220879 0 0.17465764565236239 -0.038923945906104949 0 0.19160249247735309 -0.038617959747229987 0 0.1742575449750936 -0.056968112950883228 0 0.17465764565236239 -0.038923945906104949 0 0.19385683766661219 -0.043923506034898613 0 0.17465764565236239 -0.038923945906104949 0 0.19160249247735309 -0.038617959747229987 0 0.19385683766661219 -0.043923506034898613 0 0.17465764565236239 -0.038923945906104949 0 0.18744839455627521 -0.028841391851220879 0 0.19160249247735309 -0.038617959747229987 0 0.15964332023210001 -0.054014190847187581 0 0.17465764565236239 -0.038923945906104949 0 0.15771279882737149 -0.039229932064977852 0 0.17465764565236239 -0.038923945906104949 0 0.15771279882737149 -0.039229932064977852 0 0.16339363928041009 -0.03224327907499859 0 0.17465764565236239 -0.038923945906104949 0 0.15771279882737149 -0.039229932064977852 0 0.15771279882737149 -0.039229932064977852 0 0.16339363928041009 -0.03224327907499859 0 0.16339363928041009 -0.03224327907499859 0 0.18014175619649039 -0.01164539710744684 0 0.16339363928041009 -0.03224327907499859 0 0.18014175619649039 -0.01164539710744684 0 0.16161703343750811 -0.013897188437730549 0 0.1503760955808964 -0.02100097398700328 0 0.16339363928041009 -0.03224327907499859 0 0.16161703343750811 -0.013897188437730549 0 0.18744839455627521 -0.028841391851220879 0 0.18014175619649039 -0.01164539710744684 0 0.16339363928041009 -0.03224327907499859 0 0.18744839455627521 -0.028841391851220879 0 0.18744839455627521 -0.028841391851220879 0 0.18014175619649039 -0.01164539710744684 0 0.18794648436082079 -0.01446762781953027 0 0.16339363928041009 -0.03224327907499859 0 0.18744839455627521 -0.028841391851220879 0 0.18014175619649039 -0.01164539710744684 0 0.18014175619649039 -0.01164539710744684 0 0.1783993451011765 -0.007544675193871718 0 0.1697714007869949 -0.0065555767626871058 0 0.18014175619649039 -0.01164539710744684 0 0.1783993451011765 -0.007544675193871718 0 0.18014175619649039 -0.01164539710744684 0 0.18367709908954791 -0.0072974112418760437 0 0.1783993451011765 -0.007544675193871718 0 0.18014175619649039 -0.01164539710744684 0 0.18367709908954791 -0.0072974112418760437 0 0.18014175619649039 -0.01164539710744684 0 0.18367709908954791 -0.0072974112418760437 0 0.18794648436082079 -0.01446762781953027 0 0.1868884041802587 -0.0012985251471537721 0 0.18367709908954791 -0.0072974112418760437 0 0.1812152105338935 -0.002882518403207386 0 0.18367709908954791 -0.0072974112418760437 0 0.1812152105338935 -0.002882518403207386 0 0.1783993451011765 -0.007544675193871718 0 0.18134609722242709 0.0030691289152063278 0 0.1868884041802587 -0.0012985251471537721 0 0.1812152105338935 -0.002882518403207386 0 0.18134609722242709 0.0030691289152063278 0 0.1812152105338935 -0.002882518403207386 0 0.17576510707605711 -0.001341109348341724 0 0.17576510707605711 -0.001341109348341724 0 0.1783993451011765 -0.007544675193871718 0 0.1697714007869949 -0.0065555767626871058 0 0.1812152105338935 -0.002882518403207386 0 0.17576510707605711 -0.001341109348341724 0 0.1783993451011765 -0.007544675193871718 0 0.16899360260903989 0.0022117523816521322 0 0.1697714007869949 -0.0065555767626871058 0 0.1612889851362527 -0.003585222843482002 0 0.18014175619649039 -0.01164539710744684 0 0.1697714007869949 -0.0065555767626871058 0 0.16161703343750811 -0.013897188437730549 0 0.16899360260903989 0.0022117523816521322 0 0.17576510707605711 -0.001341109348341724 0 0.1697714007869949 -0.0065555767626871058 0 0.1697714007869949 -0.0065555767626871058 0 0.16161703343750811 -0.013897188437730549 0 0.1612889851362527 -0.003585222843482002 0 0.1483365536521071 -0.0069817059065535262 0 0.16161703343750811 -0.013897188437730549 0 0.1612889851362527 -0.003585222843482002 0 0.2209714256406867 0.0032235538594259849 0 0.21256641239424551 -0.0023943503519144168 0 0.21255274933211599 -0.0099148473819180485 0 0.21255274933211599 -0.0099148473819180485 0 0.2027627704753798 -0.0066287370135409487 0 0.20350667807373771 -0.015660706104620701 0 0.20706677327378931 0.0011185664601425071 0 0.20130663441071911 0.0041857174609635601 0 0.2027627704753798 -0.0066287370135409487 0 0.20706677327378931 0.0011185664601425071 0 0.21256641239424551 -0.0023943503519144168 0 0.2027627704753798 -0.0066287370135409487 0 0.21256641239424551 -0.0023943503519144168 0 0.21255274933211599 -0.0099148473819180485 0 0.2027627704753798 -0.0066287370135409487 0 0.19373724679063031 0.00069316726112723991 0 0.20130663441071911 0.0041857174609635601 0 0.2027627704753798 -0.0066287370135409487 0 0.19373724679063031 0.00069316726112723991 0 0.2027627704753798 -0.0066287370135409487 0 0.19235950243610331 -0.0079501085067430859 0 0.1868884041802587 -0.0012985251471537721 0 0.18367709908954791 -0.0072974112418760437 0 0.19235950243610331 -0.0079501085067430859 0 0.19373724679063031 0.00069316726112723991 0 0.1868884041802587 -0.0012985251471537721 0 0.19235950243610331 -0.0079501085067430859 0 0.19235950243610331 -0.0079501085067430859 0 0.18794648436082079 -0.01446762781953027 0 0.19610566952568739 -0.016603830390365028 0 0.18367709908954791 -0.0072974112418760437 0 0.19235950243610331 -0.0079501085067430859 0 0.18794648436082079 -0.01446762781953027 0 0.2027627704753798 -0.0066287370135409487 0 0.19235950243610331 -0.0079501085067430859 0 0.19610566952568739 -0.016603830390365028 0 0.2027627704753798 -0.0066287370135409487 0 0.19610566952568739 -0.016603830390365028 0 0.20350667807373771 -0.015660706104620701 0 0.19610566952568739 -0.016603830390365028 0 0.2030779722846516 -0.026631015558576391 0 0.20350667807373771 -0.015660706104620701 0 0.18744839455627521 -0.028841391851220879 0 0.2030779722846516 -0.026631015558576391 0 0.18744839455627521 -0.028841391851220879 0 0.19610566952568739 -0.016603830390365028 0 0.2030779722846516 -0.026631015558576391 0 0.18744839455627521 -0.028841391851220879 0 0.2030779722846516 -0.026631015558576391 0 0.19606059161995229 -0.033129630352760772 0 0.18744839455627521 -0.028841391851220879 0 0.18794648436082079 -0.01446762781953027 0 0.19610566952568739 -0.016603830390365028 0 0.21255274933211599 -0.0099148473819180485 0 0.2030779722846516 -0.026631015558576391 0 0.20350667807373771 -0.015660706104620701 0 0.21255274933211599 -0.0099148473819180485 0 0.2030779722846516 -0.026631015558576391 0 0.21870755001302741 -0.024420639265927541 0 0.2030779722846516 -0.026631015558576391 0 0.214113426429269 -0.030441425736054729 0 0.21870755001302741 -0.024420639265927541 0 0.2030779722846516 -0.026631015558576391 0 0.21870755001302741 -0.024420639265927541 0 0.21870755001302741 -0.024420639265927541 0 0.21223028451034179 -0.04823025857061785 0 0.22463163036090089 -0.033932770505985088 0 0.214113426429269 -0.030441425736054729 0 0.21870755001302741 -0.024420639265927541 0 0.21223028451034179 -0.04823025857061785 0 0.214113426429269 -0.030441425736054729 0 0.20762822132492051 -0.043576154252045619 0 0.21223028451034179 -0.04823025857061785 0 0.21870755001302741 -0.024420639265927541 0 0.21223028451034179 -0.04823025857061785 0 0.20762822132492051 -0.043576154252045619 0 0.21223028451034179 -0.04823025857061785 0 0.20762822132492051 -0.043576154252045619 0 0.20382219255908571 -0.042125527328298863 0 0.2012829861416309 -0.045612129960478268 0 0.20762822132492051 -0.043576154252045619 0 0.20382219255908571 -0.042125527328298863 0 0.20539627487113279 -0.038368874787383683 0 0.20382219255908571 -0.042125527328298863 0 0.20539627487113279 -0.038368874787383683 0 0.2021135071615289 -0.038428154254015412 0 0.214113426429269 -0.030441425736054729 0 0.2021135071615289 -0.038428154254015412 0 0.20539627487113279 -0.038368874787383683 0 0.2021135071615289 -0.038428154254015412 0 0.214113426429269 -0.030441425736054729 0 0.20539627487113279 -0.038368874787383683 0 0.2021135071615289 -0.038428154254015412 0 0.2030779722846516 -0.026631015558576391 0 0.214113426429269 -0.030441425736054729 0 0.2021135071615289 -0.038428154254015412 0 0.214113426429269 -0.030441425736054729 0 0.20762822132492051 -0.043576154252045619 0 0.20539627487113279 -0.038368874787383683 0 0.2021135071615289 -0.038428154254015412 0 0.19160249247735309 -0.038617959747229987 0 0.2030779722846516 -0.026631015558576391 0 0.19606059161995229 -0.033129630352760772 0 0.2021135071615289 -0.038428154254015412 0 0.19606059161995229 -0.033129630352760772 0 0.2021135071615289 -0.038428154254015412 0 0.19160249247735309 -0.038617959747229987 0 0.18744839455627521 -0.028841391851220879 0 0.19160249247735309 -0.038617959747229987 0 0.18744839455627521 -0.028841391851220879 0 0.19606059161995229 -0.033129630352760772 0 0.19160249247735309 -0.038617959747229987 0 0.19160249247735309 -0.038617959747229987 0 0.19385683766661219 -0.043923506034898613 0 0.2021135071615289 -0.038428154254015412 0 0.19160249247735309 -0.038617959747229987 0 0.19385683766661219 -0.043923506034898613 0 0.2021135071615289 -0.038428154254015412 0 0.19385683766661219 -0.043923506034898613 0 0.2021135071615289 -0.038428154254015412 0 0.19385683766661219 -0.043923506034898613 0 0.2012829861416309 -0.045612129960478268 0 0.20382219255908571 -0.042125527328298863 0 0.2021135071615289 -0.038428154254015412 0 0.2012829861416309 -0.045612129960478268 0 0.2012829861416309 -0.045612129960478268 0 0.19981479672125321 -0.057945417007139732 0 0.20534580889480841 -0.053466257553932299 0 0.18671839330260459 -0.062739924273174041 0 0.19385683766661219 -0.043923506034898613 0 0.19981479672125321 -0.057945417007139732 0 0.19385683766661219 -0.043923506034898613 0 0.2012829861416309 -0.045612129960478268 0 0.19981479672125321 -0.057945417007139732 0 0.19385683766661219 -0.043923506034898613 0 0.19981479672125321 -0.057945417007139732 0 0.20534580889480841 -0.053466257553932299 0 0.21223028451034179 -0.04823025857061785 0 0.20577275577589579 -0.071967327979380158 0 0.19981479672125321 -0.057945417007139732 0 0.20534580889480841 -0.053466257553932299 0 0.20577275577589579 -0.071967327979380158 0 0.21223028451034179 -0.04823025857061785 0 0.20577275577589579 -0.071967327979380158 0 0.20762822132492051 -0.043576154252045619 0 0.20534580889480841 -0.053466257553932299 0 0.21223028451034179 -0.04823025857061785 0 0.20762822132492051 -0.043576154252045619 0 0.2012829861416309 -0.045612129960478268 0 0.20534580889480841 -0.053466257553932299 0 0.21223028451034179 -0.04823025857061785 0 0.23161687208853371 -0.067836073904880972 0 0.22754329549843769 -0.049609009317428843 0 0.23522154656711769 -0.057044233187459797 0 0.23161687208853371 -0.067836073904880972 0 0.21223028451034179 -0.04823025857061785 0 0.22754329549843769 -0.049609009317428843 0 0.23161687208853371 -0.067836073904880972 0 0.22754329549843769 -0.049609009317428843 0 0.23522154656711769 -0.057044233187459797 0 0.23401614396529519 -0.041001710418200749 0 0.25105442044355342 -0.054374996215338929 0 0.23522154656711769 -0.057044233187459797 0 0.2441345365280726 -0.068734390642570767 0 0.25203180914264539 -0.037448613758741513 0 0.23522154656711769 -0.057044233187459797 0 0.25105442044355342 -0.054374996215338929 0 0.25203180914264539 -0.037448613758741513 0 0.23522154656711769 -0.057044233187459797 0 0.25203180914264539 -0.037448613758741513 0 0.23522154656711769 -0.057044233187459797 0 0.23401614396529519 -0.041001710418200749 0 0.25203180914264539 -0.037448613758741513 0 0.23401614396529519 -0.041001710418200749 0 0.23438544429867639 -0.029489215646687252 0 0.23401614396529519 -0.041001710418200749 0 0.22463163036090089 -0.033932770505985088 0 0.23438544429867639 -0.029489215646687252 0 0.22754329549843769 -0.049609009317428843 0 0.23401614396529519 -0.041001710418200749 0 0.22463163036090089 -0.033932770505985088 0 0.21223028451034179 -0.04823025857061785 0 0.22754329549843769 -0.049609009317428843 0 0.22463163036090089 -0.033932770505985088 0 0.21870755001302741 -0.024420639265927541 0 0.22463163036090089 -0.033932770505985088 0 0.22293085817573521 -0.02382336783597765 0 0.21870755001302741 -0.024420639265927541 0 0.22293085817573521 -0.02382336783597765 0 0.21870755001302741 -0.024420639265927541 0 0.22293085817573521 -0.02382336783597765 0 0.23093395404844341 -0.01245937006644284 0 0.22293085817573521 -0.02382336783597765 0 0.2326011825484911 -0.02174720822412405 0 0.23093395404844341 -0.01245937006644284 0 0.22293085817573521 -0.02382336783597765 0 0.2326011825484911 -0.02174720822412405 0 0.23438544429867639 -0.029489215646687252 0 0.22463163036090089 -0.033932770505985088 0 0.22293085817573521 -0.02382336783597765 0 0.23438544429867639 -0.029489215646687252 0 0.2326011825484911 -0.02174720822412405 0 0.23438544429867639 -0.029489215646687252 0 0.2421544736711094 -0.02121687934738847 0 0.25203180914264539 -0.037448613758741513 0 0.23438544429867639 -0.029489215646687252 0 0.2421544736711094 -0.02121687934738847 0 0.2326011825484911 -0.02174720822412405 0 0.2421544736711094 -0.02121687934738847 0 0.23093395404844341 -0.01245937006644284 0 0.2421544736711094 -0.02121687934738847 0 0.2469535063018915 -0.0072240908428232416 0 0.23093395404844341 -0.01245937006644284 0 0.22639947012091829 0.0038538987185199338 0 0.2469535063018915 -0.0072240908428232416 0 0.23093395404844341 -0.01245937006644284 0 0.22639947012091829 0.0038538987185199338 0 0.21870755001302741 -0.024420639265927541 0 0.23093395404844341 -0.01245937006644284 0 0.22639947012091829 0.0038538987185199338 0 0.21255274933211599 -0.0099148473819180485 0 0.21870755001302741 -0.024420639265927541 0 0.22639947012091829 0.0038538987185199338 0 0.21870755001302741 -0.024420639265927541 0 0.2209714256406867 0.0032235538594259849 0 0.22639947012091829 0.0038538987185199338 0 0.21255274933211599 -0.0099148473819180485 0 0.20842608995683209 -0.106653765736254 0 0.21337574912042601 -0.089860786934334344 0 0.22415146054412999 -0.115221160320589 0 0.20842608995683209 -0.106653765736254 0 0.20033726642572519 -0.091947508212637641 0 0.21337574912042601 -0.089860786934334344 0 0.21231726917329979 -0.1219960668838069 0 0.1943735100413142 -0.11386953210988671 0 0.20378069420193409 -0.1332158138948544 0 0.20842608995683209 -0.106653765736254 0 0.21231726917329979 -0.1219960668838069 0 0.1943735100413142 -0.11386953210988671 0 0.20842608995683209 -0.106653765736254 0 0.21231726917329979 -0.1219960668838069 0 0.22415146054412999 -0.115221160320589 0 0.1800279990686256 -0.11802229308207619 0 0.1943735100413142 -0.11386953210988671 0 0.18840975365690499 -0.13579155600713619 0 0.1943735100413142 -0.11386953210988671 0 0.18840975365690499 -0.13579155600713619 0 0.17767992919091671 -0.1046600679082611 0 0.1943735100413142 -0.11386953210988671 0 0.20033726642572519 -0.091947508212637641 0 0.20842608995683209 -0.106653765736254 0 0.1943735100413142 -0.11386953210988671 0 0.20033726642572519 -0.091947508212637641 0 0.1943735100413142 -0.11386953210988671 0 0.20033726642572519 -0.091947508212637641 0 0.20033726642572519 -0.091947508212637641 0 0.20577275577589579 -0.071967327979380158 0 0.184711277851525 -0.076372675182768551 0 0.20033726642572519 -0.091947508212637641 0 0.1944270528390124 -0.069673658239293376 0 0.20033726642572519 -0.091947508212637641 0 0.1944270528390124 -0.069673658239293376 0 0.20577275577589579 -0.071967327979380158 0 0.184711277851525 -0.076372675182768551 0 0.18671839330260459 -0.062739924273174041 0 0.1944270528390124 -0.069673658239293376 0 0.18671839330260459 -0.062739924273174041 0 0.19981479672125321 -0.057945417007139732 0 0.1944270528390124 -0.069673658239293376 0 0.19981479672125321 -0.057945417007139732 0 0.20577275577589579 -0.071967327979380158 0 0.19981479672125321 -0.057945417007139732 0 0.1944270528390124 -0.069673658239293376 0 0.20577275577589579 -0.071967327979380158 0 0.21223028451034179 -0.04823025857061785 0 0.20577275577589579 -0.071967327979380158 0 0.2195224776293328 -0.075079362850677539 0 0.20033726642572519 -0.091947508212637641 0 0.20577275577589579 -0.071967327979380158 0 0.21337574912042601 -0.089860786934334344 0 0.20577275577589579 -0.071967327979380158 0 0.21337574912042601 -0.089860786934334344 0 0.20577275577589579 -0.071967327979380158 0 0.21337574912042601 -0.089860786934334344 0 0.2195224776293328 -0.075079362850677539 0 0.20033726642572519 -0.091947508212637641 0 0.21337574912042601 -0.089860786934334344 0 0.21337574912042601 -0.089860786934334344 0 0.2252519306029622 -0.08796008413133638 0 0.22585602327274071 -0.10056911456353559 0 0.21337574912042601 -0.089860786934334344 0 0.2252519306029622 -0.08796008413133638 0 0.21337574912042601 -0.089860786934334344 0 0.2252519306029622 -0.08796008413133638 0 0.2195224776293328 -0.075079362850677539 0 0.2252519306029622 -0.08796008413133638 0 0.2331098013742908 -0.081756195571652812 0 0.2195224776293328 -0.075079362850677539 0 0.2252519306029622 -0.08796008413133638 0 0.23815426688390109 -0.090463567732223721 0 0.2315098096824498 -0.095267710756029675 0 0.2252519306029622 -0.08796008413133638 0 0.2331098013742908 -0.081756195571652812 0 0.23815426688390109 -0.090463567732223721 0 0.21223028451034179 -0.04823025857061785 0 0.2195224776293328 -0.075079362850677539 0 0.23161687208853371 -0.067836073904880972 0 0.2331098013742908 -0.081756195571652812 0 0.2195224776293328 -0.075079362850677539 0 0.23161687208853371 -0.067836073904880972 0 0.25100345966672433 -0.087441889239145476 0 0.23161687208853371 -0.067836073904880972 0 0.25100345966672433 -0.087441889239145476 0 0.23161687208853371 -0.067836073904880972 0 0.2441345365280726 -0.068734390642570767 0 0.23522154656711769 -0.057044233187459797 0 0.23161687208853371 -0.067836073904880972 0 0.2441345365280726 -0.068734390642570767 0 0.25100345966672433 -0.087441889239145476 0 0.2331098013742908 -0.081756195571652812 0 0.23161687208853371 -0.067836073904880972 0 0.25100345966672433 -0.087441889239145476 0 0.2331098013742908 -0.081756195571652812 0 0.23815426688390109 -0.090463567732223721 0 0.25310575603894703 -0.10371750821035609 0 0.2367770179701954 -0.102078076597023 0 0.24319076987413829 -0.1113971498615149 0 0.25310575603894703 -0.10371750821035609 0 0.25100345966672433 -0.087441889239145476 0 0.23815426688390109 -0.090463567732223721 0 0.25310575603894703 -0.10371750821035609 0 0.23815426688390109 -0.090463567732223721 0 0.2367770179701954 -0.102078076597023 0 0.2367770179701954 -0.102078076597023 0 0.2325945266620498 -0.1098280439463212 0 0.24319076987413829 -0.1113971498615149 0 0.23815426688390109 -0.090463567732223721 0 0.2367770179701954 -0.102078076597023 0 0.2315098096824498 -0.095267710756029675 0 0.2367770179701954 -0.102078076597023 0 0.2315098096824498 -0.095267710756029675 0 0.22585602327274071 -0.10056911456353559 0 0.21337574912042601 -0.089860786934334344 0 0.22415146054412999 -0.115221160320589 0 0.2252519306029622 -0.08796008413133638 0 0.2315098096824498 -0.095267710756029675 0 0.22585602327274071 -0.10056911456353559 0 0.21337574912042601 -0.089860786934334344 0 0.22585602327274071 -0.10056911456353559 0 0.22415146054412999 -0.115221160320589 0 0.2367770179701954 -0.102078076597023 0 0.22585602327274071 -0.10056911456353559 0 0.2325945266620498 -0.1098280439463212 0 0.22585602327274071 -0.10056911456353559 0 0.22415146054412999 -0.115221160320589 0 0.2325945266620498 -0.1098280439463212 0 0.22415146054412999 -0.115221160320589 0 0.23211790401990229 -0.11969732763904301 0 0.22305152994102201 -0.1265059669734635 0 0.21231726917329979 -0.1219960668838069 0 0.22415146054412999 -0.115221160320589 0 0.22305152994102201 -0.1265059669734635 0 0.22415146054412999 -0.115221160320589 0 0.2325945266620498 -0.1098280439463212 0 0.23211790401990229 -0.11969732763904301 0 0.23211790401990229 -0.11969732763904301 0 0.23121411730325511 -0.12799519895093689 0 0.22305152994102201 -0.1265059669734635 0 0.25368977415347571 -0.1201179455757008 0 0.23211790401990229 -0.11969732763904301 0 0.24319076987413829 -0.1113971498615149 0 0.25368977415347571 -0.1201179455757008 0 0.23211790401990229 -0.11969732763904301 0 0.24323844598614019 -0.12791634825073361 0 0.25368977415347571 -0.1201179455757008 0 0.23211790401990229 -0.11969732763904301 0 0.2325945266620498 -0.1098280439463212 0 0.23211790401990229 -0.11969732763904301 0 0.24319076987413829 -0.1113971498615149 0 0.25603412633680639 -0.14260477470172331 0 0.24323844598614019 -0.12791634825073361 0 0.24151219735815541 -0.14233839252677849 0 0.24151219735815541 -0.14233839252677849 0 0.23379814659204479 -0.14324315952800901 0 0.23334413461609599 -0.1356052604794524 0 0.24323844598614019 -0.12791634825073361 0 0.24151219735815541 -0.14233839252677849 0 0.23334413461609599 -0.1356052604794524 0 0.24323844598614019 -0.12791634825073361 0 0.23121411730325511 -0.12799519895093689 0 0.23334413461609599 -0.1356052604794524 0 0.23211790401990229 -0.11969732763904301 0 0.24323844598614019 -0.12791634825073361 0 0.23121411730325511 -0.12799519895093689 0 0.25603412633680639 -0.14260477470172331 0 0.2450473566072236 -0.15357494113895201 0 0.24151219735815541 -0.14233839252677849 0 0.24151219735815541 -0.14233839252677849 0 0.2341224144846378 -0.1510890394765074 0 0.23379814659204479 -0.14324315952800901 0 0.2450473566072236 -0.15357494113895201 0 0.2341224144846378 -0.1510890394765074 0 0.23585747828201259 -0.16095465376667351 0 0.2450473566072236 -0.15357494113895201 0 0.24151219735815541 -0.14233839252677849 0 0.2341224144846378 -0.1510890394765074 0 0.2341224144846378 -0.1510890394765074 0 0.22618118620131639 -0.1566034268894721 0 0.23585747828201259 -0.16095465376667351 0 0.2341224144846378 -0.1510890394765074 0 0.2266112776687117 -0.1439651372983467 0 0.22618118620131639 -0.1566034268894721 0 0.2341224144846378 -0.1510890394765074 0 0.23379814659204479 -0.14324315952800901 0 0.2266112776687117 -0.1439651372983467 0 0.23379814659204479 -0.14324315952800901 0 0.2266112776687117 -0.1439651372983467 0 0.23334413461609599 -0.1356052604794524 0 0.2266112776687117 -0.1439651372983467 0 0.21749748131074731 -0.13639076602741301 0 0.2171746535588607 -0.15163944858373829 0 0.2266112776687117 -0.1439651372983467 0 0.2171746535588607 -0.15163944858373829 0 0.22618118620131639 -0.1566034268894721 0 0.23121411730325511 -0.12799519895093689 0 0.226194672744647 -0.13343846428765441 0 0.22305152994102201 -0.1265059669734635 0 0.23121411730325511 -0.12799519895093689 0 0.23334413461609599 -0.1356052604794524 0 0.226194672744647 -0.13343846428765441 0 0.2266112776687117 -0.1439651372983467 0 0.23334413461609599 -0.1356052604794524 0 0.226194672744647 -0.13343846428765441 0 0.2266112776687117 -0.1439651372983467 0 0.226194672744647 -0.13343846428765441 0 0.21749748131074731 -0.13639076602741301 0 0.226194672744647 -0.13343846428765441 0 0.22305152994102201 -0.1265059669734635 0 0.21749748131074731 -0.13639076602741301 0 0.21231726917329979 -0.1219960668838069 0 0.20378069420193409 -0.1332158138948544 0 0.21749748131074731 -0.13639076602741301 0 0.21231726917329979 -0.1219960668838069 0 0.22305152994102201 -0.1265059669734635 0 0.21749748131074731 -0.13639076602741301 0 0.20378069420193409 -0.1332158138948544 0 0.21749748131074731 -0.13639076602741301 0 0.2075100694756693 -0.1468383954568501 0 0.21749748131074731 -0.13639076602741301 0 0.2171746535588607 -0.15163944858373829 0 0.2075100694756693 -0.1468383954568501 0 0.2171746535588607 -0.15163944858373829 0 0.2075100694756693 -0.1468383954568501 0 0.21020030315097471 -0.15697727275664081 0 0.2075100694756693 -0.1468383954568501 0 0.19990978591196171 -0.15499356604844511 0 0.21020030315097471 -0.15697727275664081 0 0.20378069420193409 -0.1332158138948544 0 0.2075100694756693 -0.1468383954568501 0 0.1963741126022818 -0.14525670616084441 0 0.1963741126022818 -0.14525670616084441 0 0.18840975365690499 -0.13579155600713619 0 0.18244599727249641 -0.15771357990438589 0 0.1963741126022818 -0.14525670616084441 0 0.19990978591196171 -0.15499356604844511 0 0.18244599727249641 -0.15771357990438589 0 0.2075100694756693 -0.1468383954568501 0 0.1963741126022818 -0.14525670616084441 0 0.19990978591196171 -0.15499356604844511 0 0.1943735100413142 -0.11386953210988671 0 0.20378069420193409 -0.1332158138948544 0 0.18840975365690499 -0.13579155600713619 0 0.20378069420193409 -0.1332158138948544 0 0.1963741126022818 -0.14525670616084441 0 0.18840975365690499 -0.13579155600713619 0 0.2015372956093596 -0.17979877669129041 0 0.18750234006848979 -0.18810468995979679 0 0.18073090641368339 -0.1824531884003486 0 0.2015372956093596 -0.17979877669129041 0 0.17559392852683359 -0.17217311107935809 0 0.2015372956093596 -0.17979877669129041 0 0.19037873462820459 -0.16402524256800161 0 0.17559392852683359 -0.17217311107935809 0 0.2015372956093596 -0.17979877669129041 0 0.1969771879303141 -0.18903259228479799 0 0.18750234006848979 -0.18810468995979679 0 0.2015372956093596 -0.17979877669129041 0 0.2041550732682183 -0.19041597476967759 0 0.1969771879303141 -0.18903259228479799 0 0.20906891139821329 -0.17010954465876149 0 0.18244599727249641 -0.15771357990438589 0 0.19990978591196171 -0.15499356604844511 0 0.20906891139821329 -0.17010954465876149 0 0.18244599727249641 -0.15771357990438589 0 0.19037873462820459 -0.16402524256800161 0 0.20906891139821329 -0.17010954465876149 0 0.18244599727249641 -0.15771357990438589 0 0.2015372956093596 -0.17979877669129041 0 0.19037873462820459 -0.16402524256800161 0 0.20906891139821329 -0.17010954465876149 0 0.20906891139821329 -0.17010954465876149 0 0.21733809541016841 -0.1613054090354086 0 0.226472016914262 -0.1676252590059211 0 0.19990978591196171 -0.15499356604844511 0 0.20906891139821329 -0.17010954465876149 0 0.21020030315097471 -0.15697727275664081 0 0.2171746535588607 -0.15163944858373829 0 0.21020030315097471 -0.15697727275664081 0 0.21733809541016841 -0.1613054090354086 0 0.20906891139821329 -0.17010954465876149 0 0.21020030315097471 -0.15697727275664081 0 0.21733809541016841 -0.1613054090354086 0 0.2015372956093596 -0.17979877669129041 0 0.22748066269188549 -0.18742444230322269 0 0.2137875545871504 -0.1905949987296742 0 0.2015372956093596 -0.17979877669129041 0 0.20906891139821329 -0.17010954465876149 0 0.22748066269188549 -0.18742444230322269 0 0.2015372956093596 -0.17979877669129041 0 0.22748066269188549 -0.18742444230322269 0 0.2015372956093596 -0.17979877669129041 0 0.2041550732682183 -0.19041597476967759 0 0.2137875545871504 -0.1905949987296742 0 0.20906891139821329 -0.17010954465876149 0 0.226472016914262 -0.1676252590059211 0 0.23569182552392839 -0.18250550941314081 0 0.20906891139821329 -0.17010954465876149 0 0.23569182552392839 -0.18250550941314081 0 0.20906891139821329 -0.17010954465876149 0 0.22748066269188549 -0.18742444230322269 0 0.23569182552392839 -0.18250550941314081 0 0.226472016914262 -0.1676252590059211 0 0.23711268287616441 -0.1707256060871343 0 0.23569182552392839 -0.18250550941314081 0 0.2171746535588607 -0.15163944858373829 0 0.21733809541016841 -0.1613054090354086 0 0.22618118620131639 -0.1566034268894721 0 0.21733809541016841 -0.1613054090354086 0 0.22618118620131639 -0.1566034268894721 0 0.226472016914262 -0.1676252590059211 0 0.226472016914262 -0.1676252590059211 0 0.23585747828201259 -0.16095465376667351 0 0.23711268287616441 -0.1707256060871343 0 0.22618118620131639 -0.1566034268894721 0 0.226472016914262 -0.1676252590059211 0 0.23585747828201259 -0.16095465376667351 0 0.23585747828201259 -0.16095465376667351 0 0.23711268287616441 -0.1707256060871343 0 0.24620921260847181 -0.16610965000205441 0 0.23711268287616441 -0.1707256060871343 0 0.24620921260847181 -0.16610965000205441 0 0.24233932992598459 -0.1743774157916648 0 0.2562512824769097 -0.1547624544879081 0 0.2450473566072236 -0.15357494113895201 0 0.24620921260847181 -0.16610965000205441 0 0.2450473566072236 -0.15357494113895201 0 0.23585747828201259 -0.16095465376667351 0 0.24620921260847181 -0.16610965000205441 0 0.26231473964964441 -0.19490147416751799 0 0.25034359869537398 -0.1781688976643297 0 0.23569182552392839 -0.18250550941314081 0 0.23711268287616441 -0.1707256060871343 0 0.23569182552392839 -0.18250550941314081 0 0.24233932992598459 -0.1743774157916648 0 0.25034359869537398 -0.1781688976643297 0 0.23569182552392839 -0.18250550941314081 0 0.24233932992598459 -0.1743774157916648 0 0.25034359869537398 -0.1781688976643297 0 0.24620921260847181 -0.16610965000205441 0 0.24233932992598459 -0.1743774157916648 0 0.26231473964964441 -0.19490147416751799 0 0.23569182552392839 -0.18250550941314081 0 0.26231473964964441 -0.19490147416751799 0 0.23569182552392839 -0.18250550941314081 0 0.23745854266620001 -0.19562252768275021 0 0.26231473964964441 -0.19490147416751799 0 0.23745854266620001 -0.19562252768275021 0 0.2458738645678101 -0.20395232292394461 0 0.23745854266620001 -0.19562252768275021 0 0.2458738645678101 -0.20395232292394461 0 0.2294329894859764 -0.21300317168037239 0 0.2458738645678101 -0.20395232292394461 0 0.2294329894859764 -0.21300317168037239 0 0.2458738645678101 -0.20395232292394461 0 0.2294329894859764 -0.21300317168037239 0 0.23929778275535679 -0.2230260194598058 0 0.25382110125665708 -0.21689023263611151 0 0.2458738645678101 -0.20395232292394461 0 0.23929778275535679 -0.2230260194598058 0 0.2294329894859764 -0.21300317168037239 0 0.22376408072444609 -0.20057198633596451 0 0.21165724889510321 -0.21574574257986601 0 0.23745854266620001 -0.19562252768275021 0 0.2294329894859764 -0.21300317168037239 0 0.22376408072444609 -0.20057198633596451 0 0.22748066269188549 -0.18742444230322269 0 0.22376408072444609 -0.20057198633596451 0 0.2137875545871504 -0.1905949987296742 0 0.22748066269188549 -0.18742444230322269 0 0.23745854266620001 -0.19562252768275021 0 0.22376408072444609 -0.20057198633596451 0 0.22748066269188549 -0.18742444230322269 0 0.23569182552392839 -0.18250550941314081 0 0.23745854266620001 -0.19562252768275021 0 0.25055431257156929 -0.2476244210299253 0 0.2499903799080597 -0.23088783354580261 0 0.23852728451151239 -0.23741303804489289 0 0.25055431257156929 -0.2476244210299253 0 0.23182134719151731 -0.25192540700083182 0 0.23852728451151239 -0.23741303804489289 0 0.2499903799080597 -0.23088783354580261 0 0.23852728451151239 -0.23741303804489289 0 0.23929778275535679 -0.2230260194598058 0 0.2499903799080597 -0.23088783354580261 0 0.25382110125665708 -0.21689023263611151 0 0.23929778275535679 -0.2230260194598058 0 0.23852728451151239 -0.23741303804489289 0 0.23929778275535679 -0.2230260194598058 0 0.22299511679458289 -0.2318815029455194 0 0.2294329894859764 -0.21300317168037239 0 0.22299511679458289 -0.2318815029455194 0 0.21165724889510321 -0.21574574257986601 0 0.2294329894859764 -0.21300317168037239 0 0.23929778275535679 -0.2230260194598058 0 0.22299511679458289 -0.2318815029455194 0 0.23182134719151731 -0.25192540700083182 0 0.23852728451151239 -0.23741303804489289 0 0.22299511679458289 -0.2318815029455194 0 0.23182134719151731 -0.25192540700083182 0 0.22299511679458289 -0.2318815029455194 0 0.2158999495975234 -0.24662314191780491 0 0.22299511679458289 -0.2318815029455194 0 0.2158999495975234 -0.24662314191780491 0 0.19711420963256199 -0.23284860719661041 0 0.2158999495975234 -0.24662314191780491 0 0.19711420963256199 -0.23284860719661041 0 0.20020069926681641 -0.24959606771576409 0 0.19711420963256199 -0.23284860719661041 0 0.21165724889510321 -0.21574574257986601 0 0.22299511679458289 -0.2318815029455194 0 0.19711420963256199 -0.23284860719661041 0 0.21165724889510321 -0.21574574257986601 0 0.19711420963256199 -0.23284860719661041 0 0.21165724889510321 -0.21574574257986601 0 0.19236418783128889 -0.2165209888006302 0 0.19711420963256199 -0.23284860719661041 0 0.19236418783128889 -0.2165209888006302 0 0.1771366123139568 -0.227041792875357 0 0.19711420963256199 -0.23284860719661041 0 0.18257117037002091 -0.24995147181335481 0 0.19711420963256199 -0.23284860719661041 0 0.20020069926681641 -0.24959606771576409 0 0.18257117037002091 -0.24995147181335481 0 0.21068491995609731 -0.19662148646768621 0 0.2041550732682183 -0.19041597476967759 0 0.19515692688667971 -0.19974736551387981 0 0.21068491995609731 -0.19662148646768621 0 0.2041550732682183 -0.19041597476967759 0 0.2137875545871504 -0.1905949987296742 0 0.22376408072444609 -0.20057198633596451 0 0.21068491995609731 -0.19662148646768621 0 0.2137875545871504 -0.1905949987296742 0 0.22376408072444609 -0.20057198633596451 0 0.21068491995609731 -0.19662148646768621 0 0.21165724889510321 -0.21574574257986601 0 0.21068491995609731 -0.19662148646768621 0 0.21165724889510321 -0.21574574257986601 0 0.2030751517155294 -0.20697572090989741 0 0.21165724889510321 -0.21574574257986601 0 0.19236418783128889 -0.2165209888006302 0 0.2030751517155294 -0.20697572090989741 0 0.19236418783128889 -0.2165209888006302 0 0.19515692688667971 -0.19974736551387981 0 0.1809832284191556 -0.2049837080958293 0 0.19236418783128889 -0.2165209888006302 0 0.2030751517155294 -0.20697572090989741 0 0.19515692688667971 -0.19974736551387981 0 0.21068491995609731 -0.19662148646768621 0 0.2030751517155294 -0.20697572090989741 0 0.19515692688667971 -0.19974736551387981 0 0.2041550732682183 -0.19041597476967759 0 0.19515692688667971 -0.19974736551387981 0 0.1969771879303141 -0.18903259228479799 0 0.19515692688667971 -0.19974736551387981 0 0.1969771879303141 -0.18903259228479799 0 0.18750234006848979 -0.18810468995979679 0 0.19515692688667971 -0.19974736551387981 0 0.1780446226187139 -0.19418084943726921 0 0.1809832284191556 -0.2049837080958293 0 0.19515692688667971 -0.19974736551387981 0 0.18750234006848979 -0.18810468995979679 0 0.1780446226187139 -0.19418084943726921 0 0.18750234006848979 -0.18810468995979679 0 0.1780446226187139 -0.19418084943726921 0 0.18073090641368339 -0.1824531884003486 0 0.1780446226187139 -0.19418084943726921 0 0.16801219891946881 -0.19940084287142901 0 0.17103285752337771 -0.18569965159761481 0 0.1780446226187139 -0.19418084943726921 0 0.1809832284191556 -0.2049837080958293 0 0.16801219891946881 -0.19940084287142901 0 0.19236418783128889 -0.2165209888006302 0 0.1809832284191556 -0.2049837080958293 0 0.17272631568910321 -0.21462606148298749 0 0.1809832284191556 -0.2049837080958293 0 0.17272631568910321 -0.21462606148298749 0 0.16801219891946881 -0.19940084287142901 0 0.17272631568910321 -0.21462606148298749 0 0.15933978248467379 -0.20907101659629951 0 0.16801219891946881 -0.19940084287142901 0 0.17272631568910321 -0.21462606148298749 0 0.15933978248467379 -0.20907101659629951 0 0.15806663601872559 -0.22804372033431239 0 0.15933978248467379 -0.20907101659629951 0 0.15661950660616461 -0.19222807975317871 0 0.16801219891946881 -0.19940084287142901 0 0.15661950660616461 -0.19222807975317871 0 0.16801219891946881 -0.19940084287142901 0 0.17103285752337771 -0.18569965159761481 0 0.16620895813804101 -0.25077283653489851 0 0.17460767031345339 -0.23957306685901031 0 0.18257117037002091 -0.24995147181335481 0 0.19711420963256199 -0.23284860719661041 0 0.17460767031345339 -0.23957306685901031 0 0.18257117037002091 -0.24995147181335481 0 0.19711420963256199 -0.23284860719661041 0 0.17460767031345339 -0.23957306685901031 0 0.1771366123139568 -0.227041792875357 0 0.19236418783128889 -0.2165209888006302 0 0.17272631568910321 -0.21462606148298749 0 0.1771366123139568 -0.227041792875357 0 0.17460767031345339 -0.23957306685901031 0 0.1771366123139568 -0.227041792875357 0 0.15806663601872559 -0.22804372033431239 0 0.17272631568910321 -0.21462606148298749 0 0.1771366123139568 -0.227041792875357 0 0.15806663601872559 -0.22804372033431239 0 0.16620895813804101 -0.25077283653489851 0 0.17460767031345339 -0.23957306685901031 0 0.15806663601872559 -0.22804372033431239 0 0.16620895813804101 -0.25077283653489851 0 0.15806663601872559 -0.22804372033431239 0 0.15069042738418159 -0.24552194781281819 0 0.15069042738418159 -0.24552194781281819 0 0.1333527236608836 -0.22398955919553701 0 0.15806663601872559 -0.22804372033431239 0 0.1333527236608836 -0.22398955919553701 0 0.1447035171519345 -0.2075335848500309 0 0.15806663601872559 -0.22804372033431239 0 0.15069042738418159 -0.24552194781281819 0 0.1333527236608836 -0.22398955919553701 0 0.15069042738418159 -0.24552194781281819 0 0.1333527236608836 -0.22398955919553701 0 0.13169437747279461 -0.24895566974178149 0 0.11647539816854049 -0.2375752570050442 0 0.1333527236608836 -0.22398955919553701 0 0.13169437747279461 -0.24895566974178149 0 0.15933978248467379 -0.20907101659629951 0 0.15661950660616461 -0.19222807975317871 0 0.1447035171519345 -0.2075335848500309 0 0.15661950660616461 -0.19222807975317871 0 0.14432645604317279 -0.1900437005848877 0 0.1447035171519345 -0.2075335848500309 0 0.14432645604317279 -0.1900437005848877 0 0.1447035171519345 -0.2075335848500309 0 0.13481473460891319 -0.19614365051911589 0 0.15933978248467379 -0.20907101659629951 0 0.15806663601872559 -0.22804372033431239 0 0.1447035171519345 -0.2075335848500309 0 0.1160150199375856 -0.20245717057825571 0 0.1333527236608836 -0.22398955919553701 0 0.13052954160760449 -0.20498323091795109 0 0.1333527236608836 -0.22398955919553701 0 0.1447035171519345 -0.2075335848500309 0 0.13052954160760449 -0.20498323091795109 0 0.1248279552417812 -0.19218539302960611 0 0.13052954160760449 -0.20498323091795109 0 0.13481473460891319 -0.19614365051911589 0 0.1447035171519345 -0.2075335848500309 0 0.13052954160760449 -0.20498323091795109 0 0.13481473460891319 -0.19614365051911589 0 0.14432645604317279 -0.1900437005848877 0 0.13481473460891319 -0.19614365051911589 0 0.1338825338827653 -0.18692481013560969 0 0.1248279552417812 -0.19218539302960611 0 0.13481473460891319 -0.19614365051911589 0 0.1338825338827653 -0.18692481013560969 0 0.1248279552417812 -0.19218539302960611 0 0.1255457302979465 -0.17703683718140939 0 0.1338825338827653 -0.18692481013560969 0 0.1255457302979465 -0.17703683718140939 0 0.13917353918867581 -0.1790303393458558 0 0.13606697690431749 -0.16736319693549401 0 0.14432645604317279 -0.1900437005848877 0 0.13917353918867581 -0.1790303393458558 0 0.1338825338827653 -0.18692481013560969 0 0.1255457302979465 -0.17703683718140939 0 0.13917353918867581 -0.1790303393458558 0 0.1338825338827653 -0.18692481013560969 0 0.15661950660616461 -0.19222807975317871 0 0.1491863106157427 -0.17647500240583369 0 0.16057774198355779 -0.17737952033021401 0 0.14432645604317279 -0.1900437005848877 0 0.13917353918867581 -0.1790303393458558 0 0.1491863106157427 -0.17647500240583369 0 0.15661950660616461 -0.19222807975317871 0 0.14432645604317279 -0.1900437005848877 0 0.1491863106157427 -0.17647500240583369 0 0.13917353918867581 -0.1790303393458558 0 0.1491863106157427 -0.17647500240583369 0 0.13606697690431749 -0.16736319693549401 0 0.1491863106157427 -0.17647500240583369 0 0.14965056144430769 -0.16454744546742589 0 0.16057774198355779 -0.17737952033021401 0 0.1491863106157427 -0.17647500240583369 0 0.14965056144430769 -0.16454744546742589 0 0.13606697690431749 -0.16736319693549401 0 0.12256768775730539 -0.16382821368001771 0 0.13606697690431749 -0.16736319693549401 0 0.13426824135791879 -0.14813495864147011 0 0.14965056144430769 -0.16454744546742589 0 0.13606697690431749 -0.16736319693549401 0 0.13426824135791879 -0.14813495864147011 0 0.12256768775730539 -0.16382821368001771 0 0.1255457302979465 -0.17703683718140939 0 0.13606697690431749 -0.16736319693549401 0 0.13426824135791879 -0.14813495864147011 0 0.13794871501213499 -0.13819539413862381 0 0.14707291668758821 -0.1412434272338739 0 0.12513924371982549 -0.1141436641928875 0 0.13794871501213499 -0.13819539413862381 0 0.1225311439884845 -0.13214601855067781 0 0.13426824135791879 -0.14813495864147011 0 0.13794871501213499 -0.13819539413862381 0 0.12513924371982549 -0.1141436641928875 0 0.13794871501213499 -0.13819539413862381 0 0.14011550844689119 -0.12587103757281989 0 0.1225311439884845 -0.13214601855067781 0 0.12513924371982549 -0.1141436641928875 0 0.13794871501213499 -0.13819539413862381 0 0.14011550844689119 -0.12587103757281989 0 0.14876126745946139 -0.1332827337243368 0 0.14858783586014571 -0.12521207105814261 0 0.13794871501213499 -0.13819539413862381 0 0.14011550844689119 -0.12587103757281989 0 0.14876126745946139 -0.1332827337243368 0 0.13794871501213499 -0.13819539413862381 0 0.14876126745946139 -0.1332827337243368 0 0.14707291668758821 -0.1412434272338739 0 0.14876126745946139 -0.1332827337243368 0 0.15691217743375421 -0.12987284732188509 0 0.1582354820133792 -0.138390129210433 0 0.14876126745946139 -0.1332827337243368 0 0.14707291668758821 -0.1412434272338739 0 0.1582354820133792 -0.138390129210433 0 0.1576028583098005 -0.12203921462205811 0 0.14858783586014571 -0.12521207105814261 0 0.15691217743375421 -0.12987284732188509 0 0.14876126745946139 -0.1332827337243368 0 0.14858783586014571 -0.12521207105814261 0 0.15691217743375421 -0.12987284732188509 0 0.13426824135791879 -0.14813495864147011 0 0.14707291668758821 -0.1412434272338739 0 0.1578437235768681 -0.15481144790987561 0 0.13426824135791879 -0.14813495864147011 0 0.1578437235768681 -0.15481144790987561 0 0.14965056144430769 -0.16454744546742589 0 0.13426824135791879 -0.14813495864147011 0 0.1578437235768681 -0.15481144790987561 0 0.14707291668758821 -0.1412434272338739 0 0.16475945698004321 -0.14947850356912809 0 0.1578437235768681 -0.15481144790987561 0 0.16475945698004321 -0.14947850356912809 0 0.18141920579581891 -0.1614879371782755 0 0.14707291668758821 -0.1412434272338739 0 0.1578437235768681 -0.15481144790987561 0 0.16475945698004321 -0.14947850356912809 0 0.14707291668758821 -0.1412434272338739 0 0.16475945698004321 -0.14947850356912809 0 0.1582354820133792 -0.138390129210433 0 0.16789863678764641 -0.14136029132621 0 0.16475945698004321 -0.14947850356912809 0 0.1582354820133792 -0.138390129210433 0 0.16789863678764641 -0.14136029132621 0 0.16475945698004321 -0.14947850356912809 0 0.17545547786493801 -0.14669516955680639 0 0.15691217743375421 -0.12987284732188509 0 0.16661349041326709 -0.1345427544607736 0 0.1646258107112438 -0.12665523550063709 0 0.1576028583098005 -0.12203921462205811 0 0.15691217743375421 -0.12987284732188509 0 0.1646258107112438 -0.12665523550063709 0 0.15691217743375421 -0.12987284732188509 0 0.1582354820133792 -0.138390129210433 0 0.16661349041326709 -0.1345427544607736 0 0.16789863678764641 -0.14136029132621 0 0.16661349041326709 -0.1345427544607736 0 0.17442927666660471 -0.13769489983390881 0 0.16789863678764641 -0.14136029132621 0 0.1582354820133792 -0.138390129210433 0 0.16661349041326709 -0.1345427544607736 0 0.16661349041326709 -0.1345427544607736 0 0.17373485304912711 -0.12718481872430401 0 0.17442927666660471 -0.13769489983390881 0 0.16661349041326709 -0.1345427544607736 0 0.1646258107112438 -0.12665523550063709 0 0.17373485304912711 -0.12718481872430401 0 0.1800279990686256 -0.11802229308207619 0 0.18840975365690499 -0.13579155600713619 0 0.17373485304912711 -0.12718481872430401 0 0.18840975365690499 -0.13579155600713619 0 0.17373485304912711 -0.12718481872430401 0 0.17442927666660471 -0.13769489983390881 0 0.18840975365690499 -0.13579155600713619 0 0.17442927666660471 -0.13769489983390881 0 0.17545547786493801 -0.14669516955680639 0 0.16475945698004321 -0.14947850356912809 0 0.17545547786493801 -0.14669516955680639 0 0.18244599727249641 -0.15771357990438589 0 0.18840975365690499 -0.13579155600713619 0 0.17545547786493801 -0.14669516955680639 0 0.18244599727249641 -0.15771357990438589 0 0.18840975365690499 -0.13579155600713619 0 0.18244599727249641 -0.15771357990438589 0 0.16475945698004321 -0.14947850356912809 0 0.18244599727249641 -0.15771357990438589 0 0.16789863678764641 -0.14136029132621 0 0.17442927666660471 -0.13769489983390881 0 0.17545547786493801 -0.14669516955680639 0 0.19037873462820459 -0.16402524256800161 0 0.18141920579581891 -0.1614879371782755 0 0.1806349434682753 -0.1643707875795882 0 0.16475945698004321 -0.14947850356912809 0 0.18141920579581891 -0.1614879371782755 0 0.18244599727249641 -0.15771357990438589 0 0.1578437235768681 -0.15481144790987561 0 0.18141920579581891 -0.1614879371782755 0 0.1806349434682753 -0.1643707875795882 0 0.19037873462820459 -0.16402524256800161 0 0.18141920579581891 -0.1614879371782755 0 0.19037873462820459 -0.16402524256800161 0 0.18141920579581891 -0.1614879371782755 0 0.18244599727249641 -0.15771357990438589 0 0.18141920579581891 -0.1614879371782755 0 0.1806349434682753 -0.1643707875795882 0 0.18141920579581891 -0.1614879371782755 0 0.18244599727249641 -0.15771357990438589 0 0.19037873462820459 -0.16402524256800161 0 0.1806349434682753 -0.1643707875795882 0 0.17559392852683359 -0.17217311107935809 0 0.2015372956093596 -0.17979877669129041 0 0.18073090641368339 -0.1824531884003486 0 0.17559392852683359 -0.17217311107935809 0 0.1780446226187139 -0.19418084943726921 0 0.18073090641368339 -0.1824531884003486 0 0.17103285752337771 -0.18569965159761481 0 0.18073090641368339 -0.1824531884003486 0 0.17559392852683359 -0.17217311107935809 0 0.17103285752337771 -0.18569965159761481 0 0.17559392852683359 -0.17217311107935809 0 0.17103285752337771 -0.18569965159761481 0 0.16057774198355779 -0.17737952033021401 0 0.15661950660616461 -0.19222807975317871 0 0.17103285752337771 -0.18569965159761481 0 0.16057774198355779 -0.17737952033021401 0 0.1578437235768681 -0.15481144790987561 0 0.1806349434682753 -0.1643707875795882 0 0.17559392852683359 -0.17217311107935809 0 0.14965056144430769 -0.16454744546742589 0 0.17559392852683359 -0.17217311107935809 0 0.14965056144430769 -0.16454744546742589 0 0.17559392852683359 -0.17217311107935809 0 0.16057774198355779 -0.17737952033021401 0 0.1578437235768681 -0.15481144790987561 0 0.18141920579581891 -0.1614879371782755 0 0.14965056144430769 -0.16454744546742589 0 0.1578437235768681 -0.15481144790987561 0 0.17559392852683359 -0.17217311107935809 0 
</DataArray>
</Points>
<Cells>
<DataArray type="UInt32" Name="connectivity" format="ascii">
0 1 2 3 4 5 6 7 8 9 10 11 12 13 14 15 16 17 18 19 20 21 22 23 24 25 26 27 28 29 30 31 32 33 34 35 36 37 38 39 40 41 42 43 44 45 46 47 48 49 50 51 52 53 54 55 56 57 58 59 60 61 62 63 64 65 66 67 68 69 70 71 72 73 74 75 76 77 78 79 80 81 82 83 84 85 86 87 88 89 90 91 92 93 94 95 96 97 98 99 100 101 102 103 104 105 106 107 108 109 110 111 112 113 114 115 116 117 118 119 120 121 122 123 124 125 126 127 128 129 130 131 132 133 134 135 136 137 138 139 140 141 142 143 144 145 146 147 148 149 150 151 152 153 154 155 156 157 158 159 160 161 162 163 164 165 166 167 168 169 170 171 172 173 174 175 176 177 178 179 180 181 182 183 184 185 186 187 188 189 190 191 192 193 194 195 196 197 198 199 200 201 202 203 204 205 206 207 208 209 210 211 212 213 214 215 216 217 218 219 220 221 222 223 224 225 226 227 228 229 230 231 232 233 234 235 236 237 238 239 240 241 242 243 244 245 246 247 248 249 250 251 252 253 254 255 256 257 258 259 260 261 262 263 264 265 266 267 268 269 270 271 272 273 274 275 276 277 278 279 280 281 282 283 284 285 286 287 288 289 290 291 292 293 294 295 296 297 298 299 300 301 302 303 304 305 306 307 308 309 310 311 312 313 314 315 316 317 318 319 320 321 322 323 324 325 326 327 328 329 330 331 332 333 334 335 336 337 338 339 340 341 342 343 344 345 346 347 348 349 350 351 352 353 354 355 356 357 358 359 360 361 362 363 364 365 366 367 368 369 370 371 372 373 374 375 376 377 378 379 380 381 382 383 384 385 386 387 388 389 390 391 392 393 394 395 396 397 398 399 400 401 402 403 404 405 406 407 408 409 410 411 412 413 414 415 416 417 418 419 420 421 422 423 424 425 426 427 428 429 430 431 432 433 434 435 436 437 438 439 440 441 442 443 444 445 446 447 448 449 450 451 452 453 454 455 456 457 458 459 460 461 462 463 464 465 466 467 468 469 470 471 472 473 474 475 476 477 478 479 480 481 482 483 484 485 486 487 488 489 490 491 492 493 494 495 496 497 498 499 500 501 502 503 504 505 506 507 508 509 510 511 512 513 514 515 516 517 518 519 520 521 522 523 524 525 526 527 528 529 530 531 532 533 534 535 536 537 538 539 540 541 542 543 544 545 546 547 548 549 550 551 552 553 554 555 556 557 558 559 560 561 562 563 564 565 566 567 568 569 570 571 572 573 574 575 576 577 578 579 580 581 582 583 584 585 586 587 588 589 590 591 592 593 594 595 596 597 598 599 600 601 602 603 604 605 606 607 608 609 610 611 612 613 614 615 616 617 618 619 620 621 622 623 624 625 626 627 628 629 630 631 632 633 634 635 636 637 638 639 640 641 642 643 644 645 646 647 648 649 650 651 652 653 654 655 656 657 658 659 660 661 662 663 664 665 666 667 668 669 670 671 672 673 674 675 676 677 678 679 680 681 682 683 684 685 686 687 688 689 690 691 692 693 694 695 696 697 698 699 700 701 702 703 704 705 706 707 708 709 710 711 712 713 714 715 716 717 718 719 720 721 722 723 724 725 726 727 728 729 730 731 732 733 734 735 736 737 738 739 740 741 742 743 744 745 746 747 748 749 750 751 752 753 754 755 756 757 758 759 760 761 762 763 764 765 766 767 768 769 770 771 772 773 774 775 776 777 778 779 780 781 782 783 784 785 786 787 788 789 790 791 792 793 794 795 796 797 798 799 800 801 802 803 804 805 806 807 808 809 810 811 812 813 814 815 816 817 818 819 820 821 822 823 824 825 826 827 828 829 830 831 832 833 834 835 836 837 838 839 840 841 842 843 844 845 846 847 848 849 850 851 852 853 854 855 856 857 858 859 860 861 862 863 864 865 866 867 868 869 870 871 872 873 874 875 876 877 878 879 880 881 882 883 884 885 886 887 888 889 890 891 892 893 894 895 896 897 898 899 900 901 902 903 904 905 906 907 908 909 910 911 912 913 914 915 916 917 918 919 920 921 922 923 924 925 926 927 928 929 930 931 932 933 934 935 936 937 938 939 940 941 942 943 944 945 946 947 948 949 950 951 952 953 954 955 956 957 958 959 960 961 962 963 964 965 966 967 968 969 970 971 972 973 974 975 976 977 978 979 980 981 982 983 984 985 986 987 988 989 990 991 992 993 994 995 996 997 998 999 1000 1001 1002 1003 1004 1005 1006 1007 1008 1009 1010 1011 1012 1013 1014 1015 1016 1017 1018 1019 1020 1021 1022 1023 1024 1025 1026 1027 1028 1029 1030 1031 1032 1033 1034 1035 1036 1037 1038 1039 1040 1041 1042 1043 1044 1045 1046 1047 1048 1049 1050 1051 1052 1053 1054 1055 1056 1057 1058 1059 1060 1061 1062 1063 1064 1065 1066 1067 1068 1069 1070 1071 1072 1073 1074 1075 1076 1077 1078 1079 1080 1081 1082 1083 1084 1085 1086 1087 1088 1089 1090 1091 1092 1093 1094 1095 1096 1097 1098 1099 1100 1101 1102 1103 1104 1105 1106 1107 1108 1109 1110 1111 1112 1113 1114 1115 1116 1117 1118 1119 1120 1121 1122 1123 1124 1125 1126 1127 1128 1129 1130 1131 1132 1133 1134 1135 1136 1137 1138 1139 1140 1141 1142 1143 1144 1145 1146 1147 1148 1149 1150 1151 1152 1153 1154 1155 1156 1157 1158 1159 1160 1161 1162 1163 1164 1165 1166 1167 1168 1169 1170 1171 1172 1173 1174 1175 1176 1177 1178 1179 1180 1181 1182 1183 1184 1185 1186 1187 1188 1189 1190 1191 1192 1193 1194 1195 1196 1197 1198 1199 1200 1201 1202 1203 1204 1205 1206 1207 1208 1209 1210 1211 1212 1213 1214 1215 1216 1217 1218 1219 1220 1221 1222 1223 1224 1225 1226 1227 1228 1229 1230 1231 1232 1233 1234 1235 1236 1237 1238 1239 1240 1241 1242 1243 1244 1245 1246 1247 1248 1249 1250 1251 1252 1253 1254 1255 1256 1257 1258 1259 1260 1261 1262 1263 1264 1265 1266 1267 1268 1269 1270 1271 1272 1273 1274 1275 1276 1277 1278 1279 1280 1281 1282 1283 1284 1285 1286 1287 1288 1289 1290 1291 1292 1293 1294 1295 1296 1297 1298 1299 1300 1301 1302 1303 1304 1305 1306 1307 1308 1309 1310 1311 1312 1313 1314 1315 1316 1317 1318 1319 1320 1321 1322 1323 1324 1325 1326 1327 1328 1329 1330 1331 1332 1333 1334 1335 1336 1337 1338 1339 1340 1341 1342 1343 1344 1345 1346 1347 1348 1349 1350 1351 1352 1353 1354 1355 1356 1357 1358 1359 1360 1361 1362 1363 1364 1365 1366 1367 1368 1369 1370 1371 1372 1373 1374 1375 1376 1377 1378 1379 1380 1381 1382 1383 1384 1385 1386 1387 1388 1389 1390 1391 1392 1393 1394 1395 1396 1397 1398 1399 1400 1401 1402 1403 1404 1405 1406 1407 1408 1409 1410 1411 1412 1413 1414 1415 1416 1417 1418 1419 1420 1421 1422 1423 1424 1425 1426 1427 1428 1429 1430 1431 1432 1433 1434 1435 1436 1437 1438 1439 1440 1441 1442 1443 1444 1445 1446 1447 1448 1449 1450 1451 1452 1453 1454 1455 1456 1457 1458 1459 1460 1461 1462 1463 1464 1465 1466 1467 1468 1469 1470 1471 1472 1473 1474 1475 1476 1477 1478 1479 1480 1481 1482 1483 1484 1485 1486 1487 1488 1489 1490 1491 1492 1493 1494 1495 1496 1497 1498 1499 1500 1501 1502 1503 1504 1505 1506 1507 1508 1509 1510 1511 1512 1513 1514 1515 1516 1517 1518 1519 1520 1521 1522 1523 1524 1525 1526 1527 1528 1529 1530 1531 1532 1533 1534 1535 1536 1537 1538 1539 1540 1541 1542 1543 1544 1545 1546 1547 1548 1549 1550 1551 1552 1553 1554 1555 1556 1557 1558 1559 1560 1561 1562 1563 1564 1565 1566 1567 1568 1569 1570 1571 1572 1573 1574 1575 1576 1577 1578 1579 1580 1581 1582 1583 1584 1585 1586 1587 1588 1589 1590 1591 1592 1593 1594 1595 1596 1597 1598 1599 1600 1601 1602 1603 1604 1605 1606 1607 1608 1609 1610 1611 1612 1613 1614 1615 1616 1617 1618 1619 1620 1621 1622 1623 1624 1625 1626 1627 1628 1629 1630 1631 1632 1633 1634 1635 1636 1637 1638 1639 1640 1641 1642 1643 1644 1645 1646 1647 1648 1649 1650 1651 1652 1653 1654 1655 1656 1657 1658 1659 1660 1661 1662 1663 1664 1665 1666 1667 1668 1669 1670 1671 1672 1673 1674 1675 1676 1677 1678 1679 1680 1681 1682 1683 1684 1685 1686 1687 1688 1689 1690 1691 1692 1693 1694 1695 1696 1697 1698 1699 1700 1701 1702 1703 1704 1705 1706 1707 1708 1709 1710 1711 1712 1713 1714 1715 1716 1717 1718 1719 1720 1721 1722 1723 1724 1725 1726 1727 1728 1729 1730 1731 1732 1733 1734 1735 1736 1737 1738 1739 1740 1741 1742 1743 1744 1745 1746 1747 1748 1749 1750 1751 1752 1753 1754 1755 1756 1757 1758 1759 1760 1761 1762 1763 1764 1765 1766 1767 1768 1769 1770 1771 1772 1773 1774 1775 1776 1777 1778 1779 1780 1781 1782 1783 1784 1785 1786 1787 1788 1789 1790 1791 1792 1793 1794 1795 1796 1797 1798 1799 1800 1801 1802 1803 1804 1805 1806 1807 1808 1809 1810 1811 1812 1813 1814 1815 1816 1817 1818 1819 1820 1821 1822 1823 1824 1825 1826 1827 1828 1829 1830 1831 1832 1833 1834 1835 1836 1837 1838 1839 1840 1841 1842 1843 1844 1845 1846 1847 1848 1849 1850 1851 1852 1853 1854 1855 1856 1857 1858 1859 1860 1861 1862 1863 1864 1865 1866 1867 1868 1869 1870 1871 1872 1873 1874 1875 1876 1877 1878 1879 1880 1881 1882 1883 1884 1885 1886 1887 1888 1889 1890 1891 1892 1893 1894 1895 1896 1897 1898 1899 1900 1901 1902 1903 1904 1905 1906 1907 1908 1909 1910 1911 1912 1913 1914 1915 1916 1917 1918 1919 1920 1921 1922 1923 1924 1925 1926 1927 1928 1929 1930 1931 1932 1933 1934 1935 1936 1937 1938 1939 1940 1941 1942 1943 1944 1945 1946 1947 1948 1949 1950 1951 1952 1953 1954 1955 1956 1957 1958 1959 1960 1961 1962 1963 1964 1965 1966 1967 1968 1969 1970 1971 1972 1973 1974 1975 1976 1977 1978 1979 1980 1981 1982 1983 1984 1985 1986 1987 1988 1989 1990 1991 1992 1993 1994 1995 1996 1997 1998 1999 2000 2001 2002 2003 2004 2005 2006 2007 2008 2009 2010 2011 2012 2013 2014 2015 2016 2017 2018 2019 2020 2021 2022 2023 2024 2025 2026 2027 2028 2029 2030 2031 2032 2033 2034 2035 2036 2037 2038 2039 2040 2041 2042 2043 2044 2045 2046 2047 2048 2049 2050 2051 2052 2053 2054 2055 2056 2057 2058 2059 2060 2061 2062 2063 2064 2065 2066 2067 2068 2069 2070 2071 2072 2073 2074 2075 2076 2077 2078 2079 2080 2081 2082 2083 2084 2085 2086 2087 2088 2089 2090 2091 2092 2093 2094 2095 2096 2097 2098 2099 2100 2101 2102 2103 2104 2105 2106 2107 2108 2109 2110 2111 2112 2113 2114 2115 2116 2117 2118 2119 2120 2121 2122 2123 2124 2125 2126 2127 2128 2129 2130 2131 2132 2133 2134 2135 2136 2137 2138 2139 2140 2141 2142 2143 2144 2145 2146 2147 2148 2149 2150 2151 2152 2153 2154 2155 2156 2157 2158 2159 2160 2161 2162 2163 2164 2165 2166 2167 2168 2169 2170 2171 2172 2173 2174 2175 2176 2177 2178 2179 2180 2181 2182 2183 2184 2185 2186 2187 2188 2189 2190 2191 2192 2193 2194 2195 2196 2197 2198 2199 2200 2201 2202 2203 2204 2205 2206 2207 2208 2209 2210 2211 2212 2213 2214 2215 2216 2217 2218 2219 2220 2221 2222 2223 2224 2225 2226 2227 2228 2229 2230 2231 2232 2233 2234 2235 2236 2237 2238 2239 2240 2241 2242 2243 2244 2245 2246 2247 2248 2249 2250 2251 2252 2253 2254 2255 2256 2257 2258 2259 2260 2261 2262 2263 2264 2265 2266 2267 2268 2269 2270 2271 2272 2273 2274 2275 2276 2277 2278 2279 2280 2281 2282 2283 2284 2285 2286 2287 2288 2289 2290 2291 2292 2293 2294 2295 2296 2297 2298 2299 2300 2301 2302 2303 2304 2305 2306 2307 2308 2309 2310 2311 2312 2313 2314 2315 2316 2317 2318 2319 2320 2321 2322 2323 2324 2325 2326 2327 2328 2329 2330 2331 2332 2333 2334 2335 2336 2337 2338 2339 2340 2341 2342 2343 2344 2345 2346 2347 2348 2349 2350 2351 2352 2353 2354 2355 2356 2357 2358 2359 2360 2361 2362 2363 2364 2365 2366 2367 2368 2369 2370 2371 2372 2373 2374 2375 2376 2377 2378 2379 2380 2381 2382 2383 2384 2385 2386 2387 2388 2389 2390 2391 2392 2393 2394 2395 2396 2397 2398 2399 2400 2401 2402 2403 2404 2405 2406 2407 2408 2409 2410 2411 2412 2413 2414 2415 2416 2417 2418 2419 2420 2421 2422 2423 2424 2425 2426 2427 2428 2429 2430 2431 2432 2433 2434 2435 2436 2437 2438 2439 2440 2441 2442 2443 2444 2445 2446 2447 2448 2449 2450 2451 2452 2453 2454 2455 2456 2457 2458 2459 2460 2461 2462 2463 2464 2465 2466 2467 2468 2469 2470 2471 2472 2473 2474 2475 2476 2477 2478 2479 2480 2481 2482 2483 2484 2485 2486 2487 2488 2489 2490 2491 2492 2493 2494 2495 2496 2497 2498 2499 2500 2501 2502 2503 2504 2505 2506 2507 2508 2509 2510 2511 2512 2513 2514 2515 2516 2517 2518 2519 2520 2521 2522 2523 2524 2525 2526 2527 2528 2529 2530 2531 2532 2533 2534 2535 2536 2537 2538 2539 2540 2541 2542 2543 2544 2545 2546 2547 2548 2549 2550 2551 2552 2553 2554 2555 2556 2557 2558 2559 2560 2561 2562 2563 2564 2565 2566 2567 2568 2569 2570 2571 2572 2573 2574 2575 2576 2577 2578 2579 2580 2581 2582 2583 2584 2585 2586 2587 2588 2589 2590 2591 2592 2593 2594 2595 2596 2597 2598 2599 2600 2601 2602 2603 2604 2605 2606 2607 2608 2609 2610 2611 2612 2613 2614 2615 2616 2617 2618 2619 2620 2621 2622 2623 2624 2625 2626 2627 2628 2629 2630 2631 2632 2633 2634 2635 2636 2637 2638 2639 2640 2641 2642 2643 2644 2645 2646 2647 2648 2649 2650 2651 2652 2653 2654 2655 2656 2657 2658 2659 2660 2661 2662 2663 2664 2665 2666 2667 2668 2669 2670 2671 2672 2673 2674 2675 2676 2677 2678 2679 2680 2681 2682 2683 2684 2685 2686 2687 2688 2689 2690 2691 2692 2693 2694 2695 2696 2697 2698 2699 2700 2701 2702 2703 2704 2705 2706 2707 2708 2709 2710 2711 2712 2713 2714 2715 2716 2717 2718 2719 2720 2721 2722 2723 2724 2725 2726 2727 2728 2729 2730 2731 2732 2733 2734 2735 2736 2737 2738 2739 2740 2741 2742 2743 2744 2745 2746 2747 2748 2749 2750 2751 2752 2753 2754 2755 2756 2757 2758 2759 2760 2761 2762 2763 2764 2765 2766 2767 2768 2769 2770 2771 2772 2773 2774 2775 2776 2777 2778 2779 2780 2781 2782 2783 2784 2785 2786 2787 2788 2789 2790 2791 2792 2793 2794 2795 2796 2797 2798 2799 2800 2801 2802 2803 2804 2805 2806 2807 2808 2809 2810 2811 2812 2813 2814 2815 2816 2817 2818 2819 2820 2821 2822 2823 2824 2825 2826 2827 2828 2829 2830 2831 2832 2833 2834 2835 2836 2837 2838 2839 2840 2841 2842 2843 2844 2845 2846 2847 2848 2849 2850 2851 2852 2853 2854 2855 2856 2857 2858 2859 2860 2861 2862 2863 2864 2865 2866 2867 2868 2869 2870 2871 2872 2873 2874 2875 2876 2877 2878 2879 2880 2881 2882 2883 2884 2885 2886 2887 2888 2889 2890 2891 2892 2893 2894 2895 2896 2897 2898 2899 2900 2901 2902 2903 2904 2905 2906 2907 2908 2909 2910 2911 2912 2913 2914 2915 2916 2917 2918 2919 2920 2921 2922 2923 2924 2925 2926 2927 2928 2929 2930 2931 2932 2933 2934 2935 2936 2937 2938 2939 2940 2941 2942 2943 2944 2945 2946 2947 2948 2949 2950 2951 2952 2953 2954 2955 2956 2957 2958 2959 2960 2961 2962 2963 2964 2965 2966 2967 2968 2969 2970 2971 2972 2973 2974 2975 2976 2977 2978 2979 2980 2981 2982 2983 2984 2985 2986 2987 2988 2989 2990 2991 2992 2993 2994 2995 2996 2997 2998 2999 3000 3001 3002 3003 3004 3005 3006 3007 3008 3009 3010 3011 3012 3013 3014 3015 3016 3017 3018 3019 3020 3021 3022 3023 3024 3025 3026 3027 3028 3029 3030 3031 3032 3033 3034 3035 3036 3037 3038 3039 3040 3041 3042 3043 3044 3045 3046 3047 3048 3049 3050 3051 3052 3053 3054 3055 3056 3057 3058 3059 3060 3061 3062 3063 3064 3065 3066 3067 3068 3069 3070 3071 3072 3073 3074 3075 3076 3077 3078 3079 3080 3081 3082 3083 3084 3085 3086 3087 3088 3089 3090 3091 3092 3093 3094 3095 3096 3097 3098 3099 3100 3101 3102 3103 3104 3105 3106 3107 3108 3109 3110 3111 3112 3113 3114 3115 3116 3117 3118 3119 3120 3121 3122 3123 3124 3125 3126 3127 3128 3129 3130 3131 3132 3133 3134 3135 3136 3137 3138 3139 3140 3141 3142 3143 3144 3145 3146 3147 3148 3149 3150 3151 3152 3153 3154 3155 3156 3157 3158 3159 3160 3161 3162 3163 3164 3165 3166 3167 3168 3169 3170 3171 3172 3173 3174 3175 3176 3177 3178 3179 3180 3181 3182 3183 3184 3185 3186 3187 3188 3189 3190 3191 3192 3193 3194 3195 3196 3197 3198 3199 3200 3201 3202 3203 3204 3205 3206 3207 3208 3209 3210 3211 3212 3213 3214 3215 3216 3217 3218 3219 3220 3221 3222 3223 3224 3225 3226 3227 3228 3229 3230 3231 3232 3233 3234 3235 3236 3237 3238 3239 3240 3241 3242 3243 3244 3245 3246 3247 3248 3249 3250 3251 3252 3253 3254 3255 3256 3257 3258 3259 3260 3261 3262 3263 3264 3265 3266 3267 3268 3269 3270 3271 3272 3273 3274 3275 3276 3277 3278 3279 3280 3281 3282 3283 3284 3285 3286 3287 3288 3289 3290 3291 3292 3293 3294 3295 3296 3297 3298 3299 3300 3301 3302 3303 3304 3305 3306 3307 3308 3309 3310 3311 3312 3313 3314 3315 3316 3317 3318 3319 3320 3321 3322 3323 3324 3325 3326 3327 3328 3329 3330 3331 3332 3333 3334 3335 3336 3337 3338 3339 3340 3341 3342 3343 3344 3345 3346 3347 3348 3349 3350 3351 3352 3353 3354 3355 3356 3357 3358 3359 3360 3361 3362 3363 3364 3365 3366 3367 3368 3369 3370 3371 3372 3373 3374 3375 3376 3377 3378 3379 3380 3381 3382 3383 3384 3385 3386 3387 3388 3389 3390 3391 3392 3393 3394 3395 3396 3397 3398 3399 3400 3401 3402 3403 3404 3405 3406 3407 3408 3409 3410 3411 3412 3413 3414 3415 3416 3417 3418 3419 3420 3421 3422 3423 3424 3425 3426 3427 3428 3429 3430 3431 3432 3433 3434 3435 3436 3437 3438 3439 3440 3441 3442 3443 3444 3445 3446 3447 3448 3449 3450 3451 3452 3453 3454 3455 3456 3457 3458 3459 3460 3461 3462 3463 3464 3465 3466 3467 3468 3469 3470 3471 3472 3473 3474 3475 3476 3477 3478 3479 3480 3481 3482 3483 3484 3485 3486 3487 3488 3489 3490 3491 3492 3493 3494 3495 3496 3497 3498 3499 3500 3501 3502 3503 3504 3505 3506 3507 3508 3509 3510 3511 3512 3513 3514 3515 3516 3517 3518 3519 3520 3521 3522 3523 3524 3525 3526 3527 3528 3529 3530 3531 3532 3533 3534 3535 3536 3537 3538 3539 3540 3541 3542 3543 3544 3545 3546 3547 3548 3549 3550 3551 3552 3553 3554 3555 3556 3557 3558 3559 3560 3561 3562 3563 3564 3565 3566 3567 3568 3569 3570 3571 3572 3573 3574 3575 3576 3577 3578 3579 3580 3581 3582 3583 3584 3585 3586 3587 3588 3589 3590 3591 3592 3593 3594 3595 3596 3597 3598 3599 3600 3601 3602 3603 3604 3605 3606 3607 3608 3609 3610 3611 3612 3613 3614 3615 3616 3617 3618 3619 3620 3621 3622 3623 3624 3625 3626 3627 3628 3629 3630 3631 3632 3633 3634 3635 3636 3637 3638 3639 3640 3641 3642 3643 3644 3645 3646 3647 3648 3649 3650 3651 3652 3653 3654 3655 3656 3657 3658 3659 3660 3661 3662 3663 3664 3665 3666 3667 3668 3669 3670 3671 3672 3673 3674 3675 3676 3677 3678 3679 3680 3681 3682 3683 3684 3685 3686 3687 3688 3689 3690 3691 3692 3693 3694 3695 3696 3697 3698 3699 3700 3701 3702 3703 3704 3705 3706 3707 3708 3709 3710 3711 3712 3713 3714 3715 3716 3717 3718 3719 3720 3721 3722 3723 3724 3725 3726 3727 3728 3729 3730 3731 3732 3733 3734 3735 3736 3737 3738 3739 3740 3741 3742 3743 3744 3745 3746 3747 3748 3749 3750 3751 3752 3753 3754 3755 3756 3757 3758 3759 3760 3761 3762 3763 3764 3765 3766 3767 3768 3769 3770 3771 3772 3773 3774 3775 3776 3777 3778 3779 3780 3781 3782 3783 3784 3785 3786 3787 3788 3789 3790 3791 3792 3793 3794 3795 3796 3797 3798 3799 3800 3801 3802 3803 3804 3805 3806 3807 3808 3809 3810 3811 3812 3813 3814 3815 3816 3817 3818 3819 3820 3821 3822 3823 3824 3825 3826 3827 3828 3829 3830 3831 3832 3833 3834 3835 3836 3837 3838 3839 3840 3841 3842 3843 3844 3845 3846 3847 3848 3849 3850 3851 3852 3853 3854 3855 3856 3857 3858 3859 3860 3861 3862 3863 3864 3865 3866 3867 3868 3869 3870 3871 3872 3873 3874 3875 3876 3877 3878 3879 3880 3881 3882 3883 3884 3885 3886 3887 3888 3889 3890 3891 3892 3893 3894 3895 3896 3897 3898 3899 3900 3901 3902 3903 3904 3905 3906 3907 3908 3909 3910 3911 3912 3913 3914 3915 3916 3917 3918 3919 3920 3921 3922 3923 3924 3925 3926 3927 3928 3929 3930 3931 3932 3933 3934 3935 3936 3937 3938 3939 3940 3941 3942 3943 3944 3945 3946 3947 3948 3949 3950 3951 3952 3953 3954 3955 3956 3957 3958 3959 3960 3961 3962 3963 3964 3965 3966 3967 3968 3969 3970 3971 3972 3973 3974 3975 3976 3977 3978 3979 3980 3981 3982 3983 3984 3985 3986 3987 3988 3989 3990 3991 3992 3993 3994 3995 3996 3997 3998 3999 4000 4001 4002 4003 4004 4005 4006 4007 4008 4009 4010 4011 4012 4013 4014 4015 4016 4017 4018 4019 4020 4021 4022 4023 4024 4025 4026 4027 4028 4029 4030 4031 4032 4033 4034 4035 4036 4037 4038 4039 4040 4041 4042 4043 4044 4045 4046 4047 4048 4049 4050 4051 4052 4053 4054 4055 4056 4057 4058 4059 4060 4061 4062 4063 4064 4065 4066 4067 4068 4069 4070 4071 4072 4073 4074 4075 4076 4077 4078 4079 4080 4081 4082 4083 4084 4085 4086 4087 4088 4089 4090 4091 4092 4093 4094 4095 4096 4097 4098 4099 4100 4101 4102 4103 4104 4105 4106 4107 4108 4109 4110 4111 4112 4113 4114 4115 4116 4117 4118 4119 4120 4121 4122 4123 4124 4125 4126 4127 4128 4129 4130 4131 4132 4133 4134 4135 4136 4137 4138 4139 4140 4141 4142 4143 4144 4145 4146 4147 4148 4149 4150 4151 4152 4153 4154 4155 4156 4157 4158 4159 4160 4161 4162 4163 4164 4165 4166 4167 4168 4169 4170 4171 4172 4173 4174 4175 4176 4177 4178 4179 4180 4181 4182 4183 4184 4185 4186 4187 4188 4189 4190 4191 4192 4193 4194 4195 4196 4197 4198 4199 4200 4201 4202 4203 4204 4205 4206 4207 4208 4209 4210 4211 4212 4213 4214 4215 4216 4217 4218 4219 4220 4221 4222 4223 4224 4225 4226 4227 4228 4229 4230 4231 4232 4233 4234 4235 4236 4237 4238 4239 4240 4241 4242 4243 4244 4245 4246 4247 4248 4249 4250 4251 4252 4253 4254 4255 4256 4257 4258 4259 4260 4261 4262 4263 4264 4265 4266 4267 4268 4269 4270 4271 4272 4273 4274 4275 4276 4277 4278 4279 4280 4281 4282 4283 4284 4285 4286 4287 4288 4289 4290 4291 4292 4293 4294 4295 4296 4297 4298 4299 4300 4301 4302 4303 4304 4305 4306 4307 4308 4309 4310 4311 4312 4313 4314 4315 4316 4317 4318 4319 4320 4321 4322 4323 4324 4325 4326 4327 4328 4329 4330 4331 4332 4333 4334 4335 4336 4337 4338 4339 4340 4341 4342 4343 4344 4345 4346 4347 4348 4349 4350 4351 4352 4353 4354 4355 4356 4357 4358 4359 4360 4361 4362 4363 4364 4365 4366 4367 4368 4369 4370 4371 4372 4373 4374 4375 4376 4377 4378 4379 4380 4381 4382 4383 4384 4385 4386 4387 4388 4389 4390 4391 4392 4393 4394 4395 4396 4397 4398 4399 4400 4401 4402 4403 4404 4405 4406 4407 4408 4409 4410 4411 4412 4413 4414 4415 4416 4417 4418 4419 4420 4421 4422 4423 4424 4425 4426 4427 4428 4429 4430 4431 4432 4433 4434 4435 4436 4437 4438 4439 4440 4441 4442 4443 4444 4445 4446 4447 4448 4449 4450 4451 4452 4453 4454 4455 4456 4457 4458 4459 4460 4461 4462 4463 4464 4465 4466 4467 4468 4469 4470 4471 4472 4473 4474 4475 4476 4477 4478 4479 4480 4481 4482 4483 4484 4485 4486 4487 4488 4489 4490 4491 4492 4493 4494 4495 4496 4497 4498 4499 4500 4501 4502 4503 4504 4505 4506 4507 4508 4509 4510 4511 4512 4513 4514 4515 4516 4517 4518 4519 4520 4521 4522 4523 4524 4525 4526 4527 4528 4529 4530 4531 4532 4533 4534 4535 4536 4537 4538 4539 4540 4541 4542 4543 4544 4545 4546 4547 4548 4549 4550 4551 4552 4553 4554 4555 4556 4557 4558 4559 4560 4561 4562 4563 4564 4565 4566 4567 4568 4569 4570 4571 4572 4573 4574 4575 4576 4577 4578 4579 4580 4581 4582 4583 4584 4585 4586 4587 4588 4589 4590 4591 4592 4593 4594 4595 4596 4597 4598 4599 4600 4601 4602 4603 4604 4605 4606 4607 4608 4609 4610 4611 4612 4613 4614 4615 4616 4617 4618 4619 4620 4621 4622 4623 4624 4625 4626 4627 4628 4629 4630 4631 4632 4633 4634 4635 4636 4637 4638 4639 4640 4641 4642 4643 4644 4645 4646 4647 4648 4649 4650 4651 4652 4653 4654 4655 4656 4657 4658 4659 4660 4661 4662 4663 4664 4665 4666 4667 4668 4669 4670 4671 4672 4673 4674 4675 4676 4677 4678 4679 4680 4681 4682 4683 4684 4685 4686 4687 4688 4689 4690 4691 4692 4693 4694 4695 4696 4697 4698 4699 4700 4701 4702 4703 4704 4705 4706 4707 4708 4709 4710 4711 4712 4713 4714 4715 4716 4717 4718 4719 4720 4721 4722 4723 4724 4725 4726 4727 4728 4729 4730 4731 4732 4733 4734 4735 4736 4737 4738 4739 4740 4741 4742 4743 4744 4745 4746 4747 4748 4749 4750 4751 4752 4753 4754 4755 4756 4757 4758 4759 4760 4761 4762 4763 4764 4765 4766 4767 4768 4769 4770 4771 4772 4773 4774 4775 4776 4777 4778 4779 4780 4781 4782 4783 4784 4785 4786 4787 4788 4789 4790 4791 4792 4793 4794 4795 4796 4797 4798 4799 4800 4801 4802 4803 4804 4805 4806 4807 4808 4809 4810 4811 4812 4813 4814 4815 4816 4817 4818 4819 4820 4821 4822 4823 4824 4825 4826 4827 4828 4829 4830 4831 4832 4833 4834 4835 4836 4837 4838 4839 4840 4841 4842 4843 4844 4845 4846 4847 4848 4849 4850 4851 4852 4853 4854 4855 4856 4857 4858 4859 4860 4861 4862 4863 4864 4865 4866 4867 4868 4869 4870 4871 4872 4873 4874 4875 4876 4877 4878 4879 4880 4881 4882 4883 4884 4885 4886 4887 4888 4889 4890 4891 4892 4893 4894 4895 4896 4897 4898 4899 4900 4901 4902 4903 4904 4905 4906 4907 4908 4909 4910 4911 4912 4913 4914 4915 4916 4917 4918 4919 4920 4921 4922 4923 4924 4925 4926 4927 4928 4929 4930 4931 4932 4933 4934 4935 4936 4937 4938 4939 4940 4941 4942 4943 4944 4945 4946 4947 4948 4949 4950 4951 4952 4953 4954 4955 4956 4957 4958 4959 4960 4961 4962 4963 4964 4965 4966 4967 4968 4969 4970 4971 4972 4973 4974 4975 4976 4977 4978 4979 4980 4981 4982 4983 4984 4985 4986 4987 4988 4989 4990 4991 4992 4993 4994 4995 4996 4997 4998 4999 5000 5001 5002 5003 5004 5005 5006 5007 5008 5009 5010 5011 5012 5013 5014 5015 5016 5017 5018 5019 5020 5021 5022 5023 5024 5025 5026 5027 5028 5029 5030 5031 5032 5033 5034 5035 5036 5037 5038 5039 5040 5041 5042 5043 5044 5045 5046 5047 5048 5049 5050 5051 5052 5053 5054 5055 5056 5057 5058 5059 5060 5061 5062 5063 5064 5065 5066 5067 5068 5069 5070 5071 5072 5073 5074 5075 5076 5077 5078 5079 5080 5081 5082 5083 5084 5085 5086 5087 5088 5089 5090 5091 5092 5093 5094 5095 5096 5097 5098 5099 5100 5101 5102 5103 5104 5105 5106 5107 5108 5109 5110 5111 5112 5113 5114 5115 5116 5117 5118 5119 5120 5121 5122 5123 5124 5125 5126 5127 5128 5129 5130 5131 5132 5133 5134 5135 5136 5137 5138 5139 5140 5141 5142 5143 5144 5145 5146 5147 5148 5149 5150 5151 5152 5153 5154 5155 5156 5157 5158 5159 5160 5161 5162 5163 5164 5165 5166 5167 5168 5169 5170 5171 5172 5173 5174 5175 5176 5177 5178 5179 5180 5181 5182 5183 5184 5185 5186 5187 5188 5189 5190 5191 5192 5193 5194 5195 5196 5197 5198 5199 5200 5201 5202 5203 5204 5205 5206 5207 5208 5209 5210 5211 5212 5213 5214 5215 5216 5217 5218 5219 5220 5221 5222 5223 5224 5225 5226 5227 5228 5229 5230 5231 5232 5233 5234 5235 5236 5237 5238 5239 5240 5241 5242 5243 5244 5245 5246 5247 5248 5249 5250 5251 5252 5253 5254 5255 5256 5257 5258 5259 5260 5261 5262 5263 5264 5265 5266 5267 5268 5269 5270 5271 5272 5273 5274 5275 5276 5277 5278 5279 5280 5281 5282 5283 5284 5285 5286 5287 5288 5289 5290 5291 5292 5293 5294 5295 5296 5297 5298 5299 5300 5301 5302 5303 5304 5305 5306 5307 5308 5309 5310 5311 5312 5313 5314 5315 5316 5317 5318 5319 5320 5321 5322 5323 5324 5325 5326 5327 5328 5329 5330 5331 5332 5333 5334 5335 5336 5337 5338 5339 5340 5341 5342 5343 5344 5345 5346 5347 5348 5349 5350 5351 5352 5353 5354 5355 5356 5357 5358 5359 5360 5361 5362 5363 5364 5365 5366 5367 5368 5369 5370 5371 5372 5373 5374 5375 5376 5377 5378 5379 5380 5381 5382 5383 5384 5385 5386 5387 5388 5389 5390 5391 5392 5393 5394 5395 5396 5397 5398 5399 5400 5401 5402 5403 5404 5405 5406 5407 5408 5409 5410 5411 5412 5413 5414 5415 5416 5417 5418 5419 5420 5421 5422 5423 5424 5425 5426 5427 5428 5429 5430 5431 5432 5433 5434 5435 5436 5437 5438 5439 5440 5441 5442 5443 5444 5445 5446 5447 5448 5449 5450 5451 5452 5453 5454 5455 5456 5457 5458 5459 5460 5461 5462 5463 5464 5465 5466 5467 5468 5469 5470 5471 5472 5473 5474 5475 5476 5477 5478 5479 5480 5481 5482 5483 5484 5485 5486 5487 5488 5489 5490 5491 5492 5493 5494 5495 5496 5497 5498 5499 5500 5501 5502 5503 5504 5505 5506 5507 5508 5509 5510 5511 5512 5513 5514 5515 5516 5517 5518 5519 5520 5521 5522 5523 5524 5525 5526 5527 5528 5529 5530 5531 5532 5533 5534 5535 5536 5537 5538 5539 5540 5541 5542 5543 5544 5545 5546 5547 5548 5549 5550 5551 5552 5553 5554 5555 5556 5557 5558 5559 5560 5561 5562 5563 5564 5565 5566 5567 5568 5569 5570 5571 5572 5573 5574 5575 5576 5577 5578 5579 5580 5581 5582 5583 5584 5585 5586 5587 5588 5589 5590 5591 5592 5593 5594 5595 5596 5597 5598 5599 5600 5601 5602 5603 5604 5605 5606 5607 5608 5609 5610 5611 5612 5613 5614 5615 5616 5617 5618 5619 5620 5621 5622 5623 5624 5625 5626 5627 5628 5629 5630 5631 5632 5633 5634 5635 5636 5637 5638 5639 5640 5641 5642 5643 5644 5645 5646 5647 5648 5649 5650 5651 5652 5653 5654 5655 5656 5657 5658 5659 5660 5661 5662 5663 5664 5665 5666 5667 5668 5669 5670 5671 5672 5673 5674 5675 5676 5677 5678 5679 5680 5681 5682 5683 5684 5685 5686 5687 5688 5689 5690 5691 5692 5693 5694 5695 5696 5697 5698 5699 5700 5701 5702 5703 5704 5705 5706 5707 5708 5709 5710 5711 5712 5713 5714 5715 5716 5717 5718 5719 5720 5721 5722 5723 5724 5725 5726 5727 5728 5729 5730 5731 5732 5733 5734 5735 5736 5737 5738 5739 5740 5741 5742 5743 5744 5745 5746 5747 5748 5749 5750 5751 5752 5753 5754 5755 5756 5757 5758 5759 5760 5761 5762 5763 5764 5765 5766 5767 5768 5769 5770 5771 5772 5773 5774 5775 5776 5777 5778 5779 5780 5781 5782 5783 5784 5785 5786 5787 5788 5789 5790 5791 5792 5793 5794 5795 5796 5797 5798 5799 5800 5801 5802 5803 5804 5805 5806 5807 5808 5809 5810 5811 5812 5813 5814 5815 5816 5817 5818 5819 5820 5821 5822 5823 5824 5825 5826 5827 5828 5829 5830 5831 5832 5833 5834 5835 5836 5837 5838 5839 5840 5841 5842 5843 5844 5845 5846 5847 5848 5849 5850 5851 5852 5853 5854 5855 5856 5857 5858 5859 5860 5861 5862 5863 5864 5865 5866 5867 5868 5869 5870 5871 5872 5873 5874 5875 5876 5877 5878 5879 5880 5881 5882 5883 5884 5885 5886 5887 5888 5889 5890 5891 5892 5893 5894 5895 5896 5897 5898 5899 5900 5901 5902 5903 5904 5905 5906 5907 5908 5909 5910 5911 5912 5913 5914 5915 5916 5917 5918 5919 5920 5921 5922 5923 5924 5925 5926 5927 5928 5929 5930 5931 5932 5933 5934 5935 5936 5937 5938 5939 5940 5941 5942 5943 5944 5945 5946 5947 5948 5949 5950 5951 5952 5953 5954 5955 5956 5957 5958 5959 5960 5961 5962 5963 5964 5965 5966 5967 5968 5969 5970 5971 5972 5973 5974 5975 5976 5977 5978 5979 5980 5981 5982 5983 5984 5985 5986 5987 5988 5989 5990 5991 5992 5993 5994 5995 5996 5997 5998 5999 6000 6001 6002 6003 6004 6005 6006 6007 6008 6009 6010 6011 6012 6013 6014 6015 6016 6017 6018 6019 6020 6021 6022 6023 6024 6025 6026 6027 6028 6029 6030 6031 6032 6033 6034 6035 6036 6037 6038 6039 6040 6041 6042 6043 6044 6045 6046 6047 6048 6049 6050 6051 6052 6053 6054 6055 6056 6057 6058 6059 6060 6061 6062 6063 6064 6065 6066 6067 6068 6069 6070 6071 6072 6073 6074 6075 6076 6077 6078 6079 6080 6081 6082 6083 6084 6085 6086 6087 6088 6089 6090 6091 6092 6093 6094 6095 6096 6097 6098 6099 6100 6101 6102 6103 6104 6105 6106 6107 6108 6109 6110 6111 6112 6113 6114 6115 6116 6117 6118 6119 6120 6121 6122 6123 6124 6125 6126 6127 6128 6129 6130 6131 6132 6133 6134 6135 6136 6137 6138 6139 6140 6141 6142 6143 6144 6145 6146 6147 6148 6149 6150 6151 6152 6153 6154 6155 6156 6157 6158 6159 6160 6161 6162 6163 6164 6165 6166 6167 6168 6169 6170 6171 6172 6173 6174 6175 6176 6177 6178 6179 6180 6181 6182 6183 6184 6185 6186 6187 6188 6189 6190 6191 6192 6193 6194 6195 6196 6197 6198 6199 6200 6201 6202 6203 6204 6205 6206 6207 6208 6209 6210 6211 6212 6213 6214 6215 6216 6217 6218 6219 6220 6221 6222 6223 6224 6225 6226 6227 6228 6229 6230 6231 6232 6233 6234 6235 6236 6237 6238 6239 6240 6241 6242 6243 6244 6245 6246 6247 6248 6249 6250 6251 6252 6253 6254 6255 6256 6257 6258 6259 6260 6261 6262 6263 6264 6265 6266 6267 6268 6269 6270 6271 6272 6273 6274 6275 6276 6277 6278 6279 6280 6281 6282 6283 6284 6285 6286 6287 6288 6289 6290 6291 6292 6293 6294 6295 6296 6297 6298 6299 6300 6301 6302 6303 6304 6305 6306 6307 6308 6309 6310 6311 6312 6313 6314 6315 6316 6317 6318 6319 6320 6321 6322 6323 6324 6325 6326 6327 6328 6329 6330 6331 6332 6333 6334 6335 6336 6337 6338 6339 6340 6341 6342 6343 6344 6345 6346 6347 6348 6349 6350 6351 6352 6353 6354 6355 6356 6357 6358 6359 6360 6361 6362 6363 6364 6365 6366 6367 6368 6369 6370 6371 6372 6373 6374 6375 6376 6377 6378 6379 6380 6381 6382 6383 6384 6385 6386 6387 6388 6389 6390 6391 6392 6393 6394 6395 6396 6397 6398 6399 6400 6401 6402 6403 6404 6405 6406 6407 6408 6409 6410 6411 6412 6413 6414 6415 6416 6417 6418 6419 6420 6421 6422 6423 6424 6425 6426 6427 6428 6429 6430 6431 6432 6433 6434 6435 6436 6437 6438 6439 6440 6441 6442 6443 6444 6445 6446 6447 6448 6449 6450 6451 6452 6453 6454 6455 6456 6457 6458 6459 6460 6461 6462 6463 6464 6465 6466 6467 6468 6469 6470 6471 6472 6473 6474 6475 6476 6477 6478 6479 6480 6481 6482 6483 6484 6485 6486 6487 6488 6489 6490 6491 6492 6493 6494 6495 6496 6497 6498 6499 6500 6501 6502 6503 6504 6505 6506 6507 6508 6509 6510 6511 6512 6513 6514 6515 6516 6517 6518 6519 6520 6521 6522 6523 6524 6525 6526 6527 6528 6529 6530 6531 6532 6533 6534 6535 6536 6537 6538 6539 6540 6541 6542 6543 6544 6545 6546 6547 6548 6549 6550 6551 6552 6553 6554 6555 6556 6557 6558 6559 6560 6561 6562 6563 6564 6565 6566 6567 6568 6569 6570 6571 6572 6573 6574 6575 6576 6577 6578 6579 6580 6581 6582 6583 6584 6585 6586 6587 6588 6589 6590 6591 6592 6593 6594 6595 6596 6597 6598 6599 6600 6601 6602 6603 6604 6605 6606 6607 6608 6609 6610 6611 6612 6613 6614 6615 6616 6617 6618 6619 6620 6621 6622 6623 6624 6625 6626 6627 6628 6629 6630 6631 6632 6633 6634 6635 6636 6637 6638 6639 6640 6641 6642 6643 6644 6645 6646 6647 6648 6649 6650 6651 6652 6653 6654 6655 6656 6657 6658 6659 6660 6661 6662 6663 6664 6665 6666 6667 6668 6669 6670 6671 6672 6673 6674 6675 6676 6677 6678 6679 6680 6681 6682 6683 6684 6685 6686 6687 6688 6689 6690 6691 6692 6693 6694 6695 6696 6697 6698 6699 6700 6701 6702 6703 6704 6705 6706 6707 6708 6709 6710 6711 6712 6713 6714 6715 6716 6717 6718 6719 6720 6721 6722 6723 6724 6725 6726 6727 6728 6729 6730 6731 6732 6733 6734 6735 6736 6737 6738 6739 6740 6741 6742 6743 6744 6745 6746 6747 6748 6749 6750 6751 6752 6753 6754 6755 6756 6757 6758 6759 6760 6761 6762 6763 6764 6765 6766 6767 6768 6769 6770 6771 6772 6773 6774 6775 6776 6777 6778 6779 6780 6781 6782 6783 6784 6785 6786 6787 6788 6789 6790 6791 6792 6793 6794 6795 6796 6797 6798 6799 6800 6801 6802 6803 6804 6805 6806 6807 6808 6809 6810 6811 6812 6813 6814 6815 6816 6817 6818 6819 6820 6821 6822 6823 6824 6825 6826 6827 6828 6829 6830 6831 6832 6833 6834 6835 6836 6837 6838 6839 6840 6841 6842 6843 6844 6845 6846 6847 6848 6849 6850 6851 6852 6853 6854 6855 6856 6857 6858 6859 6860 6861 6862 6863 6864 6865 6866 6867 6868 6869 6870 6871 6872 6873 6874 6875 6876 6877 6878 6879 6880 6881 6882 6883 6884 6885 6886 6887 6888 6889 6890 6891 6892 6893 6894 6895 6896 6897 6898 6899 6900 6901 6902 6903 6904 6905 6906 6907 6908 6909 6910 6911 6912 6913 6914 6915 6916 6917 6918 6919 6920 6921 6922 6923 6924 6925 6926 6927 6928 6929 6930 6931 6932 6933 6934 6935 6936 6937 6938 6939 6940 6941 6942 6943 6944 6945 6946 6947 6948 6949 6950 6951 6952 6953 6954 6955 6956 6957 6958 6959 6960 6961 6962 6963 6964 6965 6966 6967 6968 6969 6970 6971 6972 6973 6974 6975 6976 6977 6978 6979 6980 6981 6982 6983 6984 6985 6986 6987 6988 6989 6990 6991 6992 6993 6994 6995 6996 6997 6998 6999 7000 7001 7002 7003 7004 7005 7006 7007 7008 7009 7010 7011 7012 7013 7014 7015 7016 7017 7018 7019 7020 7021 7022 7023 7024 7025 7026 7027 7028 7029 7030 7031 7032 7033 7034 7035 7036 7037 7038 7039 7040 7041 7042 7043 7044 7045 7046 7047 7048 7049 7050 7051 7052 7053 7054 7055 7056 7057 7058 7059 7060 7061 7062 7063 7064 7065 7066 7067 7068 7069 7070 7071 7072 7073 7074 7075 7076 7077 7078 7079 7080 7081 7082 7083 7084 7085 7086 7087 7088 7089 7090 7091 7092 7093 7094 7095 7096 7097 7098 7099 7100 7101 7102 7103 7104 7105 7106 7107 7108 7109 7110 7111 7112 7113 7114 7115 7116 7117 7118 7119 7120 7121 7122 7123 7124 7125 7126 7127 7128 7129 7130 7131 7132 7133 7134 7135 7136 7137 7138 7139 7140 7141 7142 7143 7144 7145 7146 7147 7148 7149 7150 7151 7152 7153 7154 7155 7156 7157 7158 7159 7160 7161 7162 7163 7164 7165 7166 7167 7168 7169 7170 7171 7172 7173 7174 7175 7176 7177 7178 7179 7180 7181 7182 7183 7184 7185 7186 7187 7188 7189 7190 7191 7192 7193 7194 7195 7196 7197 7198 7199 7200 7201 7202 7203 7204 7205 7206 7207 7208 7209 7210 7211 7212 7213 7214 7215 7216 7217 7218 7219 7220 7221 7222 7223 7224 7225 7226 7227 7228 7229 7230 7231 7232 7233 7234 7235 7236 7237 7238 7239 7240 7241 7242 7243 7244 7245 7246 7247 7248 7249 7250 7251 7252 7253 7254 7255 7256 7257 7258 7259 7260 7261 7262 7263 7264 7265 7266 7267 7268 7269 7270 7271 7272 7273 7274 7275 7276 7277 7278 7279 7280 7281 7282 7283 7284 7285 7286 7287 7288 7289 7290 7291 7292 7293 7294 7295 7296 7297 7298 7299 7300 7301 7302 7303 7304 7305 7306 7307 7308 7309 7310 7311 7312 7313 7314 7315 7316 7317 7318 7319 7320 7321 7322 7323 7324 7325 7326 7327 7328 7329 7330 7331 7332 7333 7334 7335 7336 7337 7338 7339 7340 7341 7342 7343 7344 7345 7346 7347 7348 7349 7350 7351 7352 7353 7354 7355 7356 7357 7358 7359 7360 7361 7362 7363 7364 7365 7366 7367 7368 7369 7370 7371 7372 7373 7374 7375 7376 7377 7378 7379 7380 7381 7382 7383 7384 7385 7386 7387 7388 7389 7390 7391 7392 7393 7394 7395 7396 7397 7398 7399 7400 7401 7402 7403 7404 7405 7406 7407 7408 7409 7410 7411 7412 7413 7414 7415 7416 7417 7418 7419 7420 7421 7422 7423 7424 7425 7426 7427 7428 7429 7430 7431 7432 7433 7434 7435 7436 7437 7438 7439 7440 7441 7442 7443 7444 7445 7446 7447 7448 7449 7450 7451 7452 7453 7454 7455 7456 7457 7458 7459 7460 7461 7462 7463 7464 7465 7466 7467 7468 7469 7470 7471 7472 7473 7474 7475 7476 7477 7478 7479 7480 7481 7482 7483 7484 7485 7486 7487 7488 7489 7490 7491 7492 7493 7494 7495 7496 7497 7498 7499 7500 7501 7502 7503 7504 7505 7506 7507 7508 7509 7510 7511 7512 7513 7514 7515 7516 7517 7518 7519 7520 7521 7522 7523 7524 7525 7526 7527 7528 7529 7530 7531 7532 7533 7534 7535 7536 7537 7538 7539 7540 7541 7542 7543 7544 7545 7546 7547 7548 7549 7550 7551 7552 7553 7554 7555 7556 7557 7558 7559 7560 7561 7562 7563 7564 7565 7566 7567 7568 7569 7570 7571 7572 7573 7574 7575 7576 7577 7578 7579 7580 7581 7582 7583 7584 7585 7586 7587 7588 7589 7590 7591 7592 7593 7594 7595 7596 7597 7598 7599 7600 7601 7602 7603 7604 7605 7606 7607 7608 7609 7610 7611 7612 7613 7614 7615 7616 7617 7618 7619 7620 7621 7622 7623 7624 7625 7626 7627 7628 7629 7630 7631 7632 7633 7634 7635 7636 7637 7638 7639 7640 7641 7642 7643 7644 7645 7646 7647 7648 7649 7650 7651 7652 7653 7654 7655 7656 7657 7658 7659 7660 7661 7662 7663 7664 7665 7666 7667 7668 7669 7670 7671 7672 7673 7674 7675 7676 7677 7678 7679 7680 7681 7682 7683 7684 7685 7686 7687 7688 7689 7690 7691 7692 7693 7694 7695 7696 7697 7698 7699 7700 7701 7702 7703 7704 7705 7706 7707 7708 7709 7710 7711 7712 7713 7714 7715 7716 7717 7718 7719 7720 7721 7722 7723 7724 7725 7726 7727 7728 7729 7730 7731 7732 7733 7734 7735 7736 7737 7738 7739 7740 7741 7742 7743 7744 7745 7746 7747 7748 7749 7750 7751 7752 7753 7754 7755 7756 7757 7758 7759 7760 7761 7762 7763 7764 7765 7766 7767 7768 7769 7770 7771 7772 7773 7774 7775 7776 7777 7778 7779 7780 7781 7782 7783 7784 7785 7786 7787 7788 7789 7790 7791 7792 7793 7794 7795 7796 7797 7798 7799 7800 7801 7802 7803 7804 7805 7806 7807 7808 7809 7810 7811 7812 7813 7814 7815 7816 7817 7818 7819 7820 7821 7822 7823 7824 7825 7826 7827 7828 7829 7830 7831 7832 7833 7834 7835 7836 7837 7838 7839 7840 7841 7842 7843 7844 7845 7846 7847 7848 7849 7850 7851 7852 7853 7854 7855 7856 7857 7858 7859 7860 7861 7862 7863 7864 7865 7866 7867 7868 7869 7870 7871 7872 7873 7874 7875 7876 7877 7878 7879 7880 7881 7882 7883 7884 7885 7886 7887 7888 7889 7890 7891 7892 7893 7894 7895 7896 7897 7898 7899 7900 7901 7902 7903 7904 7905 7906 7907 7908 7909 7910 7911 7912 7913 7914 7915 7916 7917 7918 7919 7920 7921 7922 7923 7924 7925 7926 7927 7928 7929 7930 7931 7932 7933 7934 7935 7936 7937 7938 7939 7940 7941 7942 7943 7944 7945 7946 7947 7948 7949 7950 7951 7952 7953 7954 7955 7956 7957 7958 7959 7960 7961 7962 7963 7964 7965 7966 7967 7968 7969 7970 7971 7972 7973 7974 7975 7976 7977 7978 7979 7980 7981 7982 7983 7984 7985 7986 7987 7988 7989 7990 7991 7992 7993 7994 7995 7996 7997 7998 7999 8000 8001 8002 8003 8004 8005 8006 8007 8008 8009 8010 8011 8012 8013 8014 8015 8016 8017 8018 8019 8020 8021 8022 8023 8024 8025 8026 8027 8028 8029 8030 8031 8032 8033 8034 8035 8036 8037 8038 8039 8040 8041 8042 8043 8044 8045 8046 8047 8048 8049 8050 8051 8052 8053 8054 8055 8056 8057 8058 8059 8060 8061 8062 8063 8064 8065 8066 8067 8068 8069 8070 8071 8072 8073 8074 8075 8076 8077 8078 8079 8080 8081 8082 8083 8084 8085 8086 8087 8088 8089 8090 8091 8092 8093 8094 8095 8096 8097 8098 8099 8100 8101 8102 8103 8104 8105 8106 8107 8108 8109 8110 8111 8112 8113 8114 8115 8116 8117 8118 8119 8120 8121 8122 8123 8124 8125 8126 8127 8128 8129 8130 8131 8132 8133 8134 8135 8136 8137 8138 8139 8140 8141 8142 8143 8144 8145 8146 8147 8148 8149 8150 8151 8152 8153 8154 8155 8156 8157 8158 8159 8160 8161 8162 8163 8164 8165 8166 8167 8168 8169 8170 8171 8172 8173 8174 8175 8176 8177 8178 8179 8180 8181 8182 8183 8184 8185 8186 8187 8188 8189 8190 8191 8192 8193 8194 8195 8196 8197 8198 8199 8200 8201 8202 8203 8204 8205 8206 8207 8208 8209 8210 8211 8212 8213 8214 8215 8216 8217 8218 8219 8220 8221 8222 8223 8224 8225 8226 8227 8228 8229 8230 8231 8232 8233 8234 8235 8236 8237 8238 8239 8240 8241 8242 8243 8244 8245 8246 8247 8248 8249 8250 8251 8252 8253 8254 8255 8256 8257 8258 8259 8260 8261 8262 8263 8264 8265 8266 8267 8268 8269 8270 8271 8272 8273 8274 8275 8276 8277 8278 8279 8280 8281 8282 8283 8284 8285 8286 8287 8288 8289 8290 8291 8292 8293 8294 8295 8296 8297 8298 8299 8300 8301 8302 8303 8304 8305 8306 8307 8308 8309 8310 8311 8312 8313 8314 8315 8316 8317 8318 8319 8320 8321 8322 8323 8324 8325 8326 8327 8328 8329 8330 8331 8332 8333 8334 8335 8336 8337 8338 8339 8340 8341 8342 8343 8344 8345 8346 8347 8348 8349 8350 8351 8352 8353 8354 8355 8356 8357 8358 8359 8360 8361 8362 8363 8364 8365 8366 8367 8368 8369 8370 8371 8372 8373 8374 8375 8376 8377 8378 8379 8380 8381 8382 8383 8384 8385 8386 8387 8388 8389 8390 8391 8392 8393 8394 8395 8396 8397 8398 8399 8400 8401 8402 8403 8404 8405 8406 8407 8408 8409 8410 8411 8412 8413 8414 8415 8416 8417 8418 8419 8420 8421 8422 8423 8424 8425 8426 8427 8428 8429 8430 8431 8432 8433 8434 8435 8436 8437 8438 8439 8440 8441 8442 8443 8444 8445 8446 8447 8448 8449 8450 8451 8452 8453 8454 8455 8456 8457 8458 8459 8460 8461 8462 8463 8464 8465 8466 8467 8468 8469 8470 8471 8472 8473 8474 8475 8476 8477 8478 8479 8480 8481 8482 8483 8484 8485 8486 8487 8488 8489 8490 8491 8492 8493 8494 8495 8496 8497 8498 8499 8500 8501 8502 8503 8504 8505 8506 8507 8508 8509 8510 8511 8512 8513 8514 8515 8516 8517 8518 8519 8520 8521 8522 8523 8524 8525 8526 8527 8528 8529 8530 8531 8532 8533 8534 8535 8536 8537 8538 8539 8540 8541 8542 8543 8544 8545 8546 8547 8548 8549 8550 8551 8552 8553 8554 8555 8556 8557 8558 8559 8560 8561 8562 8563 8564 8565 8566 8567 8568 8569 8570 8571 8572 8573 8574 8575 8576 8577 8578 8579 8580 8581 8582 8583 8584 8585 8586 8587 8588 8589 8590 8591 8592 8593 8594 8595 8596 8597 8598 8599 8600 8601 8602 8603 8604 8605 8606 8607 8608 8609 8610 8611 8612 8613 8614 8615 8616 8617 8618 8619 8620 8621 8622 8623 8624 8625 8626 8627 8628 8629 8630 8631 8632 8633 8634 8635 8636 8637 8638 8639 8640 8641 8642 8643 8644 8645 8646 8647 8648 8649 8650 8651 8652 8653 8654 8655 8656 8657 8658 8659 8660 8661 8662 8663 8664 8665 8666 8667 8668 8669 8670 8671 8672 8673 8674 8675 8676 8677 8678 8679 8680 8681 8682 8683 8684 8685 8686 8687 8688 8689 8690 8691 8692 8693 8694 8695 8696 8697 8698 8699 8700 8701 8702 8703 8704 8705 8706 8707 8708 8709 8710 8711 8712 8713 8714 8715 8716 8717 8718 8719 8720 8721 8722 8723 8724 8725 8726 8727 8728 8729 8730 8731 8732 8733 8734 8735 8736 8737 8738 8739 8740 8741 8742 8743 8744 8745 8746 8747 8748 8749 8750 8751 8752 8753 8754 8755 8756 8757 8758 8759 8760 8761 8762 8763 8764 8765 8766 8767 8768 8769 8770 8771 8772 8773 8774 8775 8776 8777 8778 8779 8780 8781 8782 8783 8784 8785 8786 8787 8788 8789 8790 8791 8792 8793 8794 8795 8796 8797 8798 8799 8800 8801 8802 8803 8804 8805 8806 8807 8808 8809 8810 8811 8812 8813 8814 8815 8816 8817 8818 8819 8820 8821 8822 8823 8824 8825 8826 8827 8828 8829 8830 8831 8832 8833 8834 8835 8836 8837 8838 8839 8840 8841 8842 8843 8844 8845 8846 8847 8848 8849 8850 8851 8852 8853 8854 8855 8856 8857 8858 8859 8860 8861 8862 8863 8864 8865 8866 8867 8868 8869 8870 8871 8872 8873 8874 8875 8876 8877 8878 8879 8880 8881 8882 8883 8884 8885 8886 8887 8888 8889 8890 8891 8892 8893 8894 8895 8896 8897 8898 8899 8900 8901 8902 8903 8904 8905 8906 8907 8908 8909 8910 8911 8912 8913 8914 8915 8916 8917 8918 8919 8920 8921 8922 8923 8924 8925 8926 8927 8928 8929 8930 8931 8932 8933 8934 8935 8936 8937 8938 8939 8940 8941 8942 8943 8944 8945 8946 8947 8948 8949 8950 8951 8952 8953 8954 8955 8956 8957 8958 8959 8960 8961 8962 8963 8964 8965 8966 8967 8968 8969 8970 8971 8972 8973 8974 8975 8976 8977 8978 8979 8980 8981 8982 8983 8984 8985 8986 8987 8988 8989 8990 8991 8992 8993 8994 8995 8996 8997 8998 8999 9000 9001 9002 9003 9004 9005 9006 9007 9008 9009 9010 9011 9012 9013 9014 9015 9016 9017 9018 9019 9020 9021 9022 9023 9024 9025 9026 9027 9028 9029 9030 9031 9032 9033 9034 9035 9036 9037 9038 9039 9040 9041 9042 9043 9044 9045 9046 9047 9048 9049 9050 9051 9052 9053 9054 9055 9056 9057 9058 9059 9060 9061 9062 9063 9064 9065 9066 9067 9068 9069 9070 9071 9072 9073 9074 9075 9076 9077 9078 9079 9080 9081 9082 9083 9084 9085 9086 9087 9088 9089 9090 9091 9092 9093 9094 9095 9096 9097 9098 9099 9100 9101 9102 9103 9104 9105 9106 9107 9108 9109 9110 9111 9112 9113 9114 9115 9116 9117 9118 9119 9120 9121 9122 9123 9124 9125 9126 9127 9128 9129 9130 9131 9132 9133 9134 9135 9136 9137 9138 9139 9140 9141 9142 9143 9144 9145 9146 9147 9148 9149 9150 9151 9152 9153 9154 9155 9156 9157 9158 9159 9160 9161 9162 9163 9164 9165 9166 9167 9168 9169 9170 9171 9172 9173 9174 9175 9176 9177 9178 9179 9180 9181 9182 9183 9184 9185 9186 9187 9188 9189 9190 9191 9192 9193 9194 9195 9196 9197 9198 9199 9200 9201 9202 9203 9204 9205 9206 9207 9208 9209 9210 9211 9212 9213 9214 9215 9216 9217 9218 9219 9220 9221 9222 9223 9224 9225 9226 9227 9228 9229 9230 9231 9232 9233 9234 9235 9236 9237 9238 9239 9240 9241 9242 9243 9244 9245 9246 9247 9248 9249 9250 9251 9252 9253 9254 9255 9256 9257 9258 9259 9260 9261 9262 9263 9264 9265 9266 9267 9268 9269 9270 9271 9272 9273 9274 9275 9276 9277 9278 9279 9280 9281 9282 9283 9284 9285 9286 9287 9288 9289 9290 9291 9292 9293 9294 9295 9296 9297 9298 9299 9300 9301 9302 9303 9304 9305 9306 9307 9308 9309 9310 9311 9312 9313 9314 9315 9316 9317 9318 9319 9320 9321 9322 9323 9324 9325 9326 9327 9328 9329 9330 9331 9332 9333 9334 9335 9336 9337 9338 9339 9340 9341 9342 9343 9344 9345 9346 9347 9348 9349 9350 9351 9352 9353 9354 9355 9356 9357 9358 9359 9360 9361 9362 9363 9364 9365 9366 9367 9368 9369 9370 9371 9372 9373 9374 9375 9376 9377 9378 9379 9380 9381 9382 9383 9384 9385 9386 9387 9388 9389 9390 9391 9392 9393 9394 9395 9396 9397 9398 9399 9400 9401 9402 9403 9404 9405 9406 9407 9408 9409 9410 9411 9412 9413 9414 9415 9416 9417 9418 9419 9420 9421 9422 9423 9424 9425 9426 9427 9428 9429 9430 9431 9432 9433 9434 9435 9436 9437 9438 9439 9440 9441 9442 9443 9444 9445 9446 9447 9448 9449 9450 9451 9452 9453 9454 9455 9456 9457 9458 9459 9460 9461 9462 9463 9464 9465 9466 9467 9468 9469 9470 9471 9472 9473 9474 9475 9476 9477 9478 9479 9480 9481 9482 9483 9484 9485 9486 9487 9488 9489 9490 9491 9492 9493 9494 9495 9496 9497 9498 9499 9500 9501 9502 9503 9504 9505 9506 9507 9508 9509 9510 9511 9512 9513 9514 9515 9516 9517 9518 9519 9520 9521 9522 9523 9524 9525 9526 9527 9528 9529 9530 9531 9532 9533 9534 9535 9536 9537 9538 9539 9540 9541 9542 9543 9544 9545 9546 9547 9548 9549 9550 9551 9552 9553 9554 9555 9556 9557 9558 9559 9560 9561 9562 9563 9564 9565 9566 9567 9568 9569 9570 9571 9572 9573 9574 9575 9576 9577 9578 9579 9580 9581 9582 9583 9584 9585 9586 9587 9588 9589 9590 9591 9592 9593 9594 9595 9596 9597 9598 9599 9600 9601 9602 9603 9604 9605 9606 9607 9608 9609 9610 9611 9612 9613 9614 9615 9616 9617 9618 9619 9620 9621 9622 9623 9624 9625 9626 9627 9628 9629 9630 9631 9632 9633 9634 9635 9636 9637 9638 9639 9640 9641 9642 9643 9644 9645 9646 9647 9648 9649 9650 9651 9652 9653 9654 9655 9656 9657 9658 9659 9660 9661 9662 9663 9664 9665 9666 9667 9668 9669 9670 9671 9672 9673 9674 9675 9676 9677 9678 9679 9680 9681 9682 9683 9684 9685 9686 9687 9688 9689 9690 9691 9692 9693 9694 9695 9696 9697 9698 9699 9700 9701 9702 9703 9704 9705 9706 9707 9708 9709 9710 9711 9712 9713 9714 9715 9716 9717 9718 9719 9720 9721 9722 9723 9724 9725 9726 9727 9728 9729 9730 9731 9732 9733 9734 9735 9736 9737 9738 9739 9740 9741 9742 9743 9744 9745 9746 9747 9748 9749 9750 9751 9752 9753 9754 9755 9756 9757 9758 9759 9760 9761 9762 9763 9764 9765 9766 9767 9768 9769 9770 9771 9772 9773 9774 9775 9776 9777 9778 9779 9780 9781 9782 9783 9784 9785 9786 9787 9788 9789 9790 9791 9792 9793 9794 9795 9796 9797 9798 9799 9800 9801 9802 9803 9804 9805 9806 9807 9808 9809 9810 9811 9812 9813 9814 9815 9816 9817 9818 9819 9820 9821 9822 9823 9824 9825 9826 9827 9828 9829 9830 9831 9832 9833 9834 9835 9836 9837 9838 9839 9840 9841 9842 9843 9844 9845 9846 9847 9848 9849 9850 9851 9852 9853 9854 9855 9856 9857 9858 9859 9860 9861 9862 9863 9864 9865 9866 9867 9868 9869 9870 9871 9872 9873 9874 9875 9876 9877 9878 9879 9880 9881 9882 9883 9884 9885 9886 9887 9888 9889 9890 9891 9892 9893 9894 9895 9896 9897 9898 9899 9900 9901 9902 9903 9904 9905 9906 9907 9908 9909 9910 9911 9912 9913 9914 9915 9916 9917 9918 9919 9920 9921 9922 9923 9924 9925 9926 9927 9928 9929 9930 9931 9932 9933 9934 9935 9936 9937 9938 9939 9940 9941 9942 9943 9944 9945 9946 9947 9948 9949 9950 9951 9952 9953 9954 9955 9956 9957 9958 9959 9960 9961 9962 9963 9964 9965 9966 9967 9968 9969 9970 9971 9972 9973 9974 9975 9976 9977 9978 9979 9980 9981 9982 9983 9984 9985 9986 9987 9988 9989 9990 9991 9992 9993 9994 9995 9996 9997 9998 9999 10000 10001 10002 10003 10004 10005 10006 10007 10008 10009 10010 10011 10012 10013 10014 10015 10016 10017 10018 10019 10020 10021 10022 10023 10024 10025 10026 10027 10028 10029 10030 10031 10032 10033 10034 10035 10036 10037 10038 10039 10040 10041 10042 10043 10044 10045 10046 10047 10048 10049 10050 10051 10052 10053 10054 10055 10056 10057 10058 10059 10060 10061 10062 10063 10064 10065 10066 10067 10068 10069 10070 10071 10072 10073 10074 10075 10076 10077 10078 10079 10080 10081 10082 10083 10084 10085 10086 10087 10088 10089 10090 10091 10092 10093 10094 10095 10096 10097 10098 10099 10100 10101 10102 10103 10104 10105 10106 10107 10108 10109 10110 10111 10112 10113 10114 10115 10116 10117 10118 10119 10120 10121 10122 10123 10124 10125 10126 10127 10128 10129 10130 10131 10132 10133 10134 10135 10136 10137 10138 10139 10140 10141 10142 10143 10144 10145 10146 10147 10148 10149 10150 10151 10152 10153 10154 10155 10156 10157 10158 10159 10160 10161 10162 10163 10164 10165 10166 10167 10168 10169 10170 10171 10172 10173 10174 10175 10176 10177 10178 10179 10180 10181 10182 10183 10184 10185 10186 10187 10188 10189 10190 10191 10192 10193 10194 10195 10196 10197 10198 10199 10200 10201 10202 10203 10204 10205 10206 10207 10208 10209 10210 10211 10212 10213 10214 10215 10216 10217 10218 10219 10220 10221 10222 10223 10224 10225 10226 10227 10228 10229 10230 10231 10232 10233 10234 10235 10236 10237 10238 10239 10240 10241 10242 10243 10244 10245 10246 10247 10248 10249 10250 10251 10252 10253 10254 10255 10256 10257 10258 10259 10260 10261 10262 10263 10264 10265 10266 10267 10268 10269 10270 10271 10272 10273 10274 10275 10276 10277 10278 10279 10280 10281 10282 10283 10284 10285 10286 10287 10288 10289 10290 10291 10292 10293 10294 10295 10296 10297 10298 10299 10300 10301 10302 10303 10304 10305 10306 10307 10308 10309 10310 10311 10312 10313 10314 10315 10316 10317 10318 10319 10320 10321 10322 10323 10324 10325 10326 10327 10328 10329 10330 10331 10332 10333 10334 10335 10336 10337 10338 10339 10340 10341 10342 10343 10344 10345 10346 10347 10348 10349 10350 10351 10352 10353 10354 10355 10356 10357 10358 10359 10360 10361 10362 10363 10364 10365 10366 10367 10368 10369 10370 10371 10372 10373 10374 10375 10376 10377 10378 10379 10380 10381 10382 10383 10384 10385 10386 10387 10388 10389 10390 10391 10392 10393 10394 10395 10396 10397 10398 10399 10400 10401 10402 10403 10404 10405 10406 10407 10408 10409 10410 10411 10412 10413 10414 10415 10416 10417 10418 10419 10420 10421 10422 10423 10424 10425 10426 10427 10428 10429 10430 10431 10432 10433 10434 10435 10436 10437 10438 10439 10440 10441 10442 10443 10444 10445 10446 10447 10448 10449 10450 10451 10452 10453 10454 10455 10456 10457 10458 10459 10460 10461 10462 10463 10464 10465 10466 10467 10468 10469 10470 10471 10472 10473 10474 10475 10476 10477 10478 10479 10480 10481 10482 10483 10484 10485 10486 10487 10488 10489 10490 10491 10492 10493 10494 10495 10496 10497 10498 10499 10500 10501 10502 10503 10504 10505 10506 10507 10508 10509 10510 10511 10512 10513 10514 10515 10516 10517 10518 10519 10520 10521 10522 10523 10524 10525 10526 10527 10528 10529 10530 10531 10532 10533 10534 10535 10536 10537 10538 10539 10540 10541 10542 10543 10544 10545 10546 10547 10548 10549 10550 10551 10552 10553 10554 10555 10556 10557 10558 10559 10560 10561 10562 10563 10564 10565 10566 10567 10568 10569 10570 10571 10572 10573 10574 10575 10576 10577 10578 10579 10580 10581 10582 10583 10584 10585 10586 10587 10588 10589 10590 10591 10592 10593 10594 10595 10596 10597 10598 10599 10600 10601 10602 10603 10604 10605 10606 10607 10608 10609 10610 10611 10612 10613 10614 10615 10616 10617 10618 10619 10620 10621 10622 10623 10624 10625 10626 10627 10628 10629 10630 10631 10632 10633 10634 10635 10636 10637 10638 10639 10640 10641 10642 10643 10644 10645 10646 10647 10648 10649 10650 10651 10652 10653 10654 10655 10656 10657 10658 10659 10660 10661 10662 10663 10664 10665 10666 10667 10668 10669 10670 10671 10672 10673 10674 10675 10676 10677 10678 10679 10680 10681 10682 10683 10684 10685 10686 10687 10688 10689 10690 10691 10692 10693 10694 10695 10696 10697 10698 10699 10700 10701 10702 10703 10704 10705 10706 10707 10708 10709 10710 10711 10712 10713 10714 10715 10716 10717 10718 10719 10720 10721 10722 10723 10724 10725 10726 10727 10728 10729 10730 10731 10732 10733 10734 10735 10736 10737 10738 10739 10740 10741 10742 10743 10744 10745 10746 10747 10748 10749 10750 10751 10752 10753 10754 10755 10756 10757 10758 10759 10760 10761 10762 10763 10764 10765 10766 10767 10768 10769 10770 10771 10772 10773 10774 10775 10776 10777 10778 10779 10780 10781 10782 10783 10784 10785 10786 10787 10788 10789 10790 10791 10792 10793 10794 10795 10796 10797 10798 10799 10800 10801 10802 10803 10804 10805 10806 10807 10808 10809 10810 10811 10812 10813 10814 10815 10816 10817 10818 10819 10820 10821 10822 10823 10824 10825 10826 10827 10828 10829 10830 10831 10832 10833 10834 10835 10836 10837 10838 10839 10840 10841 10842 10843 10844 10845 10846 10847 10848 10849 10850 10851 10852 10853 10854 10855 10856 10857 10858 10859 10860 10861 10862 10863 10864 10865 10866 10867 10868 10869 10870 10871 10872 10873 10874 10875 10876 10877 10878 10879 10880 10881 10882 10883 10884 10885 10886 10887 10888 10889 10890 10891 10892 10893 10894 10895 10896 10897 10898 10899 10900 10901 10902 10903 10904 10905 10906 10907 10908 10909 10910 10911 10912 10913 10914 10915 10916 10917 10918 10919 10920 10921 10922 10923 10924 10925 10926 10927 10928 10929 10930 10931 10932 10933 10934 10935 10936 10937 10938 10939 10940 10941 10942 10943 10944 10945 10946 10947 10948 10949 10950 10951 10952 10953 10954 10955 10956 10957 10958 10959 10960 10961 10962 10963 10964 10965 10966 10967 10968 10969 10970 10971 10972 10973 10974 10975 10976 10977 10978 10979 10980 10981 10982 10983 10984 10985 10986 10987 10988 10989 10990 10991 10992 10993 10994 10995 10996 10997 10998 10999 11000 11001 11002 11003 11004 11005 11006 11007 11008 11009 11010 11011 11012 11013 11014 11015 11016 11017 11018 11019 11020 11021 11022 11023 11024 11025 11026 11027 11028 11029 11030 11031 11032 11033 11034 11035 11036 11037 11038 11039 11040 11041 11042 11043 11044 11045 11046 11047 11048 11049 11050 11051 11052 11053 11054 11055 11056 11057 11058 11059 11060 11061 11062 11063 11064 11065 11066 11067 11068 11069 11070 11071 11072 11073 11074 11075 11076 11077 11078 11079 11080 11081 11082 11083 11084 11085 11086 11087 11088 11089 11090 11091 11092 11093 11094 11095 11096 11097 11098 11099 11100 11101 11102 11103 11104 11105 11106 11107 11108 11109 11110 11111 11112 11113 11114 11115 11116 11117 11118 11119 11120 11121 11122 11123 11124 11125 11126 11127 11128 11129 11130 11131 11132 11133 11134 11135 11136 11137 11138 11139 11140 11141 11142 11143 11144 11145 11146 11147 11148 11149 11150 11151 11152 11153 11154 11155 11156 11157 11158 11159 11160 11161 11162 11163 11164 11165 11166 11167 11168 11169 11170 11171 11172 11173 11174 11175 11176 11177 11178 11179 11180 11181 11182 11183 11184 11185 11186 11187 11188 11189 11190 11191 11192 11193 11194 11195 11196 11197 11198 11199 11200 11201 11202 11203 11204 11205 11206 11207 11208 11209 11210 11211 11212 11213 11214 11215 11216 11217 11218 11219 11220 11221 11222 11223 11224 11225 11226 11227 11228 11229 11230 11231 11232 11233 11234 11235 11236 11237 11238 11239 11240 11241 11242 11243 11244 11245 11246 11247 11248 11249 11250 11251 11252 11253 11254 11255 11256 11257 11258 11259 11260 11261 11262 11263 11264 11265 11266 11267 11268 11269 11270 11271 11272 11273 11274 11275 11276 11277 11278 11279 11280 11281 11282 11283 11284 11285 11286 11287 11288 11289 11290 11291 11292 11293 11294 11295 11296 11297 11298 11299 11300 11301 11302 11303 11304 11305 11306 11307 11308 11309 11310 11311 11312 11313 11314 11315 11316 11317 11318 11319 11320 11321 11322 11323 11324 11325 11326 11327 11328 11329 11330 11331 11332 11333 11334 11335 11336 11337 11338 11339 11340 11341 11342 11343 11344 11345 11346 11347 11348 11349 11350 11351 11352 11353 11354 11355 11356 11357 11358 11359 11360 11361 11362 11363 11364 11365 11366 11367 11368 11369 11370 11371 11372 11373 11374 11375 11376 11377 11378 11379 11380 11381 11382 11383 11384 11385 11386 11387 11388 11389 11390 11391 11392 11393 11394 11395 11396 11397 11398 11399 11400 11401 11402 11403 11404 11405 11406 11407 11408 11409 11410 11411 11412 11413 11414 11415 11416 11417 11418 11419 11420 11421 11422 11423 11424 11425 11426 11427 11428 11429 11430 11431 11432 11433 11434 11435 11436 11437 11438 11439 11440 11441 11442 11443 11444 11445 11446 11447 11448 11449 11450 11451 11452 11453 11454 11455 11456 11457 11458 11459 11460 11461 11462 11463 11464 11465 11466 11467 11468 11469 11470 11471 11472 11473 11474 11475 11476 11477 11478 11479 11480 11481 11482 11483 11484 11485 11486 11487 11488 11489 11490 11491 11492 11493 11494 11495 11496 11497 11498 11499 11500 11501 11502 11503 11504 11505 11506 11507 11508 11509 11510 11511 11512 11513 11514 11515 11516 11517 11518 11519 11520 11521 11522 11523 11524 11525 11526 11527 11528 11529 11530 11531 11532 11533 11534 11535 11536 11537 11538 11539 11540 11541 11542 11543 11544 11545 11546 11547 11548 11549 11550 11551 11552 11553 11554 11555 11556 11557 11558 11559 11560 11561 11562 11563 11564 11565 11566 11567 11568 11569 11570 11571 11572 11573 11574 11575 11576 11577 11578 11579 11580 11581 11582 11583 11584 11585 11586 11587 11588 11589 11590 11591 11592 11593 11594 11595 11596 11597 11598 11599 11600 11601 11602 11603 11604 11605 11606 11607 11608 11609 11610 11611 11612 11613 11614 11615 11616 11617 11618 11619 11620 11621 11622 11623 11624 11625 11626 11627 11628 11629 11630 11631 11632 11633 11634 11635 11636 11637 11638 11639 11640 11641 11642 11643 11644 11645 11646 11647 11648 11649 11650 11651 11652 11653 11654 11655 11656 11657 11658 11659 11660 11661 11662 11663 11664 11665 11666 11667 11668 11669 11670 11671 11672 11673 11674 11675 11676 11677 11678 11679 11680 11681 11682 11683 11684 11685 11686 11687 11688 11689 11690 11691 11692 11693 11694 11695 11696 11697 11698 11699 11700 11701 11702 11703 11704 11705 11706 11707 11708 11709 11710 11711 11712 11713 11714 11715 11716 11717 11718 11719 11720 11721 11722 11723 11724 11725 11726 11727 11728 11729 11730 11731 11732 11733 11734 11735 11736 11737 11738 11739 11740 11741 11742 11743 11744 11745 11746 11747 11748 11749 11750 11751 11752 11753 11754 11755 11756 11757 11758 11759 11760 11761 11762 11763 11764 11765 11766 11767 11768 11769 11770 11771 11772 11773 11774 11775 11776 11777 11778 11779 11780 11781 11782 11783 11784 11785 11786 11787 11788 11789 11790 11791 11792 11793 11794 11795 11796 11797 11798 11799 11800 11801 11802 11803 11804 11805 11806 11807 11808 11809 11810 11811 11812 11813 11814 11815 11816 11817 11818 11819 11820 11821 11822 11823 11824 11825 11826 11827 11828 11829 11830 11831 11832 11833 11834 11835 11836 11837 11838 11839 11840 11841 11842 11843 11844 11845 11846 11847 11848 11849 11850 11851 11852 11853 11854 11855 11856 11857 11858 11859 11860 11861 11862 11863 11864 11865 11866 11867 11868 11869 11870 11871 11872 11873 11874 11875 11876 11877 11878 11879 11880 11881 11882 11883 11884 11885 11886 11887 11888 11889 11890 11891 11892 11893 11894 11895 11896 11897 11898 11899 11900 11901 11902 11903 11904 11905 11906 11907 11908 11909 11910 11911 11912 11913 11914 11915 11916 11917 11918 11919 11920 11921 11922 11923 11924 11925 11926 11927 11928 11929 11930 11931 11932 11933 11934 11935 11936 11937 11938 11939 11940 11941 11942 11943 11944 11945 11946 11947 11948 11949 11950 11951 11952 11953 11954 11955 11956 11957 11958 11959 11960 11961 11962 11963 11964 11965 11966 11967 11968 11969 11970 11971 11972 11973 11974 11975 11976 11977 11978 11979 11980 11981 11982 11983 11984 11985 11986 11987 11988 11989 11990 11991 11992 11993 11994 11995 11996 11997 11998 11999 12000 12001 12002 12003 12004 12005 12006 12007 12008 12009 12010 12011 12012 12013 12014 12015 12016 12017 12018 12019 12020 12021 12022 12023 12024 12025 12026 12027 12028 12029 12030 12031 12032 12033 12034 12035 12036 12037 12038 12039 12040 12041 12042 12043 12044 12045 12046 12047 12048 12049 12050 12051 12052 12053 12054 12055 12056 12057 12058 12059 12060 12061 12062 12063 12064 12065 12066 12067 12068 12069 12070 12071 12072 12073 12074 12075 12076 12077 12078 12079 12080 12081 12082 12083 12084 12085 12086 12087 12088 12089 12090 12091 12092 12093 12094 12095 12096 12097 12098 12099 12100 12101 12102 12103 12104 12105 12106 12107 12108 12109 12110 12111 12112 12113 12114 12115 12116 12117 12118 12119 12120 12121 12122 12123 12124 12125 12126 12127 12128 12129 12130 12131 12132 12133 12134 12135 12136 12137 12138 12139 12140 12141 12142 12143 12144 12145 12146 12147 12148 12149 12150 12151 12152 12153 12154 12155 12156 12157 12158 12159 12160 12161 12162 12163 12164 12165 12166 12167 12168 12169 12170 12171 12172 12173 12174 12175 12176 12177 12178 12179 12180 12181 12182 12183 12184 12185 12186 12187 12188 12189 12190 12191 12192 12193 12194 12195 12196 12197 12198 12199 12200 12201 12202 12203 12204 12205 12206 12207 12208 12209 12210 12211 12212 12213 12214 12215 12216 12217 12218 12219 12220 12221 12222 12223 12224 12225 12226 12227 12228 12229 12230 12231 12232 12233 12234 12235 12236 12237 12238 12239 12240 12241 12242 12243 12244 12245 12246 12247 12248 12249 12250 12251 12252 12253 12254 12255 12256 12257 12258 12259 12260 12261 12262 12263 12264 12265 12266 12267 12268 12269 12270 12271 12272 12273 12274 12275 12276 12277 12278 12279 12280 12281 12282 12283 12284 12285 12286 12287 12288 12289 12290 12291 12292 12293 12294 12295 12296 12297 12298 12299 12300 12301 12302 12303 12304 12305 12306 12307 12308 12309 12310 12311 12312 12313 12314 12315 12316 12317 12318 12319 12320 12321 12322 12323 12324 12325 12326 12327 12328 12329 12330 12331 12332 12333 12334 12335 12336 12337 12338 12339 12340 12341 12342 12343 12344 12345 12346 12347 12348 12349 12350 12351 12352 12353 12354 12355 12356 12357 12358 12359 12360 12361 12362 12363 12364 12365 12366 12367 12368 12369 12370 12371 12372 12373 12374 12375 12376 12377 12378 12379 12380 12381 12382 12383 12384 12385 12386 12387 12388 12389 12390 12391 12392 12393 12394 12395 12396 12397 12398 12399 12400 12401 12402 12403 12404 12405 12406 12407 12408 12409 12410 12411 12412 12413 12414 12415 12416 12417 12418 12419 12420 12421 12422 12423 12424 12425 12426 12427 12428 12429 12430 12431 12432 12433 12434 12435 12436 12437 12438 12439 12440 12441 12442 12443 12444 12445 12446 12447 12448 12449 12450 12451 12452 12453 12454 12455 12456 12457 12458 12459 12460 12461 12462 12463 12464 12465 12466 12467 12468 12469 12470 12471 12472 12473 12474 12475 12476 12477 12478 12479 12480 12481 12482 12483 12484 12485 12486 12487 12488 12489 12490 12491 12492 12493 12494 12495 12496 12497 12498 12499 12500 12501 12502 12503 12504 12505 12506 12507 12508 12509 12510 12511 12512 12513 12514 12515 12516 12517 12518 12519 12520 12521 12522 12523 12524 12525 12526 12527 12528 12529 12530 12531 12532 12533 12534 12535 12536 12537 12538 12539 12540 12541 12542 12543 12544 12545 12546 12547 12548 12549 12550 12551 12552 12553 12554 12555 12556 12557 12558 12559 12560 12561 12562 12563 12564 12565 12566 12567 12568 12569 12570 12571 12572 12573 12574 12575 12576 12577 12578 12579 12580 12581 12582 12583 12584 12585 12586 12587 12588 12589 12590 12591 12592 12593 12594 12595 12596 12597 12598 12599 12600 12601 12602 12603 12604 12605 12606 12607 12608 12609 12610 12611 12612 12613 12614 12615 12616 12617 12618 12619 12620 12621 12622 12623 12624 12625 12626 12627 12628 12629 12630 12631 12632 12633 12634 12635 12636 12637 12638 12639 12640 12641 12642 12643 12644 12645 12646 12647 12648 12649 12650 12651 12652 12653 12654 12655 12656 12657 12658 12659 12660 12661 12662 12663 12664 12665 12666 12667 12668 12669 12670 12671 12672 12673 12674 12675 12676 12677 12678 12679 12680 12681 12682 12683 12684 12685 12686 12687 12688 12689 12690 12691 12692 12693 12694 12695 12696 12697 12698 12699 12700 12701 12702 12703 12704 12705 12706 12707 12708 12709 12710 12711 12712 12713 12714 12715 12716 12717 12718 12719 12720 12721 12722 12723 12724 12725 12726 12727 12728 12729 12730 12731 12732 12733 12734 12735 12736 12737 12738 12739 12740 12741 12742 12743 12744 12745 12746 12747 12748 12749 12750 12751 12752 12753 12754 12755 12756 12757 12758 12759 12760 12761 12762 12763 12764 12765 12766 12767 12768 12769 12770 12771 12772 12773 12774 12775 12776 12777 12778 12779 12780 12781 12782 12783 12784 12785 12786 12787 12788 12789 12790 12791 12792 12793 12794 12795 12796 12797 12798 12799 12800 12801 12802 12803 12804 12805 12806 12807 12808 12809 12810 12811 12812 12813 12814 12815 12816 12817 12818 12819 12820 12821 12822 12823 12824 12825 12826 12827 12828 12829 12830 12831 12832 12833 12834 12835 12836 12837 12838 12839 12840 12841 12842 12843 12844 12845 12846 12847 12848 12849 12850 12851 12852 12853 12854 12855 12856 12857 12858 12859 12860 12861 12862 12863 12864 12865 12866 12867 12868 12869 12870 12871 12872 12873 12874 12875 12876 12877 12878 12879 12880 12881 12882 12883 12884 12885 12886 12887 12888 12889 12890 12891 12892 12893 12894 12895 12896 12897 12898 12899 12900 12901 12902 12903 12904 12905 12906 12907 12908 12909 12910 12911 12912 12913 12914 12915 12916 12917 12918 12919 12920 12921 12922 12923 12924 12925 12926 12927 12928 12929 12930 12931 12932 12933 12934 12935 12936 12937 12938 12939 12940 12941 12942 12943 12944 12945 12946 12947 12948 12949 12950 12951 12952 12953 12954 12955 12956 12957 12958 12959 12960 12961 12962 12963 12964 12965 12966 12967 12968 12969 12970 12971 12972 12973 12974 12975 12976 12977 12978 12979 12980 12981 12982 12983 12984 12985 12986 12987 12988 12989 12990 12991 12992 12993 12994 12995 12996 12997 12998 12999 13000 13001 13002 13003 13004 13005 13006 13007 13008 13009 13010 13011 13012 13013 13014 13015 13016 13017 13018 13019 13020 13021 13022 13023 13024 13025 13026 13027 13028 13029 13030 13031 13032 13033 13034 13035 13036 13037 13038 13039 13040 13041 13042 13043 13044 13045 13046 13047 13048 13049 13050 13051 13052 13053 13054 13055 13056 13057 13058 13059 13060 13061 13062 13063 13064 13065 13066 13067 13068 13069 13070 13071 13072 13073 13074 13075 13076 13077 13078 13079 13080 13081 13082 13083 13084 13085 13086 13087 13088 13089 13090 13091 13092 13093 13094 13095 13096 13097 13098 13099 13100 13101 13102 13103 13104 13105 13106 13107 13108 13109 13110 13111 13112 13113 13114 13115 13116 13117 13118 13119 13120 13121 13122 13123 13124 13125 13126 13127 13128 13129 13130 13131 13132 13133 13134 13135 13136 13137 13138 13139 13140 13141 13142 13143 13144 13145 13146 13147 13148 13149 13150 13151 13152 13153 13154 13155 13156 13157 13158 13159 13160 13161 13162 13163 13164 13165 13166 13167 13168 13169 13170 13171 13172 13173 13174 13175 13176 13177 13178 13179 13180 13181 13182 13183 13184 13185 13186 13187 13188 13189 13190 13191 13192 13193 13194 13195 13196 13197 13198 13199 13200 13201 13202 13203 13204 13205 13206 13207 13208 13209 13210 13211 13212 13213 13214 13215 13216 13217 13218 13219 13220 13221 13222 13223 13224 13225 13226 13227 13228 13229 13230 13231 13232 13233 13234 13235 13236 13237 13238 13239 13240 13241 13242 13243 13244 13245 13246 13247 13248 13249 13250 13251 13252 13253 13254 13255 13256 13257 13258 13259 13260 13261 13262 13263 13264 13265 13266 13267 13268 13269 13270 13271 13272 13273 13274 13275 13276 13277 13278 13279 13280 13281 13282 13283 13284 13285 13286 13287 13288 13289 13290 13291 13292 13293 13294 13295 13296 13297 13298 13299 13300 13301 13302 13303 13304 13305 13306 13307 13308 13309 13310 13311 13312 13313 13314 13315 13316 13317 13318 13319 13320 13321 13322 13323 13324 13325 13326 13327 13328 13329 13330 13331 13332 13333 13334 13335 13336 13337 13338 13339 13340 13341 13342 13343 13344 13345 13346 13347 13348 13349 13350 13351 13352 13353 13354 13355 13356 13357 13358 13359 13360 13361 13362 13363 13364 13365 13366 13367 13368 13369 13370 13371 13372 13373 13374 13375 13376 13377 13378 13379 13380 13381 13382 13383 13384 13385 13386 13387 13388 13389 13390 13391 13392 13393 13394 13395 13396 13397 13398 13399 13400 13401 13402 13403 13404 13405 13406 13407 13408 13409 13410 13411 13412 13413 13414 13415 13416 13417 13418 13419 13420 13421 13422 13423 13424 13425 13426 13427 13428 13429 13430 13431 13432 13433 13434 13435 13436 13437 13438 13439 13440 13441 13442 13443 13444 13445 13446 13447 13448 13449 13450 13451 13452 13453 13454 13455 13456 13457 13458 13459 13460 13461 13462 13463 13464 13465 13466 13467 13468 13469 13470 13471 13472 13473 13474 13475 13476 13477 13478 13479 13480 13481 13482 13483 13484 13485 13486 13487 13488 13489 13490 13491 13492 13493 13494 13495 13496 13497 13498 13499 13500 13501 13502 13503 13504 13505 13506 13507 13508 13509 13510 13511 13512 13513 13514 13515 13516 13517 13518 13519 13520 13521 13522 13523 13524 13525 13526 13527 13528 13529 13530 13531 13532 13533 13534 13535 13536 13537 13538 13539 13540 13541 13542 13543 13544 13545 13546 13547 13548 13549 13550 13551 13552 13553 13554 13555 13556 13557 13558 13559 13560 13561 13562 13563 13564 13565 13566 13567 13568 13569 13570 13571 13572 13573 13574 13575 13576 13577 13578 13579 13580 13581 13582 13583 13584 13585 13586 13587 13588 13589 13590 13591 13592 13593 13594 13595 13596 13597 13598 13599 13600 13601 13602 13603 13604 13605 13606 13607 13608 13609 13610 13611 13612 13613 13614 13615 13616 13617 13618 13619 13620 13621 13622 13623 13624 13625 13626 13627 13628 13629 13630 13631 13632 13633 13634 13635 13636 13637 13638 13639 13640 13641 13642 13643 13644 13645 13646 13647 13648 13649 13650 13651 13652 13653 13654 13655 13656 13657 13658 13659 13660 13661 13662 13663 13664 13665 13666 13667 13668 13669 13670 13671 13672 13673 13674 13675 13676 13677 13678 13679 13680 13681 13682 13683 13684 13685 13686 13687 13688 13689 13690 13691 13692 13693 13694 13695 13696 13697 13698 13699 13700 13701 13702 13703 13704 13705 13706 13707 13708 13709 13710 13711 13712 13713 13714 13715 13716 13717 13718 13719 13720 13721 13722 13723 13724 13725 13726 13727 13728 13729 13730 13731 13732 13733 13734 13735 13736 13737 13738 13739 13740 13741 13742 13743 13744 13745 13746 13747 13748 13749 13750 13751 13752 13753 13754 13755 13756 13757 13758 13759 13760 13761 13762 13763 13764 13765 13766 13767 13768 13769 13770 13771 13772 13773 13774 13775 13776 13777 13778 13779 13780 13781 13782 13783 13784 13785 13786 13787 13788 13789 13790 13791 13792 13793 13794 13795 13796 13797 13798 13799 13800 13801 13802 13803 13804 13805 13806 13807 13808 13809 13810 13811 13812 13813 13814 13815 13816 13817 13818 13819 13820 13821 13822 13823 13824 13825 13826 13827 13828 13829 13830 13831 13832 13833 13834 13835 13836 13837 13838 13839 13840 13841 13842 13843 13844 13845 13846 13847 13848 13849 13850 13851 13852 13853 13854 13855 13856 13857 13858 13859 13860 13861 13862 13863 13864 13865 13866 13867 13868 13869 13870 13871 13872 13873 13874 13875 13876 13877 13878 13879 13880 13881 13882 13883 13884 13885 13886 13887 13888 13889 13890 13891 13892 13893 13894 13895 13896 13897 13898 13899 13900 13901 13902 13903 13904 13905 13906 13907 13908 13909 13910 13911 13912 13913 13914 13915 13916 13917 13918 13919 13920 13921 13922 13923 13924 13925 13926 13927 13928 13929 13930 13931 13932 13933 13934 13935 13936 13937 13938 13939 13940 13941 13942 13943 13944 13945 13946 13947 13948 13949 13950 13951 13952 13953 13954 13955 13956 13957 13958 13959 13960 13961 13962 13963 13964 13965 13966 13967 13968 13969 13970 13971 13972 13973 13974 13975 13976 13977 13978 13979 13980 13981 13982 13983 13984 13985 13986 13987 13988 13989 13990 13991 13992 13993 13994 13995 13996 13997 13998 13999 14000 14001 14002 14003 14004 14005 14006 14007 14008 14009 14010 14011 14012 14013 14014 14015 14016 14017 14018 14019 14020 14021 14022 14023 14024 14025 14026 14027 14028 14029 14030 14031 14032 14033 14034 14035 14036 14037 14038 14039 14040 14041 14042 14043 14044 14045 14046 14047 14048 14049 14050 14051 14052 14053 14054 14055 14056 14057 14058 14059 14060 14061 14062 14063 14064 14065 14066 14067 14068 14069 14070 14071 14072 14073 14074 14075 14076 14077 14078 14079 14080 14081 14082 14083 14084 14085 14086 14087 14088 14089 14090 14091 14092 14093 14094 14095 14096 14097 14098 14099 14100 14101 14102 14103 14104 14105 14106 14107 14108 14109 14110 14111 14112 14113 14114 14115 14116 14117 14118 14119 14120 14121 14122 14123 14124 14125 14126 14127 14128 14129 14130 14131 14132 14133 14134 14135 14136 14137 14138 14139 14140 14141 14142 14143 14144 14145 14146 14147 14148 14149 14150 14151 14152 14153 14154 14155 14156 14157 14158 14159 14160 14161 14162 14163 14164 14165 14166 14167 14168 14169 14170 14171 14172 14173 14174 14175 14176 14177 14178 14179 14180 14181 14182 14183 14184 14185 14186 14187 14188 14189 14190 14191 14192 14193 14194 14195 14196 14197 14198 14199 14200 14201 14202 14203 14204 14205 14206 14207 14208 14209 14210 14211 14212 14213 14214 14215 14216 14217 14218 14219 14220 14221 14222 14223 14224 14225 14226 14227 14228 14229 14230 14231 14232 14233 14234 14235 14236 14237 14238 14239 14240 14241 14242 14243 14244 14245 14246 14247 14248 14249 14250 14251 14252 14253 14254 14255 14256 14257 14258 14259 14260 14261 14262 14263 14264 14265 14266 14267 14268 14269 14270 14271 14272 14273 14274 14275 14276 14277 14278 14279 14280 14281 14282 14283 14284 14285 14286 14287 14288 14289 14290 14291 14292 14293 14294 14295 14296 14297 14298 14299 14300 14301 14302 14303 14304 14305 14306 14307 14308 14309 14310 14311 14312 14313 14314 14315 14316 14317 14318 14319 14320 14321 14322 14323 14324 14325 14326 14327 14328 14329 14330 14331 14332 14333 14334 14335 14336 14337 14338 14339 14340 14341 14342 14343 14344 14345 14346 14347 14348 14349 14350 14351 14352 14353 14354 14355 14356 14357 14358 14359 14360 14361 14362 14363 14364 14365 14366 14367 14368 14369 14370 14371 14372 14373 14374 14375 14376 14377 14378 14379 14380 14381 14382 14383 14384 14385 14386 14387 14388 14389 14390 14391 14392 14393 14394 14395 14396 14397 14398 14399 14400 14401 14402 14403 14404 14405 14406 14407 14408 14409 14410 14411 14412 14413 14414 14415 14416 14417 14418 14419 14420 14421 14422 14423 14424 14425 14426 14427 14428 14429 14430 14431 14432 14433 14434 14435 14436 14437 14438 14439 14440 14441 14442 14443 14444 14445 14446 14447 14448 14449 14450 14451 14452 14453 14454 14455 14456 14457 14458 14459 14460 14461 14462 14463 14464 14465 14466 14467 14468 14469 14470 14471 14472 14473 14474 14475 14476 14477 14478 14479 14480 14481 14482 14483 14484 14485 14486 14487 14488 14489 14490 14491 14492 14493 14494 14495 14496 14497 14498 14499 14500 14501 14502 14503 14504 14505 14506 14507 14508 14509 14510 14511 14512 14513 14514 14515 14516 14517 14518 14519 14520 14521 14522 14523 14524 14525 14526 14527 14528 14529 14530 14531 14532 14533 14534 14535 14536 14537 14538 14539 14540 14541 14542 14543 14544 14545 14546 14547 14548 14549 14550 14551 14552 14553 14554 14555 14556 14557 14558 14559 14560 14561 14562 14563 14564 14565 14566 14567 14568 14569 14570 14571 14572 14573 14574 14575 14576 14577 14578 14579 14580 14581 14582 14583 14584 14585 14586 14587 14588 14589 14590 14591 14592 14593 14594 14595 14596 14597 14598 14599 14600 14601 14602 14603 14604 14605 14606 14607 14608 14609 14610 14611 14612 14613 14614 14615 14616 14617 14618 14619 14620 14621 14622 14623 14624 14625 14626 14627 14628 14629 14630 14631 14632 14633 14634 14635 14636 14637 14638 14639 14640 14641 14642 14643 14644 14645 14646 14647 14648 14649 14650 14651 14652 14653 14654 14655 14656 14657 14658 14659 14660 14661 14662 14663 14664 14665 14666 14667 14668 14669 14670 14671 14672 14673 14674 14675 14676 14677 14678 14679 14680 14681 14682 14683 14684 14685 14686 14687 14688 14689 14690 14691 14692 14693 14694 14695 14696 14697 14698 14699 14700 14701 14702 14703 14704 14705 14706 14707 14708 14709 14710 14711 14712 14713 14714 14715 14716 14717 14718 14719 14720 14721 14722 14723 14724 14725 14726 14727 14728 14729 14730 14731 14732 14733 14734 14735 14736 14737 14738 14739 14740 14741 14742 14743 14744 14745 14746 14747 14748 14749 14750 14751 14752 14753 14754 14755 14756 14757 14758 14759 14760 14761 14762 14763 14764 14765 14766 14767 14768 14769 14770 14771 14772 14773 14774 14775 14776 14777 14778 14779 14780 14781 14782 14783 14784 14785 14786 14787 14788 14789 14790 14791 14792 14793 14794 14795 14796 14797 14798 14799 14800 14801 14802 14803 14804 14805 14806 14807 14808 14809 14810 14811 14812 14813 14814 14815 14816 14817 14818 14819 14820 14821 14822 14823 14824 14825 14826 14827 14828 14829 14830 14831 14832 14833 14834 14835 14836 14837 14838 14839 14840 14841 14842 14843 14844 14845 14846 14847 14848 14849 14850 14851 14852 14853 14854 14855 14856 14857 14858 14859 14860 14861 14862 14863 14864 14865 14866 14867 14868 14869 14870 14871 14872 14873 14874 14875 14876 14877 14878 14879 14880 14881 14882 14883 14884 14885 14886 14887 14888 14889 14890 14891 14892 14893 14894 14895 14896 14897 14898 14899 14900 14901 14902 14903 14904 14905 14906 14907 14908 14909 14910 14911 14912 14913 14914 14915 14916 14917 14918 14919 14920 14921 14922 14923 14924 14925 14926 14927 14928 14929 14930 14931 14932 14933 14934 14935 14936 14937 14938 14939 14940 14941 14942 14943 14944 14945 14946 14947 14948 14949 14950 14951 14952 14953 14954 14955 14956 14957 14958 14959 14960 14961 14962 14963 14964 14965 14966 14967 14968 14969 14970 14971 14972 14973 14974 14975 14976 14977 14978 14979 14980 14981 14982 14983 14984 14985 14986 14987 14988 14989 14990 14991 14992 14993 14994 14995 14996 14997 14998 14999 15000 15001 15002 15003 15004 15005 15006 15007 15008 15009 15010 15011 15012 15013 15014 15015 15016 15017 15018 15019 15020 15021 15022 15023 15024 15025 15026 15027 15028 15029 15030 15031 15032 15033 15034 15035 15036 15037 15038 15039 15040 15041 15042 15043 15044 15045 15046 15047 15048 15049 15050 15051 15052 15053 15054 15055 15056 15057 15058 15059 15060 15061 15062 15063 15064 15065 15066 15067 15068 15069 15070 15071 15072 15073 15074 15075 15076 15077 15078 15079 15080 15081 15082 15083 15084 15085 15086 15087 15088 15089 15090 15091 15092 15093 15094 15095 15096 15097 15098 15099 15100 15101 15102 15103 15104 15105 15106 15107 15108 15109 15110 15111 15112 15113 15114 15115 15116 15117 15118 15119 15120 15121 15122 15123 15124 15125 15126 15127 15128 15129 15130 15131 15132 15133 15134 15135 15136 15137 15138 15139 15140 15141 15142 15143 15144 15145 15146 15147 15148 15149 15150 15151 15152 15153 15154 15155 15156 15157 15158 15159 15160 15161 15162 15163 15164 15165 15166 15167 15168 15169 15170 15171 15172 15173 15174 15175 15176 15177 15178 15179 15180 15181 15182 15183 15184 15185 15186 15187 15188 15189 15190 15191 15192 15193 15194 15195 15196 15197 15198 15199 15200 15201 15202 15203 15204 15205 15206 15207 15208 15209 15210 15211 15212 15213 15214 15215 15216 15217 15218 15219 15220 15221 15222 15223 15224 15225 15226 15227 15228 15229 15230 15231 15232 15233 15234 15235 15236 15237 15238 15239 15240 15241 15242 15243 15244 15245 15246 15247 15248 15249 15250 15251 15252 15253 15254 15255 15256 15257 15258 15259 15260 15261 15262 15263 15264 15265 15266 15267 15268 15269 15270 15271 15272 15273 15274 15275 15276 15277 15278 15279 15280 15281 15282 15283 15284 15285 15286 15287 15288 15289 15290 15291 15292 15293 15294 15295 15296 15297 15298 15299 15300 15301 15302 15303 15304 15305 15306 15307 15308 15309 15310 15311 15312 15313 15314 15315 15316 15317 15318 15319 15320 15321 15322 15323 15324 15325 15326 15327 15328 15329 15330 15331 15332 15333 15334 15335 15336 15337 15338 15339 15340 15341 15342 15343 15344 15345 15346 15347 15348 15349 15350 15351 15352 15353 15354 15355 15356 15357 15358 15359 15360 15361 15362 15363 15364 15365 15366 15367 15368 15369 15370 15371 15372 15373 15374 15375 15376 15377 15378 15379 15380 15381 15382 15383 15384 15385 15386 15387 15388 15389 15390 15391 15392 15393 15394 15395 15396 15397 15398 15399 15400 15401 15402 15403 15404 15405 15406 15407 15408 15409 15410 15411 15412 15413 15414 15415 15416 15417 15418 15419 15420 15421 15422 15423 15424 15425 15426 15427 15428 15429 15430 15431 15432 15433 15434 15435 15436 15437 15438 15439 15440 15441 15442 15443 15444 15445 15446 15447 15448 15449 15450 15451 15452 15453 15454 15455 15456 15457 15458 15459 15460 15461 15462 15463 15464 15465 15466 15467 15468 15469 15470 15471 15472 15473 15474 15475 15476 15477 15478 15479 15480 15481 15482 15483 15484 15485 15486 15487 15488 15489 15490 15491 15492 15493 15494 15495 15496 15497 15498 15499 15500 15501 15502 15503 15504 15505 15506 15507 15508 15509 15510 15511 15512 15513 15514 15515 15516 15517 15518 15519 15520 15521 15522 15523 15524 15525 15526 15527 15528 15529 15530 15531 15532 15533 15534 15535 15536 15537 15538 15539 15540 15541 15542 15543 15544 15545 15546 15547 15548 15549 15550 15551 15552 15553 15554 15555 15556 15557 15558 15559 15560 15561 15562 15563 15564 15565 15566 15567 15568 15569 15570 15571 15572 15573 15574 15575 15576 15577 15578 15579 15580 15581 15582 15583 15584 15585 15586 15587 15588 15589 15590 15591 15592 15593 15594 15595 15596 15597 15598 15599 15600 15601 15602 15603 15604 15605 15606 15607 15608 15609 15610 15611 15612 15613 15614 15615 15616 15617 15618 15619 15620 15621 15622 15623 15624 15625 15626 15627 15628 15629 15630 15631 15632 15633 15634 15635 15636 15637 15638 15639 15640 15641 15642 15643 15644 15645 15646 15647 15648 15649 15650 15651 15652 15653 15654 15655 15656 15657 15658 15659 15660 15661 15662 15663 15664 15665 15666 15667 15668 15669 15670 15671 15672 15673 15674 15675 15676 15677 15678 15679 15680 15681 15682 15683 15684 15685 15686 15687 15688 15689 15690 15691 15692 15693 15694 15695 15696 15697 15698 15699 15700 15701 15702 15703 15704 15705 15706 15707 15708 15709 15710 15711 15712 15713 15714 15715 15716 15717 15718 15719 15720 15721 15722 15723 15724 15725 15726 15727 15728 15729 15730 15731 15732 15733 15734 15735 15736 15737 15738 15739 15740 15741 15742 15743 15744 15745 15746 15747 15748 15749 15750 15751 15752 15753 15754 15755 15756 15757 15758 15759 15760 15761 15762 15763 15764 15765 15766 15767 15768 15769 15770 15771 15772 15773 15774 15775 15776 15777 15778 15779 15780 15781 15782 15783 15784 15785 15786 15787 15788 15789 15790 15791 15792 15793 15794 15795 15796 15797 15798 15799 15800 15801 15802 15803 15804 15805 15806 15807 15808 15809 15810 15811 15812 15813 15814 15815 15816 15817 15818 15819 15820 15821 15822 15823 15824 15825 15826 15827 15828 15829 15830 15831 15832 15833 15834 15835 15836 15837 15838 15839 15840 15841 15842 15843 15844 15845 15846 15847 15848 15849 15850 15851 15852 15853 15854 15855 15856 15857 15858 15859 15860 15861 15862 15863 15864 15865 15866 15867 15868 15869 15870 15871 15872 15873 15874 15875 15876 15877 15878 15879 15880 15881 15882 15883 15884 15885 15886 15887 15888 15889 15890 15891 15892 15893 15894 15895 15896 15897 15898 15899 15900 15901 15902 15903 15904 15905 15906 15907 15908 15909 15910 15911 15912 15913 15914 15915 15916 15917 15918 15919 15920 15921 15922 15923 15924 15925 15926 15927 15928 15929 15930 15931 15932 15933 15934 15935 15936 15937 15938 15939 15940 15941 15942 15943 15944 15945 15946 15947 15948 15949 15950 15951 15952 15953 15954 15955 15956 15957 15958 15959 15960 15961 15962 15963 15964 15965 15966 15967 15968 15969 15970 15971 15972 15973 15974 15975 15976 15977 15978 15979 15980 15981 15982 15983 15984 15985 15986 15987 15988 15989 15990 15991 15992 15993 15994 15995 15996 15997 15998 15999 16000 16001 16002 16003 16004 16005 16006 16007 16008 16009 16010 16011 16012 16013 16014 16015 16016 16017 16018 16019 16020 16021 16022 16023 16024 16025 16026 16027 16028 16029 16030 16031 16032 16033 16034 16035 16036 16037 16038 16039 16040 16041 16042 16043 16044 16045 16046 16047 16048 16049 16050 16051 16052 16053 16054 16055 16056 16057 16058 16059 16060 16061 16062 16063 16064 16065 16066 16067 16068 16069 16070 16071 16072 16073 16074 16075 16076 16077 16078 16079 16080 16081 16082 16083 16084 16085 16086 16087 16088 16089 16090 16091 16092 16093 16094 16095 16096 16097 16098 16099 16100 16101 16102 16103 16104 16105 16106 16107 16108 16109 16110 16111 16112 16113 16114 16115 16116 16117 16118 16119 16120 16121 16122 16123 16124 16125 16126 16127 16128 16129 16130 16131 16132 16133 16134 16135 16136 16137 16138 16139 16140 16141 16142 16143 16144 16145 16146 16147 16148 16149 16150 16151 16152 16153 16154 16155 16156 16157 16158 16159 16160 16161 16162 16163 16164 16165 16166 16167 16168 16169 16170 16171 16172 16173 16174 16175 16176 16177 16178 16179 16180 16181 16182 16183 16184 16185 16186 16187 16188 16189 16190 16191 16192 16193 16194 16195 16196 16197 16198 16199 16200 16201 16202 16203 16204 16205 16206 16207 16208 16209 16210 16211 16212 16213 16214 16215 16216 16217 16218 16219 16220 16221 16222 16223 16224 16225 16226 16227 16228 16229 16230 16231 16232 16233 16234 16235 16236 16237 16238 16239 16240 16241 16242 16243 16244 16245 16246 16247 16248 16249 16250 16251 16252 16253 16254 16255 16256 16257 16258 16259 16260 16261 16262 16263 16264 16265 16266 16267 16268 16269 16270 16271 16272 16273 16274 16275 16276 16277 16278 16279 16280 16281 16282 16283 16284 16285 16286 16287 16288 16289 16290 16291 16292 16293 16294 16295 16296 16297 16298 16299 16300 16301 16302 16303 16304 16305 16306 16307 16308 16309 16310 16311 16312 16313 16314 16315 16316 16317 16318 16319 16320 16321 16322 16323 16324 16325 16326 16327 16328 16329 16330 16331 16332 16333 16334 16335 16336 16337 16338 16339 16340 16341 16342 16343 16344 16345 16346 16347 16348 16349 16350 16351 16352 16353 16354 16355 16356 16357 16358 16359 16360 16361 16362 16363 16364 16365 16366 16367 16368 16369 16370 16371 16372 16373 16374 16375 16376 16377 16378 16379 16380 16381 16382 16383 16384 16385 16386 16387 16388 16389 16390 16391 16392 16393 16394 16395 16396 16397 16398 16399 16400 16401 16402 16403 16404 16405 16406 16407 16408 16409 16410 16411 16412 16413 16414 16415 16416 16417 16418 16419 16420 16421 16422 16423 16424 16425 16426 16427 16428 16429 16430 16431 16432 16433 16434 16435 16436 16437 16438 16439 16440 16441 16442 16443 16444 16445 16446 16447 16448 16449 16450 16451 16452 16453 16454 16455 16456 16457 16458 16459 16460 16461 16462 16463 16464 16465 16466 16467 16468 16469 16470 16471 16472 16473 16474 16475 16476 16477 16478 16479 16480 16481 16482 16483 16484 16485 16486 16487 16488 16489 16490 16491 16492 16493 16494 16495 16496 16497 16498 16499 16500 16501 16502 16503 16504 16505 16506 16507 16508 16509 16510 16511 16512 16513 16514 16515 16516 16517 16518 16519 16520 16521 16522 16523 16524 16525 16526 16527 16528 16529 16530 16531 16532 16533 16534 16535 16536 16537 16538 16539 16540 16541 16542 16543 16544 16545 16546 16547 16548 16549 16550 16551 16552 16553 16554 16555 16556 16557 16558 16559 16560 16561 16562 16563 16564 16565 16566 16567 16568 16569 16570 16571 16572 16573 16574 16575 16576 16577 16578 16579 16580 16581 16582 16583 16584 16585 16586 16587 16588 16589 16590 16591 16592 16593 16594 16595 16596 16597 16598 16599 16600 16601 16602 16603 16604 16605 16606 16607 16608 16609 16610 16611 16612 16613 16614 16615 16616 16617 16618 16619 16620 16621 16622 16623 16624 16625 16626 16627 16628 16629 16630 16631 16632 16633 16634 16635 16636 16637 16638 16639 16640 16641 16642 16643 16644 16645 16646 16647 16648 16649 16650 16651 16652 16653 16654 16655 16656 16657 16658 16659 16660 16661 16662 16663 16664 16665 16666 16667 16668 16669 16670 16671 16672 16673 16674 16675 16676 16677 16678 16679 16680 16681 16682 16683 16684 16685 16686 16687 16688 16689 16690 16691 16692 16693 16694 16695 16696 16697 16698 16699 16700 16701 16702 16703 16704 16705 16706 16707 16708 16709 16710 16711 16712 16713 16714 16715 16716 16717 16718 16719 16720 16721 16722 16723 16724 16725 16726 16727 16728 16729 16730 16731 16732 16733 16734 16735 16736 16737 16738 16739 16740 16741 16742 16743 16744 16745 16746 16747 16748 16749 16750 16751 16752 16753 16754 16755 16756 16757 16758 16759 16760 16761 16762 16763 16764 16765 16766 16767 16768 16769 16770 16771 16772 16773 16774 16775 16776 16777 16778 16779 16780 16781 16782 16783 16784 16785 16786 16787 16788 16789 16790 16791 16792 16793 16794 16795 16796 16797 16798 16799 16800 16801 16802 16803 16804 16805 16806 16807 16808 16809 16810 16811 16812 16813 16814 16815 16816 16817 16818 16819 16820 16821 16822 16823 16824 16825 16826 16827 16828 16829 16830 16831 16832 16833 16834 16835 16836 16837 16838 16839 16840 16841 16842 16843 16844 16845 16846 16847 16848 16849 16850 16851 16852 16853 16854 16855 16856 16857 16858 16859 16860 16861 16862 16863 16864 16865 16866 16867 16868 16869 16870 16871 16872 16873 16874 16875 16876 16877 16878 16879 16880 16881 16882 16883 16884 16885 16886 16887 16888 16889 16890 16891 16892 16893 16894 16895 16896 16897 16898 16899 16900 16901 16902 16903 16904 16905 16906 16907 16908 16909 16910 16911 16912 16913 16914 16915 16916 16917 16918 16919 16920 16921 16922 16923 16924 16925 16926 16927 16928 16929 16930 16931 16932 16933 16934 16935 16936 16937 16938 16939 16940 16941 16942 16943 16944 16945 16946 16947 16948 16949 16950 16951 16952 16953 16954 16955 16956 16957 16958 16959 16960 16961 16962 16963 16964 16965 16966 16967 16968 16969 16970 16971 16972 16973 16974 16975 16976 16977 16978 16979 16980 16981 16982 16983 16984 16985 16986 16987 16988 16989 16990 16991 16992 16993 16994 16995 16996 16997 16998 16999 17000 17001 17002 17003 17004 17005 17006 17007 17008 17009 17010 17011 17012 17013 17014 17015 17016 17017 17018 17019 17020 17021 17022 17023 17024 17025 17026 17027 17028 17029 17030 17031 17032 17033 17034 17035 17036 17037 17038 17039 17040 17041 17042 17043 17044 17045 17046 17047 17048 17049 17050 17051 17052 17053 17054 17055 17056 17057 17058 17059 17060 17061 17062 17063 17064 17065 17066 17067 17068 17069 17070 17071 17072 17073 17074 17075 17076 17077 17078 17079 17080 17081 17082 17083 17084 17085 17086 17087 17088 17089 17090 17091 17092 17093 17094 17095 17096 17097 17098 17099 17100 17101 17102 17103 17104 17105 17106 17107 17108 17109 17110 17111 17112 17113 17114 17115 17116 17117 17118 17119 17120 17121 17122 17123 17124 17125 17126 17127 17128 17129 17130 17131 17132 17133 17134 17135 17136 17137 17138 17139 17140 17141 17142 17143 17144 17145 17146 17147 17148 17149 17150 17151 17152 17153 17154 17155 17156 17157 17158 17159 17160 17161 17162 17163 17164 17165 17166 17167 17168 17169 17170 17171 17172 17173 17174 17175 17176 17177 17178 17179 17180 17181 17182 17183 17184 17185 17186 17187 17188 17189 17190 17191 17192 17193 17194 17195 17196 17197 17198 17199 17200 17201 17202 17203 17204 17205 17206 17207 17208 17209 17210 17211 17212 17213 17214 17215 17216 17217 17218 17219 17220 17221 17222 17223 17224 17225 17226 17227 17228 17229 17230 17231 17232 17233 17234 17235 17236 17237 17238 17239 17240 17241 17242 17243 17244 17245 17246 17247 17248 17249 17250 17251 17252 17253 17254 17255 17256 17257 17258 17259 17260 17261 17262 17263 17264 17265 17266 17267 17268 17269 17270 17271 17272 17273 17274 17275 17276 17277 17278 17279 17280 17281 17282 17283 17284 17285 17286 17287 17288 17289 17290 17291 17292 17293 17294 17295 17296 17297 17298 17299 17300 17301 17302 17303 17304 17305 17306 17307 17308 17309 17310 17311 17312 17313 17314 17315 17316 17317 17318 17319 17320 17321 17322 17323 17324 17325 17326 17327 17328 17329 17330 17331 17332 17333 17334 17335 17336 17337 17338 17339 17340 17341 17342 17343 17344 17345 17346 17347 17348 17349 17350 17351 17352 17353 17354 17355 17356 17357 17358 17359 17360 17361 17362 17363 17364 17365 17366 17367 17368 17369 17370 17371 17372 17373 17374 17375 17376 17377 17378 17379 17380 17381 17382 17383 17384 17385 17386 17387 17388 17389 17390 17391 17392 17393 17394 17395 17396 17397 17398 17399 17400 17401 17402 17403 17404 17405 17406 17407 17408 17409 17410 17411 17412 17413 17414 17415 17416 17417 17418 17419 17420 17421 17422 17423 17424 17425 17426 17427 17428 17429 17430 17431 17432 17433 17434 17435 17436 17437 17438 17439 17440 17441 17442 17443 17444 17445 17446 17447 17448 17449 17450 17451 17452 17453 17454 17455 17456 17457 17458 17459 17460 17461 17462 17463 17464 17465 17466 17467 17468 17469 17470 17471 17472 17473 17474 17475 17476 17477 17478 17479 17480 17481 17482 17483 17484 17485 17486 17487 17488 17489 17490 17491 17492 17493 17494 17495 17496 17497 17498 17499 17500 17501 17502 17503 17504 17505 17506 17507 17508 17509 17510 17511 17512 17513 17514 17515 17516 17517 17518 17519 17520 17521 17522 17523 17524 17525 17526 17527 17528 17529 17530 17531 17532 17533 17534 17535 17536 17537 17538 17539 17540 17541 17542 17543 17544 17545 17546 17547 17548 17549 17550 17551 17552 17553 17554 17555 17556 17557 17558 17559 17560 17561 17562 17563 17564 17565 17566 17567 17568 17569 17570 17571 17572 17573 17574 17575 17576 17577 17578 17579 17580 17581 17582 17583 17584 17585 17586 17587 17588 17589 17590 17591 17592 17593 17594 17595 17596 17597 17598 17599 17600 17601 17602 17603 17604 17605 17606 17607 17608 17609 17610 17611 17612 17613 17614 17615 17616 17617 17618 17619 17620 17621 17622 17623 17624 17625 17626 17627 17628 17629 17630 17631 17632 17633 17634 17635 17636 17637 17638 17639 17640 17641 17642 17643 17644 17645 17646 17647 17648 17649 17650 17651 17652 17653 17654 17655 17656 17657 17658 17659 17660 17661 17662 17663 17664 17665 17666 17667 17668 17669 17670 17671 17672 17673 17674 17675 17676 17677 17678 17679 17680 17681 17682 17683 17684 17685 17686 17687 17688 17689 17690 17691 17692 17693 17694 17695 17696 17697 17698 17699 17700 17701 17702 17703 17704 17705 17706 17707 17708 17709 17710 17711 17712 17713 17714 17715 17716 17717 17718 17719 17720 17721 17722 17723 17724 17725 17726 17727 17728 17729 17730 17731 17732 17733 17734 17735 17736 17737 17738 17739 17740 17741 17742 17743 17744 17745 17746 17747 17748 17749 17750 17751 17752 17753 17754 17755 17756 17757 17758 17759 17760 17761 17762 17763 17764 17765 17766 17767 17768 17769 17770 17771 17772 17773 17774 17775 17776 17777 17778 17779 17780 17781 17782 17783 17784 17785 17786 17787 17788 17789 17790 17791 17792 17793 17794 17795 17796 17797 17798 17799 17800 17801 17802 17803 17804 17805 17806 17807 17808 17809 17810 17811 17812 17813 17814 17815 17816 17817 17818 17819 17820 17821 17822 17823 17824 17825 17826 17827 17828 17829 17830 17831 17832 17833 17834 17835 17836 17837 17838 17839 17840 17841 17842 17843 17844 17845 17846 17847 17848 17849 17850 17851 17852 17853 17854 17855 17856 17857 17858 17859 17860 17861 17862 17863 17864 17865 17866 17867 17868 17869 17870 17871 17872 17873 17874 17875 17876 17877 17878 17879 17880 17881 17882 17883 17884 17885 17886 17887 17888 17889 17890 17891 17892 17893 17894 17895 17896 17897 17898 17899 17900 17901 17902 17903 17904 17905 17906 17907 17908 17909 17910 17911 17912 17913 17914 17915 17916 17917 17918 17919 17920 17921 17922 17923 17924 17925 17926 17927 17928 17929 17930 17931 17932 17933 17934 17935 17936 17937 17938 17939 17940 17941 17942 17943 17944 17945 17946 17947 17948 17949 17950 17951 17952 17953 17954 17955 17956 17957 17958 17959 17960 17961 17962 17963 17964 17965 17966 17967 17968 17969 17970 17971 17972 17973 17974 17975 17976 17977 17978 17979 17980 17981 17982 17983 17984 17985 17986 17987 17988 17989 17990 17991 17992 17993 17994 17995 17996 17997 17998 17999 18000 18001 18002 18003 18004 18005 18006 18007 18008 18009 18010 18011 18012 18013 18014 18015 18016 18017 18018 18019 18020 18021 18022 18023 18024 18025 18026 18027 18028 18029 18030 18031 18032 18033 18034 18035 18036 18037 18038 18039 18040 18041 18042 18043 18044 18045 18046 18047 18048 18049 18050 18051 18052 18053 18054 18055 18056 18057 18058 18059 18060 18061 18062 18063 18064 18065 18066 18067 18068 18069 18070 18071 18072 18073 18074 18075 18076 18077 18078 18079 18080 18081 18082 18083 18084 18085 18086 18087 18088 18089 18090 18091 18092 18093 18094 18095 18096 18097 18098 18099 18100 18101 18102 18103 18104 18105 18106 18107 18108 18109 18110 18111 18112 18113 18114 18115 18116 18117 18118 18119 18120 18121 18122 18123 18124 18125 18126 18127 18128 18129 18130 18131 18132 18133 18134 18135 18136 18137 18138 18139 18140 18141 18142 18143 18144 18145 18146 18147 18148 18149 18150 18151 18152 18153 18154 18155 18156 18157 18158 18159 18160 18161 18162 18163 18164 18165 18166 18167 18168 18169 18170 18171 18172 18173 18174 18175 18176 18177 18178 18179 18180 18181 18182 18183 18184 18185 18186 18187 18188 18189 18190 18191 18192 18193 18194 18195 18196 18197 18198 18199 18200 18201 18202 18203 18204 18205 18206 18207 18208 18209 18210 18211 18212 18213 18214 18215 18216 18217 18218 18219 18220 18221 18222 18223 18224 18225 18226 18227 18228 18229 18230 18231 18232 18233 18234 18235 18236 18237 18238 18239 18240 18241 18242 18243 18244 18245 18246 18247 18248 18249 18250 18251 18252 18253 18254 18255 18256 18257 18258 18259 18260 18261 18262 18263 18264 18265 18266 18267 18268 18269 18270 18271 18272 18273 18274 18275 18276 18277 18278 18279 18280 18281 18282 18283 18284 18285 18286 18287 18288 18289 18290 18291 18292 18293 18294 18295 18296 18297 18298 18299 18300 18301 18302 18303 18304 18305 18306 18307 18308 18309 18310 18311 18312 18313 18314 18315 18316 18317 18318 18319 18320 18321 18322 18323 18324 18325 18326 18327 18328 18329 18330 18331 18332 18333 18334 18335 18336 18337 18338 18339 18340 18341 18342 18343 18344 18345 18346 18347 18348 18349 18350 18351 18352 18353 18354 18355 18356 18357 18358 18359 18360 18361 18362 18363 18364 18365 18366 18367 18368 18369 18370 18371 18372 18373 18374 18375 18376 18377 18378 18379 18380 18381 18382 18383 18384 18385 18386 18387 18388 18389 18390 18391 18392 18393 18394 18395 18396 18397 18398 18399 18400 18401 18402 18403 18404 18405 18406 18407 18408 18409 18410 18411 18412 18413 18414 18415 18416 18417 18418 18419 18420 18421 18422 18423 18424 18425 18426 18427 18428 18429 18430 18431 18432 18433 18434 18435 18436 18437 18438 18439 18440 18441 18442 18443 18444 18445 18446 18447 18448 18449 18450 18451 18452 18453 18454 18455 18456 18457 18458 18459 18460 18461 18462 18463 18464 18465 18466 18467 18468 18469 18470 18471 18472 18473 18474 18475 18476 18477 18478 18479 18480 18481 18482 18483 18484 18485 18486 18487 18488 18489 18490 18491 18492 18493 18494 18495 18496 18497 18498 18499 18500 18501 18502 18503 18504 18505 18506 18507 18508 18509 18510 18511 18512 18513 18514 18515 18516 18517 18518 18519 18520 18521 18522 18523 18524 18525 18526 18527 18528 18529 18530 18531 18532 18533 18534 18535 18536 18537 18538 18539 18540 18541 18542 18543 18544 18545 18546 18547 18548 18549 18550 18551 18552 18553 18554 18555 18556 18557 18558 18559 18560 18561 18562 18563 18564 18565 18566 18567 18568 18569 18570 18571 18572 18573 18574 18575 18576 18577 18578 18579 18580 18581 18582 18583 18584 18585 18586 18587 18588 18589 18590 18591 18592 18593 18594 18595 18596 18597 18598 18599 18600 18601 18602 18603 18604 18605 18606 18607 18608 18609 18610 18611 18612 18613 18614 18615 18616 18617 18618 18619 18620 18621 18622 18623 18624 18625 18626 18627 18628 18629 18630 18631 18632 18633 18634 18635 18636 18637 18638 18639 18640 18641 18642 18643 18644 18645 18646 18647 18648 18649 18650 18651 18652 18653 18654 18655 18656 18657 18658 18659 18660 18661 18662 18663 18664 18665 18666 18667 18668 18669 18670 18671 18672 18673 18674 18675 18676 18677 18678 18679 18680 18681 18682 18683 18684 18685 18686 18687 18688 18689 18690 18691 18692 18693 18694 18695 18696 18697 18698 18699 18700 18701 18702 18703 18704 18705 18706 18707 18708 18709 18710 18711 18712 18713 18714 18715 18716 18717 18718 18719 18720 18721 18722 18723 18724 18725 18726 18727 18728 18729 18730 18731 18732 18733 18734 18735 18736 18737 18738 18739 18740 18741 18742 18743 18744 18745 18746 18747 18748 18749 18750 18751 18752 18753 18754 18755 18756 18757 18758 18759 18760 18761 18762 18763 18764 18765 18766 18767 18768 18769 18770 18771 18772 18773 18774 18775 18776 18777 18778 18779 18780 18781 18782 18783 18784 18785 18786 18787 18788 18789 18790 18791 18792 18793 18794 18795 18796 18797 18798 18799 18800 18801 18802 18803 18804 18805 18806 18807 18808 18809 18810 18811 18812 18813 18814 18815 18816 18817 18818 18819 18820 18821 18822 18823 18824 18825 18826 18827 18828 18829 18830 18831 18832 18833 18834 18835 18836 18837 18838 18839 18840 18841 18842 18843 18844 18845 18846 18847 18848 18849 18850 18851 18852 18853 18854 18855 18856 18857 18858 18859 18860 18861 18862 18863 18864 18865 18866 18867 18868 18869 18870 18871 18872 18873 18874 18875 18876 18877 18878 18879 18880 18881 18882 18883 18884 18885 18886 18887 18888 18889 18890 18891 18892 18893 18894 18895 18896 18897 18898 18899 18900 18901 18902 18903 18904 18905 18906 18907 18908 18909 18910 18911 18912 18913 18914 18915 18916 18917 18918 18919 18920 18921 18922 18923 18924 18925 18926 18927 18928 18929 18930 18931 18932 18933 18934 18935 18936 18937 18938 18939 18940 18941 18942 18943 18944 18945 18946 18947 18948 18949 18950 18951 18952 18953 18954 18955 18956 18957 18958 18959 18960 18961 18962 18963 18964 18965 18966 18967 18968 18969 18970 18971 18972 18973 18974 18975 18976 18977 18978 18979 18980 18981 18982 18983 18984 18985 18986 18987 18988 18989 18990 18991 18992 18993 18994 18995 18996 18997 18998 18999 19000 19001 19002 19003 19004 19005 19006 19007 19008 19009 19010 19011 19012 19013 19014 19015 19016 19017 19018 19019 19020 19021 19022 19023 19024 19025 19026 19027 19028 19029 19030 19031 19032 19033 19034 19035 19036 19037 19038 19039 19040 19041 19042 19043 19044 19045 19046 19047 19048 19049 19050 19051 19052 19053 19054 19055 19056 19057 19058 19059 19060 19061 19062 19063 19064 19065 19066 19067 19068 19069 19070 19071 19072 19073 19074 19075 19076 19077 19078 19079 19080 19081 19082 19083 19084 19085 19086 19087 19088 19089 19090 19091 19092 19093 19094 19095 19096 19097 19098 19099 19100 19101 19102 19103 19104 19105 19106 19107 19108 19109 19110 19111 19112 19113 19114 19115 19116 19117 19118 19119 19120 19121 19122 19123 19124 19125 19126 19127 19128 19129 19130 19131 19132 19133 19134 19135 19136 19137 19138 19139 19140 19141 19142 19143 19144 19145 19146 19147 19148 19149 19150 19151 19152 19153 19154 19155 19156 19157 19158 19159 19160 19161 19162 19163 19164 19165 19166 19167 19168 19169 19170 19171 19172 19173 19174 19175 19176 19177 19178 19179 19180 19181 19182 19183 19184 19185 19186 19187 19188 19189 19190 19191 19192 19193 19194 19195 19196 19197 19198 19199 19200 19201 19202 19203 19204 19205 19206 19207 19208 19209 19210 19211 19212 19213 19214 19215 19216 19217 19218 19219 19220 19221 19222 19223 19224 19225 19226 19227 19228 19229 19230 19231 19232 19233 19234 19235 19236 19237 19238 19239 19240 19241 19242 19243 19244 19245 19246 19247 19248 19249 19250 19251 19252 19253 19254 19255 19256 19257 19258 19259 19260 19261 19262 19263 19264 19265 19266 19267 19268 19269 19270 19271 19272 19273 19274 19275 19276 19277 19278 19279 19280 19281 19282 19283 19284 19285 19286 19287 19288 19289 19290 19291 19292 19293 19294 19295 19296 19297 19298 19299 19300 19301 19302 19303 19304 19305 19306 19307 19308 19309 19310 19311 19312 19313 19314 19315 19316 19317 19318 19319 19320 19321 19322 19323 19324 19325 19326 19327 19328 19329 19330 19331 19332 19333 19334 19335 19336 19337 19338 19339 19340 19341 19342 19343 19344 19345 19346 19347 19348 19349 19350 19351 19352 19353 19354 19355 19356 19357 19358 19359 19360 19361 19362 19363 19364 19365 19366 19367 19368 19369 19370 19371 19372 19373 19374 19375 19376 19377 19378 19379 19380 19381 19382 19383 19384 19385 19386 19387 19388 19389 19390 19391 19392 19393 19394 19395 19396 19397 19398 19399 19400 19401 19402 19403 19404 19405 19406 19407 19408 19409 19410 19411 19412 19413 19414 19415 19416 19417 19418 19419 19420 19421 19422 19423 19424 19425 19426 19427 19428 19429 19430 19431 19432 19433 19434 19435 19436 19437 19438 19439 19440 19441 19442 19443 19444 19445 19446 19447 19448 19449 19450 19451 19452 19453 19454 19455 19456 19457 19458 19459 19460 19461 19462 19463 19464 19465 19466 19467 19468 19469 19470 19471 19472 19473 19474 19475 19476 19477 19478 19479 19480 19481 19482 19483 19484 19485 19486 19487 19488 19489 19490 19491 19492 19493 19494 19495 19496 19497 19498 19499 19500 19501 19502 19503 19504 19505 19506 19507 19508 19509 19510 19511 19512 19513 19514 19515 19516 19517 19518 19519 19520 19521 19522 19523 19524 19525 19526 19527 19528 19529 19530 19531 19532 19533 19534 19535 19536 19537 19538 19539 19540 19541 19542 19543 19544 19545 19546 19547 19548 19549 19550 19551 19552 19553 19554 19555 19556 19557 19558 19559 19560 19561 19562 19563 19564 19565 19566 19567 19568 19569 19570 19571 19572 19573 19574 19575 19576 19577 19578 19579 19580 19581 19582 19583 19584 19585 19586 19587 19588 19589 19590 19591 19592 19593 19594 19595 19596 19597 19598 19599 19600 19601 19602 19603 19604 19605 19606 19607 19608 19609 19610 19611 19612 19613 19614 19615 19616 19617 19618 19619 19620 19621 19622 19623 19624 19625 19626 19627 19628 19629 19630 19631 19632 19633 19634 19635 19636 19637 19638 19639 19640 19641 19642 19643 19644 19645 19646 19647 19648 19649 19650 19651 19652 19653 19654 19655 19656 19657 19658 19659 19660 19661 19662 19663 19664 19665 19666 19667 19668 19669 19670 19671 19672 19673 19674 19675 19676 19677 19678 19679 19680 19681 19682 19683 19684 19685 19686 19687 19688 19689 19690 19691 19692 19693 19694 19695 19696 19697 19698 19699 19700 19701 19702 19703 19704 19705 19706 19707 19708 19709 19710 19711 19712 19713 19714 19715 19716 19717 19718 19719 19720 19721 19722 19723 19724 19725 19726 19727 19728 19729 19730 19731 19732 19733 19734 19735 19736 19737 19738 19739 19740 19741 19742 19743 19744 19745 19746 19747 19748 19749 19750 19751 19752 19753 19754 19755 19756 19757 19758 19759 19760 19761 19762 19763 19764 19765 19766 19767 19768 19769 19770 19771 19772 19773 19774 19775 19776 19777 19778 19779 19780 19781 19782 19783 19784 19785 19786 19787 19788 19789 19790 19791 19792 19793 19794 19795 19796 19797 19798 19799 19800 19801 19802 19803 19804 19805 19806 19807 19808 19809 19810 19811 19812 19813 19814 19815 19816 19817 19818 19819 19820 19821 19822 19823 19824 19825 19826 19827 19828 19829 19830 19831 19832 19833 19834 19835 19836 19837 19838 19839 19840 19841 19842 19843 19844 19845 19846 19847 19848 19849 19850 19851 19852 19853 19854 19855 19856 19857 19858 19859 19860 19861 19862 19863 19864 19865 19866 19867 19868 19869 19870 19871 19872 19873 19874 19875 19876 19877 19878 19879 19880 19881 19882 19883 19884 19885 19886 19887 19888 19889 19890 19891 19892 19893 19894 19895 19896 19897 19898 19899 19900 19901 19902 19903 19904 19905 19906 19907 19908 19909 19910 19911 19912 19913 19914 19915 19916 19917 19918 19919 19920 19921 19922 19923 19924 19925 19926 19927 19928 19929 19930 19931 19932 19933 19934 19935 19936 19937 19938 19939 19940 19941 19942 19943 19944 19945 19946 19947 19948 19949 19950 19951 19952 19953 19954 19955 19956 19957 19958 19959 19960 19961 19962 19963 19964 19965 19966 19967 19968 19969 19970 19971 19972 19973 19974 19975 19976 19977 19978 19979 19980 19981 19982 19983 19984 19985 19986 19987 19988 19989 19990 19991 19992 19993 19994 19995 19996 19997 19998 19999 20000 20001 20002 20003 20004 20005 20006 20007 20008 20009 20010 20011 20012 20013 20014 20015 20016 20017 20018 20019 20020 20021 20022 20023 20024 20025 20026 20027 20028 20029 20030 20031 20032 20033 20034 20035 20036 20037 20038 20039 20040 20041 20042 20043 20044 20045 20046 20047 20048 20049 20050 20051 20052 20053 20054 20055 20056 20057 20058 20059 20060 20061 20062 20063 20064 20065 20066 20067 20068 20069 20070 20071 20072 20073 20074 20075 20076 20077 20078 20079 20080 20081 20082 20083 20084 20085 20086 20087 20088 20089 20090 20091 20092 20093 20094 20095 20096 20097 20098 20099 20100 20101 20102 20103 20104 20105 20106 20107 20108 20109 20110 20111 20112 20113 20114 20115 20116 20117 20118 20119 20120 20121 20122 20123 20124 20125 20126 20127 20128 20129 20130 20131 20132 20133 20134 20135 20136 20137 20138 20139 20140 20141 20142 20143 20144 20145 20146 20147 20148 20149 20150 20151 20152 20153 20154 20155 20156 20157 20158 20159 20160 20161 20162 20163 20164 20165 20166 20167 20168 20169 20170 20171 20172 20173 20174 20175 20176 20177 20178 20179 20180 20181 20182 20183 20184 20185 20186 20187 20188 20189 20190 20191 20192 20193 20194 20195 20196 20197 20198 20199 20200 20201 20202 20203 20204 20205 20206 20207 20208 20209 20210 20211 20212 20213 20214 20215 20216 20217 20218 20219 20220 20221 20222 20223 20224 20225 20226 20227 20228 20229 20230 20231 20232 20233 20234 20235 20236 20237 20238 20239 20240 20241 20242 20243 20244 20245 20246 20247 20248 20249 20250 20251 20252 20253 20254 20255 20256 20257 20258 20259 20260 20261 20262 20263 20264 20265 20266 20267 20268 20269 20270 20271 20272 20273 20274 20275 20276 20277 20278 20279 20280 20281 20282 20283 20284 20285 20286 20287 20288 20289 20290 20291 20292 20293 20294 20295 20296 20297 20298 20299 20300 20301 20302 20303 20304 20305 20306 20307 20308 20309 20310 20311 20312 20313 20314 20315 20316 20317 20318 20319 20320 20321 20322 20323 20324 20325 20326 20327 20328 20329 20330 20331 20332 20333 20334 20335 20336 20337 20338 20339 20340 20341 20342 20343 20344 20345 20346 20347 20348 20349 20350 20351 20352 20353 20354 20355 20356 20357 20358 20359 20360 20361 20362 20363 20364 20365 20366 20367 20368 20369 20370 20371 20372 20373 20374 20375 20376 20377 20378 20379 20380 20381 20382 20383 20384 20385 20386 20387 20388 20389 20390 20391 20392 20393 20394 20395 20396 20397 20398 20399 20400 20401 20402 20403 20404 20405 20406 20407 20408 20409 20410 20411 20412 20413 20414 20415 20416 20417 20418 20419 20420 20421 20422 20423 20424 20425 20426 20427 20428 20429 20430 20431 20432 20433 20434 20435 20436 20437 20438 20439 20440 20441 20442 20443 20444 20445 20446 20447 20448 20449 20450 20451 20452 20453 20454 20455 20456 20457 20458 20459 20460 20461 20462 20463 20464 20465 20466 20467 20468 20469 20470 20471 20472 20473 20474 20475 20476 20477 20478 20479 20480 20481 20482 20483 20484 20485 20486 20487 20488 20489 20490 20491 20492 20493 20494 20495 20496 20497 20498 20499 20500 20501 20502 20503 20504 20505 20506 20507 20508 20509 20510 20511 20512 20513 20514 20515 20516 20517 20518 20519 20520 20521 20522 20523 20524 20525 20526 20527 20528 20529 20530 20531 20532 20533 20534 20535 20536 20537 20538 20539 20540 20541 20542 20543 20544 20545 20546 20547 20548 20549 20550 20551 20552 20553 20554 20555 20556 20557 20558 20559 20560 20561 20562 20563 20564 20565 20566 20567 20568 20569 20570 20571 20572 20573 20574 20575 20576 20577 20578 20579 20580 20581 20582 20583 20584 20585 20586 20587 20588 20589 20590 20591 20592 20593 20594 20595 20596 20597 20598 20599 20600 20601 20602 20603 20604 20605 20606 20607 20608 20609 20610 20611 20612 20613 20614 20615 20616 20617 20618 20619 20620 20621 20622 20623 20624 20625 20626 20627 20628 20629 20630 20631 20632 20633 20634 20635 20636 20637 20638 20639 20640 20641 20642 20643 20644 20645 20646 20647 20648 20649 20650 20651 20652 20653 20654 20655 20656 20657 20658 20659 20660 20661 20662 20663 20664 20665 20666 20667 20668 20669 20670 20671 20672 20673 20674 20675 20676 20677 20678 20679 20680 20681 20682 20683 20684 20685 20686 20687 20688 20689 20690 20691 20692 20693 20694 20695 20696 20697 20698 20699 20700 20701 20702 20703 20704 20705 20706 20707 20708 20709 20710 20711 20712 20713 20714 20715 20716 20717 20718 20719 20720 20721 20722 20723 20724 20725 20726 20727 20728 20729 20730 20731 20732 20733 20734 20735 20736 20737 20738 20739 20740 20741 20742 20743 20744 20745 20746 20747 20748 20749 20750 20751 20752 20753 20754 20755 20756 20757 20758 20759 20760 20761 20762 20763 20764 20765 20766 20767 20768 20769 20770 20771 20772 20773 20774 20775 20776 20777 20778 20779 20780 20781 20782 20783 20784 20785 20786 20787 20788 20789 20790 20791 20792 20793 20794 20795 20796 20797 20798 20799 20800 20801 20802 20803 20804 20805 20806 20807 20808 20809 20810 20811 20812 20813 20814 20815 20816 20817 20818 20819 20820 20821 20822 20823 20824 20825 20826 20827 20828 20829 20830 20831 20832 20833 20834 20835 20836 20837 20838 20839 20840 20841 20842 20843 20844 20845 20846 20847 20848 20849 20850 20851 20852 20853 20854 20855 20856 20857 20858 20859 20860 20861 20862 20863 20864 20865 20866 20867 20868 20869 20870 20871 20872 20873 20874 20875 20876 20877 20878 20879 20880 20881 20882 20883 20884 20885 20886 20887 20888 20889 20890 20891 20892 20893 20894 20895 20896 20897 20898 20899 20900 20901 20902 20903 20904 20905 20906 20907 20908 20909 20910 20911 20912 20913 20914 20915 20916 20917 20918 20919 20920 20921 20922 20923 20924 20925 20926 20927 20928 20929 20930 20931 20932 20933 20934 20935 20936 20937 20938 20939 20940 20941 20942 20943 20944 20945 20946 20947 20948 20949 20950 20951 20952 20953 20954 20955 20956 20957 20958 20959 20960 20961 20962 20963 20964 20965 20966 20967 20968 20969 20970 20971 20972 20973 20974 20975 20976 20977 20978 20979 20980 20981 20982 20983 20984 20985 20986 20987 20988 20989 20990 20991 20992 20993 20994 20995 20996 20997 20998 20999 21000 21001 21002 21003 21004 21005 21006 21007 21008 21009 21010 21011 21012 21013 21014 21015 21016 21017 21018 21019 21020 21021 21022 21023 21024 21025 21026 21027 21028 21029 21030 21031 21032 21033 21034 21035 21036 21037 21038 21039 21040 21041 21042 21043 21044 21045 21046 21047 21048 21049 21050 21051 21052 21053 21054 21055 21056 21057 21058 21059 21060 21061 21062 21063 21064 21065 21066 21067 21068 21069 21070 21071 21072 21073 21074 21075 21076 21077 21078 21079 21080 21081 21082 21083 21084 21085 21086 21087 21088 21089 21090 21091 21092 21093 21094 21095 21096 21097 21098 21099 21100 21101 21102 21103 21104 21105 21106 21107 21108 21109 21110 21111 21112 21113 21114 21115 21116 21117 21118 21119 21120 21121 21122 21123 21124 21125 21126 21127 21128 21129 21130 21131 21132 21133 21134 21135 21136 21137 21138 21139 21140 21141 21142 21143 21144 21145 21146 21147 21148 21149 21150 21151 21152 21153 21154 21155 21156 21157 21158 21159 21160 21161 21162 21163 21164 21165 21166 21167 21168 21169 21170 21171 21172 21173 21174 21175 21176 21177 21178 21179 21180 21181 21182 21183 21184 21185 21186 21187 21188 21189 21190 21191 21192 21193 21194 21195 21196 21197 21198 21199 21200 21201 21202 21203 21204 21205 21206 21207 21208 21209 21210 21211 21212 21213 21214 21215 21216 21217 21218 21219 21220 21221 21222 21223 21224 21225 21226 21227 21228 21229 21230 21231 21232 21233 21234 21235 21236 21237 21238 21239 21240 21241 21242 21243 21244 21245 21246 21247 21248 21249 21250 21251 21252 21253 21254 21255 21256 21257 21258 21259 21260 21261 21262 21263 21264 21265 21266 21267 21268 21269 21270 21271 21272 21273 21274 21275 21276 21277 21278 21279 21280 21281 21282 21283 21284 21285 21286 21287 21288 21289 21290 21291 21292 21293 21294 21295 21296 21297 21298 21299 21300 21301 21302 21303 21304 21305 21306 21307 21308 21309 21310 21311 21312 21313 21314 21315 21316 21317 21318 21319 21320 21321 21322 21323 21324 21325 21326 21327 21328 21329 21330 21331 21332 21333 21334 21335 21336 21337 21338 21339 21340 21341 21342 21343 21344 21345 21346 21347 21348 21349 21350 21351 21352 21353 21354 21355 21356 21357 21358 21359 21360 21361 21362 21363 21364 21365 21366 21367 21368 21369 21370 21371 21372 21373 21374 21375 21376 21377 21378 21379 21380 21381 21382 21383 21384 21385 21386 21387 21388 21389 21390 21391 21392 21393 21394 21395 21396 21397 21398 21399 21400 21401 21402 21403 21404 21405 21406 21407 21408 21409 21410 21411 21412 21413 21414 21415 21416 21417 21418 21419 21420 21421 21422 21423 21424 21425 21426 21427 21428 21429 21430 21431 21432 21433 21434 21435 21436 21437 21438 21439 21440 21441 21442 21443 21444 21445 21446 21447 21448 21449 21450 21451 21452 21453 21454 21455 21456 21457 21458 21459 21460 21461 21462 21463 21464 21465 21466 21467 21468 21469 21470 21471 21472 21473 21474 21475 21476 21477 21478 21479 21480 21481 21482 21483 21484 21485 21486 21487 21488 21489 21490 21491 21492 21493 21494 21495 21496 21497 21498 21499 21500 21501 21502 21503 21504 21505 21506 21507 21508 21509 21510 21511 21512 21513 21514 21515 21516 21517 21518 21519 21520 21521 21522 21523 21524 21525 21526 21527 21528 21529 21530 21531 21532 21533 21534 21535 21536 21537 21538 21539 21540 21541 21542 21543 21544 21545 21546 21547 21548 21549 21550 21551 21552 21553 21554 21555 21556 21557 21558 21559 21560 21561 21562 21563 21564 21565 21566 21567 21568 21569 21570 21571 21572 21573 21574 21575 21576 21577 21578 21579 21580 21581 21582 21583 21584 21585 21586 21587 21588 21589 21590 21591 21592 21593 21594 21595 21596 21597 21598 21599 21600 21601 21602 21603 21604 21605 21606 21607 21608 21609 21610 21611 21612 21613 21614 21615 21616 21617 21618 21619 21620 21621 21622 21623 21624 21625 21626 21627 21628 21629 21630 21631 21632 21633 21634 21635 21636 21637 21638 21639 21640 21641 21642 21643 21644 21645 21646 21647 21648 21649 21650 21651 21652 21653 21654 21655 21656 21657 21658 21659 21660 21661 21662 21663 21664 21665 21666 21667 21668 21669 21670 21671 21672 21673 21674 21675 21676 21677 21678 21679 21680 21681 21682 21683 21684 21685 21686 21687 21688 21689 21690 21691 21692 21693 21694 21695 21696 21697 21698 21699 21700 21701 21702 21703 21704 21705 21706 21707 21708 21709 21710 21711 21712 21713 21714 21715 21716 21717 21718 21719 21720 21721 21722 21723 21724 21725 21726 21727 21728 21729 21730 21731 21732 21733 21734 21735 21736 21737 21738 21739 21740 21741 21742 21743 21744 21745 21746 21747 21748 21749 21750 21751 21752 21753 21754 21755 21756 21757 21758 21759 21760 21761 21762 21763 21764 21765 21766 21767 21768 21769 21770 21771 21772 21773 21774 21775 21776 21777 21778 21779 21780 21781 21782 21783 21784 21785 21786 21787 21788 21789 21790 21791 21792 21793 21794 21795 21796 21797 21798 21799 21800 21801 21802 21803 21804 21805 21806 21807 21808 21809 21810 21811 21812 21813 21814 21815 21816 21817 21818 21819 21820 21821 21822 21823 21824 21825 21826 21827 21828 21829 21830 21831 21832 21833 21834 21835 21836 21837 21838 21839 21840 21841 21842 21843 21844 21845 21846 21847 21848 21849 21850 21851 21852 21853 21854 21855 21856 21857 21858 21859 21860 21861 21862 21863 21864 21865 21866 21867 21868 21869 21870 21871 21872 21873 21874 21875 21876 21877 21878 21879 21880 21881 21882 21883 21884 21885 21886 21887 21888 21889 21890 21891 21892 21893 21894 21895 21896 21897 21898 21899 21900 21901 21902 21903 21904 21905 21906 21907 21908 21909 21910 21911 21912 21913 21914 21915 21916 21917 21918 21919 21920 21921 21922 21923 21924 21925 21926 21927 21928 21929 21930 21931 21932 21933 21934 21935 21936 21937 21938 21939 21940 21941 21942 21943 21944 21945 21946 21947 21948 21949 21950 21951 21952 21953 21954 21955 21956 21957 21958 21959 21960 21961 21962 21963 21964 21965 21966 21967 21968 21969 21970 21971 21972 21973 21974 21975 21976 21977 21978 21979 21980 21981 21982 21983 21984 21985 21986 21987 21988 21989 21990 21991 21992 21993 21994 21995 21996 21997 21998 21999 22000 22001 22002 22003 22004 22005 22006 22007 22008 22009 22010 22011 22012 22013 22014 22015 22016 22017 22018 22019 22020 22021 22022 22023 22024 22025 22026 22027 22028 22029 22030 22031 22032 22033 22034 22035 22036 22037 22038 22039 22040 22041 22042 22043 22044 22045 22046 22047 22048 22049 22050 22051 22052 22053 22054 22055 22056 22057 22058 22059 22060 22061 22062 22063 22064 22065 22066 22067 22068 22069 22070 22071 22072 22073 22074 22075 22076 22077 22078 22079 22080 22081 22082 22083 22084 22085 22086 22087 22088 22089 22090 22091 22092 22093 22094 22095 22096 22097 22098 22099 22100 22101 22102 22103 22104 22105 22106 22107 22108 22109 22110 22111 22112 22113 22114 22115 22116 22117 22118 22119 22120 22121 22122 22123 22124 22125 22126 22127 22128 22129 22130 22131 22132 22133 22134 22135 22136 22137 22138 22139 22140 22141 22142 22143 22144 22145 22146 22147 22148 22149 22150 22151 22152 22153 22154 22155 22156 22157 22158 22159 22160 22161 22162 22163 22164 22165 22166 22167 22168 22169 22170 22171 22172 22173 22174 22175 22176 22177 22178 22179 22180 22181 22182 22183 22184 22185 22186 22187 22188 22189 22190 22191 22192 22193 22194 22195 22196 22197 22198 22199 22200 22201 22202 22203 22204 22205 22206 22207 22208 22209 22210 22211 22212 22213 22214 22215 22216 22217 22218 22219 22220 22221 22222 22223 22224 22225 22226 22227 22228 22229 22230 22231 22232 22233 22234 22235 22236 22237 22238 22239 22240 22241 22242 22243 22244 22245 22246 22247 22248 22249 22250 22251 22252 22253 22254 22255 22256 22257 22258 22259 22260 22261 22262 22263 22264 22265 22266 22267 22268 22269 22270 22271 22272 22273 22274 22275 22276 22277 22278 22279 22280 22281 22282 22283 22284 22285 22286 22287 22288 22289 22290 22291 22292 22293 22294 22295 22296 22297 22298 22299 22300 22301 22302 22303 22304 22305 22306 22307 22308 22309 22310 22311 22312 22313 22314 22315 22316 22317 22318 22319 22320 22321 22322 22323 22324 22325 22326 22327 22328 22329 22330 22331 22332 22333 22334 22335 22336 22337 22338 22339 22340 22341 22342 22343 22344 22345 22346 22347 22348 22349 22350 22351 22352 22353 22354 22355 22356 22357 22358 22359 22360 22361 22362 22363 22364 22365 22366 22367 22368 22369 22370 22371 22372 22373 22374 22375 22376 22377 22378 22379 22380 22381 22382 22383 22384 22385 22386 22387 22388 22389 22390 22391 22392 22393 22394 22395 22396 22397 22398 22399 22400 22401 22402 22403 22404 22405 22406 22407 22408 22409 22410 22411 22412 22413 22414 22415 22416 22417 22418 22419 22420 22421 22422 22423 22424 22425 22426 22427 22428 22429 22430 22431 22432 22433 22434 22435 22436 22437 22438 22439 22440 22441 22442 22443 22444 22445 22446 22447 22448 22449 22450 22451 22452 22453 22454 22455 22456 22457 22458 22459 22460 22461 22462 22463 22464 22465 22466 22467 22468 22469 22470 22471 22472 22473 22474 22475 22476 22477 22478 22479 22480 22481 22482 22483 22484 22485 22486 22487 22488 22489 22490 22491 22492 22493 22494 22495 22496 22497 22498 22499 22500 22501 22502 22503 22504 22505 22506 22507 22508 22509 22510 22511 22512 22513 22514 22515 22516 22517 22518 22519 22520 22521 22522 22523 22524 22525 22526 22527 22528 22529 22530 22531 22532 22533 22534 22535 22536 22537 22538 22539 22540 22541 22542 22543 22544 22545 22546 22547 22548 22549 22550 22551 22552 22553 22554 22555 22556 22557 22558 22559 22560 22561 22562 22563 22564 22565 22566 22567 22568 22569 22570 22571 22572 22573 22574 22575 22576 22577 22578 22579 22580 22581 22582 22583 22584 22585 22586 22587 22588 22589 22590 22591 22592 22593 22594 22595 22596 22597 22598 22599 22600 22601 22602 22603 22604 22605 22606 22607 22608 22609 22610 22611 22612 22613 22614 22615 22616 22617 22618 22619 22620 22621 22622 22623 22624 22625 22626 22627 22628 22629 22630 22631 22632 22633 22634 22635 22636 22637 22638 22639 22640 22641 22642 22643 22644 22645 22646 22647 22648 22649 22650 22651 22652 22653 22654 22655 22656 22657 22658 22659 22660 22661 22662 22663 22664 22665 22666 22667 22668 22669 22670 22671 22672 22673 22674 22675 22676 22677 22678 22679 22680 22681 22682 22683 22684 22685 22686 22687 22688 22689 22690 22691 22692 22693 22694 22695 22696 22697 22698 22699 22700 22701 22702 22703 22704 22705 22706 22707 22708 22709 22710 22711 22712 22713 22714 22715 22716 22717 22718 22719 22720 22721 22722 22723 22724 22725 22726 22727 22728 22729 22730 22731 22732 22733 22734 22735 22736 22737 22738 22739 22740 22741 22742 22743 22744 22745 22746 22747 22748 22749 22750 22751 22752 22753 22754 22755 22756 22757 22758 22759 22760 22761 22762 22763 22764 22765 22766 22767 22768 22769 22770 22771 22772 22773 22774 22775 22776 22777 22778 22779 22780 22781 22782 22783 22784 22785 22786 22787 22788 22789 22790 22791 22792 22793 22794 22795 22796 22797 22798 22799 22800 22801 22802 22803 22804 22805 22806 22807 22808 22809 22810 22811 22812 22813 22814 22815 22816 22817 22818 22819 22820 22821 22822 22823 22824 22825 22826 22827 22828 22829 22830 22831 22832 22833 22834 22835 22836 22837 22838 22839 22840 22841 22842 22843 22844 22845 22846 22847 22848 22849 22850 22851 22852 22853 22854 22855 22856 22857 22858 22859 22860 22861 22862 22863 22864 22865 22866 22867 22868 22869 22870 22871 22872 22873 22874 22875 22876 22877 22878 22879 22880 22881 22882 22883 22884 22885 22886 22887 22888 22889 22890 22891 22892 22893 22894 22895 22896 22897 22898 22899 22900 22901 22902 22903 22904 22905 22906 22907 22908 22909 22910 22911 22912 22913 22914 22915 22916 22917 22918 22919 22920 22921 22922 22923 22924 22925 22926 22927 22928 22929 22930 22931 22932 22933 22934 22935 22936 22937 22938 22939 22940 22941 22942 22943 22944 22945 22946 22947 22948 22949 22950 22951 22952 22953 22954 22955 22956 22957 22958 22959 22960 22961 22962 22963 22964 22965 22966 22967 22968 22969 22970 22971 22972 22973 22974 22975 22976 22977 22978 22979 22980 22981 22982 22983 22984 22985 22986 22987 22988 22989 22990 22991 22992 22993 22994 22995 22996 22997 22998 22999 23000 23001 23002 23003 23004 23005 23006 23007 23008 23009 23010 23011 23012 23013 23014 23015 23016 23017 23018 23019 23020 23021 23022 23023 23024 23025 23026 23027 23028 23029 23030 23031 23032 23033 23034 23035 23036 23037 23038 23039 23040 23041 23042 23043 23044 23045 23046 23047 23048 23049 23050 23051 23052 23053 23054 23055 23056 23057 23058 23059 23060 23061 23062 23063 23064 23065 23066 23067 23068 23069 23070 23071 23072 23073 23074 23075 23076 23077 23078 23079 23080 23081 23082 23083 23084 23085 23086 23087 23088 23089 23090 23091 23092 23093 23094 23095 23096 23097 23098 23099 23100 23101 23102 23103 23104 23105 23106 23107 23108 23109 23110 23111 23112 23113 23114 23115 23116 23117 23118 23119 23120 23121 23122 23123 23124 23125 23126 23127 23128 23129 23130 23131 23132 23133 23134 23135 23136 23137 23138 23139 23140 23141 23142 23143 23144 23145 23146 23147 23148 23149 23150 23151 23152 23153 23154 23155 23156 23157 23158 23159 23160 23161 23162 23163 23164 23165 23166 23167 23168 23169 23170 23171 23172 23173 23174 23175 23176 23177 23178 23179 23180 23181 23182 23183 23184 23185 23186 23187 23188 23189 23190 23191 23192 23193 23194 23195 23196 23197 23198 23199 23200 23201 23202 23203 23204 23205 23206 23207 23208 23209 23210 23211 23212 23213 23214 23215 23216 23217 23218 23219 23220 23221 23222 23223 23224 23225 23226 23227 23228 23229 23230 23231 23232 23233 23234 23235 23236 23237 23238 23239 23240 23241 23242 23243 23244 23245 23246 23247 23248 23249 23250 23251 23252 23253 23254 23255 23256 23257 23258 23259 23260 23261 23262 23263 23264 23265 23266 23267 23268 23269 23270 23271 23272 23273 23274 23275 23276 23277 23278 23279 23280 23281 23282 23283 23284 23285 23286 23287 23288 23289 23290 23291 23292 23293 23294 23295 23296 23297 23298 23299 23300 23301 23302 23303 23304 23305 23306 23307 23308 23309 23310 23311 23312 23313 23314 23315 23316 23317 23318 23319 23320 23321 23322 23323 23324 23325 23326 23327 23328 23329 23330 23331 23332 23333 23334 23335 23336 23337 23338 23339 23340 23341 23342 23343 23344 23345 23346 23347 23348 23349 23350 23351 23352 23353 23354 23355 23356 23357 23358 23359 23360 23361 23362 23363 23364 23365 23366 23367 23368 23369 23370 23371 23372 23373 23374 23375 23376 23377 23378 23379 23380 23381 23382 23383 23384 23385 23386 23387 23388 23389 23390 23391 23392 23393 23394 23395 23396 23397 23398 23399 23400 23401 23402 23403 23404 23405 23406 23407 23408 23409 23410 23411 23412 23413 23414 23415 23416 23417 23418 23419 23420 23421 23422 23423 23424 23425 23426 23427 23428 23429 23430 23431 23432 23433 23434 23435 23436 23437 23438 23439 23440 23441 23442 23443 23444 23445 23446 23447 23448 23449 23450 23451 23452 23453 23454 23455 23456 23457 23458 23459 23460 23461 23462 23463 23464 23465 23466 23467 23468 23469 23470 23471 23472 23473 23474 23475 23476 23477 23478 23479 23480 23481 23482 23483 23484 23485 23486 23487 23488 23489 23490 23491 23492 23493 23494 23495 23496 23497 23498 23499 23500 23501 23502 23503 23504 23505 23506 23507 23508 23509 23510 23511 23512 23513 23514 23515 23516 23517 23518 23519 23520 23521 23522 23523 23524 23525 23526 23527 23528 23529 23530 23531 23532 23533 23534 23535 23536 23537 23538 23539 23540 23541 23542 23543 23544 23545 23546 23547 23548 23549 23550 23551 23552 23553 23554 23555 23556 23557 23558 23559 23560 23561 23562 23563 23564 23565 23566 23567 23568 23569 23570 23571 23572 23573 23574 23575 23576 23577 23578 23579 23580 23581 23582 23583 23584 23585 23586 23587 23588 23589 23590 23591 23592 23593 23594 23595 23596 23597 23598 23599 23600 23601 23602 23603 23604 23605 23606 23607 23608 23609 23610 23611 23612 23613 23614 23615 23616 23617 23618 23619 23620 23621 23622 23623 23624 23625 23626 23627 23628 23629 23630 23631 23632 23633 23634 23635 23636 23637 23638 23639 23640 23641 23642 23643 23644 23645 23646 23647 23648 23649 23650 23651 23652 23653 23654 23655 23656 23657 23658 23659 23660 23661 23662 23663 23664 23665 23666 23667 23668 23669 23670 23671 23672 23673 23674 23675 23676 23677 23678 23679 23680 23681 23682 23683 23684 23685 23686 23687 23688 23689 23690 23691 23692 23693 23694 23695 23696 23697 23698 23699 23700 23701 23702 23703 23704 23705 23706 23707 23708 23709 23710 23711 23712 23713 23714 23715 23716 23717 23718 23719 23720 23721 23722 23723 23724 23725 23726 23727 23728 23729 23730 23731 23732 23733 23734 23735 23736 23737 23738 23739 23740 23741 23742 23743 23744 23745 23746 23747 23748 23749 23750 23751 23752 23753 23754 23755 23756 23757 23758 23759 23760 23761 23762 23763 23764 23765 23766 23767 23768 23769 23770 23771 23772 23773 23774 23775 23776 23777 23778 23779 23780 23781 23782 23783 23784 23785 23786 23787 23788 23789 23790 23791 23792 23793 23794 23795 23796 23797 23798 23799 23800 23801 23802 23803 23804 23805 23806 23807 23808 23809 23810 23811 23812 23813 23814 23815 23816 23817 23818 23819 23820 23821 23822 23823 23824 23825 23826 23827 23828 23829 23830 23831 23832 23833 23834 23835 23836 23837 23838 23839 23840 23841 23842 23843 23844 23845 23846 23847 23848 23849 23850 23851 23852 23853 23854 23855 23856 23857 23858 23859 23860 23861 23862 23863 23864 23865 23866 23867 23868 23869 23870 23871 23872 23873 23874 23875 23876 23877 23878 23879 23880 23881 23882 23883 23884 23885 23886 23887 23888 23889 23890 23891 23892 23893 23894 23895 23896 23897 23898 23899 23900 23901 23902 23903 23904 23905 23906 23907 23908 23909 23910 23911 23912 23913 23914 23915 23916 23917 23918 23919 23920 23921 23922 23923 23924 23925 23926 23927 23928 23929 23930 23931 23932 23933 23934 23935 23936 23937 23938 23939 23940 23941 23942 23943 23944 23945 23946 23947 23948 23949 23950 23951 23952 23953 23954 23955 23956 23957 23958 23959 23960 23961 23962 23963 23964 23965 23966 23967 23968 23969 23970 23971 23972 23973 23974 23975 23976 23977 23978 23979 23980 23981 23982 23983 23984 23985 23986 23987 23988 23989 23990 23991 23992 23993 23994 23995 23996 23997 23998 23999 24000 24001 24002 24003 24004 24005 24006 24007 24008 24009 24010 24011 24012 24013 24014 24015 24016 24017 24018 24019 24020 24021 24022 24023 24024 24025 24026 24027 24028 24029 24030 24031 24032 24033 24034 24035 24036 24037 24038 24039 24040 24041 24042 24043 24044 24045 24046 24047 24048 24049 24050 24051 24052 24053 24054 24055 24056 24057 24058 24059 24060 24061 24062 24063 24064 24065 24066 24067 24068 24069 24070 24071 24072 24073 24074 24075 24076 24077 24078 24079 24080 24081 24082 24083 24084 24085 24086 24087 24088 24089 24090 24091 24092 24093 24094 24095 24096 24097 24098 24099 24100 24101 24102 24103 24104 24105 24106 24107 24108 24109 24110 24111 24112 24113 24114 24115 24116 24117 24118 24119 24120 24121 24122 24123 24124 24125 24126 24127 24128 24129 24130 24131 24132 24133 24134 24135 24136 24137 24138 24139 24140 24141 24142 24143 24144 24145 24146 24147 24148 24149 24150 24151 24152 24153 24154 24155 24156 24157 24158 24159 24160 24161 24162 24163 24164 24165 24166 24167 24168 24169 24170 24171 24172 24173 24174 24175 24176 24177 24178 24179 24180 24181 24182 24183 24184 24185 24186 24187 24188 24189 24190 24191 24192 24193 24194 24195 24196 24197 24198 24199 24200 24201 24202 24203 24204 24205 24206 24207 24208 24209 24210 24211 24212 24213 24214 24215 24216 24217 24218 24219 24220 24221 24222 24223 24224 24225 24226 24227 24228 24229 24230 24231 24232 24233 24234 24235 24236 24237 24238 24239 24240 24241 24242 24243 24244 24245 24246 24247 24248 24249 24250 24251 24252 24253 24254 24255 24256 24257 24258 24259 24260 24261 24262 24263 24264 24265 24266 24267 24268 24269 24270 24271 24272 24273 24274 24275 24276 24277 24278 24279 24280 24281 24282 24283 24284 24285 24286 24287 24288 24289 24290 24291 24292 24293 24294 24295 24296 24297 24298 24299 24300 24301 24302 24303 24304 24305 24306 24307 24308 24309 24310 24311 24312 24313 24314 24315 24316 24317 24318 24319 24320 24321 24322 24323 24324 24325 24326 24327 24328 24329 24330 24331 24332 24333 24334 24335 24336 24337 24338 24339 24340 24341 24342 24343 24344 24345 24346 24347 24348 24349 24350 24351 24352 24353 24354 24355 24356 24357 24358 24359 24360 24361 24362 24363 24364 24365 24366 24367 24368 24369 24370 24371 24372 24373 24374 24375 24376 24377 24378 24379 24380 24381 24382 24383 24384 24385 24386 24387 24388 24389 24390 24391 24392 24393 24394 24395 24396 24397 24398 24399 24400 24401 24402 24403 24404 24405 24406 24407 24408 24409 24410 24411 24412 24413 24414 24415 24416 24417 24418 24419 24420 24421 24422 24423 24424 24425 24426 24427 24428 24429 24430 24431 24432 24433 24434 24435 24436 24437 24438 24439 24440 24441 24442 24443 24444 24445 24446 24447 24448 24449 24450 24451 24452 24453 24454 24455 24456 24457 24458 24459 24460 24461 24462 24463 24464 24465 24466 24467 24468 24469 24470 24471 24472 24473 24474 24475 24476 24477 24478 24479 24480 24481 24482 24483 24484 24485 24486 24487 24488 24489 24490 24491 24492 24493 24494 24495 24496 24497 24498 24499 24500 24501 24502 24503 24504 24505 24506 24507 24508 24509 24510 24511 24512 24513 24514 24515 24516 24517 24518 24519 24520 24521 24522 24523 24524 24525 24526 24527 24528 24529 24530 24531 24532 24533 24534 24535 24536 24537 24538 24539 24540 24541 24542 24543 24544 24545 24546 24547 24548 24549 24550 24551 24552 24553 24554 24555 24556 24557 24558 24559 24560 24561 24562 24563 24564 24565 24566 24567 24568 24569 24570 24571 24572 24573 24574 24575 24576 24577 24578 24579 24580 24581 24582 24583 24584 24585 24586 24587 24588 24589 24590 24591 24592 24593 24594 24595 24596 24597 24598 24599 24600 24601 24602 24603 24604 24605 24606 24607 24608 24609 24610 24611 24612 24613 24614 24615 24616 24617 24618 24619 24620 24621 24622 24623 24624 24625 24626 24627 24628 24629 24630 24631 24632 24633 24634 24635 24636 24637 24638 24639 24640 24641 24642 24643 24644 24645 24646 24647 24648 24649 24650 24651 24652 24653 24654 24655 24656 24657 24658 24659 24660 24661 24662 24663 24664 24665 24666 24667 24668 24669 24670 24671 24672 24673 24674 24675 24676 24677 24678 24679 24680 24681 24682 24683 24684 24685 24686 24687 24688 24689 24690 24691 24692 24693 24694 24695 24696 24697 24698 24699 24700 24701 24702 24703 24704 24705 24706 24707 24708 24709 24710 24711 24712 24713 24714 24715 24716 24717 24718 24719 24720 24721 24722 24723 24724 24725 24726 24727 24728 24729 24730 24731 24732 24733 24734 24735 24736 24737 24738 24739 24740 24741 24742 24743 24744 24745 24746 24747 24748 24749 24750 24751 24752 24753 24754 24755 24756 24757 24758 24759 24760 24761 24762 24763 24764 24765 24766 24767 24768 24769 24770 24771 24772 24773 24774 24775 24776 24777 24778 24779 24780 24781 24782 24783 24784 24785 24786 24787 24788 24789 24790 24791 24792 24793 24794 24795 24796 24797 24798 24799 24800 24801 24802 24803 24804 24805 24806 24807 24808 24809 24810 24811 24812 24813 24814 24815 24816 24817 24818 24819 24820 24821 24822 24823 24824 24825 24826 24827 24828 24829 24830 24831 24832 24833 24834 24835 24836 24837 24838 24839 24840 24841 24842 24843 24844 24845 24846 24847 24848 24849 24850 24851 24852 24853 24854 24855 24856 24857 24858 24859 24860 24861 24862 24863 24864 24865 24866 24867 24868 24869 24870 24871 24872 24873 24874 24875 24876 24877 24878 24879 24880 24881 24882 24883 24884 24885 24886 24887 24888 24889 24890 24891 24892 24893 24894 24895 24896 24897 24898 24899 24900 24901 24902 24903 24904 24905 24906 24907 24908 24909 24910 24911 24912 24913 24914 24915 24916 24917 24918 24919 24920 24921 24922 24923 24924 24925 24926 24927 24928 24929 24930 24931 24932 24933 24934 24935 24936 24937 24938 24939 24940 24941 24942 24943 24944 24945 24946 24947 24948 24949 24950 24951 24952 24953 24954 24955 24956 24957 24958 24959 24960 24961 24962 24963 24964 24965 24966 24967 24968 24969 24970 24971 24972 24973 24974 24975 24976 24977 24978 24979 24980 24981 24982 24983 24984 24985 24986 24987 24988 24989 24990 24991 24992 24993 24994 24995 24996 24997 24998 24999 25000 25001 25002 25003 25004 25005 25006 25007 25008 25009 25010 25011 25012 25013 25014 25015 25016 25017 25018 25019 25020 25021 25022 25023 25024 25025 25026 25027 25028 25029 25030 25031 25032 25033 25034 25035 25036 25037 25038 25039 25040 25041 25042 25043 25044 25045 25046 25047 25048 25049 25050 25051 25052 25053 25054 25055 25056 25057 25058 25059 25060 25061 25062 25063 25064 25065 25066 25067 25068 25069 25070 25071 25072 25073 25074 25075 25076 25077 25078 25079 25080 25081 25082 25083 25084 25085 25086 25087 25088 25089 25090 25091 25092 25093 25094 25095 25096 25097 25098 25099 25100 25101 25102 25103 25104 25105 25106 25107 25108 25109 25110 25111 25112 25113 25114 25115 25116 25117 25118 25119 25120 25121 25122 25123 25124 25125 25126 25127 25128 25129 25130 25131 25132 25133 25134 25135 25136 25137 25138 25139 25140 25141 25142 25143 25144 25145 25146 25147 25148 25149 25150 25151 25152 25153 25154 25155 25156 25157 25158 25159 25160 25161 25162 25163 25164 25165 25166 25167 25168 25169 25170 25171 25172 25173 25174 25175 25176 25177 25178 25179 25180 25181 25182 25183 25184 25185 25186 25187 25188 25189 25190 25191 25192 25193 25194 25195 25196 25197 25198 25199 25200 25201 25202 25203 25204 25205 25206 25207 25208 25209 25210 25211 25212 25213 25214 25215 25216 25217 25218 25219 25220 25221 25222 25223 25224 25225 25226 25227 25228 25229 25230 25231 25232 25233 25234 25235 25236 25237 25238 25239 25240 25241 25242 25243 25244 25245 25246 25247 25248 25249 25250 25251 25252 25253 25254 25255 25256 25257 25258 25259 25260 25261 25262 25263 25264 25265 25266 25267 25268 25269 25270 25271 25272 25273 25274 25275 25276 25277 25278 25279 25280 25281 25282 25283 25284 25285 25286 25287 25288 25289 25290 25291 25292 25293 25294 25295 25296 25297 25298 25299 25300 25301 25302 25303 25304 25305 25306 25307 25308 25309 25310 25311 25312 25313 25314 25315 25316 25317 25318 25319 25320 25321 25322 25323 25324 25325 25326 25327 25328 25329 25330 25331 25332 25333 25334 25335 25336 25337 25338 25339 25340 25341 25342 25343 25344 25345 25346 25347 25348 25349 25350 25351 25352 25353 25354 25355 25356 25357 25358 25359 25360 25361 25362 25363 25364 25365 25366 25367 25368 25369 25370 25371 25372 25373 25374 25375 25376 25377 25378 25379 25380 25381 25382 25383 25384 25385 25386 25387 25388 25389 25390 25391 25392 25393 25394 25395 25396 25397 25398 25399 25400 25401 25402 25403 25404 25405 25406 25407 25408 25409 25410 25411 25412 25413 25414 25415 25416 25417 25418 25419 25420 25421 25422 25423 25424 25425 25426 25427 25428 25429 25430 25431 25432 25433 25434 25435 25436 25437 25438 25439 25440 25441 25442 25443 25444 25445 25446 25447 25448 25449 25450 25451 25452 25453 25454 25455 25456 25457 25458 25459 25460 25461 25462 25463 25464 25465 25466 25467 25468 25469 25470 25471 25472 25473 25474 25475 25476 25477 25478 25479 25480 25481 25482 25483 25484 25485 25486 25487 25488 25489 25490 25491 25492 25493 25494 25495 25496 25497 25498 25499 25500 25501 25502 25503 25504 25505 25506 25507 25508 25509 25510 25511 25512 25513 25514 25515 25516 25517 25518 25519 25520 25521 25522 25523 25524 25525 25526 25527 25528 25529 25530 25531 25532 25533 25534 25535 25536 25537 25538 25539 25540 25541 25542 25543 25544 25545 25546 25547 25548 25549 25550 25551 25552 25553 25554 25555 25556 25557 25558 25559 25560 25561 25562 25563 25564 25565 25566 25567 25568 25569 25570 25571 25572 25573 25574 25575 25576 25577 25578 25579 25580 25581 25582 25583 25584 25585 25586 25587 25588 25589 25590 25591 25592 25593 25594 25595 25596 25597 25598 25599 25600 25601 25602 25603 25604 25605 25606 25607 25608 25609 25610 25611 25612 25613 25614 25615 25616 25617 25618 25619 25620 25621 25622 25623 25624 25625 25626 25627 25628 25629 25630 25631 25632 25633 25634 25635 25636 25637 25638 25639 25640 25641 25642 25643 25644 25645 25646 25647 25648 25649 25650 25651 25652 25653 25654 25655 25656 25657 25658 25659 25660 25661 25662 25663 25664 25665 25666 25667 25668 25669 25670 25671 25672 25673 25674 25675 25676 25677 25678 25679 25680 25681 25682 25683 25684 25685 25686 25687 25688 25689 25690 25691 25692 25693 25694 25695 25696 25697 25698 25699 25700 25701 25702 25703 25704 25705 25706 25707 25708 25709 25710 25711 25712 25713 25714 25715 25716 25717 25718 25719 25720 25721 25722 25723 25724 25725 25726 25727 25728 25729 25730 25731 25732 25733 25734 25735 25736 25737 25738 25739 25740 25741 25742 25743 25744 25745 25746 25747 25748 25749 25750 25751 25752 25753 25754 25755 25756 25757 25758 25759 25760 25761 25762 25763 25764 25765 25766 25767 25768 25769 25770 25771 25772 25773 25774 25775 25776 25777 25778 25779 25780 25781 25782 25783 25784 25785 25786 25787 25788 25789 25790 25791 25792 25793 25794 25795 25796 25797 25798 25799 25800 25801 25802 25803 25804 25805 25806 25807 25808 25809 25810 25811 25812 25813 25814 25815 25816 25817 25818 25819 25820 25821 25822 25823 25824 25825 25826 25827 25828 25829 25830 25831 25832 25833 25834 25835 25836 25837 25838 25839 25840 25841 25842 25843 25844 25845 25846 25847 25848 25849 25850 25851 25852 25853 25854 25855 25856 25857 25858 25859 25860 25861 25862 25863 25864 25865 25866 25867 25868 25869 25870 25871 25872 25873 25874 25875 25876 25877 25878 25879 25880 25881 25882 25883 25884 25885 25886 25887 25888 25889 25890 25891 25892 25893 25894 25895 25896 25897 25898 25899 25900 25901 25902 25903 25904 25905 25906 25907 25908 25909 25910 25911 25912 25913 25914 25915 25916 25917 25918 25919 25920 25921 25922 25923 25924 25925 25926 25927 25928 25929 25930 25931 25932 25933 25934 25935 25936 25937 25938 25939 25940 25941 25942 25943 25944 25945 25946 25947 25948 25949 25950 25951 25952 25953 25954 25955 25956 25957 25958 25959 25960 25961 25962 25963 25964 25965 25966 25967 25968 25969 25970 25971 25972 25973 25974 25975 25976 25977 25978 25979 25980 25981 25982 25983 25984 25985 25986 25987 25988 25989 25990 25991 25992 25993 25994 25995 25996 25997 25998 25999 26000 26001 26002 26003 26004 26005 26006 26007 26008 26009 26010 26011 26012 26013 26014 26015 26016 26017 26018 26019 26020 26021 26022 26023 26024 26025 26026 26027 26028 26029 26030 26031 26032 26033 26034 26035 26036 26037 26038 26039 26040 26041 26042 26043 26044 26045 26046 26047 26048 26049 26050 26051 26052 26053 26054 26055 26056 26057 26058 26059 26060 26061 26062 26063 26064 26065 26066 26067 26068 26069 26070 26071 26072 26073 26074 26075 26076 26077 26078 26079 26080 26081 26082 26083 26084 26085 26086 26087 26088 26089 26090 26091 26092 26093 26094 26095 26096 26097 26098 26099 26100 26101 26102 26103 26104 26105 26106 26107 26108 26109 26110 26111 26112 26113 26114 26115 26116 26117 26118 26119 26120 26121 26122 26123 26124 26125 26126 26127 26128 26129 26130 26131 26132 26133 26134 26135 26136 26137 26138 26139 26140 26141 26142 26143 26144 26145 26146 26147 26148 26149 26150 26151 26152 26153 26154 26155 26156 26157 26158 26159 26160 26161 26162 26163 26164 26165 26166 26167 26168 26169 26170 26171 26172 26173 26174 26175 26176 26177 26178 26179 26180 26181 26182 26183 26184 26185 26186 26187 26188 26189 26190 26191 26192 26193 26194 26195 26196 26197 26198 26199 26200 26201 26202 26203 26204 26205 26206 26207 26208 26209 26210 26211 26212 26213 26214 26215 26216 26217 26218 26219 26220 26221 26222 26223 26224 26225 26226 26227 26228 26229 26230 26231 26232 26233 26234 26235 26236 26237 26238 26239 26240 26241 26242 26243 26244 26245 26246 26247 26248 26249 26250 26251 26252 26253 26254 26255 26256 26257 26258 26259 26260 26261 26262 26263 26264 26265 26266 26267 26268 26269 26270 26271 26272 26273 26274 26275 26276 26277 26278 26279 26280 26281 26282 26283 26284 26285 26286 26287 26288 26289 26290 26291 26292 26293 26294 26295 26296 26297 26298 26299 26300 26301 26302 26303 26304 26305 26306 26307 26308 26309 26310 26311 26312 26313 26314 26315 26316 26317 26318 26319 26320 26321 26322 26323 26324 26325 26326 26327 26328 26329 26330 26331 26332 26333 26334 26335 26336 26337 26338 26339 26340 26341 26342 26343 26344 26345 26346 26347 26348 26349 26350 26351 26352 26353 26354 26355 26356 26357 26358 26359 26360 26361 26362 26363 26364 26365 26366 26367 26368 26369 26370 26371 26372 26373 26374 26375 26376 26377 26378 26379 26380 26381 26382 26383 26384 26385 26386 26387 26388 26389 26390 26391 26392 26393 26394 26395 26396 26397 26398 26399 26400 26401 26402 26403 26404 26405 26406 26407 26408 26409 26410 26411 26412 26413 26414 26415 26416 26417 26418 26419 26420 26421 26422 26423 26424 26425 26426 26427 26428 26429 26430 26431 26432 26433 26434 26435 26436 26437 26438 26439 26440 26441 26442 26443 26444 26445 26446 26447 26448 26449 26450 26451 26452 26453 26454 26455 26456 26457 26458 26459 26460 26461 26462 26463 26464 26465 26466 26467 26468 26469 26470 26471 26472 26473 26474 26475 26476 26477 26478 26479 26480 26481 26482 26483 26484 26485 26486 26487 26488 26489 26490 26491 26492 26493 26494 26495 26496 26497 26498 26499 26500 26501 26502 26503 26504 26505 26506 26507 26508 26509 26510 26511 26512 26513 26514 26515 26516 26517 26518 26519 26520 26521 26522 26523 26524 26525 26526 26527 26528 26529 26530 26531 26532 26533 26534 26535 26536 26537 26538 26539 26540 26541 26542 26543 26544 26545 26546 26547 26548 26549 26550 26551 26552 26553 26554 26555 26556 26557 26558 26559 26560 26561 26562 26563 26564 26565 26566 26567 26568 26569 26570 26571 26572 26573 26574 26575 26576 26577 26578 26579 26580 26581 26582 26583 26584 26585 26586 26587 26588 26589 26590 26591 26592 26593 26594 26595 26596 26597 26598 26599 26600 26601 26602 26603 26604 26605 26606 26607 26608 26609 26610 26611 26612 26613 26614 26615 26616 26617 26618 26619 26620 26621 26622 26623 26624 26625 26626 26627 26628 26629 26630 26631 26632 26633 26634 26635 26636 26637 26638 26639 26640 26641 26642 26643 26644 26645 26646 26647 26648 26649 26650 26651 26652 26653 26654 26655 26656 26657 26658 26659 26660 26661 26662 26663 26664 26665 26666 26667 26668 26669 26670 26671 26672 26673 26674 26675 26676 26677 26678 26679 26680 26681 26682 26683 26684 26685 26686 26687 26688 26689 26690 26691 26692 26693 26694 26695 26696 26697 26698 26699 26700 26701 26702 26703 26704 26705 26706 26707 26708 26709 26710 26711 26712 26713 26714 26715 26716 26717 26718 26719 26720 26721 26722 26723 26724 26725 26726 26727 26728 26729 26730 26731 26732 26733 26734 26735 26736 26737 26738 26739 26740 26741 26742 26743 26744 26745 26746 26747 26748 26749 26750 26751 26752 26753 26754 26755 26756 26757 26758 26759 26760 26761 26762 26763 26764 26765 26766 26767 26768 26769 26770 26771 26772 26773 26774 26775 26776 26777 26778 26779 26780 26781 26782 26783 26784 26785 26786 26787 26788 26789 26790 26791 26792 26793 26794 26795 26796 26797 26798 26799 26800 26801 26802 26803 26804 26805 26806 26807 26808 26809 26810 26811 26812 26813 26814 26815 26816 26817 26818 26819 26820 26821 26822 26823 26824 26825 26826 26827 26828 26829 26830 26831 26832 26833 26834 26835 26836 26837 26838 26839 26840 26841 26842 26843 26844 26845 26846 26847 26848 26849 26850 26851 26852 26853 26854 26855 26856 26857 26858 26859 26860 26861 26862 26863 26864 26865 26866 26867 26868 26869 26870 26871 26872 26873 26874 26875 26876 26877 26878 26879 26880 26881 26882 26883 26884 26885 26886 26887 26888 26889 26890 26891 26892 26893 26894 26895 26896 26897 26898 26899 26900 26901 26902 26903 26904 26905 26906 26907 26908 26909 26910 26911 26912 26913 26914 26915 26916 26917 26918 26919 26920 26921 26922 26923 26924 26925 26926 26927 26928 26929 26930 26931 26932 26933 26934 26935 26936 26937 26938 26939 26940 26941 26942 26943 26944 26945 26946 26947 26948 26949 26950 26951 26952 26953 26954 26955 26956 26957 26958 26959 26960 26961 26962 26963 26964 26965 26966 26967 26968 26969 26970 26971 26972 26973 26974 26975 26976 26977 26978 26979 26980 26981 26982 26983 26984 26985 26986 26987 26988 26989 26990 26991 26992 26993 26994 26995 26996 26997 26998 26999 27000 27001 27002 27003 27004 27005 27006 27007 27008 27009 27010 27011 27012 27013 27014 27015 27016 27017 27018 27019 27020 27021 27022 27023 27024 27025 27026 27027 27028 27029 27030 27031 27032 27033 27034 27035 27036 27037 27038 27039 27040 27041 27042 27043 27044 27045 27046 27047 27048 27049 27050 27051 27052 27053 27054 27055 27056 27057 27058 27059 27060 27061 27062 27063 27064 27065 27066 27067 27068 27069 27070 27071 27072 27073 27074 27075 27076 27077 27078 27079 27080 27081 27082 27083 27084 27085 27086 27087 27088 27089 27090 27091 27092 27093 27094 27095 27096 27097 27098 27099 27100 27101 27102 27103 27104 27105 27106 27107 27108 27109 27110 27111 27112 27113 27114 27115 27116 27117 27118 27119 27120 27121 27122 27123 27124 27125 27126 27127 27128 27129 27130 27131 27132 27133 27134 27135 27136 27137 27138 27139 27140 27141 27142 27143 27144 27145 27146 27147 27148 27149 27150 27151 27152 27153 27154 27155 27156 27157 27158 27159 27160 27161 27162 27163 27164 27165 27166 27167 27168 27169 27170 27171 27172 27173 27174 27175 27176 27177 27178 27179 27180 27181 27182 27183 27184 27185 27186 27187 27188 27189 27190 27191 27192 27193 27194 27195 27196 27197 27198 27199 27200 27201 27202 27203 27204 27205 27206 27207 27208 27209 27210 27211 27212 27213 27214 27215 27216 27217 27218 27219 27220 27221 27222 27223 27224 27225 27226 27227 27228 27229 27230 27231 27232 27233 27234 27235 27236 27237 27238 27239 27240 27241 27242 27243 27244 27245 27246 27247 27248 27249 27250 27251 27252 27253 27254 27255 27256 27257 27258 27259 27260 27261 27262 27263 27264 27265 27266 27267 27268 27269 27270 27271 27272 27273 27274 27275 27276 27277 27278 27279 27280 27281 27282 27283 27284 27285 27286 27287 27288 27289 27290 27291 27292 27293 27294 27295 27296 27297 27298 27299 27300 27301 27302 27303 27304 27305 27306 27307 27308 27309 27310 27311 27312 27313 27314 27315 27316 27317 27318 27319 27320 27321 27322 27323 27324 27325 27326 27327 27328 27329 27330 27331 27332 27333 27334 27335 27336 27337 27338 27339 27340 27341 27342 27343 27344 27345 27346 27347 27348 27349 27350 27351 27352 27353 27354 27355 27356 27357 27358 27359 27360 27361 27362 27363 27364 27365 27366 27367 27368 27369 27370 27371 27372 27373 27374 27375 27376 27377 27378 27379 27380 27381 27382 27383 27384 27385 27386 27387 27388 27389 27390 27391 27392 27393 27394 27395 27396 27397 27398 27399 27400 27401 27402 27403 27404 27405 27406 27407 27408 27409 27410 27411 27412 27413 27414 27415 27416 27417 27418 27419 27420 27421 27422 27423 27424 27425 27426 27427 27428 27429 27430 27431 27432 27433 27434 27435 27436 27437 27438 27439 27440 27441 27442 27443 27444 27445 27446 27447 27448 27449 27450 27451 27452 27453 27454 27455 27456 27457 27458 27459 27460 27461 27462 27463 27464 27465 27466 27467 27468 27469 27470 27471 27472 27473 27474 27475 27476 27477 27478 27479 27480 27481 27482 27483 27484 27485 27486 27487 27488 27489 27490 27491 27492 27493 27494 27495 27496 27497 27498 27499 27500 27501 27502 27503 27504 27505 27506 27507 27508 27509 27510 27511 27512 27513 27514 27515 27516 27517 27518 27519 27520 27521 27522 27523 27524 27525 27526 27527 27528 27529 27530 27531 27532 27533 27534 27535 27536 27537 27538 27539 27540 27541 27542 27543 27544 27545 27546 27547 27548 27549 27550 27551 27552 27553 27554 27555 27556 27557 27558 27559 27560 27561 27562 27563 27564 27565 27566 27567 27568 27569 27570 27571 27572 27573 27574 27575 27576 27577 27578 27579 27580 27581 27582 27583 27584 27585 27586 27587 27588 27589 27590 27591 27592 27593 27594 27595 27596 27597 27598 27599 27600 27601 27602 27603 27604 27605 27606 27607 27608 27609 27610 27611 27612 27613 27614 27615 27616 27617 27618 27619 27620 27621 27622 27623 27624 27625 27626 27627 27628 27629 27630 27631 27632 27633 27634 27635 27636 27637 27638 27639 27640 27641 27642 27643 27644 27645 27646 27647 27648 27649 27650 27651 27652 27653 27654 27655 27656 27657 27658 27659 27660 27661 27662 27663 27664 27665 27666 27667 27668 27669 27670 27671 27672 27673 27674 27675 27676 27677 27678 27679 27680 27681 27682 27683 27684 27685 27686 27687 27688 27689 27690 27691 27692 27693 27694 27695 27696 27697 27698 27699 27700 27701 27702 27703 27704 27705 27706 27707 27708 27709 27710 27711 27712 27713 27714 27715 27716 27717 27718 27719 27720 27721 27722 27723 27724 27725 27726 27727 27728 27729 27730 27731 27732 27733 27734 27735 27736 27737 27738 27739 27740 27741 27742 27743 27744 27745 27746 27747 27748 27749 27750 27751 27752 27753 27754 27755 27756 27757 27758 27759 27760 27761 27762 27763 27764 27765 27766 27767 27768 27769 27770 27771 27772 27773 27774 27775 27776 27777 27778 27779 27780 27781 27782 27783 27784 27785 27786 27787 27788 27789 27790 27791 27792 27793 27794 27795 27796 27797 27798 27799 27800 27801 27802 27803 27804 27805 27806 27807 27808 27809 27810 27811 27812 27813 27814 27815 27816 27817 27818 27819 27820 27821 27822 27823 27824 27825 27826 27827 27828 27829 27830 27831 27832 27833 27834 27835 27836 27837 27838 27839 27840 27841 27842 27843 27844 27845 27846 27847 27848 27849 27850 27851 27852 27853 27854 27855 27856 27857 27858 27859 27860 27861 27862 27863 27864 27865 27866 27867 27868 27869 27870 27871 27872 27873 27874 27875 27876 27877 27878 27879 27880 27881 27882 27883 27884 27885 27886 27887 27888 27889 27890 27891 27892 27893 27894 27895 27896 27897 27898 27899 27900 27901 27902 27903 27904 27905 27906 27907 27908 27909 27910 27911 27912 27913 27914 27915 27916 27917 27918 27919 27920 27921 27922 27923 27924 27925 27926 27927 27928 27929 27930 27931 27932 27933 27934 27935 27936 27937 27938 27939 27940 27941 27942 27943 27944 27945 27946 27947 27948 27949 27950 27951 27952 27953 27954 27955 27956 27957 27958 27959 27960 27961 27962 27963 27964 27965 27966 27967 27968 27969 27970 27971 27972 27973 27974 27975 27976 27977 27978 27979 27980 27981 27982 27983 27984 27985 27986 27987 27988 27989 27990 27991 27992 27993 27994 27995 27996 27997 27998 27999 28000 28001 28002 28003 28004 28005 28006 28007 28008 28009 28010 28011 28012 28013 28014 28015 28016 28017 28018 28019 28020 28021 28022 28023 28024 28025 28026 28027 28028 28029 28030 28031 28032 28033 28034 28035 28036 28037 28038 28039 28040 28041 28042 28043 28044 28045 28046 28047 28048 28049 28050 28051 28052 28053 28054 28055 28056 28057 28058 28059 28060 28061 28062 28063 28064 28065 28066 28067 28068 28069 28070 28071 28072 28073 28074 28075 28076 28077 28078 28079 28080 28081 28082 28083 28084 28085 28086 28087 28088 28089 28090 28091 28092 28093 28094 28095 28096 28097 28098 28099 28100 28101 28102 28103 28104 28105 28106 28107 28108 28109 28110 28111 28112 28113 28114 28115 28116 28117 28118 28119 28120 28121 28122 28123 28124 28125 28126 28127 28128 28129 28130 28131 28132 28133 28134 28135 28136 28137 28138 28139 28140 28141 28142 28143 28144 28145 28146 28147 28148 28149 28150 28151 28152 28153 28154 28155 28156 28157 28158 28159 28160 28161 28162 28163 28164 28165 28166 28167 28168 28169 28170 28171 28172 28173 28174 28175 28176 28177 28178 28179 28180 28181 28182 28183 28184 28185 28186 28187 28188 28189 28190 28191 28192 28193 28194 28195 28196 28197 28198 28199 28200 28201 28202 28203 28204 28205 28206 28207 28208 28209 28210 28211 28212 28213 28214 28215 28216 28217 28218 28219 28220 28221 28222 28223 28224 28225 28226 28227 28228 28229 28230 28231 28232 28233 28234 28235 28236 28237 28238 28239 28240 28241 28242 28243 28244 28245 28246 28247 28248 28249 28250 28251 28252 28253 28254 28255 28256 28257 28258 28259 28260 28261 28262 28263 28264 28265 28266 28267 28268 28269 28270 28271 28272 28273 28274 28275 28276 28277 28278 28279 28280 28281 28282 28283 28284 28285 28286 28287 28288 28289 28290 28291 28292 28293 28294 28295 28296 28297 28298 28299 28300 28301 28302 28303 28304 28305 28306 28307 28308 28309 28310 28311 28312 28313 28314 28315 28316 28317 28318 28319 28320 28321 28322 28323 28324 28325 28326 28327 28328 28329 28330 28331 28332 28333 28334 28335 28336 28337 28338 28339 28340 28341 28342 28343 28344 28345 28346 28347 28348 28349 28350 28351 28352 28353 28354 28355 28356 28357 28358 28359 28360 28361 28362 28363 28364 28365 28366 28367 28368 28369 28370 28371 28372 28373 28374 28375 28376 28377 28378 28379 28380 28381 28382 28383 28384 28385 28386 28387 28388 28389 28390 28391 28392 28393 28394 28395 28396 28397 28398 28399 28400 28401 28402 28403 28404 28405 28406 28407 28408 28409 28410 28411 28412 28413 28414 28415 28416 28417 28418 28419 28420 28421 28422 28423 28424 28425 28426 28427 28428 28429 28430 28431 28432 28433 28434 28435 28436 28437 28438 28439 28440 28441 28442 28443 28444 28445 28446 28447 28448 28449 28450 28451 28452 28453 28454 28455 28456 28457 28458 28459 28460 28461 28462 28463 28464 28465 28466 28467 28468 28469 28470 28471 28472 28473 28474 28475 28476 28477 28478 28479 28480 28481 28482 28483 28484 28485 28486 28487 28488 28489 28490 28491 28492 28493 28494 28495 28496 28497 28498 28499 28500 28501 28502 28503 28504 28505 28506 28507 28508 28509 28510 28511 28512 28513 28514 28515 28516 28517 28518 28519 28520 28521 28522 28523 28524 28525 28526 28527 28528 28529 28530 28531 28532 28533 28534 28535 28536 28537 28538 28539 28540 28541 28542 28543 28544 28545 28546 28547 28548 28549 28550 28551 28552 28553 28554 28555 28556 28557 28558 28559 28560 28561 28562 28563 28564 28565 28566 28567 28568 28569 28570 28571 28572 28573 28574 28575 28576 28577 28578 28579 28580 28581 28582 28583 28584 28585 28586 28587 28588 28589 28590 28591 28592 28593 28594 28595 28596 28597 28598 28599 28600 28601 28602 28603 28604 28605 28606 28607 28608 28609 28610 28611 28612 28613 28614 28615 28616 28617 28618 28619 28620 28621 28622 28623 28624 28625 28626 28627 28628 28629 28630 28631 28632 28633 28634 28635 28636 28637 28638 28639 28640 28641 28642 28643 28644 28645 28646 28647 28648 28649 28650 28651 28652 28653 28654 28655 28656 28657 28658 28659 28660 28661 28662 28663 28664 28665 28666 28667 28668 28669 28670 28671 28672 28673 28674 28675 28676 28677 28678 28679 28680 28681 28682 28683 28684 28685 28686 28687 28688 28689 28690 28691 28692 28693 28694 28695 28696 28697 28698 28699 28700 28701 28702 28703 28704 28705 28706 28707 28708 28709 28710 28711 28712 28713 28714 28715 28716 28717 28718 28719 28720 28721 28722 28723 28724 28725 28726 28727 28728 28729 28730 28731 28732 28733 28734 28735 28736 28737 28738 28739 28740 28741 28742 28743 28744 28745 28746 28747 28748 28749 28750 28751 28752 28753 28754 28755 28756 28757 28758 28759 28760 28761 28762 28763 28764 28765 28766 28767 28768 28769 28770 28771 28772 28773 28774 28775 28776 28777 28778 28779 28780 28781 28782 28783 28784 28785 28786 28787 28788 28789 28790 28791 28792 28793 28794 28795 28796 28797 28798 28799 28800 28801 28802 28803 28804 28805 28806 28807 28808 28809 28810 28811 28812 28813 28814 28815 28816 28817 28818 28819 28820 28821 28822 28823 28824 28825 28826 28827 28828 28829 28830 28831 28832 28833 28834 28835 28836 28837 28838 28839 28840 28841 28842 28843 28844 28845 28846 28847 28848 28849 28850 28851 28852 28853 28854 28855 28856 28857 28858 28859 28860 28861 28862 28863 28864 28865 28866 28867 28868 28869 28870 28871 28872 28873 28874 28875 28876 28877 28878 28879 28880 28881 28882 28883 28884 28885 28886 28887 28888 28889 28890 28891 28892 28893 28894 28895 28896 28897 28898 28899 28900 28901 28902 28903 28904 28905 28906 28907 28908 28909 28910 28911 28912 28913 28914 28915 28916 28917 28918 28919 28920 28921 28922 28923 28924 28925 28926 28927 28928 28929 28930 28931 28932 28933 28934 28935 28936 28937 28938 28939 28940 28941 28942 28943 28944 28945 28946 28947 28948 28949 28950 28951 28952 28953 28954 28955 28956 28957 28958 28959 28960 28961 28962 28963 28964 28965 28966 28967 28968 28969 28970 28971 28972 28973 28974 28975 28976 28977 28978 28979 28980 28981 28982 28983 28984 28985 28986 28987 28988 28989 28990 28991 28992 28993 28994 28995 28996 28997 28998 28999 29000 29001 29002 29003 29004 29005 29006 29007 29008 29009 29010 29011 29012 29013 29014 29015 29016 29017 29018 29019 29020 29021 29022 29023 29024 29025 29026 29027 29028 29029 29030 29031 29032 29033 29034 29035 29036 29037 29038 29039 29040 29041 29042 29043 29044 29045 29046 29047 29048 29049 29050 29051 29052 29053 29054 29055 29056 29057 29058 29059 29060 29061 29062 29063 29064 29065 29066 29067 29068 29069 29070 29071 29072 29073 29074 29075 29076 29077 29078 29079 29080 29081 29082 29083 29084 29085 29086 29087 29088 29089 29090 29091 29092 29093 29094 29095 29096 29097 29098 29099 29100 29101 29102 29103 29104 29105 29106 29107 29108 29109 29110 29111 29112 29113 29114 29115 29116 29117 29118 29119 29120 29121 29122 29123 29124 29125 29126 29127 29128 29129 29130 29131 29132 29133 29134 29135 29136 29137 29138 29139 29140 29141 29142 29143 29144 29145 29146 29147 29148 29149 29150 29151 29152 29153 29154 29155 29156 29157 29158 29159 29160 29161 29162 29163 29164 29165 29166 29167 29168 29169 29170 29171 29172 29173 29174 29175 29176 29177 29178 29179 29180 29181 29182 29183 29184 29185 29186 29187 29188 29189 29190 29191 29192 29193 29194 29195 29196 29197 29198 29199 29200 29201 29202 29203 29204 29205 29206 29207 29208 29209 29210 29211 29212 29213 29214 29215 29216 29217 29218 29219 29220 29221 29222 29223 29224 29225 29226 29227 29228 29229 29230 29231 29232 29233 29234 29235 29236 29237 29238 29239 29240 29241 29242 29243 29244 29245 29246 29247 29248 29249 29250 29251 29252 29253 29254 29255 29256 29257 29258 29259 29260 29261 29262 29263 29264 29265 29266 29267 29268 29269 29270 29271 29272 29273 29274 29275 29276 29277 29278 29279 29280 29281 29282 29283 29284 29285 29286 29287 29288 29289 29290 29291 29292 29293 29294 29295 29296 29297 29298 29299 29300 29301 29302 29303 29304 29305 29306 29307 29308 29309 29310 29311 29312 29313 29314 29315 29316 29317 29318 29319 29320 29321 29322 29323 29324 29325 29326 29327 29328 29329 29330 29331 29332 29333 29334 29335 29336 29337 29338 29339 29340 29341 29342 29343 29344 29345 29346 29347 29348 29349 29350 29351 29352 29353 29354 29355 29356 29357 29358 29359 29360 29361 29362 29363 29364 29365 29366 29367 29368 29369 29370 29371 29372 29373 29374 29375 29376 29377 29378 29379 29380 29381 29382 29383 29384 29385 29386 29387 29388 29389 29390 29391 29392 29393 29394 29395 29396 29397 29398 29399 29400 29401 29402 29403 29404 29405 29406 29407 29408 29409 29410 29411 29412 29413 29414 29415 29416 29417 29418 29419 29420 29421 29422 29423 29424 29425 29426 29427 29428 29429 29430 29431 29432 29433 29434 29435 29436 29437 29438 29439 29440 29441 29442 29443 29444 29445 29446 29447 29448 29449 29450 29451 29452 29453 29454 29455 29456 29457 29458 29459 29460 29461 29462 29463 29464 29465 29466 29467 29468 29469 29470 29471 29472 29473 29474 29475 29476 29477 29478 29479 29480 29481 29482 29483 29484 29485 29486 29487 29488 29489 29490 29491 29492 29493 29494 29495 29496 29497 29498 29499 29500 29501 29502 29503 29504 29505 29506 29507 29508 29509 29510 29511 29512 29513 29514 29515 29516 29517 29518 29519 29520 29521 29522 29523 29524 29525 29526 29527 29528 29529 29530 29531 29532 29533 29534 29535 29536 29537 29538 29539 29540 29541 29542 29543 29544 29545 29546 29547 29548 29549 29550 29551 29552 29553 29554 29555 29556 29557 
</DataArray>
<DataArray type="UInt32" Name="offsets" format="ascii">
3 6 9 12 15 18 21 24 27 30 33 36 39 42 45 48 51 54 57 60 63 66 69 72 75 78 81 84 87 90 93 95 98 101 104 107 110 113 116 119 122 125 127 130 133 135 138 141 144 147 150 153 156 159 162 164 167 169 172 175 177 180 183 186 189 192 195 197 200 203 206 209 212 215 218 221 224 227 230 233 236 239 242 245 248 251 254 257 260 263 266 269 272 275 278 281 284 286 289 292 295 298 301 304 307 310 313 316 319 322 325 328 331 334 337 340 343 346 349 352 355 358 361 364 367 370 373 376 379 382 385 388 391 394 397 400 403 406 409 412 415 418 421 424 427 430 433 436 439 442 445 448 450 453 456 459 461 464 467 470 473 476 479 482 484 487 490 493 496 499 502 505 507 510 513 515 517 520 522 525 528 531 534 537 539 542 545 548 551 554 556 559 562 565 568 570 573 576 578 580 583 585 588 590 593 596 598 601 604 607 610 613 616 619 622 625 628 631 634 637 640 643 645 648 651 653 655 658 661 664 667 670 673 676 679 682 685 688 691 694 697 700 702 705 708 711 714 716 719 722 724 726 729 732 734 737 740 742 745 748 751 754 757 760 763 766 769 772 775 778 781 784 787 790 793 796 799 802 805 808 811 814 817 820 823 826 829 832 834 837 840 843 846 849 852 854 857 860 863 866 869 872 874 877 880 883 886 888 891 894 897 899 902 905 908 911 914 916 919 921 924 927 929 931 934 937 940 943 946 949 952 955 958 961 964 967 970 972 975 978 981 984 987 990 993 995 998 1001 1004 1006 1009 1012 1015 1018 1020 1023 1025 1028 1031 1034 1036 1038 1041 1044 1047 1049 1052 1055 1058 1060 1062 1065 1068 1071 1073 1076 1079 1081 1084 1087 1090 1093 1095 1098 1101 1104 1107 1110 1113 1116 1119 1122 1125 1128 1131 1134 1137 1140 1143 1146 1149 1152 1155 1158 1161 1164 1167 1170 1173 1176 1179 1182 1185 1188 1191 1194 1197 1200 1203 1206 1209 1212 1215 1218 1221 1224 1227 1230 1233 1236 1239 1242 1245 1248 1251 1254 1257 1260 1263 1266 1269 1272 1275 1277 1280 1283 1286 1289 1291 1294 1297 1299 1302 1305 1308 1311 1314 1317 1320 1323 1326 1329 1332 1335 1338 1341 1344 1347 1350 1353 1355 1357 1360 1363 1366 1368 1370 1373 1376 1379 1381 1384 1387 1389 1392 1395 1398 1401 1404 1406 1409 1412 1415 1418 1420 1423 1426 1429 1432 1435 1438 1441 1443 1446 1449 1452 1455 1458 1461 1464 1467 1470 1473 1476 1479 1482 1485 1488 1491 1494 1497 1500 1502 1505 1508 1510 1513 1515 1518 1521 1524 1527 1530 1532 1535 1538 1540 1543 1546 1549 1552 1555 1558 1561 1564 1567 1570 1573 1576 1578 1581 1584 1587 1590 1593 1596 1599 1602 1605 1608 1611 1614 1617 1620 1623 1626 1628 1631 1634 1637 1639 1641 1644 1647 1650 1652 1655 1657 1660 1662 1665 1667 1669 1672 1675 1678 1681 1684 1687 1690 1693 1696 1699 1702 1705 1708 1710 1713 1715 1718 1720 1723 1726 1728 1731 1734 1737 1739 1742 1745 1748 1751 1754 1757 1760 1763 1766 1769 1772 1775 1778 1781 1784 1786 1789 1792 1795 1798 1801 1804 1807 1810 1813 1816 1819 1822 1825 1828 1831 1834 1837 1840 1843 1846 1849 1852 1855 1858 1861 1864 1867 1870 1873 1876 1879 1882 1884 1887 1890 1893 1896 1899 1902 1904 1907 1910 1913 1916 1919 1922 1925 1928 1931 1934 1936 1939 1942 1945 1947 1950 1953 1956 1958 1961 1964 1966 1968 1971 1974 1977 1980 1983 1986 1989 1991 1994 1997 2000 2003 2006 2009 2012 2015 2018 2021 2024 2027 2030 2033 2036 2039 2042 2045 2048 2051 2054 2057 2060 2063 2066 2069 2072 2075 2078 2081 2083 2086 2089 2092 2094 2097 2099 2102 2105 2107 2110 2113 2115 2117 2120 2123 2126 2129 2132 2135 2138 2141 2144 2147 2150 2153 2155 2158 2161 2164 2167 2170 2173 2176 2179 2182 2185 2188 2191 2194 2196 2199 2202 2205 2208 2211 2214 2217 2220 2222 2225 2228 2231 2234 2237 2240 2243 2246 2249 2252 2255 2258 2261 2264 2267 2270 2273 2276 2279 2282 2285 2288 2290 2293 2296 2299 2301 2304 2306 2309 2312 2315 2318 2321 2323 2326 2329 2331 2334 2336 2339 2342 2344 2347 2350 2352 2355 2358 2360 2363 2365 2368 2370 2373 2376 2379 2382 2385 2388 2391 2394 2397 2399 2401 2404 2406 2409 2412 2414 2416 2419 2422 2425 2427 2430 2433 2436 2439 2442 2445 2448 2450 2453 2456 2459 2462 2464 2467 2470 2473 2476 2479 2482 2485 2488 2491 2494 2497 2500 2503 2506 2509 2512 2515 2518 2521 2524 2527 2530 2533 2536 2539 2542 2545 2547 2550 2553 2556 2559 2562 2565 2568 2571 2573 2576 2579 2582 2584 2586 2589 2592 2595 2598 2600 2603 2606 2608 2611 2614 2617 2620 2623 2625 2628 2631 2633 2636 2639 2642 2645 2648 2651 2653 2656 2659 2662 2664 2667 2670 2673 2676 2678 2681 2684 2687 2689 2692 2695 2698 2701 2703 2706 2709 2712 2714 2717 2720 2723 2726 2729 2732 2735 2738 2740 2743 2746 2749 2752 2755 2758 2761 2764 2767 2770 2773 2776 2779 2781 2784 2787 2790 2793 2796 2799 2802 2804 2807 2810 2813 2816 2819 2822 2825 2828 2830 2832 2835 2838 2841 2844 2846 2849 2852 2855 2857 2860 2863 2865 2868 2871 2873 2876 2878 2881 2883 2886 2889 2892 2895 2898 2901 2904 2906 2909 2912 2914 2916 2919 2922 2925 2928 2931 2933 2936 2939 2941 2944 2947 2950 2953 2956 2959 2962 2964 2967 2969 2972 2975 2978 2981 2983 2986 2988 2991 2994 2997 3000 3002 3005 3008 3011 3014 3016 3019 3022 3025 3028 3031 3034 3037 3040 3042 3045 3048 3051 3053 3056 3059 3062 3065 3068 3071 3074 3077 3080 3083 3086 3089 3092 3094 3097 3100 3103 3105 3108 3110 3112 3115 3118 3121 3123 3126 3129 3131 3134 3137 3140 3143 3146 3149 3152 3155 3157 3160 3162 3164 3167 3170 3173 3176 3179 3181 3184 3187 3190 3192 3195 3198 3200 3203 3206 3209 3212 3214 3217 3219 3222 3225 3228 3231 3233 3236 3238 3241 3244 3246 3249 3251 3254 3256 3258 3261 3264 3267 3270 3272 3275 3277 3280 3282 3285 3288 3291 3293 3296 3299 3301 3304 3307 3310 3313 3316 3318 3321 3324 3327 3330 3333 3336 3339 3342 3345 3348 3351 3354 3357 3360 3363 3366 3368 3371 3374 3377 3380 3383 3386 3388 3391 3394 3397 3400 3403 3406 3409 3412 3414 3417 3420 3423 3425 3427 3430 3432 3435 3438 3441 3443 3446 3449 3452 3455 3458 3461 3464 3467 3470 3473 3476 3478 3481 3484 3486 3489 3492 3495 3498 3501 3504 3507 3510 3513 3516 3519 3521 3524 3527 3530 3533 3536 3539 3542 3545 3548 3551 3554 3557 3560 3563 3566 3569 3572 3574 3577 3580 3583 3586 3589 3592 3595 3597 3600 3603 3606 3609 3612 3615 3618 3621 3624 3627 3630 3633 3636 3639 3642 3645 3648 3651 3654 3657 3660 3663 3666 3669 3671 3674 3677 3680 3683 3686 3689 3692 3695 3698 3701 3704 3707 3709 3711 3714 3717 3720 3723 3726 3728 3731 3733 3736 3738 3741 3744 3747 3750 3753 3756 3759 3762 3764 3767 3770 3773 3776 3779 3782 3784 3787 3790 3793 3796 3799 3802 3805 3808 3810 3813 3816 3819 3822 3825 3828 3831 3833 3836 3839 3842 3845 3848 3851 3853 3856 3858 3861 3864 3867 3870 3873 3876 3879 3882 3885 3888 3891 3894 3897 3900 3903 3906 3909 3912 3915 3918 3921 3923 3926 3929 3932 3935 3938 3941 3944 3947 3950 3953 3956 3959 3962 3965 3968 3971 3974 3976 3979 3982 3985 3987 3990 3993 3996 3999 4002 4004 4007 4010 4012 4015 4018 4021 4024 4027 4030 4033 4036 4039 4042 4045 4048 4051 4054 4057 4060 4063 4066 4068 4071 4074 4077 4080 4083 4086 4089 4092 4095 4097 4100 4103 4106 4109 4112 4115 4118 4121 4124 4127 4130 4133 4136 4139 4142 4145 4148 4151 4154 4156 4159 4162 4164 4167 4170 4173 4176 4179 4182 4185 4188 4191 4194 4197 4200 4203 4206 4209 4212 4215 4218 4221 4224 4227 4230 4233 4236 4239 4242 4245 4248 4251 4253 4256 4258 4261 4264 4267 4270 4273 4276 4279 4282 4285 4288 4291 4294 4297 4300 4303 4305 4308 4311 4314 4316 4319 4322 4324 4327 4330 4333 4336 4339 4342 4345 4348 4350 4353 4356 4359 4362 4365 4368 4370 4372 4375 4378 4381 4384 4387 4390 4393 4396 4399 4402 4404 4407 4409 4412 4415 4418 4421 4423 4426 4429 4432 4435 4437 4439 4441 4444 4447 4450 4453 4456 4459 4461 4464 4466 4469 4472 4474 4477 4480 4482 4484 4487 4490 4493 4496 4499 4501 4504 4507 4510 4513 4516 4519 4522 4524 4527 4530 4533 4536 4539 4542 4545 4547 4550 4553 4556 4559 4562 4565 4568 4570 4573 4575 4578 4581 4584 4587 4589 4592 4595 4598 4601 4604 4607 4610 4613 4616 4618 4621 4624 4627 4630 4633 4636 4639 4642 4644 4647 4649 4652 4655 4658 4661 4664 4667 4669 4671 4674 4676 4679 4682 4685 4688 4690 4693 4696 4698 4701 4704 4707 4710 4713 4716 4719 4722 4725 4727 4730 4732 4735 4738 4741 4744 4747 4750 4753 4756 4759 4762 4765 4768 4771 4774 4777 4780 4783 4786 4789 4792 4795 4798 4801 4803 4806 4809 4812 4815 4818 4821 4824 4826 4829 4832 4835 4838 4841 4844 4846 4849 4851 4854 4856 4859 4862 4865 4868 4871 4874 4876 4879 4882 4884 4887 4889 4892 4895 4898 4901 4904 4907 4910 4913 4916 4919 4922 4925 4928 4931 4934 4937 4940 4943 4945 4948 4951 4954 4957 4960 4963 4965 4968 4971 4974 4976 4978 4981 4984 4986 4989 4992 4995 4998 5001 5003 5006 5009 5012 5015 5018 5021 5024 5027 5030 5033 5036 5038 5041 5044 5047 5050 5053 5056 5059 5062 5065 5068 5071 5074 5076 5079 5082 5085 5088 5091 5093 5096 5099 5102 5104 5107 5110 5113 5116 5118 5121 5124 5127 5130 5133 5135 5138 5141 5144 5147 5149 5152 5155 5158 5161 5164 5167 5170 5173 5175 5178 5181 5184 5186 5189 5192 5195 5198 5201 5203 5206 5209 5212 5215 5218 5220 5222 5225 5228 5231 5234 5237 5240 5243 5245 5248 5251 5254 5257 5260 5263 5266 5269 5272 5275 5278 5281 5284 5287 5290 5293 5295 5298 5301 5304 5306 5309 5312 5315 5318 5321 5324 5327 5329 5331 5334 5337 5340 5343 5346 5349 5352 5355 5358 5361 5364 5366 5369 5372 5374 5377 5380 5382 5385 5388 5391 5394 5397 5400 5402 5404 5407 5409 5411 5414 5417 5420 5423 5426 5429 5432 5435 5438 5441 5444 5447 5450 5453 5455 5458 5460 5463 5466 5469 5472 5475 5478 5480 5482 5485 5488 5491 5494 5497 5500 5503 5506 5509 5512 5515 5518 5521 5524 5527 5530 5532 5535 5538 5541 5544 5547 5550 5552 5555 5558 5561 5564 5567 5570 5573 5575 5578 5581 5583 5586 5589 5592 5595 5598 5601 5604 5606 5609 5612 5615 5618 5621 5624 5627 5630 5633 5636 5639 5642 5644 5647 5650 5653 5656 5659 5661 5663 5666 5669 5672 5674 5677 5680 5682 5685 5688 5691 5694 5697 5700 5702 5705 5708 5711 5714 5716 5719 5722 5725 5728 5731 5734 5737 5739 5742 5745 5747 5750 5753 5756 5759 5762 5765 5767 5770 5773 5776 5779 5782 5785 5788 5790 5792 5795 5798 5800 5803 5806 5809 5811 5814 5817 5820 5822 5824 5827 5829 5832 5835 5838 5841 5844 5847 5849 5852 5855 5858 5860 5863 5866 5868 5871 5873 5876 5879 5882 5884 5887 5890 5893 5896 5898 5901 5903 5906 5909 5912 5915 5918 5921 5924 5927 5930 5933 5936 5939 5942 5945 5948 5951 5953 5956 5959 5961 5964 5967 5970 5972 5975 5978 5980 5982 5985 5988 5991 5994 5997 6000 6003 6006 6009 6012 6015 6018 6021 6024 6027 6029 6032 6035 6038 6041 6043 6045 6047 6050 6053 6056 6058 6060 6063 6066 6069 6071 6074 6077 6079 6082 6084 6087 6090 6093 6096 6099 6102 6105 6108 6110 6113 6116 6119 6122 6125 6128 6131 6134 6137 6140 6142 6145 6148 6151 6154 6157 6160 6163 6166 6169 6172 6174 6176 6179 6181 6184 6187 6190 6193 6196 6199 6201 6204 6207 6210 6213 6215 6218 6221 6224 6226 6229 6232 6235 6238 6241 6244 6247 6249 6252 6255 6258 6261 6264 6266 6269 6272 6275 6278 6281 6284 6287 6290 6293 6296 6299 6302 6305 6308 6311 6314 6316 6319 6321 6324 6327 6329 6332 6335 6338 6341 6344 6347 6350 6352 6355 6358 6361 6364 6367 6369 6372 6375 6378 6381 6384 6386 6389 6392 6394 6396 6398 6401 6404 6407 6410 6412 6415 6418 6421 6423 6426 6429 6432 6435 6438 6441 6444 6447 6450 6453 6456 6459 6462 6464 6467 6470 6473 6476 6478 6481 6483 6486 6489 6492 6495 6498 6501 6504 6507 6510 6513 6516 6519 6522 6525 6528 6531 6533 6535 6538 6541 6544 6547 6550 6552 6554 6557 6560 6563 6566 6569 6572 6575 6577 6580 6583 6586 6589 6592 6595 6597 6600 6603 6606 6609 6612 6615 6618 6621 6624 6627 6629 6632 6635 6638 6641 6644 6647 6650 6653 6656 6659 6662 6665 6668 6670 6673 6676 6679 6681 6683 6686 6689 6692 6695 6698 6701 6704 6706 6709 6712 6715 6718 6721 6723 6726 6729 6732 6735 6738 6741 6744 6746 6749 6752 6755 6758 6761 6764 6767 6770 6773 6776 6779 6782 6785 6788 6791 6793 6796 6799 6802 6805 6807 6810 6813 6816 6819 6822 6825 6828 6831 6834 6837 6840 6843 6846 6849 6852 6855 6858 6861 6864 6867 6870 6873 6876 6879 6882 6885 6888 6891 6894 6897 6900 6903 6906 6909 6912 6915 6918 6921 6924 6927 6930 6933 6936 6939 6942 6945 6948 6951 6954 6957 6960 6963 6966 6968 6971 6974 6977 6980 6983 6986 6988 6991 6994 6996 6999 7002 7005 7008 7011 7014 7017 7020 7023 7026 7029 7032 7035 7038 7041 7044 7047 7050 7053 7056 7059 7062 7065 7068 7071 7074 7077 7080 7083 7086 7089 7092 7095 7098 7101 7104 7106 7108 7110 7113 7116 7119 7121 7124 7126 7129 7132 7135 7138 7140 7143 7146 7149 7152 7155 7158 7161 7164 7167 7170 7173 7175 7178 7181 7184 7187 7190 7193 7196 7199 7202 7205 7208 7211 7214 7217 7220 7223 7226 7229 7232 7235 7238 7241 7244 7247 7250 7253 7256 7259 7262 7265 7268 7271 7274 7277 7280 7283 7286 7289 7292 7295 7298 7301 7304 7306 7309 7312 7315 7318 7321 7324 7327 7330 7333 7336 7339 7342 7345 7348 7351 7354 7356 7358 7361 7364 7367 7370 7372 7375 7378 7381 7384 7386 7389 7391 7394 7396 7399 7402 7405 7408 7411 7414 7417 7420 7423 7426 7429 7432 7435 7438 7441 7444 7447 7450 7453 7456 7459 7462 7465 7468 7471 7473 7476 7479 7481 7483 7486 7489 7492 7495 7498 7501 7504 7507 7510 7513 7516 7519 7522 7525 7528 7531 7534 7537 7540 7543 7546 7549 7552 7555 7558 7561 7564 7567 7570 7573 7576 7579 7582 7585 7588 7591 7594 7597 7600 7603 7606 7609 7612 7615 7618 7621 7624 7627 7630 7633 7636 7639 7642 7645 7648 7650 7653 7656 7659 7662 7665 7668 7671 7674 7677 7680 7683 7686 7689 7692 7695 7698 7701 7704 7707 7710 7713 7716 7719 7722 7725 7728 7731 7734 7737 7740 7743 7746 7749 7752 7755 7758 7761 7764 7767 7770 7773 7776 7779 7782 7785 7788 7791 7794 7797 7800 7803 7806 7809 7812 7815 7818 7821 7824 7827 7830 7833 7836 7839 7842 7845 7848 7851 7854 7857 7860 7862 7865 7868 7871 7873 7876 7879 7882 7885 7888 7891 7894 7897 7900 7903 7906 7909 7912 7915 7918 7921 7924 7927 7930 7933 7936 7939 7942 7945 7948 7951 7954 7957 7960 7963 7966 7969 7972 7975 7978 7981 7984 7987 7990 7993 7996 7999 8002 8005 8008 8011 8014 8017 8020 8023 8026 8029 8032 8035 8038 8041 8044 8047 8050 8053 8055 8058 8060 8063 8066 8069 8072 8075 8078 8081 8084 8087 8090 8093 8095 8098 8101 8104 8107 8109 8112 8115 8118 8121 8123 8126 8129 8131 8134 8137 8140 8143 8146 8149 8152 8155 8158 8161 8164 8167 8170 8173 8176 8179 8182 8184 8187 8190 8193 8195 8198 8201 8204 8207 8210 8213 8216 8219 8222 8225 8228 8231 8234 8236 8239 8241 8244 8246 8249 8251 8254 8257 8260 8262 8265 8268 8271 8274 8277 8280 8283 8286 8289 8291 8293 8296 8299 8301 8304 8307 8310 8313 8316 8319 8322 8325 8327 8330 8332 8335 8338 8340 8343 8346 8349 8351 8354 8357 8359 8362 8365 8368 8371 8374 8377 8380 8383 8386 8389 8392 8394 8397 8400 8403 8406 8408 8411 8414 8417 8420 8423 8426 8429 8432 8435 8438 8441 8444 8447 8450 8453 8456 8458 8461 8464 8467 8470 8473 8476 8479 8482 8485 8487 8490 8492 8495 8497 8500 8503 8505 8508 8511 8513 8516 8519 8522 8525 8528 8531 8534 8537 8540 8543 8546 8548 8551 8553 8556 8559 8562 8564 8567 8570 8573 8576 8579 8582 8585 8587 8590 8592 8594 8597 8600 8603 8606 8609 8611 8613 8616 8619 8622 8625 8628 8631 8634 8637 8640 8643 8646 8649 8652 8655 8658 8661 8664 8666 8669 8671 8673 8676 8679 8682 8684 8687 8690 8693 8696 8699 8702 8705 8708 8711 8714 8717 8720 8722 8725 8728 8730 8733 8735 8737 8740 8743 8746 8749 8751 8754 8757 8760 8763 8766 8769 8772 8775 8778 8781 8784 8787 8790 8792 8795 8798 8801 8804 8807 8810 8813 8816 8819 8822 8825 8827 8830 8833 8836 8839 8842 8844 8847 8850 8853 8856 8859 8862 8865 8868 8871 8874 8877 8880 8883 8885 8888 8891 8894 8897 8900 8903 8906 8909 8912 8915 8918 8921 8924 8927 8930 8933 8936 8939 8942 8945 8948 8951 8954 8957 8960 8963 8966 8969 8972 8975 8978 8981 8984 8987 8989 8992 8995 8998 9001 9003 9006 9008 9011 9014 9017 9020 9023 9026 9029 9032 9034 9037 9040 9043 9045 9048 9051 9054 9057 9060 9063 9066 9069 9071 9073 9076 9079 9081 9084 9086 9089 9092 9095 9098 9101 9104 9106 9109 9112 9115 9118 9120 9123 9126 9128 9131 9134 9137 9140 9142 9145 9148 9151 9154 9157 9160 9163 9166 9168 9170 9173 9176 9179 9182 9185 9188 9191 9194 9197 9200 9203 9206 9209 9212 9215 9218 9221 9224 9227 9230 9233 9236 9238 9241 9244 9246 9249 9251 9254 9257 9260 9263 9266 9269 9271 9274 9276 9279 9282 9285 9288 9291 9294 9297 9300 9303 9306 9309 9312 9315 9318 9321 9324 9327 9330 9333 9336 9339 9342 9345 9348 9351 9354 9357 9360 9363 9366 9369 9372 9375 9378 9381 9384 9387 9390 9393 9396 9399 9402 9405 9408 9411 9414 9417 9420 9423 9425 9428 9431 9433 9436 9439 9442 9445 9447 9450 9453 9456 9459 9462 9465 9468 9471 9474 9476 9479 9482 9485 9488 9491 9494 9497 9500 9503 9505 9508 9511 9514 9517 9519 9522 9525 9527 9530 9533 9536 9539 9542 9545 9548 9550 9553 9556 9558 9560 9563 9566 9568 9571 9574 9577 9580 9583 9586 9589 9592 9595 9598 9600 9603 9606 9609 9612 9615 9618 9621 9624 9627 9630 9632 9635 9638 9641 9644 9646 9649 9652 9654 9657 9660 9663 9666 9669 9672 9675 9678 9681 9684 9687 9690 9693 9696 9699 9702 9704 9707 9710 9713 9715 9718 9721 9723 9726 9729 9732 9735 9738 9741 9744 9747 9750 9753 9756 9759 9762 9765 9768 9771 9774 9777 9780 9783 9786 9789 9792 9795 9798 9801 9804 9807 9810 9813 9816 9819 9822 9825 9828 9831 9834 9836 9839 9842 9845 9848 9851 9854 9857 9860 9863 9866 9869 9872 9875 9878 9881 9884 9887 9890 9893 9896 9899 9902 9905 9908 9911 9914 9917 9920 9923 9926 9929 9932 9935 9938 9941 9943 9946 9949 9952 9955 9958 9961 9963 9966 9969 9971 9974 9977 9980 9983 9985 9988 9991 9994 9997 10000 10003 10005 10008 10011 10013 10016 10019 10022 10025 10027 10030 10033 10036 10039 10041 10044 10047 10050 10053 10055 10058 10061 10064 10067 10070 10073 10075 10078 10081 10084 10087 10090 10093 10096 10099 10102 10105 10107 10110 10113 10116 10119 10122 10125 10128 10131 10133 10136 10139 10141 10144 10147 10150 10153 10156 10159 10162 10165 10168 10171 10174 10177 10180 10183 10186 10188 10191 10194 10196 10199 10202 10204 10207 10210 10212 10215 10218 10221 10224 10227 10230 10233 10235 10238 10241 10243 10246 10249 10252 10255 10258 10261 10264 10267 10270 10273 10276 10279 10282 10285 10288 10290 10293 10296 10299 10301 10304 10307 10310 10313 10316 10319 10322 10325 10327 10330 10333 10336 10339 10341 10343 10346 10349 10352 10355 10357 10360 10363 10366 10369 10372 10375 10378 10380 10383 10386 10388 10391 10393 10395 10398 10400 10402 10405 10408 10411 10414 10417 10420 10423 10426 10429 10432 10435 10438 10441 10443 10445 10448 10451 10454 10457 10459 10462 10465 10467 10469 10471 10474 10477 10479 10482 10485 10487 10490 10493 10496 10498 10501 10503 10506 10509 10512 10515 10518 10521 10524 10527 10530 10533 10536 10539 10542 10545 10548 10551 10554 10557 10560 10563 10566 10569 10572 10575 10578 10581 10584 10587 10590 10593 10595 10598 10601 10604 10606 10609 10612 10615 10618 10621 10624 10627 10629 10632 10635 10638 10641 10643 10646 10649 10652 10655 10658 10660 10663 10666 10669 10672 10675 10677 10680 10683 10686 10689 10692 10695 10697 10700 10703 10706 10709 10712 10715 10718 10721 10724 10727 10730 10733 10736 10739 10741 10744 10747 10750 10753 10756 10759 10762 10765 10767 10770 10773 10776 10779 10782 10785 10787 10790 10793 10796 10799 10801 10803 10806 10808 10811 10813 10816 10819 10822 10825 10827 10830 10832 10835 10837 10840 10842 10844 10846 10849 10852 10855 10858 10860 10863 10865 10868 10871 10874 10877 10880 10883 10886 10889 10892 10894 10897 10900 10903 10906 10909 10912 10915 10918 10921 10924 10926 10929 10932 10934 10937 10940 10942 10945 10948 10951 10954 10957 10959 10962 10965 10968 10971 10974 10977 10980 10983 10986 10988 10991 10994 10997 11000 11003 11006 11008 11011 11014 11017 11019 11022 11025 11028 11030 11033 11036 11039 11041 11043 11046 11048 11051 11054 11057 11060 11062 11065 11068 11070 11073 11076 11079 11082 11085 11088 11091 11094 11097 11100 11103 11105 11108 11111 11114 11116 11119 11122 11125 11127 11130 11132 11135 11138 11141 11144 11147 11150 11153 11156 11159 11161 11164 11166 11169 11172 11175 11178 11180 11183 11186 11189 11191 11194 11197 11200 11203 11206 11208 11210 11212 11215 11218 11221 11223 11226 11229 11232 11235 11238 11241 11244 11247 11250 11253 11256 11259 11262 11265 11268 11271 11274 11277 11280 11283 11286 11289 11292 11295 11298 11301 11304 11306 11309 11312 11315 11318 11321 11324 11327 11330 11333 11336 11339 11342 11345 11348 11351 11354 11356 11359 11362 11365 11368 11371 11373 11376 11379 11382 11385 11387 11389 11392 11394 11396 11399 11402 11405 11407 11410 11412 11415 11418 11420 11423 11426 11429 11432 11435 11438 11441 11444 11447 11450 11452 11455 11458 11461 11464 11467 11470 11473 11476 11479 11482 11485 11488 11491 11494 11497 11500 11503 11506 11509 11512 11515 11518 11520 11523 11526 11528 11531 11534 11537 11540 11543 11545 11547 11550 11553 11556 11559 11562 11565 11568 11571 11574 11577 11580 11583 11586 11589 11592 11594 11597 11600 11603 11606 11608 11611 11614 11616 11619 11622 11625 11628 11631 11634 11636 11639 11642 11645 11648 11650 11653 11656 11659 11661 11664 11667 11670 11673 11676 11679 11682 11685 11688 11691 11694 11697 11700 11703 11706 11708 11711 11713 11716 11719 11722 11724 11727 11730 11733 11736 11739 11742 11745 11748 11751 11754 11757 11760 11763 11766 11768 11771 11774 11777 11780 11783 11786 11789 11791 11794 11797 11800 11802 11804 11807 11810 11812 11814 11816 11819 11822 11825 11828 11831 11833 11836 11838 11841 11843 11846 11849 11852 11855 11858 11861 11863 11866 11868 11871 11874 11877 11879 11882 11884 11886 11888 11891 11894 11896 11899 11902 11905 11908 11910 11913 11916 11918 11921 11924 11926 11929 11932 11934 11937 11940 11943 11945 11948 11951 11953 11956 11959 11961 11963 11966 11968 11971 11974 11977 11980 11983 11986 11989 11992 11994 11997 11999 12001 12004 12006 12008 12010 12013 12016 12018 12021 12024 12026 12029 12032 12035 12038 12040 12043 12046 12049 12051 12054 12057 12060 12063 12065 12068 12071 12073 12076 12078 12081 12083 12086 12089 12092 12094 12096 12099 12101 12103 12106 12108 12111 12114 12116 12119 12122 12125 12128 12131 12134 12137 12139 12142 12145 12147 12150 12152 12155 12158 12160 12163 12166 12168 12171 12174 12176 12179 12182 12185 12188 12191 12194 12197 12200 12203 12206 12209 12212 12215 12218 12221 12224 12227 12230 12233 12236 12239 12242 12245 12248 12251 12254 12257 12260 12263 12265 12268 12271 12274 12277 12280 12282 12284 12287 12290 12293 12296 12298 12301 12304 12306 12309 12312 12315 12318 12320 12323 12326 12329 12332 12335 12337 12340 12343 12346 12349 12352 12354 12357 12359 12361 12364 12367 12370 12373 12376 12379 12382 12385 12388 12391 12394 12397 12400 12403 12406 12409 12412 12414 12417 12420 12423 12426 12429 12432 12435 12438 12440 12443 12446 12449 12452 12455 12457 12460 12462 12465 12468 12471 12474 12477 12480 12483 12486 12489 12492 12495 12498 12501 12504 12507 12510 12513 12516 12519 12521 12524 12527 12530 12533 12536 12539 12542 12545 12548 12551 12554 12557 12560 12563 12566 12569 12572 12575 12578 12581 12584 12587 12590 12593 12596 12599 12602 12605 12608 12611 12614 12617 12620 12623 12626 12629 12632 12635 12638 12641 12644 12647 12650 12653 12656 12659 12662 12665 12668 12671 12674 12677 12680 12683 12686 12689 12692 12695 12698 12701 12704 12707 12710 12713 12716 12719 12722 12725 12728 12731 12734 12737 12740 12743 12746 12749 12752 12755 12758 12761 12764 12767 12770 12773 12776 12779 12782 12785 12788 12791 12794 12797 12800 12803 12806 12809 12812 12815 12818 12821 12824 12827 12830 12833 12836 12839 12842 12845 12848 12851 12854 12857 12860 12863 12866 12869 12872 12875 12878 12881 12884 12887 12890 12893 12896 12899 12902 12905 12908 12911 12914 12917 12920 12923 12926 12929 12932 12935 12938 12941 12944 12947 12950 12953 12956 12959 12962 12965 12968 12971 12974 12977 12980 12983 12985 12988 12991 12994 12997 12999 13002 13005 13008 13011 13014 13016 13019 13022 13025 13027 13030 13032 13035 13038 13041 13044 13046 13049 13052 13055 13057 13059 13062 13065 13068 13071 13074 13076 13078 13081 13084 13087 13090 13093 13096 13099 13102 13105 13108 13111 13114 13117 13119 13122 13125 13128 13131 13134 13137 13140 13143 13146 13149 13152 13155 13158 13161 13164 13167 13170 13172 13174 13177 13180 13183 13186 13189 13192 13195 13197 13200 13203 13206 13209 13212 13214 13217 13219 13222 13225 13228 13230 13233 13236 13239 13242 13245 13248 13251 13254 13256 13259 13262 13265 13268 13271 13273 13276 13279 13282 13285 13288 13291 13294 13297 13300 13303 13306 13309 13312 13315 13318 13321 13324 13327 13330 13333 13335 13338 13341 13344 13347 13350 13353 13355 13358 13361 13364 13367 13370 13373 13376 13379 13382 13385 13388 13391 13394 13397 13400 13403 13406 13409 13412 13415 13417 13420 13423 13426 13429 13432 13435 13438 13441 13444 13447 13450 13453 13456 13459 13462 13465 13468 13471 13474 13476 13479 13482 13485 13488 13491 13494 13497 13500 13503 13505 13508 13511 13513 13516 13519 13522 13524 13527 13530 13533 13536 13539 13541 13544 13547 13550 13552 13555 13558 13560 13563 13566 13569 13571 13574 13577 13580 13583 13585 13588 13591 13594 13596 13599 13602 13605 13608 13611 13614 13617 13619 13622 13625 13627 13630 13633 13636 13638 13641 13644 13647 13649 13651 13653 13656 13659 13661 13664 13667 13669 13672 13675 13678 13680 13682 13685 13688 13690 13693 13696 13699 13702 13705 13708 13711 13714 13716 13719 13722 13725 13728 13730 13733 13736 13739 13742 13744 13747 13750 13753 13755 13758 13761 13764 13767 13770 13772 13775 13778 13781 13784 13786 13788 13791 13794 13796 13799 13802 13804 13807 13810 13813 13816 13819 13822 13825 13828 13830 13833 13836 13839 13842 13845 13847 13849 13852 13855 13857 13860 13863 13866 13869 13871 13874 13877 13879 13882 13885 13888 13891 13894 13897 13900 13903 13906 13908 13911 13914 13917 13920 13923 13926 13929 13932 13935 13938 13941 13944 13946 13949 13952 13955 13958 13961 13964 13966 13969 13972 13974 13976 13979 13982 13985 13988 13991 13994 13997 14000 14003 14006 14009 14011 14014 14017 14020 14022 14025 14028 14031 14033 14035 14038 14041 14044 14046 14049 14052 14054 14056 14058 14061 14064 14067 14070 14073 14076 14079 14081 14084 14086 14089 14092 14094 14096 14098 14101 14104 14106 14109 14112 14115 14118 14121 14124 14127 14129 14132 14135 14138 14141 14144 14147 14150 14153 14155 14158 14161 14164 14166 14169 14172 14175 14178 14181 14184 14187 14189 14192 14195 14198 14200 14203 14206 14209 14212 14215 14218 14221 14224 14227 14230 14233 14236 14239 14242 14245 14248 14251 14254 14257 14260 14263 14266 14269 14272 14275 14278 14281 14283 14286 14289 14291 14294 14297 14300 14303 14306 14309 14312 14314 14317 14319 14322 14325 14328 14331 14334 14337 14340 14343 14346 14349 14351 14354 14357 14360 14362 14365 14368 14371 14373 14376 14379 14382 14384 14386 14389 14392 14395 14397 14400 14403 14406 14408 14411 14414 14417 14420 14423 14426 14429 14432 14435 14438 14441 14444 14446 14449 14452 14454 14457 14460 14463 14466 14469 14471 14474 14477 14479 14482 14485 14488 14491 14494 14496 14499 14502 14505 14508 14511 14514 14517 14520 14523 14526 14529 14532 14534 14537 14539 14542 14545 14547 14550 14552 14555 14558 14561 14564 14567 14570 14572 14575 14578 14581 14584 14587 14589 14592 14595 14598 14601 14604 14607 14609 14612 14614 14617 14620 14623 14626 14628 14631 14633 14636 14638 14641 14644 14647 14650 14652 14655 14658 14660 14663 14666 14669 14672 14675 14678 14681 14684 14687 14690 14693 14695 14698 14701 14704 14707 14710 14713 14716 14718 14721 14724 14727 14730 14733 14736 14738 14741 14744 14747 14749 14752 14755 14758 14761 14764 14767 14770 14773 14776 14779 14782 14784 14787 14790 14793 14796 14798 14801 14804 14807 14810 14813 14816 14819 14822 14824 14827 14830 14833 14836 14839 14842 14845 14848 14851 14854 14857 14860 14862 14865 14867 14869 14872 14874 14877 14880 14882 14885 14888 14891 14894 14896 14899 14901 14904 14907 14909 14912 14914 14917 14920 14922 14925 14927 14930 14933 14936 14939 14941 14944 14947 14950 14952 14955 14958 14961 14964 14967 14970 14973 14976 14979 14982 14985 14987 14990 14993 14996 14999 15002 15005 15008 15011 15014 15016 15019 15022 15025 15028 15031 15034 15037 15040 15043 15046 15049 15052 15055 15058 15061 15064 15067 15070 15073 15076 15079 15082 15085 15088 15090 15093 15096 15099 15102 15105 15107 15110 15113 15116 15119 15122 15125 15127 15129 15132 15135 15137 15140 15143 15146 15149 15151 15154 15157 15160 15163 15166 15168 15171 15173 15176 15179 15182 15184 15187 15190 15193 15196 15199 15201 15204 15207 15210 15213 15216 15219 15221 15224 15227 15230 15233 15236 15239 15242 15245 15248 15250 15253 15256 15259 15262 15265 15267 15270 15273 15276 15278 15281 15283 15286 15289 15292 15295 15298 15301 15304 15307 15309 15312 15314 15317 15320 15323 15326 15328 15331 15334 15337 15340 15343 15346 15348 15351 15354 15356 15359 15362 15365 15367 15370 15372 15375 15377 15380 15382 15385 15388 15390 15392 15395 15397 15400 15403 15405 15408 15411 15414 15417 15419 15422 15424 15427 15430 15432 15435 15438 15440 15443 15446 15449 15452 15454 15457 15459 15461 15463 15466 15468 15471 15473 15476 15479 15481 15484 15487 15490 15492 15494 15497 15500 15503 15506 15509 15512 15515 15518 15521 15524 15527 15530 15533 15535 15538 15541 15543 15546 15549 15552 15554 15556 15559 15562 15565 15568 15571 15574 15577 15579 15582 15585 15587 15590 15593 15596 15598 15601 15604 15606 15609 15612 15615 15618 15621 15624 15627 15630 15632 15635 15638 15641 15644 15646 15649 15652 15655 15658 15661 15663 15666 15669 15672 15674 15677 15680 15682 15685 15688 15690 15692 15695 15698 15701 15704 15707 15710 15713 15716 15719 15722 15725 15728 15731 15733 15736 15739 15742 15745 15748 15750 15753 15756 15758 15761 15764 15767 15770 15772 15775 15778 15781 15784 15787 15789 15792 15795 15797 15800 15802 15805 15807 15810 15813 15816 15818 15821 15824 15827 15830 15833 15836 15839 15841 15844 15847 15849 15852 15855 15858 15860 15863 15866 15869 15872 15875 15877 15880 15883 15885 15888 15891 15893 15895 15897 15900 15903 15906 15909 15912 15915 15918 15921 15923 15926 15929 15932 15934 15936 15939 15942 15945 15948 15951 15954 15956 15959 15962 15965 15968 15971 15974 15977 15980 15983 15986 15989 15992 15994 15997 16000 16002 16005 16008 16011 16014 16017 16020 16023 16025 16028 16030 16033 16036 16038 16041 16044 16047 16049 16051 16054 16056 16059 16061 16064 16066 16069 16072 16075 16077 16079 16082 16085 16088 16090 16092 16095 16098 16100 16103 16105 16108 16110 16113 16116 16118 16121 16124 16127 16130 16132 16135 16138 16141 16144 16147 16150 16153 16156 16159 16161 16164 16167 16170 16173 16176 16178 16181 16184 16187 16190 16193 16196 16199 16202 16205 16208 16211 16214 16217 16220 16223 16226 16229 16232 16235 16238 16241 16244 16247 16250 16253 16256 16259 16262 16265 16268 16270 16273 16275 16278 16281 16284 16287 16289 16292 16295 16298 16301 16304 16307 16310 16312 16315 16318 16320 16323 16325 16327 16330 16333 16336 16339 16341 16343 16346 16349 16352 16355 16358 16361 16364 16367 16370 16373 16376 16379 16381 16384 16387 16390 16393 16396 16399 16402 16404 16407 16410 16413 16415 16417 16420 16423 16426 16429 16431 16434 16437 16440 16442 16445 16448 16451 16454 16457 16460 16463 16466 16469 16471 16474 16477 16479 16482 16485 16488 16490 16493 16496 16499 16502 16505 16508 16511 16514 16516 16519 16522 16525 16528 16531 16534 16536 16539 16542 16545 16548 16551 16554 16556 16559 16562 16564 16567 16570 16573 16576 16579 16582 16584 16587 16590 16593 16595 16598 16601 16604 16607 16610 16613 16616 16619 16622 16625 16628 16631 16634 16637 16640 16643 16646 16649 16652 16655 16658 16661 16664 16666 16669 16672 16675 16677 16680 16683 16686 16689 16691 16694 16697 16700 16703 16706 16709 16712 16715 16718 16721 16724 16727 16730 16733 16735 16738 16741 16744 16747 16750 16753 16756 16759 16761 16764 16767 16770 16773 16775 16778 16781 16784 16787 16790 16793 16796 16799 16802 16805 16808 16811 16814 16816 16819 16822 16825 16827 16830 16833 16836 16839 16842 16845 16848 16851 16854 16856 16859 16861 16864 16867 16870 16873 16876 16878 16881 16884 16887 16890 16892 16895 16898 16901 16904 16907 16910 16913 16916 16919 16922 16925 16928 16931 16934 16937 16940 16943 16946 16949 16952 16955 16958 16961 16963 16965 16968 16971 16974 16977 16980 16983 16986 16989 16992 16995 16998 17001 17004 17007 17010 17013 17016 17019 17022 17025 17028 17031 17034 17037 17040 17043 17046 17049 17051 17054 17056 17059 17062 17065 17068 17071 17074 17077 17080 17083 17085 17088 17091 17093 17096 17099 17102 17105 17108 17111 17113 17116 17119 17121 17124 17127 17130 17133 17136 17139 17142 17145 17148 17151 17154 17157 17159 17162 17165 17168 17171 17174 17177 17180 17183 17186 17189 17192 17195 17198 17201 17204 17207 17210 17213 17216 17219 17222 17225 17228 17230 17233 17236 17239 17242 17245 17248 17251 17254 17257 17260 17263 17265 17268 17271 17273 17276 17279 17282 17285 17287 17290 17293 17296 17299 17302 17305 17308 17311 17314 17317 17320 17323 17326 17329 17332 17335 17338 17341 17344 17347 17350 17353 17356 17358 17361 17364 17367 17370 17373 17376 17379 17382 17385 17388 17391 17394 17397 17400 17403 17406 17409 17412 17415 17418 17421 17424 17427 17429 17432 17435 17438 17441 17444 17446 17449 17452 17454 17457 17460 17463 17466 17469 17472 17475 17478 17481 17484 17486 17489 17491 17494 17497 17500 17503 17506 17509 17511 17513 17516 17518 17521 17523 17526 17529 17532 17535 17538 17541 17544 17547 17550 17553 17556 17558 17561 17564 17567 17570 17573 17576 17579 17582 17585 17587 17590 17592 17595 17598 17601 17604 17607 17610 17613 17616 17619 17622 17625 17628 17631 17633 17636 17639 17642 17645 17648 17651 17654 17657 17660 17663 17666 17669 17672 17675 17678 17680 17682 17685 17688 17691 17693 17696 17699 17702 17705 17707 17710 17713 17716 17719 17722 17725 17728 17731 17733 17736 17739 17742 17745 17748 17751 17754 17757 17760 17763 17766 17769 17772 17775 17778 17781 17784 17787 17790 17793 17796 17799 17802 17805 17808 17811 17814 17817 17820 17823 17826 17829 17832 17835 17838 17841 17844 17847 17850 17853 17856 17859 17862 17865 17868 17871 17874 17877 17880 17883 17886 17889 17891 17894 17897 17900 17902 17905 17908 17911 17914 17916 17919 17922 17925 17927 17930 17933 17936 17939 17942 17945 17948 17951 17954 17957 17960 17963 17965 17967 17970 17973 17976 17978 17981 17984 17987 17990 17993 17996 17998 18000 18003 18006 18008 18010 18013 18016 18018 18021 18024 18027 18030 18032 18035 18038 18041 18044 18046 18049 18052 18054 18057 18059 18062 18065 18067 18070 18073 18076 18079 18082 18085 18088 18091 18094 18097 18100 18102 18105 18108 18110 18113 18116 18119 18122 18125 18128 18131 18134 18136 18139 18142 18145 18147 18150 18153 18156 18159 18161 18164 18167 18170 18173 18176 18179 18182 18185 18187 18189 18192 18194 18196 18199 18202 18205 18207 18210 18213 18216 18219 18222 18225 18228 18231 18234 18237 18240 18243 18246 18249 18252 18255 18257 18260 18263 18266 18269 18272 18275 18278 18281 18284 18286 18288 18291 18293 18296 18299 18302 18305 18308 18311 18314 18317 18320 18322 18325 18328 18330 18332 18335 18338 18340 18342 18345 18348 18350 18352 18354 18357 18359 18362 18365 18368 18371 18373 18376 18379 18382 18385 18387 18390 18393 18395 18398 18401 18403 18406 18408 18411 18414 18416 18419 18421 18424 18426 18429 18432 18435 18438 18441 18443 18446 18449 18451 18454 18456 18459 18461 18464 18467 18469 18471 18473 18476 18478 18481 18484 18487 18490 18492 18495 18497 18500 18503 18506 18509 18512 18515 18518 18521 18524 18527 18530 18533 18536 18539 18542 18545 18548 18551 18553 18555 18557 18560 18563 18565 18568 18571 18574 18577 18580 18582 18585 18588 18591 18594 18597 18599 18601 18603 18606 18609 18612 18615 18618 18621 18624 18627 18629 18632 18635 18637 18640 18642 18645 18648 18651 18654 18656 18659 18662 18665 18667 18670 18673 18676 18679 18682 18685 18688 18690 18693 18695 18698 18701 18703 18706 18708 18711 18714 18716 18719 18722 18724 18727 18729 18732 18734 18737 18740 18742 18745 18748 18750 18752 18755 18758 18761 18763 18766 18769 18772 18774 18776 18779 18782 18785 18788 18791 18794 18797 18800 18803 18806 18809 18812 18815 18817 18820 18823 18826 18828 18831 18834 18837 18840 18843 18845 18848 18851 18853 18856 18859 18862 18865 18868 18871 18873 18876 18879 18882 18885 18888 18891 18894 18897 18899 18902 18905 18908 18911 18914 18917 18920 18923 18925 18928 18931 18933 18936 18939 18941 18944 18947 18949 18952 18955 18957 18959 18962 18965 18967 18970 18972 18975 18978 18981 18984 18986 18989 18992 18995 18998 19001 19003 19006 19009 19011 19014 19017 19020 19023 19026 19029 19031 19034 19036 19039 19042 19045 19048 19051 19054 19057 19060 19063 19066 19069 19072 19075 19077 19080 19082 19085 19088 19091 19094 19096 19099 19102 19105 19107 19110 19112 19115 19118 19120 19123 19126 19129 19131 19134 19137 19140 19142 19145 19148 19151 19154 19156 19159 19162 19165 19168 19170 19173 19175 19178 19180 19182 19185 19188 19190 19193 19196 19199 19202 19205 19207 19210 19212 19215 19218 19220 19223 19226 19229 19231 19234 19237 19240 19243 19245 19248 19251 19254 19256 19259 19262 19264 19267 19269 19272 19275 19278 19280 19283 19286 19289 19291 19293 19296 19299 19302 19305 19307 19310 19312 19315 19318 19321 19324 19327 19330 19333 19335 19338 19341 19344 19347 19349 19352 19354 19357 19359 19362 19365 19368 19371 19373 19376 19378 19381 19384 19387 19390 19393 19396 19399 19402 19404 19407 19410 19413 19415 19418 19421 19424 19427 19429 19432 19435 19438 19441 19444 19447 19450 19453 19456 19459 19462 19465 19468 19471 19474 19477 19479 19482 19485 19488 19491 19494 19497 19500 19503 19506 19509 19512 19515 19518 19521 19524 19527 19530 19533 19535 19538 19541 19544 19547 19549 19552 19554 19557 19560 19562 19565 19568 19571 19574 19577 19580 19583 19586 19589 19592 19595 19597 19599 19602 19605 19608 19611 19613 19616 19619 19622 19625 19628 19631 19634 19636 19639 19642 19645 19648 19651 19654 19657 19660 19663 19666 19669 19672 19675 19678 19680 19683 19685 19688 19691 19694 19697 19700 19703 19706 19709 19712 19715 19717 19720 19722 19725 19728 19731 19734 19737 19740 19743 19746 19749 19752 19755 19758 19761 19763 19766 19769 19772 19775 19778 19781 19784 19787 19790 19793 19796 19799 19801 19804 19807 19809 19812 19815 19818 19821 19824 19827 19830 19832 19835 19838 19841 19844 19847 19850 19853 19856 19859 19862 19865 19868 19871 19874 19877 19880 19883 19886 19889 19892 19895 19898 19901 19904 19907 19910 19913 19916 19919 19922 19925 19928 19931 19934 19937 19940 19943 19946 19949 19952 19955 19958 19961 19964 19967 19970 19973 19976 19979 19982 19985 19988 19991 19994 19997 20000 20003 20005 20008 20011 20014 20017 20020 20022 20025 20028 20031 20034 20037 20040 20043 20046 20049 20052 20055 20058 20061 20064 20067 20070 20073 20076 20078 20081 20084 20086 20089 20092 20095 20097 20100 20103 20106 20109 20112 20115 20118 20121 20123 20126 20129 20132 20135 20138 20141 20144 20147 20150 20153 20156 20159 20162 20165 20168 20171 20174 20177 20180 20183 20186 20189 20192 20195 20198 20201 20204 20207 20210 20213 20216 20219 20222 20225 20228 20231 20234 20237 20240 20243 20246 20249 20252 20254 20257 20260 20263 20266 20268 20271 20274 20277 20280 20283 20286 20289 20292 20295 20297 20300 20303 20306 20309 20312 20315 20318 20321 20324 20327 20330 20333 20336 20339 20342 20345 20348 20351 20354 20357 20360 20363 20366 20369 20372 20375 20378 20381 20384 20387 20390 20393 20396 20399 20402 20405 20408 20411 20414 20417 20420 20423 20426 20429 20432 20435 20438 20440 20443 20446 20449 20452 20455 20458 20461 20463 20466 20469 20472 20475 20478 20481 20483 20485 20488 20491 20494 20496 20498 20501 20504 20507 20509 20512 20515 20518 20520 20522 20525 20528 20531 20534 20537 20540 20543 20546 20549 20552 20555 20558 20561 20564 20566 20569 20572 20575 20578 20581 20583 20586 20589 20592 20594 20597 20600 20603 20606 20608 20611 20613 20616 20619 20622 20624 20627 20630 20633 20635 20638 20641 20644 20647 20650 20653 20656 20658 20661 20664 20666 20669 20672 20674 20676 20679 20681 20684 20687 20689 20692 20695 20698 20701 20703 20706 20709 20712 20715 20718 20721 20724 20727 20730 20733 20736 20739 20742 20745 20748 20751 20754 20757 20760 20763 20766 20769 20772 20775 20778 20781 20783 20786 20789 20792 20795 20798 20801 20804 20807 20809 20812 20815 20817 20820 20823 20826 20829 20831 20833 20836 20838 20841 20844 20847 20850 20853 20855 20857 20860 20863 20866 20869 20872 20875 20878 20881 20884 20887 20890 20893 20895 20898 20901 20904 20907 20910 20913 20916 20919 20922 20925 20928 20931 20934 20937 20940 20943 20946 20949 20952 20955 20958 20960 20963 20966 20969 20972 20975 20978 20981 20983 20986 20989 20992 20994 20997 21000 21003 21006 21009 21012 21015 21018 21021 21023 21026 21029 21032 21035 21038 21041 21044 21047 21050 21053 21056 21059 21062 21065 21068 21071 21074 21077 21080 21083 21086 21089 21092 21095 21097 21100 21103 21106 21109 21112 21115 21118 21121 21124 21127 21130 21133 21136 21139 21142 21145 21148 21151 21154 21157 21160 21162 21165 21168 21171 21174 21177 21180 21183 21185 21188 21191 21194 21197 21199 21202 21205 21208 21211 21214 21217 21220 21223 21226 21229 21232 21235 21238 21241 21244 21247 21250 21253 21256 21259 21262 21265 21268 21271 21274 21276 21279 21282 21285 21288 21291 21294 21297 21300 21302 21305 21308 21311 21314 21317 21320 21323 21326 21328 21330 21333 21336 21339 21341 21344 21346 21349 21352 21354 21357 21360 21363 21366 21369 21372 21374 21376 21378 21381 21384 21387 21390 21393 21396 21398 21401 21404 21407 21410 21413 21416 21419 21422 21425 21427 21430 21433 21436 21439 21442 21445 21448 21451 21454 21457 21460 21463 21466 21469 21472 21475 21478 21481 21484 21487 21490 21493 21496 21499 21502 21505 21508 21511 21514 21517 21520 21523 21526 21529 21532 21535 21537 21540 21543 21546 21549 21552 21555 21558 21561 21563 21566 21569 21572 21575 21578 21581 21584 21587 21590 21593 21596 21598 21600 21603 21606 21609 21612 21615 21618 21621 21624 21627 21630 21633 21636 21639 21642 21645 21648 21651 21654 21657 21659 21662 21665 21667 21670 21673 21676 21679 21682 21685 21688 21691 21694 21697 21700 21702 21704 21707 21710 21713 21716 21719 21722 21725 21728 21731 21734 21737 21740 21743 21746 21749 21752 21755 21758 21761 21764 21767 21770 21773 21776 21779 21782 21785 21788 21791 21794 21797 21799 21802 21805 21808 21811 21813 21815 21818 21821 21824 21826 21828 21831 21834 21837 21840 21842 21845 21847 21850 21852 21855 21857 21860 21863 21866 21869 21872 21875 21877 21880 21882 21885 21887 21890 21893 21896 21899 21902 21905 21907 21910 21912 21915 21917 21920 21922 21925 21927 21930 21933 21936 21939 21942 21945 21948 21950 21953 21956 21959 21962 21965 21968 21971 21974 21977 21980 21983 21986 21989 21992 21995 21998 22001 22004 22007 22010 22012 22015 22018 22021 22024 22027 22030 22033 22036 22039 22042 22045 22048 22050 22053 22056 22058 22061 22064 22067 22069 22072 22075 22077 22080 22082 22085 22088 22091 22094 22097 22099 22102 22105 22108 22110 22112 22115 22118 22121 22124 22127 22129 22132 22134 22137 22139 22142 22145 22148 22150 22153 22156 22159 22162 22165 22168 22171 22173 22175 22178 22181 22184 22187 22190 22192 22194 22197 22200 22203 22206 22209 22211 22214 22217 22220 22223 22226 22229 22231 22234 22237 22240 22243 22245 22248 22250 22253 22256 22259 22262 22265 22268 22271 22274 22277 22280 22283 22286 22289 22292 22295 22298 22300 22303 22305 22308 22311 22314 22317 22320 22323 22326 22329 22332 22335 22337 22339 22342 22345 22347 22350 22352 22354 22357 22359 22362 22365 22368 22371 22374 22377 22380 22383 22386 22389 22392 22395 22398 22401 22403 22406 22409 22412 22415 22418 22421 22424 22427 22430 22433 22436 22439 22442 22445 22448 22451 22453 22456 22459 22462 22465 22468 22471 22474 22477 22480 22483 22486 22489 22492 22495 22498 22501 22504 22507 22510 22513 22516 22519 22522 22525 22528 22531 22534 22537 22540 22543 22546 22549 22552 22555 22558 22561 22564 22567 22570 22573 22576 22579 22582 22585 22588 22591 22594 22597 22600 22603 22606 22609 22612 22615 22618 22621 22624 22627 22630 22633 22636 22639 22642 22645 22648 22651 22654 22657 22660 22663 22666 22669 22672 22675 22677 22680 22683 22686 22689 22692 22694 22697 22700 22703 22706 22709 22712 22715 22718 22721 22724 22727 22730 22733 22736 22739 22742 22745 22748 22751 22754 22757 22760 22763 22766 22768 22771 22774 22777 22780 22783 22786 22789 22792 22795 22798 22801 22804 22807 22810 22813 22816 22819 22822 22825 22828 22831 22834 22837 22840 22843 22846 22849 22852 22855 22858 22860 22863 22866 22869 22872 22875 22878 22881 22884 22887 22890 22893 22896 22899 22902 22905 22908 22911 22914 22917 22920 22923 22926 22929 22932 22935 22938 22941 22944 22947 22950 22953 22956 22959 22962 22965 22968 22971 22974 22977 22980 22983 22986 22989 22992 22995 22998 23001 23004 23007 23010 23013 23016 23019 23022 23024 23027 23030 23033 23036 23039 23042 23045 23048 23051 23054 23057 23060 23062 23065 23068 23071 23073 23076 23079 23082 23085 23088 23091 23094 23097 23100 23103 23106 23109 23112 23115 23118 23121 23124 23126 23129 23132 23135 23138 23141 23144 23146 23149 23152 23155 23158 23161 23164 23167 23170 23173 23175 23178 23180 23183 23185 23188 23191 23194 23197 23199 23202 23205 23208 23211 23214 23216 23219 23222 23224 23227 23230 23233 23236 23239 23242 23245 23247 23250 23253 23256 23259 23262 23265 23268 23271 23274 23277 23280 23283 23286 23289 23292 23295 23298 23301 23303 23306 23309 23312 23315 23317 23320 23323 23325 23328 23331 23334 23336 23339 23342 23345 23348 23351 23354 23356 23358 23361 23364 23367 23370 23373 23376 23379 23382 23384 23387 23390 23393 23395 23398 23401 23404 23406 23409 23412 23415 23418 23420 23423 23426 23429 23432 23434 23437 23440 23443 23446 23449 23451 23454 23457 23460 23463 23466 23468 23471 23474 23477 23480 23483 23486 23489 23492 23494 23497 23500 23503 23506 23509 23512 23515 23518 23521 23524 23527 23530 23533 23536 23539 23542 23545 23548 23551 23554 23557 23560 23563 23565 23568 23571 23573 23575 23578 23581 23584 23587 23590 23593 23596 23599 23602 23605 23608 23611 23614 23617 23620 23623 23626 23629 23632 23635 23638 23641 23644 23646 23649 23652 23655 23658 23661 23664 23667 23670 23673 23675 23678 23681 23684 23687 23690 23693 23696 23699 23702 23705 23708 23711 23714 23717 23720 23723 23726 23729 23731 23734 23737 23740 23743 23746 23749 23752 23755 23758 23761 23764 23767 23769 23772 23775 23778 23781 23784 23787 23789 23792 23795 23798 23801 23804 23807 23810 23813 23816 23819 23822 23825 23828 23831 23834 23837 23840 23843 23846 23849 23852 23854 23857 23860 23863 23866 23869 23872 23875 23878 23880 23883 23886 23889 23892 23895 23898 23900 23903 23905 23908 23910 23913 23916 23919 23921 23924 23927 23929 23932 23935 23938 23941 23944 23947 23950 23953 23956 23959 23962 23965 23968 23971 23974 23977 23980 23983 23986 23989 23992 23995 23998 24001 24004 24007 24009 24012 24015 24017 24020 24022 24025 24028 24031 24034 24036 24039 24042 24045 24048 24051 24054 24057 24060 24063 24066 24069 24071 24074 24077 24079 24082 24085 24088 24091 24094 24097 24099 24102 24105 24108 24111 24114 24116 24119 24122 24124 24127 24130 24133 24136 24139 24142 24145 24148 24151 24154 24157 24160 24163 24166 24169 24172 24175 24178 24181 24184 24187 24190 24193 24196 24199 24202 24205 24208 24211 24213 24216 24219 24222 24225 24227 24230 24233 24236 24239 24242 24245 24248 24251 24254 24257 24260 24263 24266 24269 24272 24275 24278 24281 24284 24287 24290 24293 24296 24299 24302 24305 24308 24311 24314 24317 24320 24323 24325 24328 24331 24334 24337 24340 24343 24346 24349 24352 24354 24357 24360 24363 24366 24369 24372 24375 24377 24380 24383 24386 24389 24392 24395 24398 24401 24404 24407 24410 24413 24416 24419 24422 24425 24428 24430 24433 24436 24439 24441 24444 24447 24450 24453 24456 24459 24462 24465 24468 24471 24474 24477 24479 24482 24485 24488 24491 24493 24496 24499 24502 24505 24508 24510 24513 24516 24519 24522 24525 24528 24531 24533 24536 24539 24542 24545 24548 24550 24553 24556 24559 24562 24565 24568 24571 24574 24577 24580 24583 24586 24589 24592 24595 24598 24601 24604 24607 24610 24613 24616 24619 24621 24624 24626 24629 24632 24635 24638 24641 24644 24647 24650 24652 24654 24657 24660 24663 24666 24669 24672 24675 24678 24681 24684 24686 24689 24692 24694 24697 24700 24702 24705 24708 24711 24714 24717 24720 24723 24726 24729 24732 24735 24738 24741 24744 24747 24750 24753 24756 24759 24762 24765 24768 24771 24774 24777 24780 24783 24786 24788 24791 24794 24797 24799 24801 24804 24807 24810 24813 24816 24819 24822 24825 24828 24830 24833 24836 24839 24841 24843 24846 24849 24852 24854 24857 24860 24862 24865 24868 24870 24873 24876 24878 24880 24883 24885 24888 24890 24892 24894 24897 24900 24903 24906 24908 24911 24913 24915 24918 24921 24924 24926 24929 24932 24935 24938 24941 24944 24947 24950 24953 24956 24959 24961 24964 24966 24969 24972 24975 24978 24981 24984 24986 24989 24992 24995 24997 25000 25003 25006 25009 25011 25014 25017 25020 25023 25025 25028 25031 25034 25037 25040 25042 25044 25047 25049 25052 25055 25058 25061 25064 25067 25070 25073 25076 25079 25082 25085 25087 25090 25093 25096 25099 25102 25104 25107 25110 25113 25116 25119 25122 25125 25127 25130 25133 25136 25139 25142 25145 25148 25151 25154 25157 25160 25163 25166 25169 25172 25175 25178 25180 25182 25185 25187 25190 25193 25196 25199 25202 25205 25208 25211 25214 25217 25220 25223 25226 25229 25232 25235 25238 25241 25244 25247 25250 25253 25256 25259 25262 25265 25268 25271 25274 25277 25280 25283 25286 25289 25292 25295 25297 25300 25303 25306 25309 25312 25314 25317 25320 25323 25326 25329 25332 25334 25337 25339 25342 25345 25348 25351 25353 25356 25359 25362 25365 25368 25371 25374 25377 25380 25383 25386 25389 25392 25395 25398 25401 25404 25407 25410 25413 25416 25419 25422 25425 25428 25431 25434 25437 25440 25443 25446 25449 25452 25455 25458 25461 25464 25467 25469 25472 25475 25478 25481 25484 25487 25489 25492 25495 25498 25501 25504 25506 25509 25512 25515 25518 25521 25524 25527 25530 25533 25536 25538 25541 25544 25547 25550 25552 25554 25557 25560 25563 25566 25569 25572 25575 25578 25581 25584 25587 25589 25592 25595 25598 25601 25604 25607 25610 25613 25616 25619 25622 25624 25627 25630 25633 25636 25639 25642 25645 25648 25651 25653 25656 25659 25662 25665 25668 25671 25674 25677 25680 25683 25686 25689 25692 25695 25698 25701 25704 25707 25710 25713 25716 25719 25722 25725 25728 25731 25734 25737 25740 25743 25746 25749 25752 25755 25757 25760 25763 25766 25768 25770 25773 25776 25778 25781 25784 25787 25790 25793 25796 25799 25802 25805 25808 25811 25814 25817 25820 25823 25826 25829 25832 25835 25838 25841 25844 25847 25850 25853 25856 25859 25862 25865 25868 25870 25872 25875 25877 25880 25883 25886 25889 25891 25894 25897 25900 25903 25906 25909 25912 25915 25918 25921 25924 25927 25930 25933 25936 25939 25942 25945 25948 25951 25954 25957 25960 25962 25965 25968 25971 25974 25976 25979 25982 25985 25988 25990 25993 25996 25999 26002 26005 26008 26010 26013 26016 26019 26022 26025 26028 26031 26034 26037 26039 26042 26045 26048 26051 26054 26056 26059 26062 26065 26068 26071 26074 26076 26079 26082 26085 26088 26091 26094 26096 26099 26102 26104 26107 26109 26112 26115 26117 26120 26123 26126 26128 26131 26134 26137 26140 26143 26146 26149 26151 26154 26157 26160 26163 26166 26169 26172 26175 26178 26181 26184 26186 26189 26192 26195 26198 26201 26204 26207 26210 26213 26216 26219 26222 26225 26228 26230 26233 26236 26239 26241 26244 26247 26250 26253 26256 26259 26262 26265 26268 26271 26274 26277 26280 26283 26285 26287 26290 26292 26294 26296 26299 26302 26305 26307 26310 26313 26315 26318 26320 26323 26325 26328 26331 26334 26337 26340 26343 26345 26348 26351 26354 26357 26360 26363 26366 26369 26372 26375 26378 26381 26384 26387 26390 26393 26396 26399 26402 26405 26408 26410 26413 26416 26419 26421 26424 26427 26430 26433 26436 26439 26442 26445 26448 26451 26454 26457 26460 26463 26465 26468 26471 26474 26477 26480 26483 26486 26489 26492 26494 26497 26500 26503 26506 26509 26511 26514 26517 26520 26523 26526 26529 26532 26535 26538 26541 26544 26547 26550 26553 26555 26558 26561 26564 26567 26570 26573 26576 26579 26582 26585 26588 26591 26594 26597 26599 26602 26605 26608 26611 26614 26616 26619 26622 26625 26627 26630 26633 26635 26638 26641 26644 26647 26650 26652 26655 26657 26660 26662 26665 26667 26670 26672 26675 26678 26680 26683 26686 26689 26692 26695 26697 26700 26703 26706 26709 26712 26715 26718 26720 26723 26726 26728 26731 26734 26737 26740 26742 26745 26748 26750 26753 26756 26759 26762 26765 26767 26770 26773 26776 26778 26781 26784 26787 26789 26791 26794 26796 26798 26801 26803 26806 26809 26812 26815 26818 26821 26824 26826 26828 26830 26833 26836 26839 26841 26844 26847 26850 26853 26856 26859 26862 26865 26868 26871 26874 26877 26880 26882 26885 26888 26891 26894 26897 26899 26902 26905 26908 26910 26913 26916 26919 26922 26925 26928 26931 26934 26937 26940 26943 26946 26949 26951 26954 26956 26959 26962 26965 26968 26970 26972 26975 26978 26981 26984 26987 26990 26993 26996 26999 27002 27005 27007 27010 27013 27016 27018 27021 27024 27027 27030 27032 27035 27038 27040 27043 27046 27049 27052 27055 27058 27061 27064 27066 27069 27072 27075 27078 27081 27084 27087 27089 27092 27094 27097 27099 27102 27105 27108 27111 27114 27117 27119 27122 27125 27128 27131 27134 27137 27140 27143 27146 27148 27151 27154 27157 27160 27163 27165 27168 27171 27173 27176 27179 27182 27185 27188 27191 27194 27196 27199 27202 27204 27207 27209 27212 27215 27218 27220 27223 27226 27228 27231 27233 27236 27238 27241 27244 27247 27250 27252 27255 27258 27261 27264 27267 27270 27273 27275 27278 27280 27283 27286 27289 27292 27295 27298 27301 27304 27307 27310 27313 27315 27318 27321 27324 27327 27329 27332 27335 27338 27341 27344 27347 27350 27353 27356 27359 27362 27365 27368 27370 27373 27376 27379 27382 27384 27387 27390 27393 27396 27399 27402 27405 27408 27411 27414 27417 27420 27423 27426 27429 27432 27435 27438 27441 27444 27447 27450 27453 27456 27459 27461 27464 27467 27470 27473 27476 27479 27482 27485 27488 27491 27494 27497 27500 27503 27506 27509 27512 27515 27518 27521 27524 27527 27530 27533 27536 27539 27542 27544 27547 27550 27553 27555 27558 27561 27564 27567 27570 27572 27575 27578 27581 27584 27587 27589 27592 27595 27598 27600 27603 27606 27609 27612 27614 27617 27620 27623 27626 27629 27632 27635 27638 27641 27644 27647 27650 27653 27656 27659 27662 27665 27668 27671 27674 27677 27680 27683 27686 27688 27690 27692 27695 27697 27699 27701 27704 27707 27710 27712 27715 27718 27721 27724 27727 27729 27731 27734 27737 27740 27743 27746 27748 27750 27753 27756 27758 27761 27764 27766 27769 27772 27775 27778 27781 27784 27787 27789 27792 27795 27798 27801 27804 27807 27810 27813 27816 27819 27822 27825 27827 27830 27833 27836 27839 27842 27845 27848 27851 27854 27857 27860 27863 27866 27869 27872 27875 27878 27881 27884 27887 27890 27893 27896 27899 27902 27905 27908 27911 27914 27917 27920 27922 27925 27927 27930 27933 27936 27939 27942 27945 27948 27951 27954 27957 27960 27962 27964 27967 27970 27973 27976 27979 27982 27985 27988 27991 27994 27997 28000 28003 28006 28009 28011 28013 28016 28019 28022 28025 28028 28030 28033 28036 28039 28042 28045 28048 28051 28053 28055 28058 28061 28064 28067 28069 28072 28075 28078 28081 28083 28085 28088 28091 28094 28096 28099 28102 28104 28107 28110 28113 28116 28119 28122 28125 28128 28131 28134 28137 28140 28143 28145 28148 28150 28153 28156 28159 28162 28164 28167 28170 28173 28176 28178 28181 28184 28186 28188 28191 28193 28196 28199 28202 28205 28207 28209 28212 28215 28218 28221 28224 28227 28230 28233 28236 28239 28242 28245 28248 28251 28253 28256 28259 28262 28265 28267 28269 28272 28275 28277 28280 28283 28286 28289 28292 28295 28297 28300 28302 28305 28308 28310 28313 28316 28319 28322 28325 28327 28330 28332 28335 28338 28341 28344 28347 28350 28353 28356 28359 28362 28365 28368 28371 28374 28377 28379 28382 28385 28387 28390 28393 28396 28399 28402 28405 28407 28410 28413 28416 28418 28421 28424 28427 28430 28433 28436 28439 28441 28443 28446 28448 28451 28453 28455 28457 28460 28463 28466 28469 28471 28473 28476 28478 28481 28484 28487 28489 28492 28495 28497 28500 28503 28506 28509 28512 28514 28516 28518 28521 28524 28526 28528 28531 28534 28537 28539 28542 28544 28547 28550 28553 28556 28559 28562 28565 28568 28571 28574 28577 28580 28583 28586 28589 28592 28595 28598 28601 28604 28607 28610 28613 28616 28619 28622 28624 28627 28630 28633 28636 28639 28642 28644 28647 28650 28653 28655 28657 28660 28663 28666 28668 28670 28673 28676 28679 28681 28684 28687 28689 28692 28694 28697 28699 28702 28705 28708 28711 28714 28716 28719 28722 28724 28727 28730 28732 28735 28738 28741 28744 28746 28749 28752 28755 28758 28761 28764 28767 28769 28772 28775 28778 28781 28784 28787 28790 28793 28796 28799 28802 28804 28807 28810 28813 28816 28819 28822 28825 28827 28830 28833 28835 28837 28840 28843 28846 28849 28851 28854 28857 28860 28862 28865 28867 28870 28872 28875 28878 28881 28884 28887 28890 28892 28895 28898 28901 28904 28907 28910 28913 28916 28919 28922 28924 28927 28930 28933 28936 28939 28942 28945 28948 28951 28954 28956 28959 28962 28965 28968 28971 28974 28977 28980 28983 28986 28989 28992 28995 28998 29001 29004 29007 29010 29013 29016 29019 29022 29025 29028 29031 29034 29037 29040 29043 29046 29049 29052 29055 29058 29060 29063 29066 29069 29071 29074 29077 29080 29083 29086 29089 29092 29095 29098 29100 29103 29106 29108 29111 29114 29117 29120 29123 29126 29129 29132 29135 29138 29141 29144 29147 29150 29152 29155 29158 29161 29163 29166 29169 29172 29175 29178 29181 29184 29187 29190 29193 29196 29199 29202 29205 29208 29211 29214 29217 29219 29222 29225 29228 29230 29233 29236 29239 29242 29245 29248 29251 29254 29257 29260 29263 29266 29269 29272 29275 29278 29281 29284 29287 29290 29293 29296 29299 29302 29305 29308 29311 29314 29317 29320 29323 29325 29328 29331 29334 29337 29340 29343 29346 29349 29352 29355 29358 29361 29364 29367 29370 29373 29376 29379 29382 29385 29388 29391 29394 29397 29400 29403 29406 29409 29411 29414 29417 29420 29423 29426 29429 29432 29435 29438 29441 29444 29446 29449 29451 29454 29457 29460 29463 29466 29469 29472 29475 29478 29481 29484 29487 29490 29493 29496 29499 29502 29504 29506 29509 29512 29515 29518 29520 29523 29525 29527 29530 29533 29536 29539 29542 29545 29548 29550 29553 29555 29558 
</DataArray>
<DataArray type="UInt32" Name="types" format="ascii">
5 5 5 5 5 5 5 5 5 5 5 5 5 5 5 5 5 5 5 5 5 5 5 5 5 5 5 5 5 5 5 3 5 5 5 5 5 5 5 5 5 5 3 5 5 3 5 5 5 5 5 5 5 5 5 3 5 3 5 5 3 5 5 5 5 5 5 3 5 5 5 5 5 5 5 5 5 5 5 5 5 5 5 5 5 5 5 5 5 5 5 5 5 5 5 5 5 3 5 5 5 5 5 5 5 5 5 5 5 5 5 5 5 5 5 5 5 5 5 5 5 5 5 5 5 5 5 5 5 5 5 5 5 5 5 5 5 5 5 5 5 5 5 5 5 5 5 5 5 5 5 5 3 5 5 5 3 5 5 5 5 5 5 5 3 5 5 5 5 5 5 5 3 5 5 3 3 5 3 5 5 5 5 5 3 5 5 5 5 5 3 5 5 5 5 3 5 5 3 3 5 3 5 3 5 5 3 5 5 5 5 5 5 5 5 5 5 5 5 5 5 5 3 5 5 3 3 5 5 5 5 5 5 5 5 5 5 5 5 5 5 5 3 5 5 5 5 3 5 5 3 3 5 5 3 5 5 3 5 5 5 5 5 5 5 5 5 5 5 5 5 5 5 5 5 5 5 5 5 5 5 5 5 5 5 5 5 5 3 5 5 5 5 5 5 3 5 5 5 5 5 5 3 5 5 5 5 3 5 5 5 3 5 5 5 5 5 3 5 3 5 5 3 3 5 5 5 5 5 5 5 5 5 5 5 5 5 3 5 5 5 5 5 5 5 3 5 5 5 3 5 5 5 5 3 5 3 5 5 5 3 3 5 5 5 3 5 5 5 3 3 5 5 5 3 5 5 3 5 5 5 5 3 5 5 5 5 5 5 5 5 5 5 5 5 5 5 5 5 5 5 5 5 5 5 5 5 5 5 5 5 5 5 5 5 5 5 5 5 5 5 5 5 5 5 5 5 5 5 5 5 5 5 5 5 5 5 5 5 5 5 5 5 3 5 5 5 5 3 5 5 3 5 5 5 5 5 5 5 5 5 5 5 5 5 5 5 5 5 5 3 3 5 5 5 3 3 5 5 5 3 5 5 3 5 5 5 5 5 3 5 5 5 5 3 5 5 5 5 5 5 5 3 5 5 5 5 5 5 5 5 5 5 5 5 5 5 5 5 5 5 5 3 5 5 3 5 3 5 5 5 5 5 3 5 5 3 5 5 5 5 5 5 5 5 5 5 5 5 3 5 5 5 5 5 5 5 5 5 5 5 5 5 5 5 5 3 5 5 5 3 3 5 5 5 3 5 3 5 3 5 3 3 5 5 5 5 5 5 5 5 5 5 5 5 5 3 5 3 5 3 5 5 3 5 5 5 3 5 5 5 5 5 5 5 5 5 5 5 5 5 5 5 3 5 5 5 5 5 5 5 5 5 5 5 5 5 5 5 5 5 5 5 5 5 5 5 5 5 5 5 5 5 5 5 5 3 5 5 5 5 5 5 3 5 5 5 5 5 5 5 5 5 5 3 5 5 5 3 5 5 5 3 5 5 3 3 5 5 5 5 5 5 5 3 5 5 5 5 5 5 5 5 5 5 5 5 5 5 5 5 5 5 5 5 5 5 5 5 5 5 5 5 5 5 3 5 5 5 3 5 3 5 5 3 5 5 3 3 5 5 5 5 5 5 5 5 5 5 5 5 3 5 5 5 5 5 5 5 5 5 5 5 5 5 3 5 5 5 5 5 5 5 5 3 5 5 5 5 5 5 5 5 5 5 5 5 5 5 5 5 5 5 5 5 5 5 3 5 5 5 3 5 3 5 5 5 5 5 3 5 5 3 5 3 5 5 3 5 5 3 5 5 3 5 3 5 3 5 5 5 5 5 5 5 5 5 3 3 5 3 5 5 3 3 5 5 5 3 5 5 5 5 5 5 5 3 5 5 5 5 3 5 5 5 5 5 5 5 5 5 5 5 5 5 5 5 5 5 5 5 5 5 5 5 5 5 5 5 3 5 5 5 5 5 5 5 5 3 5 5 5 3 3 5 5 5 5 3 5 5 3 5 5 5 5 5 3 5 5 3 5 5 5 5 5 5 3 5 5 5 3 5 5 5 5 3 5 5 5 3 5 5 5 5 3 5 5 5 3 5 5 5 5 5 5 5 5 3 5 5 5 5 5 5 5 5 5 5 5 5 5 3 5 5 5 5 5 5 5 3 5 5 5 5 5 5 5 5 3 3 5 5 5 5 3 5 5 5 3 5 5 3 5 5 3 5 3 5 3 5 5 5 5 5 5 5 3 5 5 3 3 5 5 5 5 5 3 5 5 3 5 5 5 5 5 5 5 3 5 3 5 5 5 5 3 5 3 5 5 5 5 3 5 5 5 5 3 5 5 5 5 5 5 5 5 3 5 5 5 3 5 5 5 5 5 5 5 5 5 5 5 5 5 3 5 5 5 3 5 3 3 5 5 5 3 5 5 3 5 5 5 5 5 5 5 5 3 5 3 3 5 5 5 5 5 3 5 5 5 3 5 5 3 5 5 5 5 3 5 3 5 5 5 5 3 5 3 5 5 3 5 3 5 3 3 5 5 5 5 3 5 3 5 3 5 5 5 3 5 5 3 5 5 5 5 5 3 5 5 5 5 5 5 5 5 5 5 5 5 5 5 5 5 3 5 5 5 5 5 5 3 5 5 5 5 5 5 5 5 3 5 5 5 3 3 5 3 5 5 5 3 5 5 5 5 5 5 5 5 5 5 5 3 5 5 3 5 5 5 5 5 5 5 5 5 5 5 3 5 5 5 5 5 5 5 5 5 5 5 5 5 5 5 5 5 3 5 5 5 5 5 5 5 3 5 5 5 5 5 5 5 5 5 5 5 5 5 5 5 5 5 5 5 5 5 5 5 5 3 5 5 5 5 5 5 5 5 5 5 5 5 3 3 5 5 5 5 5 3 5 3 5 3 5 5 5 5 5 5 5 5 3 5 5 5 5 5 5 3 5 5 5 5 5 5 5 5 3 5 5 5 5 5 5 5 3 5 5 5 5 5 5 3 5 3 5 5 5 5 5 5 5 5 5 5 5 5 5 5 5 5 5 5 5 5 5 3 5 5 5 5 5 5 5 5 5 5 5 5 5 5 5 5 5 3 5 5 5 3 5 5 5 5 5 3 5 5 3 5 5 5 5 5 5 5 5 5 5 5 5 5 5 5 5 5 5 3 5 5 5 5 5 5 5 5 5 3 5 5 5 5 5 5 5 5 5 5 5 5 5 5 5 5 5 5 5 3 5 5 3 5 5 5 5 5 5 5 5 5 5 5 5 5 5 5 5 5 5 5 5 5 5 5 5 5 5 5 5 5 3 5 3 5 5 5 5 5 5 5 5 5 5 5 5 5 5 5 3 5 5 5 3 5 5 3 5 5 5 5 5 5 5 5 3 5 5 5 5 5 5 3 3 5 5 5 5 5 5 5 5 5 5 3 5 3 5 5 5 5 3 5 5 5 5 3 3 3 5 5 5 5 5 5 3 5 3 5 5 3 5 5 3 3 5 5 5 5 5 3 5 5 5 5 5 5 5 3 5 5 5 5 5 5 5 3 5 5 5 5 5 5 5 3 5 3 5 5 5 5 3 5 5 5 5 5 5 5 5 5 3 5 5 5 5 5 5 5 5 3 5 3 5 5 5 5 5 5 3 3 5 3 5 5 5 5 3 5 5 3 5 5 5 5 5 5 5 5 5 3 5 3 5 5 5 5 5 5 5 5 5 5 5 5 5 5 5 5 5 5 5 5 5 5 5 3 5 5 5 5 5 5 5 3 5 5 5 5 5 5 3 5 3 5 3 5 5 5 5 5 5 3 5 5 3 5 3 5 5 5 5 5 5 5 5 5 5 5 5 5 5 5 5 5 5 3 5 5 5 5 5 5 3 5 5 5 3 3 5 5 3 5 5 5 5 5 3 5 5 5 5 5 5 5 5 5 5 5 3 5 5 5 5 5 5 5 5 5 5 5 5 3 5 5 5 5 5 3 5 5 5 3 5 5 5 5 3 5 5 5 5 5 3 5 5 5 5 3 5 5 5 5 5 5 5 5 3 5 5 5 3 5 5 5 5 5 3 5 5 5 5 5 3 3 5 5 5 5 5 5 5 3 5 5 5 5 5 5 5 5 5 5 5 5 5 5 5 5 3 5 5 5 3 5 5 5 5 5 5 5 3 3 5 5 5 5 5 5 5 5 5 5 5 3 5 5 3 5 5 3 5 5 5 5 5 5 3 3 5 3 3 5 5 5 5 5 5 5 5 5 5 5 5 5 5 3 5 3 5 5 5 5 5 5 3 3 5 5 5 5 5 5 5 5 5 5 5 5 5 5 5 5 3 5 5 5 5 5 5 3 5 5 5 5 5 5 5 3 5 5 3 5 5 5 5 5 5 5 3 5 5 5 5 5 5 5 5 5 5 5 5 3 5 5 5 5 5 3 3 5 5 5 3 5 5 3 5 5 5 5 5 5 3 5 5 5 5 3 5 5 5 5 5 5 5 3 5 5 3 5 5 5 5 5 5 3 5 5 5 5 5 5 5 3 3 5 5 3 5 5 5 3 5 5 5 3 3 5 3 5 5 5 5 5 5 3 5 5 5 3 5 5 3 5 3 5 5 5 3 5 5 5 5 3 5 3 5 5 5 5 5 5 5 5 5 5 5 5 5 5 5 5 3 5 5 3 5 5 5 3 5 5 3 3 5 5 5 5 5 5 5 5 5 5 5 5 5 5 5 3 5 5 5 5 3 3 3 5 5 5 3 3 5 5 5 3 5 5 3 5 3 5 5 5 5 5 5 5 5 3 5 5 5 5 5 5 5 5 5 5 3 5 5 5 5 5 5 5 5 5 5 3 3 5 3 5 5 5 5 5 5 3 5 5 5 5 3 5 5 5 3 5 5 5 5 5 5 5 3 5 5 5 5 5 3 5 5 5 5 5 5 5 5 5 5 5 5 5 5 5 5 3 5 3 5 5 3 5 5 5 5 5 5 5 3 5 5 5 5 5 3 5 5 5 5 5 3 5 5 3 3 3 5 5 5 5 3 5 5 5 3 5 5 5 5 5 5 5 5 5 5 5 5 5 3 5 5 5 5 3 5 3 5 5 5 5 5 5 5 5 5 5 5 5 5 5 5 5 3 3 5 5 5 5 5 3 3 5 5 5 5 5 5 5 3 5 5 5 5 5 5 3 5 5 5 5 5 5 5 5 5 5 3 5 5 5 5 5 5 5 5 5 5 5 5 5 3 5 5 5 3 3 5 5 5 5 5 5 5 3 5 5 5 5 5 3 5 5 5 5 5 5 5 3 5 5 5 5 5 5 5 5 5 5 5 5 5 5 5 3 5 5 5 5 3 5 5 5 5 5 5 5 5 5 5 5 5 5 5 5 5 5 5 5 5 5 5 5 5 5 5 5 5 5 5 5 5 5 5 5 5 5 5 5 5 5 5 5 5 5 5 5 5 5 5 5 5 5 3 5 5 5 5 5 5 3 5 5 3 5 5 5 5 5 5 5 5 5 5 5 5 5 5 5 5 5 5 5 5 5 5 5 5 5 5 5 5 5 5 5 5 5 5 5 5 3 3 3 5 5 5 3 5 3 5 5 5 5 3 5 5 5 5 5 5 5 5 5 5 5 3 5 5 5 5 5 5 5 5 5 5 5 5 5 5 5 5 5 5 5 5 5 5 5 5 5 5 5 5 5 5 5 5 5 5 5 5 5 5 5 5 5 5 5 3 5 5 5 5 5 5 5 5 5 5 5 5 5 5 5 5 3 3 5 5 5 5 3 5 5 5 5 3 5 3 5 3 5 5 5 5 5 5 5 5 5 5 5 5 5 5 5 5 5 5 5 5 5 5 5 5 5 3 5 5 3 3 5 5 5 5 5 5 5 5 5 5 5 5 5 5 5 5 5 5 5 5 5 5 5 5 5 5 5 5 5 5 5 5 5 5 5 5 5 5 5 5 5 5 5 5 5 5 5 5 5 5 5 5 5 5 5 3 5 5 5 5 5 5 5 5 5 5 5 5 5 5 5 5 5 5 5 5 5 5 5 5 5 5 5 5 5 5 5 5 5 5 5 5 5 5 5 5 5 5 5 5 5 5 5 5 5 5 5 5 5 5 5 5 5 5 5 5 5 5 5 5 5 5 5 5 5 5 3 5 5 5 3 5 5 5 5 5 5 5 5 5 5 5 5 5 5 5 5 5 5 5 5 5 5 5 5 5 5 5 5 5 5 5 5 5 5 5 5 5 5 5 5 5 5 5 5 5 5 5 5 5 5 5 5 5 5 5 5 5 5 5 5 3 5 3 5 5 5 5 5 5 5 5 5 5 5 3 5 5 5 5 3 5 5 5 5 3 5 5 3 5 5 5 5 5 5 5 5 5 5 5 5 5 5 5 5 5 3 5 5 5 3 5 5 5 5 5 5 5 5 5 5 5 5 5 3 5 3 5 3 5 3 5 5 5 3 5 5 5 5 5 5 5 5 5 3 3 5 5 3 5 5 5 5 5 5 5 5 3 5 3 5 5 3 5 5 5 3 5 5 3 5 5 5 5 5 5 5 5 5 5 5 3 5 5 5 5 3 5 5 5 5 5 5 5 5 5 5 5 5 5 5 5 5 3 5 5 5 5 5 5 5 5 5 3 5 3 5 3 5 5 3 5 5 3 5 5 5 5 5 5 5 5 5 5 5 3 5 3 5 5 5 3 5 5 5 5 5 5 5 3 5 3 3 5 5 5 5 5 3 3 5 5 5 5 5 5 5 5 5 5 5 5 5 5 5 5 5 3 5 3 3 5 5 5 3 5 5 5 5 5 5 5 5 5 5 5 5 3 5 5 3 5 3 3 5 5 5 5 3 5 5 5 5 5 5 5 5 5 5 5 5 5 3 5 5 5 5 5 5 5 5 5 5 5 3 5 5 5 5 5 3 5 5 5 5 5 5 5 5 5 5 5 5 5 3 5 5 5 5 5 5 5 5 5 5 5 5 5 5 5 5 5 5 5 5 5 5 5 5 5 5 5 5 5 5 5 5 5 5 3 5 5 5 5 3 5 3 5 5 5 5 5 5 5 5 3 5 5 5 3 5 5 5 5 5 5 5 5 3 3 5 5 3 5 3 5 5 5 5 5 5 3 5 5 5 5 3 5 5 3 5 5 5 5 3 5 5 5 5 5 5 5 5 3 3 5 5 5 5 5 5 5 5 5 5 5 5 5 5 5 5 5 5 5 5 5 5 3 5 5 3 5 3 5 5 5 5 5 5 3 5 3 5 5 5 5 5 5 5 5 5 5 5 5 5 5 5 5 5 5 5 5 5 5 5 5 5 5 5 5 5 5 5 5 5 5 5 5 5 5 5 5 5 5 5 5 5 5 5 5 5 3 5 5 3 5 5 5 5 3 5 5 5 5 5 5 5 5 5 3 5 5 5 5 5 5 5 5 5 3 5 5 5 5 3 5 5 3 5 5 5 5 5 5 5 3 5 5 3 3 5 5 3 5 5 5 5 5 5 5 5 5 5 3 5 5 5 5 5 5 5 5 5 5 3 5 5 5 5 3 5 5 3 5 5 5 5 5 5 5 5 5 5 5 5 5 5 5 5 3 5 5 5 3 5 5 3 5 5 5 5 5 5 5 5 5 5 5 5 5 5 5 5 5 5 5 5 5 5 5 5 5 5 5 5 5 5 5 5 5 5 5 5 5 3 5 5 5 5 5 5 5 5 5 5 5 5 5 5 5 5 5 5 5 5 5 5 5 5 5 5 5 5 5 5 5 5 5 5 5 3 5 5 5 5 5 5 3 5 5 3 5 5 5 5 3 5 5 5 5 5 5 3 5 5 3 5 5 5 5 3 5 5 5 5 3 5 5 5 5 3 5 5 5 5 5 5 3 5 5 5 5 5 5 5 5 5 5 3 5 5 5 5 5 5 5 5 3 5 5 3 5 5 5 5 5 5 5 5 5 5 5 5 5 5 5 3 5 5 3 5 5 3 5 5 3 5 5 5 5 5 5 5 3 5 5 3 5 5 5 5 5 5 5 5 5 5 5 5 5 5 5 3 5 5 5 3 5 5 5 5 5 5 5 5 3 5 5 5 5 3 3 5 5 5 5 3 5 5 5 5 5 5 5 3 5 5 3 5 3 3 5 3 3 5 5 5 5 5 5 5 5 5 5 5 5 5 3 3 5 5 5 5 3 5 5 3 3 3 5 5 3 5 5 3 5 5 5 3 5 3 5 5 5 5 5 5 5 5 5 5 5 5 5 5 5 5 5 5 5 5 5 5 5 5 5 5 5 5 5 5 3 5 5 5 3 5 5 5 5 5 5 5 3 5 5 5 5 3 5 5 5 5 5 3 5 5 5 5 5 3 5 5 5 5 5 5 3 5 5 5 5 5 5 5 5 5 5 5 5 5 5 3 5 5 5 5 5 5 5 5 3 5 5 5 5 5 5 3 5 5 5 5 3 3 5 3 5 3 5 5 5 5 3 5 3 5 3 5 3 3 3 5 5 5 5 3 5 3 5 5 5 5 5 5 5 5 5 3 5 5 5 5 5 5 5 5 5 5 3 5 5 3 5 5 3 5 5 5 5 5 3 5 5 5 5 5 5 5 5 5 3 5 5 5 5 5 5 3 5 5 5 3 5 5 5 3 5 5 5 3 3 5 3 5 5 5 5 3 5 5 3 5 5 5 5 5 5 5 5 5 5 5 3 5 5 5 3 5 5 5 3 5 3 5 5 5 5 5 5 5 5 5 3 5 3 5 5 5 5 3 5 5 5 3 5 5 5 5 5 3 3 3 5 5 5 3 5 5 5 5 5 5 5 5 5 5 5 5 5 5 5 5 5 5 5 5 5 5 5 5 5 5 5 3 5 5 5 5 5 5 5 5 5 5 5 5 5 5 5 5 3 5 5 5 5 5 3 5 5 5 5 3 3 5 3 3 5 5 5 3 5 3 5 5 3 5 5 5 5 5 5 5 5 5 5 3 5 5 5 5 5 5 5 5 5 5 5 5 5 5 5 5 5 5 5 5 5 5 3 5 5 3 5 5 5 5 5 3 3 5 5 5 5 5 5 5 5 5 5 5 5 5 5 5 3 5 5 5 5 3 5 5 3 5 5 5 5 5 5 3 5 5 5 5 3 5 5 5 3 5 5 5 5 5 5 5 5 5 5 5 5 5 5 5 3 5 3 5 5 5 3 5 5 5 5 5 5 5 5 5 5 5 5 5 5 3 5 5 5 5 5 5 5 3 5 5 5 3 3 5 5 3 3 3 5 5 5 5 5 3 5 3 5 3 5 5 5 5 5 5 3 5 3 5 5 5 3 5 3 3 3 5 5 3 5 5 5 5 3 5 5 3 5 5 3 5 5 3 5 5 5 3 5 5 3 5 5 3 3 5 3 5 5 5 5 5 5 5 5 3 5 3 3 5 3 3 3 5 5 3 5 5 3 5 5 5 5 3 5 5 5 3 5 5 5 5 3 5 5 3 5 3 5 3 5 5 5 3 3 5 3 3 5 3 5 5 3 5 5 5 5 5 5 5 3 5 5 3 5 3 5 5 3 5 5 3 5 5 3 5 5 5 5 5 5 5 5 5 5 5 5 5 5 5 5 5 5 5 5 5 5 5 5 5 5 5 5 5 3 5 5 5 5 5 3 3 5 5 5 5 3 5 5 3 5 5 5 5 3 5 5 5 5 5 3 5 5 5 5 5 3 5 3 3 5 5 5 5 5 5 5 5 5 5 5 5 5 5 5 5 5 3 5 5 5 5 5 5 5 5 3 5 5 5 5 5 3 5 3 5 5 5 5 5 5 5 5 5 5 5 5 5 5 5 5 5 5 5 3 5 5 5 5 5 5 5 5 5 5 5 5 5 5 5 5 5 5 5 5 5 5 5 5 5 5 5 5 5 5 5 5 5 5 5 5 5 5 5 5 5 5 5 5 5 5 5 5 5 5 5 5 5 5 5 5 5 5 5 5 5 5 5 5 5 5 5 5 5 5 5 5 5 5 5 5 5 5 5 5 5 5 5 5 5 5 5 5 5 5 5 5 5 5 5 5 5 5 5 5 5 5 5 5 5 5 5 5 5 5 5 5 5 5 5 5 5 5 5 5 5 5 5 5 5 5 5 5 5 5 5 5 5 5 5 5 5 5 5 5 5 5 5 5 5 5 5 5 5 5 5 5 5 5 3 5 5 5 5 3 5 5 5 5 5 3 5 5 5 3 5 3 5 5 5 5 3 5 5 5 3 3 5 5 5 5 5 3 3 5 5 5 5 5 5 5 5 5 5 5 5 5 3 5 5 5 5 5 5 5 5 5 5 5 5 5 5 5 5 5 3 3 5 5 5 5 5 5 5 3 5 5 5 5 5 3 5 3 5 5 5 3 5 5 5 5 5 5 5 5 3 5 5 5 5 5 3 5 5 5 5 5 5 5 5 5 5 5 5 5 5 5 5 5 5 5 5 3 5 5 5 5 5 5 3 5 5 5 5 5 5 5 5 5 5 5 5 5 5 5 5 5 5 5 5 3 5 5 5 5 5 5 5 5 5 5 5 5 5 5 5 5 5 5 5 3 5 5 5 5 5 5 5 5 5 3 5 5 3 5 5 5 3 5 5 5 5 5 3 5 5 5 3 5 5 3 5 5 5 3 5 5 5 5 3 5 5 5 3 5 5 5 5 5 5 5 3 5 5 3 5 5 5 3 5 5 5 3 3 3 5 5 3 5 5 3 5 5 5 3 3 5 5 3 5 5 5 5 5 5 5 5 3 5 5 5 5 3 5 5 5 5 3 5 5 5 3 5 5 5 5 5 3 5 5 5 5 3 3 5 5 3 5 5 3 5 5 5 5 5 5 5 5 3 5 5 5 5 5 3 3 5 5 3 5 5 5 5 3 5 5 3 5 5 5 5 5 5 5 5 5 3 5 5 5 5 5 5 5 5 5 5 5 5 3 5 5 5 5 5 5 3 5 5 3 3 5 5 5 5 5 5 5 5 5 5 5 3 5 5 5 3 5 5 5 3 3 5 5 5 3 5 5 3 3 3 5 5 5 5 5 5 5 3 5 3 5 5 3 3 3 5 5 3 5 5 5 5 5 5 5 3 5 5 5 5 5 5 5 5 3 5 5 5 3 5 5 5 5 5 5 5 3 5 5 5 3 5 5 5 5 5 5 5 5 5 5 5 5 5 5 5 5 5 5 5 5 5 5 5 5 5 5 5 3 5 5 3 5 5 5 5 5 5 5 3 5 3 5 5 5 5 5 5 5 5 5 5 3 5 5 5 3 5 5 5 3 5 5 5 3 3 5 5 5 3 5 5 5 3 5 5 5 5 5 5 5 5 5 5 5 5 3 5 5 3 5 5 5 5 5 3 5 5 3 5 5 5 5 5 3 5 5 5 5 5 5 5 5 5 5 5 5 3 5 3 5 5 3 5 3 5 5 5 5 5 5 3 5 5 5 5 5 3 5 5 5 5 5 5 3 5 3 5 5 5 5 3 5 3 5 3 5 5 5 5 3 5 5 3 5 5 5 5 5 5 5 5 5 5 5 3 5 5 5 5 5 5 5 3 5 5 5 5 5 5 3 5 5 5 3 5 5 5 5 5 5 5 5 5 5 5 3 5 5 5 5 3 5 5 5 5 5 5 5 5 3 5 5 5 5 5 5 5 5 5 5 5 5 3 5 3 3 5 3 5 5 3 5 5 5 5 3 5 3 5 5 3 5 3 5 5 3 5 3 5 5 5 5 3 5 5 5 3 5 5 5 5 5 5 5 5 5 5 5 3 5 5 5 5 5 5 5 5 5 3 5 5 5 5 5 5 5 5 5 5 5 5 5 5 5 5 5 5 5 5 5 5 5 5 3 5 5 5 5 5 3 5 5 5 5 5 5 3 3 5 5 3 5 5 5 5 3 5 5 5 5 5 3 5 3 5 5 5 3 5 5 5 5 5 3 5 5 5 5 5 5 3 5 5 5 5 5 5 5 5 5 3 5 5 5 5 5 3 5 5 5 3 5 3 5 5 5 5 5 5 5 5 3 5 3 5 5 5 5 3 5 5 5 5 5 5 3 5 5 3 5 5 5 3 5 3 5 3 5 3 5 5 3 3 5 3 5 5 3 5 5 5 5 3 5 3 5 5 3 5 5 3 5 5 5 5 3 5 3 3 3 5 3 5 3 5 5 3 5 5 5 3 3 5 5 5 5 5 5 5 5 5 5 5 5 5 3 5 5 3 5 5 5 3 3 5 5 5 5 5 5 5 3 5 5 3 5 5 5 3 5 5 3 5 5 5 5 5 5 5 5 3 5 5 5 5 3 5 5 5 5 5 3 5 5 5 3 5 5 3 5 5 3 3 5 5 5 5 5 5 5 5 5 5 5 5 5 3 5 5 5 5 5 3 5 5 3 5 5 5 5 3 5 5 5 5 5 3 5 5 3 5 3 5 3 5 5 5 3 5 5 5 5 5 5 5 3 5 5 3 5 5 5 3 5 5 5 5 5 3 5 5 3 5 5 3 3 3 5 5 5 5 5 5 5 5 3 5 5 5 3 3 5 5 5 5 5 5 3 5 5 5 5 5 5 5 5 5 5 5 5 3 5 5 3 5 5 5 5 5 5 5 3 5 3 5 5 3 5 5 5 3 3 5 3 5 3 5 3 5 5 5 3 3 5 5 5 3 3 5 5 3 5 3 5 3 5 5 3 5 5 5 5 3 5 5 5 5 5 5 5 5 5 3 5 5 5 5 5 3 5 5 5 5 5 5 5 5 5 5 5 5 5 5 5 5 5 5 5 5 5 5 5 5 5 5 5 5 5 5 3 5 3 5 5 5 5 3 5 5 5 5 5 5 5 3 5 5 3 5 3 3 5 5 5 5 3 3 5 5 5 5 5 5 5 5 5 5 5 5 3 5 5 5 5 5 5 5 3 5 5 5 3 3 5 5 5 5 3 5 5 5 3 5 5 5 5 5 5 5 5 5 3 5 5 3 5 5 5 3 5 5 5 5 5 5 5 5 3 5 5 5 5 5 5 3 5 5 5 5 5 5 3 5 5 3 5 5 5 5 5 5 3 5 5 5 3 5 5 5 5 5 5 5 5 5 5 5 5 5 5 5 5 5 5 5 5 5 5 5 3 5 5 5 3 5 5 5 5 3 5 5 5 5 5 5 5 5 5 5 5 5 5 5 3 5 5 5 5 5 5 5 5 3 5 5 5 5 3 5 5 5 5 5 5 5 5 5 5 5 5 5 3 5 5 5 3 5 5 5 5 5 5 5 5 5 3 5 3 5 5 5 5 5 3 5 5 5 5 3 5 5 5 5 5 5 5 5 5 5 5 5 5 5 5 5 5 5 5 5 5 5 5 3 3 5 5 5 5 5 5 5 5 5 5 5 5 5 5 5 5 5 5 5 5 5 5 5 5 5 5 5 5 3 5 3 5 5 5 5 5 5 5 5 5 3 5 5 3 5 5 5 5 5 5 3 5 5 3 5 5 5 5 5 5 5 5 5 5 5 5 3 5 5 5 5 5 5 5 5 5 5 5 5 5 5 5 5 5 5 5 5 5 5 5 3 5 5 5 5 5 5 5 5 5 5 5 3 5 5 3 5 5 5 5 3 5 5 5 5 5 5 5 5 5 5 5 5 5 5 5 5 5 5 5 5 5 5 5 3 5 5 5 5 5 5 5 5 5 5 5 5 5 5 5 5 5 5 5 5 5 5 5 3 5 5 5 5 5 3 5 5 3 5 5 5 5 5 5 5 5 5 5 3 5 3 5 5 5 5 5 5 3 3 5 3 5 3 5 5 5 5 5 5 5 5 5 5 5 3 5 5 5 5 5 5 5 5 5 3 5 3 5 5 5 5 5 5 5 5 5 5 5 5 5 3 5 5 5 5 5 5 5 5 5 5 5 5 5 5 5 3 3 5 5 5 3 5 5 5 5 3 5 5 5 5 5 5 5 5 3 5 5 5 5 5 5 5 5 5 5 5 5 5 5 5 5 5 5 5 5 5 5 5 5 5 5 5 5 5 5 5 5 5 5 5 5 5 5 5 5 5 5 5 5 5 5 5 5 5 5 5 5 3 5 5 5 3 5 5 5 5 3 5 5 5 3 5 5 5 5 5 5 5 5 5 5 5 5 3 3 5 5 5 3 5 5 5 5 5 5 3 3 5 5 3 3 5 5 3 5 5 5 5 3 5 5 5 5 3 5 5 3 5 3 5 5 3 5 5 5 5 5 5 5 5 5 5 5 3 5 5 3 5 5 5 5 5 5 5 5 3 5 5 5 3 5 5 5 5 3 5 5 5 5 5 5 5 5 3 3 5 3 3 5 5 5 3 5 5 5 5 5 5 5 5 5 5 5 5 5 5 5 5 3 5 5 5 5 5 5 5 5 5 3 3 5 3 5 5 5 5 5 5 5 5 5 3 5 5 3 3 5 5 3 3 5 5 3 3 3 5 3 5 5 5 5 3 5 5 5 5 3 5 5 3 5 5 3 5 3 5 5 3 5 3 5 3 5 5 5 5 5 3 5 5 3 5 3 5 3 5 5 3 3 3 5 3 5 5 5 5 3 5 3 5 5 5 5 5 5 5 5 5 5 5 5 5 5 5 5 5 5 3 3 3 5 5 3 5 5 5 5 5 3 5 5 5 5 5 3 3 3 5 5 5 5 5 5 5 5 3 5 5 3 5 3 5 5 5 5 3 5 5 5 3 5 5 5 5 5 5 5 3 5 3 5 5 3 5 3 5 5 3 5 5 3 5 3 5 3 5 5 3 5 5 3 3 5 5 5 3 5 5 5 3 3 5 5 5 5 5 5 5 5 5 5 5 5 5 3 5 5 5 3 5 5 5 5 5 3 5 5 3 5 5 5 5 5 5 3 5 5 5 5 5 5 5 5 3 5 5 5 5 5 5 5 5 3 5 5 3 5 5 3 5 5 3 5 5 3 3 5 5 3 5 3 5 5 5 5 3 5 5 5 5 5 3 5 5 3 5 5 5 5 5 5 3 5 3 5 5 5 5 5 5 5 5 5 5 5 5 5 3 5 3 5 5 5 5 3 5 5 5 3 5 3 5 5 3 5 5 5 3 5 5 5 3 5 5 5 5 3 5 5 5 5 3 5 3 5 3 3 5 5 3 5 5 5 5 5 3 5 3 5 5 3 5 5 5 3 5 5 5 5 3 5 5 5 3 5 5 3 5 3 5 5 5 3 5 5 5 3 3 5 5 5 5 3 5 3 5 5 5 5 5 5 5 3 5 5 5 5 3 5 3 5 3 5 5 5 5 3 5 3 5 5 5 5 5 5 5 5 3 5 5 5 3 5 5 5 5 3 5 5 5 5 5 5 5 5 5 5 5 5 5 5 5 5 3 5 5 5 5 5 5 5 5 5 5 5 5 5 5 5 5 5 5 3 5 5 5 5 3 5 3 5 5 3 5 5 5 5 5 5 5 5 5 5 5 3 3 5 5 5 5 3 5 5 5 5 5 5 5 3 5 5 5 5 5 5 5 5 5 5 5 5 5 5 3 5 3 5 5 5 5 5 5 5 5 5 5 3 5 3 5 5 5 5 5 5 5 5 5 5 5 5 5 3 5 5 5 5 5 5 5 5 5 5 5 5 3 5 5 3 5 5 5 5 5 5 5 3 5 5 5 5 5 5 5 5 5 5 5 5 5 5 5 5 5 5 5 5 5 5 5 5 5 5 5 5 5 5 5 5 5 5 5 5 5 5 5 5 5 5 5 5 5 5 5 5 5 5 5 5 5 5 5 5 5 3 5 5 5 5 5 3 5 5 5 5 5 5 5 5 5 5 5 5 5 5 5 5 5 5 3 5 5 3 5 5 5 3 5 5 5 5 5 5 5 5 3 5 5 5 5 5 5 5 5 5 5 5 5 5 5 5 5 5 5 5 5 5 5 5 5 5 5 5 5 5 5 5 5 5 5 5 5 5 5 5 5 5 5 5 3 5 5 5 5 3 5 5 5 5 5 5 5 5 5 3 5 5 5 5 5 5 5 5 5 5 5 5 5 5 5 5 5 5 5 5 5 5 5 5 5 5 5 5 5 5 5 5 5 5 5 5 5 5 5 5 5 5 5 5 5 5 5 3 5 5 5 5 5 5 5 3 5 5 5 5 5 5 3 3 5 5 5 3 3 5 5 5 3 5 5 5 3 3 5 5 5 5 5 5 5 5 5 5 5 5 5 5 3 5 5 5 5 5 3 5 5 5 3 5 5 5 5 3 5 3 5 5 5 3 5 5 5 3 5 5 5 5 5 5 5 3 5 5 3 5 5 3 3 5 3 5 5 3 5 5 5 5 3 5 5 5 5 5 5 5 5 5 5 5 5 5 5 5 5 5 5 5 5 5 5 5 5 5 5 3 5 5 5 5 5 5 5 5 3 5 5 3 5 5 5 5 3 3 5 3 5 5 5 5 5 3 3 5 5 5 5 5 5 5 5 5 5 5 5 3 5 5 5 5 5 5 5 5 5 5 5 5 5 5 5 5 5 5 5 5 5 3 5 5 5 5 5 5 5 3 5 5 5 3 5 5 5 5 5 5 5 5 5 3 5 5 5 5 5 5 5 5 5 5 5 5 5 5 5 5 5 5 5 5 5 5 5 5 3 5 5 5 5 5 5 5 5 5 5 5 5 5 5 5 5 5 5 5 5 5 3 5 5 5 5 5 5 5 3 5 5 5 5 3 5 5 5 5 5 5 5 5 5 5 5 5 5 5 5 5 5 5 5 5 5 5 5 5 5 3 5 5 5 5 5 5 5 5 3 5 5 5 5 5 5 5 5 3 3 5 5 5 3 5 3 5 5 3 5 5 5 5 5 5 3 3 3 5 5 5 5 5 5 3 5 5 5 5 5 5 5 5 5 3 5 5 5 5 5 5 5 5 5 5 5 5 5 5 5 5 5 5 5 5 5 5 5 5 5 5 5 5 5 5 5 5 5 5 5 5 3 5 5 5 5 5 5 5 5 3 5 5 5 5 5 5 5 5 5 5 5 3 3 5 5 5 5 5 5 5 5 5 5 5 5 5 5 5 5 5 5 5 3 5 5 3 5 5 5 5 5 5 5 5 5 5 5 3 3 5 5 5 5 5 5 5 5 5 5 5 5 5 5 5 5 5 5 5 5 5 5 5 5 5 5 5 5 5 5 5 3 5 5 5 5 3 3 5 5 5 3 3 5 5 5 5 3 5 3 5 3 5 3 5 5 5 5 5 5 3 5 3 5 3 5 5 5 5 5 5 3 5 3 5 3 5 3 5 3 5 5 5 5 5 5 5 3 5 5 5 5 5 5 5 5 5 5 5 5 5 5 5 5 5 5 5 5 3 5 5 5 5 5 5 5 5 5 5 5 5 3 5 5 3 5 5 5 3 5 5 3 5 3 5 5 5 5 5 3 5 5 5 3 3 5 5 5 5 5 3 5 3 5 3 5 5 5 3 5 5 5 5 5 5 5 3 3 5 5 5 5 5 3 3 5 5 5 5 5 3 5 5 5 5 5 5 3 5 5 5 5 3 5 3 5 5 5 5 5 5 5 5 5 5 5 5 5 5 5 5 3 5 3 5 5 5 5 5 5 5 5 5 5 3 3 5 5 3 5 3 3 5 3 5 5 5 5 5 5 5 5 5 5 5 5 5 5 3 5 5 5 5 5 5 5 5 5 5 5 5 5 5 5 5 3 5 5 5 5 5 5 5 5 5 5 5 5 5 5 5 5 5 5 5 5 5 5 5 5 5 5 5 5 5 5 5 5 5 5 5 5 5 5 5 5 5 5 5 5 5 5 5 5 5 5 5 5 5 5 5 5 5 5 5 5 5 5 5 5 5 5 5 5 5 5 5 5 5 5 3 5 5 5 5 5 3 5 5 5 5 5 5 5 5 5 5 5 5 5 5 5 5 5 5 5 5 5 5 5 5 3 5 5 5 5 5 5 5 5 5 5 5 5 5 5 5 5 5 5 5 5 5 5 5 5 5 5 5 5 5 5 3 5 5 5 5 5 5 5 5 5 5 5 5 5 5 5 5 5 5 5 5 5 5 5 5 5 5 5 5 5 5 5 5 5 5 5 5 5 5 5 5 5 5 5 5 5 5 5 5 5 5 5 5 5 5 3 5 5 5 5 5 5 5 5 5 5 5 5 3 5 5 5 3 5 5 5 5 5 5 5 5 5 5 5 5 5 5 5 5 5 3 5 5 5 5 5 5 3 5 5 5 5 5 5 5 5 5 3 5 3 5 3 5 5 5 5 3 5 5 5 5 5 3 5 5 3 5 5 5 5 5 5 5 3 5 5 5 5 5 5 5 5 5 5 5 5 5 5 5 5 5 5 3 5 5 5 5 3 5 5 3 5 5 5 3 5 5 5 5 5 5 3 3 5 5 5 5 5 5 5 5 3 5 5 5 3 5 5 5 3 5 5 5 5 3 5 5 5 5 3 5 5 5 5 5 3 5 5 5 5 5 3 5 5 5 5 5 5 5 5 3 5 5 5 5 5 5 5 5 5 5 5 5 5 5 5 5 5 5 5 5 5 5 5 3 5 5 3 3 5 5 5 5 5 5 5 5 5 5 5 5 5 5 5 5 5 5 5 5 5 5 5 3 5 5 5 5 5 5 5 5 5 3 5 5 5 5 5 5 5 5 5 5 5 5 5 5 5 5 5 5 3 5 5 5 5 5 5 5 5 5 5 5 5 3 5 5 5 5 5 5 3 5 5 5 5 5 5 5 5 5 5 5 5 5 5 5 5 5 5 5 5 5 3 5 5 5 5 5 5 5 5 3 5 5 5 5 5 5 3 5 3 5 3 5 5 5 3 5 5 3 5 5 5 5 5 5 5 5 5 5 5 5 5 5 5 5 5 5 5 5 5 5 5 5 5 5 3 5 5 3 5 3 5 5 5 5 3 5 5 5 5 5 5 5 5 5 5 5 3 5 5 3 5 5 5 5 5 5 3 5 5 5 5 5 3 5 5 3 5 5 5 5 5 5 5 5 5 5 5 5 5 5 5 5 5 5 5 5 5 5 5 5 5 5 5 5 5 3 5 5 5 5 3 5 5 5 5 5 5 5 5 5 5 5 5 5 5 5 5 5 5 5 5 5 5 5 5 5 5 5 5 5 5 5 5 3 5 5 5 5 5 5 5 5 5 3 5 5 5 5 5 5 5 3 5 5 5 5 5 5 5 5 5 5 5 5 5 5 5 5 5 3 5 5 5 3 5 5 5 5 5 5 5 5 5 5 5 5 3 5 5 5 5 3 5 5 5 5 5 3 5 5 5 5 5 5 5 3 5 5 5 5 5 3 5 5 5 5 5 5 5 5 5 5 5 5 5 5 5 5 5 5 5 5 5 5 5 3 5 3 5 5 5 5 5 5 5 5 3 3 5 5 5 5 5 5 5 5 5 5 3 5 5 3 5 5 3 5 5 5 5 5 5 5 5 5 5 5 5 5 5 5 5 5 5 5 5 5 5 5 5 5 5 5 5 3 5 5 5 3 3 5 5 5 5 5 5 5 5 5 3 5 5 5 3 3 5 5 5 3 5 5 3 5 5 3 5 5 3 3 5 3 5 3 3 3 5 5 5 5 3 5 3 3 5 5 5 3 5 5 5 5 5 5 5 5 5 5 5 3 5 3 5 5 5 5 5 5 3 5 5 5 3 5 5 5 5 3 5 5 5 5 3 5 5 5 5 5 3 3 5 3 5 5 5 5 5 5 5 5 5 5 5 5 3 5 5 5 5 5 3 5 5 5 5 5 5 5 3 5 5 5 5 5 5 5 5 5 5 5 5 5 5 5 5 5 3 3 5 3 5 5 5 5 5 5 5 5 5 5 5 5 5 5 5 5 5 5 5 5 5 5 5 5 5 5 5 5 5 5 5 5 5 5 5 5 3 5 5 5 5 5 3 5 5 5 5 5 5 3 5 3 5 5 5 5 3 5 5 5 5 5 5 5 5 5 5 5 5 5 5 5 5 5 5 5 5 5 5 5 5 5 5 5 5 5 5 5 5 5 5 5 5 5 5 3 5 5 5 5 5 5 3 5 5 5 5 5 3 5 5 5 5 5 5 5 5 5 5 3 5 5 5 5 3 3 5 5 5 5 5 5 5 5 5 5 5 3 5 5 5 5 5 5 5 5 5 5 5 3 5 5 5 5 5 5 5 5 5 3 5 5 5 5 5 5 5 5 5 5 5 5 5 5 5 5 5 5 5 5 5 5 5 5 5 5 5 5 5 5 5 5 5 5 3 5 5 5 3 3 5 5 3 5 5 5 5 5 5 5 5 5 5 5 5 5 5 5 5 5 5 5 5 5 5 5 5 5 5 5 5 5 5 3 3 5 3 5 5 5 5 3 5 5 5 5 5 5 5 5 5 5 5 5 5 5 5 5 5 5 5 5 5 5 5 3 5 5 5 5 3 5 5 5 5 3 5 5 5 5 5 5 3 5 5 5 5 5 5 5 5 5 3 5 5 5 5 5 3 5 5 5 5 5 5 3 5 5 5 5 5 5 3 5 5 3 5 3 5 5 3 5 5 5 3 5 5 5 5 5 5 5 3 5 5 5 5 5 5 5 5 5 5 5 3 5 5 5 5 5 5 5 5 5 5 5 5 5 5 3 5 5 5 3 5 5 5 5 5 5 5 5 5 5 5 5 5 5 3 3 5 3 3 3 5 5 5 3 5 5 3 5 3 5 3 5 5 5 5 5 5 3 5 5 5 5 5 5 5 5 5 5 5 5 5 5 5 5 5 5 5 5 5 3 5 5 5 3 5 5 5 5 5 5 5 5 5 5 5 5 5 5 3 5 5 5 5 5 5 5 5 5 3 5 5 5 5 5 3 5 5 5 5 5 5 5 5 5 5 5 5 5 5 3 5 5 5 5 5 5 5 5 5 5 5 5 5 5 3 5 5 5 5 5 3 5 5 5 3 5 5 3 5 5 5 5 5 3 5 3 5 3 5 3 5 3 5 5 3 5 5 5 5 5 3 5 5 5 5 5 5 5 3 5 5 3 5 5 5 5 3 5 5 3 5 5 5 5 5 3 5 5 5 3 5 5 5 3 3 5 3 3 5 3 5 5 5 5 5 5 5 3 3 3 5 5 5 3 5 5 5 5 5 5 5 5 5 5 5 5 5 3 5 5 5 5 5 3 5 5 5 3 5 5 5 5 5 5 5 5 5 5 5 5 5 3 5 3 5 5 5 5 3 3 5 5 5 5 5 5 5 5 5 5 5 3 5 5 5 3 5 5 5 5 3 5 5 3 5 5 5 5 5 5 5 5 3 5 5 5 5 5 5 5 3 5 3 5 3 5 5 5 5 5 5 3 5 5 5 5 5 5 5 5 5 3 5 5 5 5 5 3 5 5 3 5 5 5 5 5 5 5 3 5 5 3 5 3 5 5 5 3 5 5 3 5 3 5 3 5 5 5 5 3 5 5 5 5 5 5 5 3 5 3 5 5 5 5 5 5 5 5 5 5 5 3 5 5 5 5 3 5 5 5 5 5 5 5 5 5 5 5 5 5 3 5 5 5 5 3 5 5 5 5 5 5 5 5 5 5 5 5 5 5 5 5 5 5 5 5 5 5 5 5 5 3 5 5 5 5 5 5 5 5 5 5 5 5 5 5 5 5 5 5 5 5 5 5 5 5 5 5 5 3 5 5 5 3 5 5 5 5 5 3 5 5 5 5 5 3 5 5 5 3 5 5 5 5 3 5 5 5 5 5 5 5 5 5 5 5 5 5 5 5 5 5 5 5 5 5 5 5 5 3 3 3 5 3 3 3 5 5 5 3 5 5 5 5 5 3 3 5 5 5 5 5 3 3 5 5 3 5 5 3 5 5 5 5 5 5 5 3 5 5 5 5 5 5 5 5 5 5 5 5 3 5 5 5 5 5 5 5 5 5 5 5 5 5 5 5 5 5 5 5 5 5 5 5 5 5 5 5 5 5 5 5 3 5 3 5 5 5 5 5 5 5 5 5 5 5 3 3 5 5 5 5 5 5 5 5 5 5 5 5 5 5 5 3 3 5 5 5 5 5 3 5 5 5 5 5 5 5 3 3 5 5 5 5 3 5 5 5 5 3 3 5 5 5 3 5 5 3 5 5 5 5 5 5 5 5 5 5 5 5 5 3 5 3 5 5 5 5 3 5 5 5 5 3 5 5 3 3 5 3 5 5 5 5 3 3 5 5 5 5 5 5 5 5 5 5 5 5 5 5 3 5 5 5 5 3 3 5 5 3 5 5 5 5 5 5 3 5 3 5 5 3 5 5 5 5 5 3 5 3 5 5 5 5 5 5 5 5 5 5 5 5 5 5 5 3 5 5 3 5 5 5 5 5 5 3 5 5 5 3 5 5 5 5 5 5 5 3 3 5 3 5 3 3 3 5 5 5 5 3 3 5 3 5 5 5 3 5 5 3 5 5 5 5 5 3 3 3 5 5 3 3 5 5 5 3 5 3 5 5 5 5 5 5 5 5 5 5 5 5 5 5 5 5 5 5 5 5 5 5 5 5 5 5 3 5 5 5 5 5 5 3 5 5 5 3 3 5 5 5 3 3 5 5 5 3 5 5 3 5 3 5 3 5 5 5 5 5 3 5 5 3 5 5 3 5 5 5 5 3 5 5 5 5 5 5 5 3 5 5 5 5 5 5 5 5 5 5 5 3 5 5 5 5 5 5 5 3 5 5 3 3 5 5 5 5 3 5 5 5 3 5 3 5 3 5 5 5 5 5 5 3 5 5 5 5 5 5 5 5 5 5 3 5 5 5 5 5 5 5 5 5 5 3 5 5 5 5 5 5 5 5 5 5 5 5 5 5 5 5 5 5 5 5 5 5 5 5 5 5 5 5 5 5 5 5 5 5 3 5 5 5 3 5 5 5 5 5 5 5 5 5 3 5 5 3 5 5 5 5 5 5 5 5 5 5 5 5 5 5 3 5 5 5 3 5 5 5 5 5 5 5 5 5 5 5 5 5 5 5 5 5 5 3 5 5 5 3 5 5 5 5 5 5 5 5 5 5 5 5 5 5 5 5 5 5 5 5 5 5 5 5 5 5 5 5 5 5 5 3 5 5 5 5 5 5 5 5 5 5 5 5 5 5 5 5 5 5 5 5 5 5 5 5 5 5 5 5 3 5 5 5 5 5 5 5 5 5 5 5 3 5 3 5 5 5 5 5 5 5 5 5 5 5 5 5 5 5 5 5 3 3 5 5 5 5 3 5 3 3 5 5 5 5 5 5 5 3 5 3 5 
</DataArray>
</Cells>
<PointData Scalars="" Vectors="displacement," Tensors="">
<DataArray type="Float64" Name="displacement" NumberOfComponents="3" format="ascii">
-0.0049997331767143698 -0.0049997121263299863 0 -0.0048299613413770384 -0.0048505052841687473 0 -0.0049996258197062019 -0.0044557349865680081 0 -0.0049997331767143698 -0.0049997121263299863 0 -0.0048299613413770384 -0.0048505052841687473 0 -0.0043869931628936192 -0.0049996637151506849 0 -0.0048299613413770384 -0.0048505052841687473 0 -0.0049996258197062019 -0.0044557349865680081 0 -0.0048494390978207486 -0.0046714739713099541 0 -0.0049996258197062019 -0.0044557349865680081 0 -0.0048494390978207486 -0.0046714739713099541 0 -0.0049200782616458938 -0.0044501307498336874 0 -0.0047951245265422833 -0.0047013844989689559 0 -0.0047030834355415571 -0.004900152055399269 0 -0.0045935323666486646 -0.0050339849162235207 0 -0.0047951245265422833 -0.0047013844989689559 0 -0.0048494390978207486 -0.0046714739713099541 0 -0.0047030834355415571 -0.004900152055399269 0 -0.0047951245265422833 -0.0047013844989689559 0 -0.0048494390978207486 -0.0046714739713099541 0 -0.0048644716989112331 -0.0045521049178156347 0 -0.0048299613413770384 -0.0048505052841687473 0 -0.0048494390978207486 -0.0046714739713099541 0 -0.0047030834355415571 -0.004900152055399269 0 -0.0048299613413770384 -0.0048505052841687473 0 -0.0047030834355415571 -0.004900152055399269 0 -0.0043869931628936192 -0.0049996637151506849 0 -0.0047030834355415571 -0.004900152055399269 0 -0.0043869931628936192 -0.0049996637151506849 0 -0.0045935323666486646 -0.0050339849162235207 0 -0.0043869931628936192 -0.0049996637151506849 0 -0.0042221231272169622 -0.0050442825638714051 0 -0.0045935323666486646 -0.0050339849162235207 0 -0.0043869931628936192 -0.0049996637151506849 0 -0.0042221231272169622 -0.0050442825638714051 0 -0.0039183246789518296 -0.0049998158239214288 0 -0.0042221231272169622 -0.0050442825638714051 0 -0.0039379162904748227 -0.0051425579263092627 0 -0.0041373094997292368 -0.0052152823739910967 0 -0.0042221231272169622 -0.0050442825638714051 0 -0.0039183246789518296 -0.0049998158239214288 0 -0.0039379162904748227 -0.0051425579263092627 0 -0.0039183246789518296 -0.0049998158239214288 0 -0.0039379162904748227 -0.0051425579263092627 0 -0.0037082252086512481 -0.0051360392470385426 0 -0.0039379162904748227 -0.0051425579263092627 0 -0.0038304627867824775 -0.0052502753015295292 0 -0.0037082252086512481 -0.0051360392470385426 0 -0.0039379162904748227 -0.0051425579263092627 0 -0.0038304627867824775 -0.0052502753015295292 0 -0.00394590832024153 -0.0053240517233616698 0 -0.0038304627867824775 -0.0052502753015295292 0 -0.00394590832024153 -0.0053240517233616698 0 -0.0037891694576377647 -0.0053695641473532731 0 -0.0039379162904748227 -0.0051425579263092627 0 -0.0041373094997292368 -0.0052152823739910967 0 -0.00394590832024153 -0.0053240517233616698 0 -0.0040829142061993996 -0.0053934280880859782 0 -0.0042691947509677138 -0.0055169199809666121 0 -0.0039352702044537207 -0.0054920237413533446 0 -0.0041373094997292368 -0.0052152823739910967 0 -0.0040829142061993996 -0.0053934280880859782 0 -0.0042633545877493887 -0.0053281846612578034 0 -0.0040829142061993996 -0.0053934280880859782 0 -0.0042434561008010416 -0.005445921223650836 0 -0.0042691947509677138 -0.0055169199809666121 0 -0.0040829142061993996 -0.0053934280880859782 0 -0.0042633545877493887 -0.0053281846612578034 0 -0.0042434561008010416 -0.005445921223650836 0 -0.0041373094997292368 -0.0052152823739910967 0 -0.0040829142061993996 -0.0053934280880859782 0 -0.00394590832024153 -0.0053240517233616698 0 -0.0038345988317683979 -0.0054132658599185691 0 -0.0039352702044537207 -0.0054920237413533446 0 -0.0036824264425335536 -0.0054548056379043431 0 -0.00394590832024153 -0.0053240517233616698 0 -0.0038345988317683979 -0.0054132658599185691 0 -0.0039352702044537207 -0.0054920237413533446 0 -0.0040829142061993996 -0.0053934280880859782 0 -0.00394590832024153 -0.0053240517233616698 0 -0.0039352702044537207 -0.0054920237413533446 0 -0.00394590832024153 -0.0053240517233616698 0 -0.0038345988317683979 -0.0054132658599185691 0 -0.0037891694576377647 -0.0053695641473532731 0 -0.0041373094997292368 -0.0052152823739910967 0 -0.0045935323666486646 -0.0050339849162235207 0 -0.0042633545877493887 -0.0053281846612578034 0 -0.0042221231272169622 -0.0050442825638714051 0 -0.0041373094997292368 -0.0052152823739910967 0 -0.0045935323666486646 -0.0050339849162235207 0 -0.0045935323666486646 -0.0050339849162235207 0 -0.0042633545877493887 -0.0053281846612578034 0 -0.0043370661840209795 -0.0055180048833646219 0 -0.0046182449257109424 -0.0050246856991237763 0 -0.0046715789617619748 -0.005068226328655577 0 -0.0042633545877493887 -0.0053281846612578034 0 -0.0042434561008010416 -0.005445921223650836 0 -0.0043370661840209795 -0.0055180048833646219 0 -0.0047951245265422833 -0.0047013844989689559 0 -0.0045935323666486646 -0.0050339849162235207 0 -0.0048923240110870306 -0.0046069792388026562 0 -0.0045935323666486646 -0.0050339849162235207 0 -0.0048923240110870306 -0.0046069792388026562 0 -0.0050236067827350676 -0.0046564370742130353 0 -0.0047951245265422833 -0.0047013844989689559 0 -0.0048923240110870306 -0.0046069792388026562 0 -0.004895065845693135 -0.0045089396356935568 0 -0.0048923240110870306 -0.0046069792388026562 0 -0.0050236067827350676 -0.0046564370742130353 0 -0.0049797786650421783 -0.0045419302634644391 0 -0.0050236067827350676 -0.0046564370742130353 0 -0.0050331183482943652 -0.0044698206919537046 0 -0.0049797786650421783 -0.0045419302634644391 0 -0.0042434561008010416 -0.005445921223650836 0 -0.0043370661840209795 -0.0055180048833646219 0 -0.0042734155550114396 -0.0054832805647484148 0 -0.0042434561008010416 -0.005445921223650836 0 -0.0042734155550114396 -0.0054832805647484148 0 -0.0042691947509677138 -0.0055169199809666121 0 -0.0043370661840209795 -0.0055180048833646219 0 -0.0042734155550114396 -0.0054832805647484148 0 -0.0042936048387006145 -0.0054987364933782494 0 -0.0042734155550114396 -0.0054832805647484148 0 -0.0042936048387006145 -0.0054987364933782494 0 -0.0042691947509677138 -0.0055169199809666121 0 -0.0041955392322680961 -0.0054346690361520948 0 -0.0041900337857718618 -0.0054345277883332058 0 -0.0043370661840209795 -0.0055180048833646219 0 -0.0042936048387006145 -0.0054987364933782494 0 -0.0042746711410661395 -0.0054918318576838961 0 -0.0042936048387006145 -0.0054987364933782494 0 -0.0042896970605844475 -0.0054957956028386639 0 -0.0042746711410661395 -0.0054918318576838961 0 -0.0046715789617619748 -0.005068226328655577 0 -0.0047011826408969205 -0.0049549695895401841 0 -0.0043370661840209795 -0.0055180048833646219 0 -0.0042589552958763885 -0.0054885642003844326 0 -0.0042746711410661395 -0.0054918318576838961 0 -0.0050236067827350676 -0.0046564370742130353 0 -0.0051273366530153047 -0.0044216610132810311 0 -0.0050331183482943652 -0.0044698206919537046 0 -0.0048923240110870306 -0.0046069792388026562 0 -0.0049662609490195879 -0.0044532957463053694 0 -0.0049797786650421783 -0.0045419302634644391 0 -0.0050331183482943652 -0.0044698206919537046 0 -0.0049662609490195879 -0.0044532957463053694 0 -0.005036975755545358 -0.0043520545382320338 0 -0.0048923240110870306 -0.0046069792388026562 0 -0.0049662609490195879 -0.0044532957463053694 0 -0.004895065845693135 -0.0045089396356935568 0 -0.0049662609490195879 -0.0044532957463053694 0 -0.004895065845693135 -0.0045089396356935568 0 -0.0049261417258557403 -0.0044130946106134697 0 -0.0050331183482943652 -0.0044698206919537046 0 -0.0049662609490195879 -0.0044532957463053694 0 -0.0049797786650421783 -0.0045419302634644391 0 -0.0039576276374715998 -0.0053548524085002894 0 -0.0039861009500221332 -0.0054562963642738041 0 -0.0038735758515691535 -0.0054250407816004761 0 -0.0042896970605844475 -0.0054957956028386639 0 -0.0042746711410661395 -0.0054918318576838961 0 -0.0042225146420656542 -0.0054584511519857205 0 -0.0041900337857718618 -0.0054345277883332058 0 -0.0041016296076981052 -0.0054600637348124143 0 -0.004111762933798945 -0.0053854440636442492 0 -0.0039576276374715998 -0.0053548524085002894 0 -0.0039861009500221332 -0.0054562963642738041 0 -0.0041900337857718618 -0.0054345277883332058 0 -0.0039554686403516443 -0.0054199847048980064 0 -0.0042589552958763885 -0.0054885642003844326 0 -0.0042746711410661395 -0.0054918318576838961 0 -0.0042225146420656542 -0.0054584511519857205 0 -0.0042589552958763885 -0.0054885642003844326 0 -0.0042225146420656542 -0.0054584511519857205 0 -0.0041968041324900443 -0.0054930016568828189 0 -0.0041016296076981052 -0.0054600637348124143 0 -0.0039783652447552614 -0.0054888681130556265 0 -0.0039861009500221332 -0.0054562963642738041 0 -0.0038735758515691535 -0.0054250407816004761 0 -0.0038533779083610485 -0.005529328168571236 0 -0.0042225146420656542 -0.0054584511519857205 0 -0.0041968041324900443 -0.0054930016568828189 0 -0.0041107149415953448 -0.0054462244555704628 0 -0.0041968041324900443 -0.0054930016568828189 0 -0.0042378371362837416 -0.0055635225062724333 0 -0.0041251699394367026 -0.0055313959237634804 0 -0.0041968041324900443 -0.0054930016568828189 0 -0.0041107149415953448 -0.0054462244555704628 0 -0.0041251699394367026 -0.0055313959237634804 0 -0.0051273366530153047 -0.0044216610132810311 0 -0.0051731694947169888 -0.0042714579583363436 0 -0.0051069620064608965 -0.0043034813453087465 0 -0.0042589552958763885 -0.0054885642003844326 0 -0.0041968041324900443 -0.0054930016568828189 0 -0.0042378371362837416 -0.0055635225062724333 0 -0.0047011826408969205 -0.0049549695895401841 0 -0.0046731486322959728 -0.0049310904730098838 0 -0.0051731694947169888 -0.0042714579583363436 0 -0.0051069620064608965 -0.0043034813453087465 0 -0.0051271742022477688 -0.0042177926159012759 0 -0.0042378371362837416 -0.0055635225062724333 0 -0.0041251699394367026 -0.0055313959237634804 0 -0.0041458828782116233 -0.0056146202630146767 0 -0.0049662609490195879 -0.0044532957463053694 0 -0.0049699525606742316 -0.0043541117172810973 0 -0.005036975755545358 -0.0043520545382320338 0 -0.0049699525606742316 -0.0043541117172810973 0 -0.005036975755545358 -0.0043520545382320338 0 -0.0050126899215903993 -0.0042798567984191497 0 -0.0049662609490195879 -0.0044532957463053694 0 -0.0049699525606742316 -0.0043541117172810973 0 -0.0049261417258557403 -0.0044130946106134697 0 -0.0051273366530153047 -0.0044216610132810311 0 -0.0050331183482943652 -0.0044698206919537046 0 -0.005036975755545358 -0.0043520545382320338 0 -0.0051273366530153047 -0.0044216610132810311 0 -0.005036975755545358 -0.0043520545382320338 0 -0.0051069620064608965 -0.0043034813453087465 0 -0.0051069620064608965 -0.0043034813453087465 0 -0.0050740395246440546 -0.0042450726106360486 0 -0.0051271742022477688 -0.0042177926159012759 0 -0.005036975755545358 -0.0043520545382320338 0 -0.0051069620064608965 -0.0043034813453087465 0 -0.0050740395246440546 -0.0042450726106360486 0 -0.0050740395246440546 -0.0042450726106360486 0 -0.0050126899215903993 -0.0042798567984191497 0 -0.0050360019436450961 -0.0042154650369950848 0 -0.005036975755545358 -0.0043520545382320338 0 -0.0050740395246440546 -0.0042450726106360486 0 -0.0050126899215903993 -0.0042798567984191497 0 -0.0049699525606742316 -0.0043541117172810973 0 -0.0050126899215903993 -0.0042798567984191497 0 -0.0049599017697134215 -0.0043049498406084047 0 -0.0050126899215903993 -0.0042798567984191497 0 -0.0049599017697134215 -0.0043049498406084047 0 -0.0049591256654316846 -0.0042297179838100473 0 -0.0049188049809871948 -0.0042951438883633581 0 -0.0049599017697134215 -0.0043049498406084047 0 -0.0049591256654316846 -0.0042297179838100473 0 -0.0049188049809871948 -0.0042951438883633581 0 -0.0048951914007272302 -0.004266948401220611 0 -0.0049591256654316846 -0.0042297179838100473 0 -0.0049188049809871948 -0.0042951438883633581 0 -0.0049599017697134215 -0.0043049498406084047 0 -0.0049101949627346408 -0.0043465185312677032 0 -0.0049699525606742316 -0.0043541117172810973 0 -0.0049599017697134215 -0.0043049498406084047 0 -0.0049101949627346408 -0.0043465185312677032 0 -0.0049188049809871948 -0.0042951438883633581 0 -0.0049101949627346408 -0.0043465185312677032 0 -0.004894792354344887 -0.0043067489358926923 0 -0.0049101949627346408 -0.0043465185312677032 0 -0.004902112883847622 -0.0043541240930506132 0 -0.0048914660020406972 -0.0044295471918805816 0 -0.0049699525606742316 -0.0043541117172810973 0 -0.0049101949627346408 -0.0043465185312677032 0 -0.0049261417258557403 -0.0044130946106134697 0 -0.004894792354344887 -0.0043067489358926923 0 -0.0048979844626560786 -0.0043087068661216196 0 -0.0049235870235270407 -0.0042710066613970742 0 -0.004902112883847622 -0.0043541240930506132 0 -0.004894792354344887 -0.0043067489358926923 0 -0.0049235870235270407 -0.0042710066613970742 0 -0.0049101949627346408 -0.0043465185312677032 0 -0.004902112883847622 -0.0043541240930506132 0 -0.004894792354344887 -0.0043067489358926923 0 -0.004894792354344887 -0.0043067489358926923 0 -0.0048951914007272302 -0.004266948401220611 0 -0.0048979844626560786 -0.0043087068661216196 0 -0.0049188049809871948 -0.0042951438883633581 0 -0.004894792354344887 -0.0043067489358926923 0 -0.0048951914007272302 -0.004266948401220611 0 -0.0052573792390842797 -0.003859249950074888 0 -0.0050685016184529412 -0.0039006442433702796 0 -0.0050409383557776634 -0.0041346032935869513 0 -0.0052573792390842797 -0.003859249950074888 0 -0.0050685016184529412 -0.0039006442433702796 0 -0.005158664216390477 -0.0036882156147364934 0 -0.0050685016184529412 -0.0039006442433702796 0 -0.004999869442465295 -0.0040501966791348367 0 -0.004999915485717512 -0.0037482719980112154 0 -0.0050685016184529412 -0.0039006442433702796 0 -0.0050409383557776634 -0.0041346032935869513 0 -0.004999869442465295 -0.0040501966791348367 0 -0.0050768580009313983 -0.0040747536059905325 0 -0.0050422027502005267 -0.004133984867934053 0 -0.0048979844626560786 -0.0043087068661216196 0 -0.0050409383557776634 -0.0041346032935869513 0 -0.0049235870235270407 -0.0042710066613970742 0 -0.0050409383557776634 -0.0041346032935869513 0 -0.0049235870235270407 -0.0042710066613970742 0 -0.0049600221590251964 -0.0042758336353042135 0 -0.0049600221590251964 -0.0042758336353042135 0 -0.0049200782616458938 -0.0044501307498336874 0 -0.0049023953125194733 -0.0043982238090768608 0 -0.0050409383557776634 -0.0041346032935869513 0 -0.0049600221590251964 -0.0042758336353042135 0 -0.0049851188164919446 -0.0042700249709448548 0 -0.0049996258197062019 -0.0044557349865680081 0 -0.004999869442465295 -0.0040501966791348367 0 -0.0049851188164919446 -0.0042700249709448548 0 -0.0049235870235270407 -0.0042710066613970742 0 -0.0049600221590251964 -0.0042758336353042135 0 -0.0049023953125194733 -0.0043982238090768608 0 -0.0049600221590251964 -0.0042758336353042135 0 -0.0049851188164919446 -0.0042700249709448548 0 -0.0049200782616458938 -0.0044501307498336874 0 -0.0050409383557776634 -0.0041346032935869513 0 -0.004999869442465295 -0.0040501966791348367 0 -0.0049851188164919446 -0.0042700249709448548 0 -0.0049996258197062019 -0.0044557349865680081 0 -0.0049851188164919446 -0.0042700249709448548 0 -0.0049200782616458938 -0.0044501307498336874 0 -0.0048494390978207486 -0.0046714739713099541 0 -0.0049200782616458938 -0.0044501307498336874 0 -0.0048644716989112331 -0.0045521049178156347 0 -0.0049200782616458938 -0.0044501307498336874 0 -0.0048644716989112331 -0.0045521049178156347 0 -0.0049023953125194733 -0.0043982238090768608 0 -0.0048644716989112331 -0.0045521049178156347 0 -0.0048647970396345826 -0.0045182222500332438 0 -0.0049023953125194733 -0.0043982238090768608 0 -0.0047951245265422833 -0.0047013844989689559 0 -0.0048644716989112331 -0.0045521049178156347 0 -0.0048647970396345826 -0.0045182222500332438 0 -0.0047951245265422833 -0.0047013844989689559 0 -0.0048647970396345826 -0.0045182222500332438 0 -0.004895065845693135 -0.0045089396356935568 0 -0.0048647970396345826 -0.0045182222500332438 0 -0.004895065845693135 -0.0045089396356935568 0 -0.0048914660020406972 -0.0044295471918805816 0 -0.004895065845693135 -0.0045089396356935568 0 -0.0049261417258557403 -0.0044130946106134697 0 -0.0048914660020406972 -0.0044295471918805816 0 -0.0049101949627346408 -0.0043465185312677032 0 -0.0049261417258557403 -0.0044130946106134697 0 -0.0048914660020406972 -0.0044295471918805816 0 -0.004902112883847622 -0.0043541240930506132 0 -0.0048914660020406972 -0.0044295471918805816 0 -0.0049023953125194733 -0.0043982238090768608 0 -0.004902112883847622 -0.0043541240930506132 0 -0.0049235870235270407 -0.0042710066613970742 0 -0.0049023953125194733 -0.0043982238090768608 0 -0.0048647970396345826 -0.0045182222500332438 0 -0.0048914660020406972 -0.0044295471918805816 0 -0.0049023953125194733 -0.0043982238090768608 0 -0.0025143341789775906 -0.0054472427849971269 0 -0.0026344155850959706 -0.0055040058184639817 0 -0.0025718739192886714 -0.0053276584861205994 0 -0.0025143341789775906 -0.0054472427849971269 0 -0.0025799113965061832 -0.0055731370950740221 0 -0.0024631345953136652 -0.0055667204147064305 0 -0.0025143341789775906 -0.0054472427849971269 0 -0.0026344155850959706 -0.0055040058184639817 0 -0.0025799113965061832 -0.0055731370950740221 0 -0.0026344155850959706 -0.0055040058184639817 0 -0.0027378196185960536 -0.0055244151347899999 0 -0.0026713127988228936 -0.0055996996475704258 0 -0.0027378196185960536 -0.0055244151347899999 0 -0.002812115347342293 -0.0054479979516005462 0 -0.0028857847276089017 -0.0055540049282722355 0 -0.0027378196185960536 -0.0055244151347899999 0 -0.002812115347342293 -0.0054479979516005462 0 -0.0027142341995213802 -0.0053983404294710123 0 -0.0026344155850959706 -0.0055040058184639817 0 -0.0027378196185960536 -0.0055244151347899999 0 -0.0027142341995213802 -0.0053983404294710123 0 -0.0027142341995213802 -0.0053983404294710123 0 -0.0027531810484101231 -0.0052553070642426944 0 -0.0028308415373980806 -0.0053661989335647524 0 -0.0027142341995213802 -0.0053983404294710123 0 -0.0025718739192886714 -0.0053276584861205994 0 -0.0027531810484101231 -0.0052553070642426944 0 -0.002812115347342293 -0.0054479979516005462 0 -0.0027142341995213802 -0.0053983404294710123 0 -0.0028308415373980806 -0.0053661989335647524 0 -0.0026344155850959706 -0.0055040058184639817 0 -0.0027142341995213802 -0.0053983404294710123 0 -0.0025718739192886714 -0.0053276584861205994 0 -0.0025718739192886714 -0.0053276584861205994 0 -0.0025850749945488332 -0.0051567284354489566 0 -0.0023949534307753551 -0.0051986756587636953 0 -0.0025718739192886714 -0.0053276584861205994 0 -0.0025850749945488332 -0.0051567284354489566 0 -0.0027531810484101231 -0.0052553070642426944 0 -0.0025850749945488332 -0.0051567284354489566 0 -0.0027407981032381372 -0.0049999811271669026 0 -0.0024670890357279822 -0.0049999823341575211 0 -0.0025850749945488332 -0.0051567284354489566 0 -0.0027407981032381372 -0.0049999811271669026 0 -0.0027531810484101231 -0.0052553070642426944 0 -0.0027407981032381372 -0.0049999811271669026 0 -0.0027531810484101231 -0.0052553070642426944 0 -0.0029392206212079321 -0.0051612880728851849 0 -0.0027531810484101231 -0.0052553070642426944 0 -0.0029392206212079321 -0.0051612880728851849 0 -0.0029479473574437797 -0.005306216496826742 0 -0.0027407981032381372 -0.0049999811271669026 0 -0.0029392206212079321 -0.0051612880728851849 0 -0.0030145349226879644 -0.0049999867134853477 0 -0.0029392206212079321 -0.0051612880728851849 0 -0.0030145349226879644 -0.0049999867134853477 0 -0.0030974052741327002 -0.0051303714683986548 0 -0.0029392206212079321 -0.0051612880728851849 0 -0.0030646502456663392 -0.0052608273634840112 0 -0.0029479473574437797 -0.005306216496826742 0 -0.0029392206212079321 -0.0051612880728851849 0 -0.0030974052741327002 -0.0051303714683986548 0 -0.0030646502456663392 -0.0052608273634840112 0 -0.0030646502456663392 -0.0052608273634840112 0 -0.0030327250946858208 -0.0053706261273461032 0 -0.0031666815805641087 -0.0053575978787540899 0 -0.0030327250946858208 -0.0053706261273461032 0 -0.0030434768111126469 -0.0054918595967118448 0 -0.0031666815805641087 -0.0053575978787540899 0 -0.0030327250946858208 -0.0053706261273461032 0 -0.0029479473574437797 -0.005306216496826742 0 -0.0029281565133466112 -0.005422353508100641 0 -0.0030646502456663392 -0.0052608273634840112 0 -0.0030327250946858208 -0.0053706261273461032 0 -0.0029479473574437797 -0.005306216496826742 0 -0.0027531810484101231 -0.0052553070642426944 0 -0.0029479473574437797 -0.005306216496826742 0 -0.0028308415373980806 -0.0053661989335647524 0 -0.002812115347342293 -0.0054479979516005462 0 -0.0028308415373980806 -0.0053661989335647524 0 -0.0029281565133466112 -0.005422353508100641 0 -0.0029479473574437797 -0.005306216496826742 0 -0.0028308415373980806 -0.0053661989335647524 0 -0.0029281565133466112 -0.005422353508100641 0 -0.0029281565133466112 -0.005422353508100641 0 -0.0028857847276089017 -0.0055540049282722355 0 -0.0030434768111126469 -0.0054918595967118448 0 -0.002812115347342293 -0.0054479979516005462 0 -0.0029281565133466112 -0.005422353508100641 0 -0.0028857847276089017 -0.0055540049282722355 0 -0.0030327250946858208 -0.0053706261273461032 0 -0.0029281565133466112 -0.005422353508100641 0 -0.0030434768111126469 -0.0054918595967118448 0 -0.0039183246789518296 -0.0049998158239214288 0 -0.0032883295621575948 -0.0049999900972734117 0 -0.0037082252086512481 -0.0051360392470385426 0 -0.0032578438457822544 -0.0054441949577545374 0 -0.0031666815805641087 -0.0053575978787540899 0 -0.0032173305190051188 -0.0055705324149684836 0 -0.0030434768111126469 -0.0054918595967118448 0 -0.0031666815805641087 -0.0053575978787540899 0 -0.0031886663967240778 -0.0055903885991398592 0 -0.0031686639832901155 -0.0053498946455345685 0 -0.0031954460709069906 -0.0056251258854268836 0 -0.0032578438457822544 -0.0054441949577545374 0 -0.0033196251822595248 -0.0055546881096522104 0 -0.0032173305190051188 -0.0055705324149684836 0 -0.0032578438457822544 -0.0054441949577545374 0 -0.0034156021793808828 -0.0054724513933682821 0 -0.0033196251822595248 -0.0055546881096522104 0 -0.0032578438457822544 -0.0054441949577545374 0 -0.003343260593028986 -0.0053350036587184492 0 -0.0034452345624196496 -0.0054746506675712736 0 -0.0032802732630826258 -0.0054472012855415137 0 -0.0034145793314558745 -0.0054717377039412993 0 -0.003343260593028986 -0.0053350036587184492 0 -0.0035219168199243792 -0.0053465201781760559 0 -0.0034452345624196496 -0.0054746506675712736 0 -0.003343260593028986 -0.0053350036587184492 0 -0.0031666815805641087 -0.0053575978787540899 0 -0.003239991437672356 -0.0052051884750238964 0 -0.0032578438457822544 -0.0054441949577545374 0 -0.003343260593028986 -0.0053350036587184492 0 -0.0031666815805641087 -0.0053575978787540899 0 -0.0030646502456663392 -0.0052608273634840112 0 -0.0031666815805641087 -0.0053575978787540899 0 -0.003239991437672356 -0.0052051884750238964 0 -0.0030974052741327002 -0.0051303714683986548 0 -0.0030646502456663392 -0.0052608273634840112 0 -0.003239991437672356 -0.0052051884750238964 0 -0.0030145349226879644 -0.0049999867134853477 0 -0.0030974052741327002 -0.0051303714683986548 0 -0.0032882023590939443 -0.0049999519753645616 0 -0.0030974052741327002 -0.0051303714683986548 0 -0.003239991437672356 -0.0052051884750238964 0 -0.0032882023590939443 -0.0049999519753645616 0 -0.0032882744732526219 -0.0050000126681746084 0 -0.0034959635782166915 -0.0051662675317727773 0 -0.003343260593028986 -0.0053350036587184492 0 -0.003239991437672356 -0.0052051884750238964 0 -0.003469514041862611 -0.0051666809576329858 0 -0.003239991437672356 -0.0052051884750238964 0 -0.0032882023590939443 -0.0049999519753645616 0 -0.003469514041862611 -0.0051666809576329858 0 -0.0032883295621575948 -0.0049999900972734117 0 -0.0035153455896423844 -0.0051646999183869065 0 -0.0037082252086512481 -0.0051360392470385426 0 -0.0035153455896423844 -0.0051646999183869065 0 -0.0037082252086512481 -0.0051360392470385426 0 -0.0037217119205442939 -0.0053401570851262644 0 -0.0038304627867824775 -0.0052502753015295292 0 -0.0037082252086512481 -0.0051360392470385426 0 -0.0037217119205442939 -0.0053401570851262644 0 -0.0038304627867824775 -0.0052502753015295292 0 -0.0037217119205442939 -0.0053401570851262644 0 -0.0037891694576377647 -0.0053695641473532731 0 -0.003343260593028986 -0.0053350036587184492 0 -0.003469514041862611 -0.0051666809576329858 0 -0.0035219168199243792 -0.0053465201781760559 0 -0.0034959635782166915 -0.0051662675317727773 0 -0.0037077922507763078 -0.0053384183980261833 0 -0.003469514041862611 -0.0051666809576329858 0 -0.0037217119205442939 -0.0053401570851262644 0 -0.0035219168199243792 -0.0053465201781760559 0 -0.0035219168199243792 -0.0053465201781760559 0 -0.0034452345624196496 -0.0054746506675712736 0 -0.0036551575632479522 -0.0055031452474189725 0 -0.0034145793314558745 -0.0054717377039412993 0 -0.0036945507258722109 -0.0054403309217542859 0 -0.0039554686403516443 -0.0054199847048980064 0 -0.0036945507258722109 -0.0054403309217542859 0 -0.0037217119205442939 -0.0053401570851262644 0 -0.0035219168199243792 -0.0053465201781760559 0 -0.0036551575632479522 -0.0055031452474189725 0 -0.0036945507258722109 -0.0054403309217542859 0 -0.0037587197604298916 -0.0053956654479150297 0 -0.0038345988317683979 -0.0054132658599185691 0 -0.0036824264425335536 -0.0054548056379043431 0 -0.0037891694576377647 -0.0053695641473532731 0 -0.0037217119205442939 -0.0053401570851262644 0 -0.0036551575632479522 -0.0055031452474189725 0 -0.0037891694576377647 -0.0053695641473532731 0 -0.0039576276374715998 -0.0053548524085002894 0 -0.0038071275199265528 -0.0053274530356331364 0 -0.0038735758515691535 -0.0054250407816004761 0 -0.0038071275199265528 -0.0053274530356331364 0 -0.0038735758515691535 -0.0054250407816004761 0 -0.0037863799426025935 -0.0054637941672166773 0 -0.0034156021793808828 -0.0054724513933682821 0 -0.0035729479144525175 -0.005501887632065377 0 -0.0034095685228434001 -0.0056405639999393123 0 -0.0036945507258722109 -0.0054403309217542859 0 -0.0035582961714886057 -0.0055401556061388897 0 -0.0038071275199265528 -0.0053274530356331364 0 -0.0037863799426025935 -0.0054637941672166773 0 -0.0036892266487505445 -0.0054302856602942906 0 -0.0037863799426025935 -0.0054637941672166773 0 -0.0037237740011806519 -0.005600282868769505 0 -0.0036892266487505445 -0.0054302856602942906 0 -0.0037863799426025935 -0.0054637941672166773 0 -0.0038533779083610485 -0.005529328168571236 0 -0.0037237740011806519 -0.005600282868769505 0 -0.0038735758515691535 -0.0054250407816004761 0 -0.0037863799426025935 -0.0054637941672166773 0 -0.0038533779083610485 -0.005529328168571236 0 -0.0041107149415953448 -0.0054462244555704628 0 -0.0041251699394367026 -0.0055313959237634804 0 -0.0039735453029848284 -0.0054741263945425533 0 -0.0039783652447552614 -0.0054888681130556265 0 -0.0038593868118268061 -0.0055558645755486667 0 -0.0040396493123033683 -0.0055941814281349226 0 -0.0041251699394367026 -0.0055313959237634804 0 -0.0039735453029848284 -0.0054741263945425533 0 -0.0040396493123033683 -0.0055941814281349226 0 -0.0041251699394367026 -0.0055313959237634804 0 -0.0041458828782116233 -0.0056146202630146767 0 -0.0040396493123033683 -0.0055941814281349226 0 -0.0039735453029848284 -0.0054741263945425533 0 -0.0039207959238758625 -0.0055993696241454383 0 -0.0037237740011806519 -0.005600282868769505 0 -0.0035975576101688494 -0.0056700148197568251 0 -0.0035734527119593022 -0.0055295040876994633 0 -0.0038593868118268061 -0.0055558645755486667 0 -0.0035976041398611577 -0.0054092766729910867 0 -0.0039735453029848284 -0.0054741263945425533 0 -0.0038350002759156075 -0.0055265221981069448 0 -0.0039207959238758625 -0.0055993696241454383 0 -0.0034251502718535046 -0.0053192039050460761 0 -0.0032066131701117993 -0.0052319243798242846 0 -0.0031681940757986395 -0.0054732102980409739 0 -0.0035976041398611577 -0.0054092766729910867 0 -0.0031481777845397017 -0.0054341618488560955 0 -0.0035976041398611577 -0.0054092766729910867 0 -0.0033361483301983445 -0.0055655672362749046 0 -0.0032202497280195202 -0.0058109768336892026 0 -0.0030603465382451596 -0.0057728234147243918 0 -0.0030599833120950695 -0.0059461566196335122 0 -0.0033361483301983445 -0.0055655672362749046 0 -0.0031323641198766202 -0.0055885704614328027 0 -0.0034251502718535046 -0.0053192039050460761 0 -0.0033842434589206843 -0.0050878180512882757 0 -0.0032066131701117993 -0.0052319243798242846 0 -0.0033361483301983445 -0.0055655672362749046 0 -0.0031954460709069906 -0.0056251258854268836 0 -0.0032202497280195202 -0.0058109768336892026 0 -0.0031886663967240778 -0.0055903885991398592 0 -0.0030603465382451596 -0.0057728234147243918 0 -0.0032528471431020633 -0.0057723202504216713 0 -0.0032989678023930685 -0.0056430711978687677 0 -0.0034095685228434001 -0.0056405639999393123 0 -0.0033361483301983445 -0.0055655672362749046 0 -0.0035582961714886057 -0.0055401556061388897 0 -0.0037237740011806519 -0.005600282868769505 0 -0.0035734527119593022 -0.0055295040876994633 0 -0.0036892266487505445 -0.0054302856602942906 0 -0.0034156021793808828 -0.0054724513933682821 0 -0.0034095685228434001 -0.0056405639999393123 0 -0.0033196251822595248 -0.0055546881096522104 0 -0.0032989678023930685 -0.0056430711978687677 0 -0.0034095685228434001 -0.0056405639999393123 0 -0.0033196251822595248 -0.0055546881096522104 0 -0.0032989678023930685 -0.0056430711978687677 0 -0.0033196251822595248 -0.0055546881096522104 0 -0.0032173305190051188 -0.0055705324149684836 0 -0.0032528471431020633 -0.0057723202504216713 0 -0.0032989678023930685 -0.0056430711978687677 0 -0.0032173305190051188 -0.0055705324149684836 0 -0.0028857847276089017 -0.0055540049282722355 0 -0.0030434768111126469 -0.0054918595967118448 0 -0.0030320628003525038 -0.0056272529952771776 0 -0.0031886663967240778 -0.0055903885991398592 0 -0.0030320628003525038 -0.0056272529952771776 0 -0.0030603465382451596 -0.0057728234147243918 0 -0.0030434768111126469 -0.0054918595967118448 0 -0.0031886663967240778 -0.0055903885991398592 0 -0.0030320628003525038 -0.0056272529952771776 0 -0.0028857847276089017 -0.0055540049282722355 0 -0.0029308462103992921 -0.0056984261690269464 0 -0.002772923605621298 -0.0056483774172099797 0 -0.0028857847276089017 -0.0055540049282722355 0 -0.0030320628003525038 -0.0056272529952771776 0 -0.0029308462103992921 -0.0056984261690269464 0 -0.0029308462103992921 -0.0056984261690269464 0 -0.0027986081018840461 -0.0057727945874903666 0 -0.002772923605621298 -0.0056483774172099797 0 -0.0029308462103992921 -0.0056984261690269464 0 -0.0029183633613263688 -0.0058665398754968604 0 -0.0027986081018840461 -0.0057727945874903666 0 -0.0030320628003525038 -0.0056272529952771776 0 -0.0029308462103992921 -0.0056984261690269464 0 -0.0030603465382451596 -0.0057728234147243918 0 -0.0029308462103992921 -0.0056984261690269464 0 -0.0030603465382451596 -0.0057728234147243918 0 -0.0029183633613263688 -0.0058665398754968604 0 -0.0030603465382451596 -0.0057728234147243918 0 -0.0030599833120950695 -0.0059461566196335122 0 -0.0029183633613263688 -0.0058665398754968604 0 -0.0031323641198766202 -0.0055885704614328027 0 -0.0029119961999184945 -0.00562283143131064 0 -0.0032066131701117993 -0.0052319243798242846 0 -0.0029945330623097222 -0.0053889381626577703 0 -0.0030325875950936959 -0.0054365387789931533 0 -0.0032066131701117993 -0.0052319243798242846 0 -0.0030325875950936959 -0.0054365387789931533 0 -0.0031681940757986395 -0.0054732102980409739 0 -0.0029119961999184945 -0.00562283143131064 0 -0.0027184532274344923 -0.0057508188858225303 0 -0.0029119961999184945 -0.00562283143131064 0 -0.0029130909256639315 -0.0055366194461950544 0 -0.0029009339938372478 -0.0060791361816158671 0 -0.0029183633613263688 -0.0058665398754968604 0 -0.0027615699815984008 -0.0059125822976882252 0 -0.0029183633613263688 -0.0058665398754968604 0 -0.0027615699815984008 -0.0059125822976882252 0 -0.0027986081018840461 -0.0057727945874903666 0 -0.0030599833120950695 -0.0059461566196335122 0 -0.0029009339938372478 -0.0060791361816158671 0 -0.0029183633613263688 -0.0058665398754968604 0 -0.0027525976853515271 -0.005576978342446106 0 -0.0026972169095150615 -0.0055720472590541862 0 -0.0027499374917331087 -0.0055906524807643959 0 -0.0027525976853515271 -0.005576978342446106 0 -0.0026781275353886065 -0.0055244376162129818 0 -0.0026972169095150615 -0.0055720472590541862 0 -0.0026781275353886065 -0.0055244376162129818 0 -0.0026972169095150615 -0.0055720472590541862 0 -0.0026310056563632975 -0.0055617990026617589 0 -0.0026625284797978043 -0.0055963815111734136 0 -0.0026972169095150615 -0.0055720472590541862 0 -0.0026310056563632975 -0.0055617990026617589 0 -0.0026625284797978043 -0.0055963815111734136 0 -0.0026972169095150615 -0.0055720472590541862 0 -0.0027499374917331087 -0.0055906524807643959 0 -0.0025737009716219391 -0.0055996526262084611 0 -0.0026310056563632975 -0.0055617990026617589 0 -0.0025529241482831399 -0.0055300783475720179 0 -0.0026625284797978043 -0.0055963815111734136 0 -0.0025737009716219391 -0.0055996526262084611 0 -0.0026310056563632975 -0.0055617990026617589 0 -0.0026781275353886065 -0.0055244376162129818 0 -0.0026310056563632975 -0.0055617990026617589 0 -0.0025529241482831399 -0.0055300783475720179 0 -0.0026781275353886065 -0.0055244376162129818 0 -0.0025529241482831399 -0.0055300783475720179 0 -0.0025682895818190097 -0.0054793149315724779 0 -0.0025529241482831399 -0.0055300783475720179 0 -0.0025682895818190097 -0.0054793149315724779 0 -0.0024906011185495988 -0.0054982913604768816 0 -0.0026153334401571682 -0.0057437922996119188 0 -0.0027986081018840461 -0.0057727945874903666 0 -0.002772923605621298 -0.0056483774172099797 0 -0.0027615699815984008 -0.0059125822976882252 0 -0.0026153334401571682 -0.0057437922996119188 0 -0.0027986081018840461 -0.0057727945874903666 0 -0.0027184532274344923 -0.0057508188858225303 0 -0.0025928421524375037 -0.0056096807757600878 0 -0.0026153334401571682 -0.0057437922996119188 0 -0.002772923605621298 -0.0056483774172099797 0 -0.0026713127988228936 -0.0055996996475704258 0 -0.0027378196185960536 -0.0055244151347899999 0 -0.0028857847276089017 -0.0055540049282722355 0 -0.002772923605621298 -0.0056483774172099797 0 -0.0027378196185960536 -0.0055244151347899999 0 -0.002772923605621298 -0.0056483774172099797 0 -0.0026713127988228936 -0.0055996996475704258 0 -0.0026344155850959706 -0.0055040058184639817 0 -0.0026713127988228936 -0.0055996996475704258 0 -0.0025799113965061832 -0.0055731370950740221 0 -0.0025928421524375037 -0.0056096807757600878 0 -0.0024703824458049547 -0.0055146180210151816 0 -0.0026153334401571682 -0.0057437922996119188 0 -0.0025799113965061832 -0.0055731370950740221 0 -0.0024631345953136652 -0.0055667204147064305 0 -0.0026153334401571682 -0.0057437922996119188 0 -0.0026713127988228936 -0.0055996996475704258 0 -0.0025799113965061832 -0.0055731370950740221 0 -0.0027761059852867047 -0.0054738396062461109 0 -0.0034183932409538455 -0.0046348731093504951 0 -0.0027761059852867047 -0.0054738396062461109 0 -0.0028572462832088092 -0.0058592809634015943 0 -0.0030582563977188297 -0.005372311881858478 0 -0.0029916251459580542 -0.005379657444328452 0 -0.0029607807912232988 -0.00543920802608896 0 -0.0029737573375099779 -0.0060299512134340512 0 -0.0030263660804618394 -0.0059472801417246 0 -0.0031144586370223737 -0.0059686462536643744 0 -0.0034183932409538455 -0.0046348731093504951 0 -0.0028572462832088092 -0.0058592809634015943 0 -0.0027756361081022248 -0.005908996069636325 0 -0.0027322471894848446 -0.0058599370553335563 0 -0.0026508462896731332 -0.0058679104695144963 0 -0.0027756361081022248 -0.005908996069636325 0 -0.0027983975486503983 -0.005898253658206295 0 -0.0027322471894848446 -0.0058599370553335563 0 -0.0028572462832088092 -0.0058592809634015943 0 -0.0028350229907939 -0.0058868579299413285 0 -0.0027983975486503983 -0.005898253658206295 0 -0.0027609555014129379 -0.0058175852512859783 0 -0.0028458024276658963 -0.0058188306689497 0 -0.0027983975486503983 -0.005898253658206295 0 -0.0027322471894848446 -0.0058599370553335563 0 -0.0027609555014129379 -0.0058175852512859783 0 -0.0027322471894848446 -0.0058599370553335563 0 -0.0026818276375896641 -0.0058006440157915813 0 -0.0027609555014129379 -0.0058175852512859783 0 -0.0026156435641066888 -0.0059507432052282047 0 -0.0026508462896731332 -0.0058679104695144963 0 -0.0025523114978700102 -0.0058624587552748323 0 -0.0026156435641066888 -0.0059507432052282047 0 -0.0027756361081022248 -0.005908996069636325 0 -0.0026508462896731332 -0.0058679104695144963 0 -0.0027322471894848446 -0.0058599370553335563 0 -0.0026508462896731332 -0.0058679104695144963 0 -0.0026818276375896641 -0.0058006440157915813 0 -0.0026508462896731332 -0.0058679104695144963 0 -0.0025891182076933929 -0.0057819152972085107 0 -0.0026818276375896641 -0.0058006440157915813 0 -0.0026508462896731332 -0.0058679104695144963 0 -0.0025891182076933929 -0.0057819152972085107 0 -0.0025523114978700102 -0.0058624587552748323 0 -0.0025891182076933929 -0.0057819152972085107 0 -0.0026600675675669738 -0.0056859838015157682 0 -0.0025312249144328167 -0.0056810100757164646 0 -0.0025891182076933929 -0.0057819152972085107 0 -0.0026818276375896641 -0.0058006440157915813 0 -0.0026600675675669738 -0.0056859838015157682 0 -0.0025737009716219391 -0.0055996526262084611 0 -0.0026600675675669738 -0.0056859838015157682 0 -0.0025312249144328167 -0.0056810100757164646 0 -0.0026625284797978043 -0.0055963815111734136 0 -0.0025737009716219391 -0.0055996526262084611 0 -0.0026600675675669738 -0.0056859838015157682 0 -0.0026625284797978043 -0.0055963815111734136 0 -0.0026600675675669738 -0.0056859838015157682 0 -0.0027499374917331087 -0.0055906524807643959 0 -0.0026600675675669738 -0.0056859838015157682 0 -0.0027499374917331087 -0.0055906524807643959 0 -0.0027842074962717554 -0.0057306366543539511 0 -0.0027499374917331087 -0.0055906524807643959 0 -0.0027842074962717554 -0.0057306366543539511 0 -0.0028767050736252177 -0.0056661595783815801 0 -0.0026818276375896641 -0.0058006440157915813 0 -0.0026600675675669738 -0.0056859838015157682 0 -0.0027205288439771809 -0.0057580609609386279 0 -0.0026600675675669738 -0.0056859838015157682 0 -0.0027842074962717554 -0.0057306366543539511 0 -0.0027205288439771809 -0.0057580609609386279 0 -0.0026818276375896641 -0.0058006440157915813 0 -0.0027205288439771809 -0.0057580609609386279 0 -0.0027609555014129379 -0.0058175852512859783 0 -0.0027842074962717554 -0.0057306366543539511 0 -0.0027205288439771809 -0.0057580609609386279 0 -0.0027609555014129379 -0.0058175852512859783 0 -0.0027842074962717554 -0.0057306366543539511 0 -0.0027609555014129379 -0.0058175852512859783 0 -0.0028458024276658963 -0.0058188306689497 0 -0.0029058105775909256 -0.0057565617270747176 0 -0.0028458024276658963 -0.0058188306689497 0 -0.0029847165423398212 -0.00588251861622843 0 -0.0027842074962717554 -0.0057306366543539511 0 -0.0029058105775909256 -0.0057565617270747176 0 -0.0028458024276658963 -0.0058188306689497 0 -0.0029058105775909256 -0.0057565617270747176 0 -0.0030283314765611647 -0.0056815861895173972 0 -0.0029847165423398212 -0.00588251861622843 0 -0.0029058105775909256 -0.0057565617270747176 0 -0.0030283314765611647 -0.0056815861895173972 0 -0.0028767050736252177 -0.0056661595783815801 0 -0.0027842074962717554 -0.0057306366543539511 0 -0.0029058105775909256 -0.0057565617270747176 0 -0.0028767050736252177 -0.0056661595783815801 0 -0.0027499374917331087 -0.0055906524807643959 0 -0.0028767050736252177 -0.0056661595783815801 0 -0.0029107087338314072 -0.0055604919408904531 0 -0.0030283314765611647 -0.0056815861895173972 0 -0.0028767050736252177 -0.0056661595783815801 0 -0.0029107087338314072 -0.0055604919408904531 0 -0.0030283314765611647 -0.0056815861895173972 0 -0.0030691342618581145 -0.0055532295483220759 0 -0.0029107087338314072 -0.0055604919408904531 0 -0.0030691342618581145 -0.0055532295483220759 0 -0.0030325875950936959 -0.0054365387789931533 0 -0.0029107087338314072 -0.0055604919408904531 0 -0.0029653773852951052 -0.0053566584284362485 0 -0.0030325875950936959 -0.0054365387789931533 0 -0.0029107087338314072 -0.0055604919408904531 0 -0.0029119961999184945 -0.00562283143131064 0 -0.0027813676539258825 -0.0055619208822899145 0 -0.0029653773852951052 -0.0053566584284362485 0 -0.0027499374917331087 -0.0055906524807643959 0 -0.0029107087338314072 -0.0055604919408904531 0 -0.0030691342618581145 -0.0055532295483220759 0 -0.0030325875950936959 -0.0054365387789931533 0 -0.0031681940757986395 -0.0054732102980409739 0 -0.0030283314765611647 -0.0056815861895173972 0 -0.0030691342618581145 -0.0055532295483220759 0 -0.0032049523660809122 -0.0056160117243718053 0 -0.0030691342618581145 -0.0055532295483220759 0 -0.0031681940757986395 -0.0054732102980409739 0 -0.0032049523660809122 -0.0056160117243718053 0 -0.0031681940757986395 -0.0054732102980409739 0 -0.0032049523660809122 -0.0056160117243718053 0 -0.0034059725206289416 -0.0055688100797186366 0 -0.0032049523660809122 -0.0056160117243718053 0 -0.0032837219459046392 -0.0057489768013222987 0 -0.0034059725206289416 -0.0055688100797186366 0 -0.0032640938971979301 -0.0057584672027114411 0 -0.0030796831278318759 -0.0058638101486341541 0 -0.0030283314765611647 -0.0056815861895173972 0 -0.0032837219459046392 -0.0057489768013222987 0 -0.0029847165423398212 -0.00588251861622843 0 -0.0030283314765611647 -0.0056815861895173972 0 -0.0032049523660809122 -0.0056160117243718053 0 -0.0032837219459046392 -0.0057489768013222987 0 -0.0032837219459046392 -0.0057489768013222987 0 -0.0032298595843477077 -0.0059388199804459437 0 -0.0031546777323616295 -0.0058606432971173364 0 -0.0032837219459046392 -0.0057489768013222987 0 -0.0033622468631631279 -0.0059398485302917803 0 -0.0032298595843477077 -0.0059388199804459437 0 -0.0033622468631631279 -0.0059398485302917803 0 -0.0032298595843477077 -0.0059388199804459437 0 -0.00320590024567164 -0.0060469588477390472 0 -0.0027689649898419129 -0.0059284018102493423 0 -0.0027983975486503983 -0.005898253658206295 0 -0.0029847165423398212 -0.00588251861622843 0 -0.0028572462832088092 -0.0058592809634015943 0 -0.0030796831278318759 -0.0058638101486341541 0 -0.0030263660804618394 -0.0059472801417246 0 -0.0031546777323616295 -0.0058606432971173364 0 -0.0031144586370223737 -0.0059686462536643744 0 -0.0027983975486503983 -0.005898253658206295 0 -0.0028458024276658963 -0.0058188306689497 0 -0.0029847165423398212 -0.00588251861622843 0 -0.0032298595843477077 -0.0059388199804459437 0 -0.0031546777323616295 -0.0058606432971173364 0 -0.0031144586370223737 -0.0059686462536643744 0 -0.0032298595843477077 -0.0059388199804459437 0 -0.0031144586370223737 -0.0059686462536643744 0 -0.00320590024567164 -0.0060469588477390472 0 -0.0034183932409538455 -0.0046348731093504951 0 -0.0036415745567737797 -0.0045396275434206245 0 -0.0039371355857724484 -0.0030735734825751166 0 -0.0040340485235511349 -0.00306833475759841 0 -0.0040008739008097092 -0.0030961024787438739 0 -0.0029737573375099779 -0.0060299512134340512 0 -0.0031144586370223737 -0.0059686462536643744 0 -0.00320590024567164 -0.0060469588477390472 0 -0.0040340485235511349 -0.00306833475759841 0 -0.0040658892349777417 -0.0030896695994676567 0 -0.0040674107828523138 -0.0030911313604522223 0 -0.0036415745567737797 -0.0045396275434206245 0 -0.0037826768361934856 -0.0046442069503819395 0 -0.0033622468631631279 -0.0059398485302917803 0 -0.00320590024567164 -0.0060469588477390472 0 -0.0035725230996270785 -0.0060700738480039818 0 -0.0040340485235511349 -0.00306833475759841 0 -0.0040846550215485576 -0.0031023795448149455 0 -0.0040658892349777417 -0.0030896695994676567 0 -0.0040658892349777417 -0.0030896695994676567 0 -0.0040895349452776727 -0.0030963457732977842 0 -0.0040674107828523138 -0.0030911313604522223 0 -0.0040846550215485576 -0.0031023795448149455 0 -0.0040658892349777417 -0.0030896695994676567 0 -0.0040815822264271993 -0.0031074709534284883 0 -0.0040658892349777417 -0.0030896695994676567 0 -0.0040952784630177595 -0.0030934092936725326 0 -0.0040895349452776727 -0.0030963457732977842 0 -0.0040397355610485713 -0.0030920771551660921 0 -0.004119928879327721 -0.0032478399021841314 0 -0.0040846550215485576 -0.0031023795448149455 0 -0.0040849177045210018 -0.0031134346290724465 0 -0.0040815822264271993 -0.0031074709534284883 0 -0.0043601054480921497 -0.0031941516052330569 0 -0.004119928879327721 -0.0032478399021841314 0 -0.0040846550215485576 -0.0031023795448149455 0 -0.0040849177045210018 -0.0031134346290724465 0 -0.0040831367591330717 -0.0031365929350174035 0 -0.0035725230996270785 -0.0060700738480039818 0 -0.0037442897487492701 -0.0060379180622280142 0 -0.0040413001223458898 -0.006045155709153943 0 -0.0037826768361934856 -0.0046442069503819395 0 -0.004239958372507892 -0.0041813853816447515 0 -0.0037440421580135371 -0.0060311975989216652 0 -0.0037350463523360051 -0.0056910494751355864 0 -0.0035725230996270785 -0.0060700738480039818 0 -0.0037442897487492701 -0.0060379180622280142 0 -0.0035716908773341981 -0.0059098846953646025 0 -0.0037442897487492701 -0.0060379180622280142 0 -0.0038187637962344644 -0.0056992679511644823 0 -0.0039240806402542905 -0.0058582051273303251 0 -0.0037442897487492701 -0.0060379180622280142 0 -0.0035716908773341981 -0.0059098846953646025 0 -0.0036218650054351221 -0.0056698170344714081 0 -0.0035716908773341981 -0.0059098846953646025 0 -0.0034825981942101332 -0.0059348153141999659 0 -0.0034351517057793391 -0.0058175572048865939 0 -0.0032837219459046392 -0.0057489768013222987 0 -0.0033622468631631279 -0.0059398485302917803 0 -0.0034351517057793391 -0.0058175572048865939 0 -0.0035725230996270785 -0.0060700738480039818 0 -0.0035716908773341981 -0.0059098846953646025 0 -0.0034825981942101332 -0.0059348153141999659 0 -0.0033622468631631279 -0.0059398485302917803 0 -0.0035725230996270785 -0.0060700738480039818 0 -0.0034825981942101332 -0.0059348153141999659 0 -0.0033622468631631279 -0.0059398485302917803 0 -0.0034825981942101332 -0.0059348153141999659 0 -0.0034351517057793391 -0.0058175572048865939 0 -0.0035716908773341981 -0.0059098846953646025 0 -0.0034351517057793391 -0.0058175572048865939 0 -0.0036218650054351221 -0.0056698170344714081 0 -0.0034351517057793391 -0.0058175572048865939 0 -0.0034059725206289416 -0.0055688100797186366 0 -0.0036218650054351221 -0.0056698170344714081 0 -0.0032837219459046392 -0.0057489768013222987 0 -0.0034351517057793391 -0.0058175572048865939 0 -0.0034059725206289416 -0.0055688100797186366 0 -0.0035581391510581856 -0.005252732990019251 0 -0.0034059725206289416 -0.0055688100797186366 0 -0.0036218650054351221 -0.0056698170344714081 0 -0.0035581391510581856 -0.005252732990019251 0 -0.0031681940757986395 -0.0054732102980409739 0 -0.0034059725206289416 -0.0055688100797186366 0 -0.0035976041398611577 -0.0054092766729910867 0 -0.0037350463523360051 -0.0056910494751355864 0 -0.0039207959238758625 -0.0055993696241454383 0 -0.0038187637962344644 -0.0056992679511644823 0 -0.0039877968515237084 -0.0057226885749705704 0 -0.0038350002759156075 -0.0055265221981069448 0 -0.0039207959238758625 -0.0055993696241454383 0 -0.0038187637962344644 -0.0056992679511644823 0 -0.0038187637962344644 -0.0056992679511644823 0 -0.0039877968515237084 -0.0057226885749705704 0 -0.0039240806402542905 -0.0058582051273303251 0 -0.0039877968515237084 -0.0057226885749705704 0 -0.0040815237253509513 -0.0058493502889581262 0 -0.0039240806402542905 -0.0058582051273303251 0 -0.0040396493123033683 -0.0055941814281349226 0 -0.0039207959238758625 -0.0055993696241454383 0 -0.0039877968515237084 -0.0057226885749705704 0 -0.0040396493123033683 -0.0055941814281349226 0 -0.0041000976706668845 -0.0057117592480498466 0 -0.0041458828782116233 -0.0056146202630146767 0 -0.0040396493123033683 -0.0055941814281349226 0 -0.0039877968515237084 -0.0057226885749705704 0 -0.0041000976706668845 -0.0057117592480498466 0 -0.0040492251511521811 -0.0057120169098636318 0 -0.0040569192299264095 -0.0057084460758720342 0 -0.0039877968515237084 -0.0057226885749705704 0 -0.0042425661670536354 -0.0056692543182633795 0 -0.0040815237253509513 -0.0058493502889581262 0 -0.0042425661670536354 -0.0056692543182633795 0 -0.00423266723847944 -0.0059511653531241129 0 -0.0040815237253509513 -0.0058493502889581262 0 -0.0047571029915255553 -0.0042525610026080737 0 -0.0043779902898995124 -0.0044437499329152462 0 -0.0050210009599304158 -0.004391714531055935 0 -0.0043131317507620181 -0.0051520255251601612 0 -0.004239958372507892 -0.0041813853816447515 0 -0.00423266723847944 -0.0059511653531241129 0 -0.0040815237253509513 -0.0058493502889581262 0 -0.0040413001223458898 -0.006045155709153943 0 -0.0040815237253509513 -0.0058493502889581262 0 -0.0039240806402542905 -0.0058582051273303251 0 -0.0040413001223458898 -0.006045155709153943 0 -0.0037442897487492701 -0.0060379180622280142 0 -0.0039240806402542905 -0.0058582051273303251 0 -0.0040413001223458898 -0.006045155709153943 0 -0.0044578059202460465 -0.0033652067412403368 0 -0.0046645514493669224 -0.0032623268118738865 0 -0.0046870227084537452 -0.0035402952475333135 0 -0.0043601054480921497 -0.0031941516052330569 0 -0.004239958372507892 -0.0041813853816447515 0 -0.0046645514493669224 -0.0032623268118738865 0 -0.0049113439595669019 -0.0034543943779327914 0 -0.0046870227084537452 -0.0035402952475333135 0 -0.004239958372507892 -0.0041813853816447515 0 -0.0054370700356721298 -0.0035974949868050818 0 -0.0046645514493669224 -0.0032623268118738865 0 -0.0049113439595669019 -0.0034543943779327914 0 -0.0049885879467765322 -0.003236787379450596 0 -0.0050342811018254316 -0.0029942180155539755 0 -0.0048086665825490156 -0.0030818619367088606 0 -0.0048883359062342185 -0.0032138992958812298 0 -0.0050342811018254316 -0.0029942180155539755 0 -0.0049010349199516664 -0.003372216076264685 0 -0.0048883359062342185 -0.0032138992958812298 0 -0.0054024905846443132 -0.003221183202274876 0 -0.0050681942783690004 -0.0031362508086492154 0 -0.0054024905846443132 -0.003221183202274876 0 -0.0046899932970589416 -0.0033350315626644706 0 -0.0048086665825490156 -0.0030818619367088606 0 -0.0047984607731559378 -0.0032239447592209061 0 -0.0048883359062342185 -0.0032138992958812298 0 -0.0044578059202460465 -0.0033652067412403368 0 -0.0046870227084537452 -0.0035402952475333135 0 -0.0044652736258323743 -0.0036257452512685252 0 -0.0048086665825490156 -0.0030818619367088606 0 -0.0047984607731559378 -0.0032239447592209061 0 -0.0045836196818313949 -0.0031710207363237772 0 -0.0046899932970589416 -0.0033350315626644706 0 -0.0044142330422145106 -0.0032062186721407374 0 -0.0047984607731559378 -0.0032239447592209061 0 -0.0048494589045695079 -0.003362223425101893 0 -0.0045836196818313949 -0.0031710207363237772 0 -0.0046066443135308281 -0.0031084674919647387 0 -0.0043002125959940131 -0.0030497481216831823 0 -0.0043881264137962091 -0.0029493744270397016 0 -0.0044511080371691814 -0.0030859676527768857 0 -0.0045632642510812504 -0.0030567111844290278 0 -0.0043002125959940131 -0.0030497481216831823 0 -0.0046841128211159311 -0.0030861355914348679 0 -0.0042736865605179832 -0.0030449784552489157 0 -0.0046841128211159311 -0.0030861355914348679 0 -0.0044142330422145106 -0.0032062186721407374 0 -0.0044511080371691814 -0.0030859676527768857 0 -0.0044307711892636777 -0.00312743546769841 0 -0.0043775344815927941 -0.0031007880023848256 0 -0.0044511080371691814 -0.0030859676527768857 0 -0.0045632642510812504 -0.0030567111844290278 0 -0.0045314141568457708 -0.0030982594528271637 0 -0.0058034537097744624 -0.0030697396965994319 0 -0.0057503936269548113 -0.0031135441540602674 0 -0.0057088866027829388 -0.0030473960015029796 0 -0.0050681942783690004 -0.0031362508086492154 0 -0.0052623307304732721 -0.0029909670080523944 0 -0.0045632642510812504 -0.0030567111844290278 0 -0.0045999463802229553 -0.0031138935478667385 0 -0.0045314141568457708 -0.0030982594528271637 0 -0.0057592730597136061 -0.0032319620165717502 0 -0.0058034537097744624 -0.0030697396965994319 0 -0.0057503936269548113 -0.0031135441540602674 0 -0.0050681942783690004 -0.0031362508086492154 0 -0.0046841128211159311 -0.0030861355914348679 0 -0.0049010349199516664 -0.003372216076264685 0 -0.0048494589045695079 -0.003362223425101893 0 -0.0048622040542900006 -0.0032904423294141298 0 -0.0049010349199516664 -0.003372216076264685 0 -0.0048622040542900006 -0.0032904423294141298 0 -0.0048883359062342185 -0.0032138992958812298 0 -0.0047984607731559378 -0.0032239447592209061 0 -0.0048494589045695079 -0.003362223425101893 0 -0.0048622040542900006 -0.0032904423294141298 0 -0.0047984607731559378 -0.0032239447592209061 0 -0.0048622040542900006 -0.0032904423294141298 0 -0.0048883359062342185 -0.0032138992958812298 0 -0.0046841128211159311 -0.0030861355914348679 0 -0.0047141381799964644 -0.003072010651128929 0 -0.0045999463802229553 -0.0031138935478667385 0 -0.0046194230539854412 -0.0031460265506152319 0 -0.0047377260864404401 -0.003142244765672317 0 -0.0045632642510812504 -0.0030567111844290278 0 -0.0045999463802229553 -0.0031138935478667385 0 -0.0047377260864404401 -0.003142244765672317 0 -0.004586604811660947 -0.002900706817597948 0 -0.0045444339356220231 -0.0028918497905457744 0 -0.0047294906664415394 -0.003032900599861344 0 -0.0045999463802229553 -0.0031138935478667385 0 -0.0045514914504378905 -0.0031346420120116842 0 -0.0045314141568457708 -0.0030982594528271637 0 -0.0045999463802229553 -0.0031138935478667385 0 -0.0046194230539854412 -0.0031460265506152319 0 -0.0045514914504378905 -0.0031346420120116842 0 -0.0046194230539854412 -0.0031460265506152319 0 -0.0045514914504378905 -0.0031346420120116842 0 -0.0045696262328275925 -0.0031764784337715473 0 -0.0046194230539854412 -0.0031460265506152319 0 -0.0045696262328275925 -0.0031764784337715473 0 -0.0046143655074515648 -0.0032045831704639919 0 -0.0045696262328275925 -0.0031764784337715473 0 -0.0046143655074515648 -0.0032045831704639919 0 -0.0045480329330846248 -0.003229175866262441 0 -0.0046194230539854412 -0.0031460265506152319 0 -0.0046767976944886115 -0.0031838831331639896 0 -0.0047377260864404401 -0.003142244765672317 0 -0.0046194230539854412 -0.0031460265506152319 0 -0.0046143655074515648 -0.0032045831704639919 0 -0.0046767976944886115 -0.0031838831331639896 0 -0.0046143655074515648 -0.0032045831704639919 0 -0.0046767976944886115 -0.0031838831331639896 0 -0.0046702214814471291 -0.0032375808232184633 0 -0.0046767976944886115 -0.0031838831331639896 0 -0.0046702214814471291 -0.0032375808232184633 0 -0.0047488388204711294 -0.0032342081751536174 0 -0.0046702214814471291 -0.0032375808232184633 0 -0.004681197110588702 -0.0033097646535277638 0 -0.0047488388204711294 -0.0032342081751536174 0 -0.0046702214814471291 -0.0032375808232184633 0 -0.0046052047970426271 -0.0032772633679320319 0 -0.004681197110588702 -0.0033097646535277638 0 -0.0046052047970426271 -0.0032772633679320319 0 -0.0045159871470726179 -0.0033048761595601004 0 -0.0045480329330846248 -0.003229175866262441 0 -0.0046143655074515648 -0.0032045831704639919 0 -0.0046702214814471291 -0.0032375808232184633 0 -0.0046052047970426271 -0.0032772633679320319 0 -0.0046143655074515648 -0.0032045831704639919 0 -0.0046052047970426271 -0.0032772633679320319 0 -0.0045480329330846248 -0.003229175866262441 0 -0.0046052047970426271 -0.0032772633679320319 0 -0.0045979918616323636 -0.0033529782456140434 0 -0.004681197110588702 -0.0033097646535277638 0 -0.0046052047970426271 -0.0032772633679320319 0 -0.0045979918616323636 -0.0033529782456140434 0 -0.0045159871470726179 -0.0033048761595601004 0 -0.0045979918616323636 -0.0033529782456140434 0 -0.004681197110588702 -0.0033097646535277638 0 -0.0046811136559879608 -0.0034361590225848219 0 -0.0044537658322861854 -0.003336725934307424 0 -0.0045159871470726179 -0.0033048761595601004 0 -0.0044277490033295406 -0.0032836470906271406 0 -0.0044537658322861854 -0.003336725934307424 0 -0.0044277490033295406 -0.0032836470906271406 0 -0.0043845365630589411 -0.0033380609962210153 0 -0.0044537658322861854 -0.003336725934307424 0 -0.0043845365630589411 -0.0033380609962210153 0 -0.0044298130573838315 -0.0033916637010389422 0 -0.0045979918616323636 -0.0033529782456140434 0 -0.0045159871470726179 -0.0033048761595601004 0 -0.0045184665758445028 -0.0034080916789132002 0 -0.0044537658322861854 -0.003336725934307424 0 -0.0045159871470726179 -0.0033048761595601004 0 -0.0045184665758445028 -0.0034080916789132002 0 -0.0045159871470726179 -0.0033048761595601004 0 -0.0045480329330846248 -0.003229175866262441 0 -0.0044752185370459351 -0.0032305362079497633 0 -0.0045159871470726179 -0.0033048761595601004 0 -0.0044277490033295406 -0.0032836470906271406 0 -0.0044752185370459351 -0.0032305362079497633 0 -0.0044277490033295406 -0.0032836470906271406 0 -0.0044000565577460866 -0.0032261371759596917 0 -0.0044752185370459351 -0.0032305362079497633 0 -0.0044000565577460866 -0.0032261371759596917 0 -0.0044752185370459351 -0.0032305362079497633 0 -0.0044504122114782463 -0.0031675109707762815 0 -0.0044000565577460866 -0.0032261371759596917 0 -0.0044504122114782463 -0.0031675109707762815 0 -0.004378902950004409 -0.0031637223429931971 0 -0.0045480329330846248 -0.003229175866262441 0 -0.0044752185370459351 -0.0032305362079497633 0 -0.0045117288620641774 -0.0031751685636582975 0 -0.0044752185370459351 -0.0032305362079497633 0 -0.0045117288620641774 -0.0031751685636582975 0 -0.0044504122114782463 -0.0031675109707762815 0 -0.0045696262328275925 -0.0031764784337715473 0 -0.0045480329330846248 -0.003229175866262441 0 -0.0045117288620641774 -0.0031751685636582975 0 -0.0044511080371691814 -0.0030859676527768857 0 -0.0044875294094632416 -0.0031312529194996116 0 -0.0045314141568457708 -0.0030982594528271637 0 -0.0045514914504378905 -0.0031346420120116842 0 -0.0045696262328275925 -0.0031764784337715473 0 -0.0045117288620641774 -0.0031751685636582975 0 -0.0045514914504378905 -0.0031346420120116842 0 -0.0045117288620641774 -0.0031751685636582975 0 -0.0044875294094632416 -0.0031312529194996116 0 -0.0045117288620641774 -0.0031751685636582975 0 -0.0044875294094632416 -0.0031312529194996116 0 -0.0044504122114782463 -0.0031675109707762815 0 -0.0045514914504378905 -0.0031346420120116842 0 -0.0044875294094632416 -0.0031312529194996116 0 -0.0045314141568457708 -0.0030982594528271637 0 -0.0044504122114782463 -0.0031675109707762815 0 -0.0044307711892636777 -0.00312743546769841 0 -0.004378902950004409 -0.0031637223429931971 0 -0.0044875294094632416 -0.0031312529194996116 0 -0.0044504122114782463 -0.0031675109707762815 0 -0.0044307711892636777 -0.00312743546769841 0 -0.0044511080371691814 -0.0030859676527768857 0 -0.0044875294094632416 -0.0031312529194996116 0 -0.0044307711892636777 -0.00312743546769841 0 -0.004378902950004409 -0.0031637223429931971 0 -0.004275104345926776 -0.0031584556590920948 0 -0.0043324601610514992 -0.0032219802995391536 0 -0.0044307711892636777 -0.00312743546769841 0 -0.004378902950004409 -0.0031637223429931971 0 -0.0043775344815927941 -0.0031007880023848256 0 -0.004275104345926776 -0.0031584556590920948 0 -0.0043324601610514992 -0.0032219802995391536 0 -0.0042551778115066264 -0.0032822998027973271 0 -0.004378902950004409 -0.0031637223429931971 0 -0.004275104345926776 -0.0031584556590920948 0 -0.0043775344815927941 -0.0031007880023848256 0 -0.0044000565577460866 -0.0032261371759596917 0 -0.0043324601610514992 -0.0032219802995391536 0 -0.0043390950574482452 -0.0032880203447648894 0 -0.0044000565577460866 -0.0032261371759596917 0 -0.004378902950004409 -0.0031637223429931971 0 -0.0043324601610514992 -0.0032219802995391536 0 -0.0044277490033295406 -0.0032836470906271406 0 -0.0044000565577460866 -0.0032261371759596917 0 -0.0043390950574482452 -0.0032880203447648894 0 -0.0044277490033295406 -0.0032836470906271406 0 -0.0043390950574482452 -0.0032880203447648894 0 -0.0043845365630589411 -0.0033380609962210153 0 -0.0043324601610514992 -0.0032219802995391536 0 -0.0043390950574482452 -0.0032880203447648894 0 -0.0042551778115066264 -0.0032822998027973271 0 -0.0043390950574482452 -0.0032880203447648894 0 -0.0043088811452417931 -0.0033433612791890499 0 -0.0042551778115066264 -0.0032822998027973271 0 -0.0043088811452417931 -0.0033433612791890499 0 -0.0042551778115066264 -0.0032822998027973271 0 -0.0042414108082183986 -0.0033858617882314215 0 -0.0043390950574482452 -0.0032880203447648894 0 -0.0043088811452417931 -0.0033433612791890499 0 -0.0043845365630589411 -0.0033380609962210153 0 -0.0043088811452417931 -0.0033433612791890499 0 -0.0043845365630589411 -0.0033380609962210153 0 -0.0043526026121399096 -0.0034151882932813892 0 -0.0041520345239930588 -0.0033498734672218851 0 -0.0042551778115066264 -0.0032822998027973271 0 -0.0041661186936277819 -0.0032263266118226518 0 -0.0041520345239930588 -0.0033498734672218851 0 -0.0042551778115066264 -0.0032822998027973271 0 -0.0042414108082183986 -0.0033858617882314215 0 -0.004275104345926776 -0.0031584556590920948 0 -0.0042551778115066264 -0.0032822998027973271 0 -0.0041661186936277819 -0.0032263266118226518 0 -0.004275104345926776 -0.0031584556590920948 0 -0.0041661186936277819 -0.0032263266118226518 0 -0.0041037805447919334 -0.0031098930153926731 0 -0.0041037805447919334 -0.0031098930153926731 0 -0.0041009855295589415 -0.003102913393633739 0 -0.0040911827414489973 -0.0031022864115625363 0 -0.004275104345926776 -0.0031584556590920948 0 -0.0041037805447919334 -0.0031098930153926731 0 -0.0043002125959940131 -0.0030497481216831823 0 -0.0040492805372812999 -0.0030574204232232025 0 -0.0044142330422145106 -0.0032062186721407374 0 -0.0041037805447919334 -0.0031098930153926731 0 -0.0043002125959940131 -0.0030497481216831823 0 -0.0043881264137962091 -0.0029493744270397016 0 -0.0044511080371691814 -0.0030859676527768857 0 -0.0043775344815927941 -0.0031007880023848256 0 -0.0043002125959940131 -0.0030497481216831823 0 -0.004275104345926776 -0.0031584556590920948 0 -0.0043775344815927941 -0.0031007880023848256 0 -0.0043002125959940131 -0.0030497481216831823 0 -0.0041009855295589415 -0.003102913393633739 0 -0.0040914966479941861 -0.0030956420142576571 0 -0.0040895349452776727 -0.0030963457732977842 0 -0.0044142330422145106 -0.0032062186721407374 0 -0.004119928879327721 -0.0032478399021841314 0 -0.0044578059202460465 -0.0033652067412403368 0 -0.0044652736258323743 -0.0036257452512685252 0 -0.0042513513917826476 -0.0034688800404290114 0 -0.0041009855295589415 -0.003102913393633739 0 -0.0040895349452776727 -0.0030963457732977842 0 -0.0040911827414489973 -0.0031022864115625363 0 -0.004119928879327721 -0.0032478399021841314 0 -0.0041265994050081441 -0.00322549238340962 0 -0.0040895349452776727 -0.0030963457732977842 0 -0.0040911827414489973 -0.0031022864115625363 0 -0.0040674107828523138 -0.0030911313604522223 0 -0.0040340485235511349 -0.00306833475759841 0 -0.0040548451974246223 -0.0030979583728658945 0 -0.0040674107828523138 -0.0030911313604522223 0 -0.0040340485235511349 -0.00306833475759841 0 -0.0040548451974246223 -0.0030979583728658945 0 -0.0040008739008097092 -0.0030961024787438739 0 -0.0041037805447919334 -0.0031098930153926731 0 -0.0040911827414489973 -0.0031022864115625363 0 -0.0040548451974246223 -0.0030979583728658945 0 -0.0040911827414489973 -0.0031022864115625363 0 -0.0040548451974246223 -0.0030979583728658945 0 -0.0040674107828523138 -0.0030911313604522223 0 -0.0040008739008097092 -0.0030961024787438739 0 -0.0039853123737858803 -0.0031369163178414567 0 -0.0039549541113494749 -0.0031124314031018788 0 -0.0040548451974246223 -0.0030979583728658945 0 -0.0040008739008097092 -0.0030961024787438739 0 -0.0039853123737858803 -0.0031369163178414567 0 -0.0041037805447919334 -0.0031098930153926731 0 -0.0040548451974246223 -0.0030979583728658945 0 -0.0039853123737858803 -0.0031369163178414567 0 -0.0041037805447919334 -0.0031098930153926731 0 -0.0039853123737858803 -0.0031369163178414567 0 -0.004059189316262919 -0.0032431888450466101 0 -0.0041661186936277819 -0.0032263266118226518 0 -0.0041037805447919334 -0.0031098930153926731 0 -0.004059189316262919 -0.0032431888450466101 0 -0.0041520345239930588 -0.0033498734672218851 0 -0.0041661186936277819 -0.0032263266118226518 0 -0.004059189316262919 -0.0032431888450466101 0 -0.0041520345239930588 -0.0033498734672218851 0 -0.004059189316262919 -0.0032431888450466101 0 -0.0040382155189833818 -0.003380337832389258 0 -0.004059189316262919 -0.0032431888450466101 0 -0.0040382155189833818 -0.003380337832389258 0 -0.0039256987567306487 -0.0032917584291486399 0 -0.0039853123737858803 -0.0031369163178414567 0 -0.0039256987567306487 -0.0032917584291486399 0 -0.0038775268329363159 -0.0031803085175818738 0 -0.0039853123737858803 -0.0031369163178414567 0 -0.004059189316262919 -0.0032431888450466101 0 -0.0039256987567306487 -0.0032917584291486399 0 -0.0039256987567306487 -0.0032917584291486399 0 -0.0038775268329363159 -0.0031803085175818738 0 -0.0037977242260418347 -0.0032373336964571404 0 -0.0039256987567306487 -0.0032917584291486399 0 -0.0037977242260418347 -0.0032373336964571404 0 -0.0037832699618075946 -0.003392576933979684 0 -0.0031436570159214714 -0.0033156452376084549 0 -0.0031387339356276156 -0.0033029828397167695 0 -0.0031513642610938547 -0.0033141211222574062 0 -0.0032675078153469217 -0.0031277970267083715 0 -0.0029069572690344496 -0.0032320174515570945 0 -0.0034646383176772694 -0.0033253164699861512 0 -0.0032675078153469217 -0.0031277970267083715 0 -0.0031381144146625348 -0.0033195714091188481 0 -0.0031436570159214714 -0.0033156452376084549 0 -0.0031387339356276156 -0.0033029828397167695 0 -0.0031381144146625348 -0.0033195714091188481 0 -0.003141849901639889 -0.0033294965666086614 0 -0.0031464355972108658 -0.0033259985592490834 0 -0.0031381144146625348 -0.0033195714091188481 0 -0.0031436570159214714 -0.0033156452376084549 0 -0.0031464355972108658 -0.0033259985592490834 0 -0.0030636122918513615 -0.003489491930774732 0 -0.002801071234945135 -0.0035078685925958074 0 -0.0034646383176772694 -0.0033253164699861512 0 -0.0036870277685191496 -0.0031955307034556226 0 -0.003141849901639889 -0.0033294965666086614 0 -0.0031424621174935409 -0.0033370978761675567 0 -0.0031464355972108658 -0.0033259985592490834 0 -0.0031381144146625348 -0.0033195714091188481 0 -0.0031391610081110449 -0.0033353785234231281 0 -0.003141849901639889 -0.0033294965666086614 0 -0.0031391610081110449 -0.0033353785234231281 0 -0.003141849901639889 -0.0033294965666086614 0 -0.0031424621174935409 -0.0033370978761675567 0 -0.0036870277685191496 -0.0031955307034556226 0 -0.0030636122918513615 -0.003489491930774732 0 -0.0039853123737858803 -0.0031369163178414567 0 -0.0038775268329363159 -0.0031803085175818738 0 -0.0038025975709421659 -0.0030758794933308082 0 -0.0039853123737858803 -0.0031369163178414567 0 -0.0039237997184544508 -0.0031351737044378633 0 -0.0039549541113494749 -0.0031124314031018788 0 -0.0040435316195758771 -0.003123314256219068 0 -0.0036870277685191496 -0.0031955307034556226 0 -0.0038775268329363159 -0.0031803085175818738 0 -0.0037977242260418347 -0.0032373336964571404 0 -0.0038025975709421659 -0.0030758794933308082 0 -0.0039371355857724484 -0.0030735734825751166 0 -0.0040008739008097092 -0.0030961024787438739 0 -0.0039549541113494749 -0.0031124314031018788 0 -0.0039237997184544508 -0.0031351737044378633 0 -0.0039549541113494749 -0.0031124314031018788 0 -0.003922497073479002 -0.0031265428605205163 0 -0.0039549541113494749 -0.0031124314031018788 0 -0.0039326066378804463 -0.0031083466165839884 0 -0.003922497073479002 -0.0031265428605205163 0 -0.0039371355857724484 -0.0030735734825751166 0 -0.0039549541113494749 -0.0031124314031018788 0 -0.0039326066378804463 -0.0031083466165839884 0 -0.0034183932409538455 -0.0046348731093504951 0 -0.0030636122918513615 -0.003489491930774732 0 -0.0029066538420671672 -0.0044433964003111398 0 -0.0029838548271471392 -0.0044368410182365984 0 -0.0029194655955130013 -0.0045412430716957244 0 -0.0039371355857724484 -0.0030735734825751166 0 -0.0039326066378804463 -0.0031083466165839884 0 -0.0038999375684749754 -0.0031319044815173403 0 -0.0039326066378804463 -0.0031083466165839884 0 -0.0038999375684749754 -0.0031319044815173403 0 -0.003922497073479002 -0.0031265428605205163 0 -0.0039215008083262597 -0.0031380362985664496 0 -0.0038999375684749754 -0.0031319044815173403 0 -0.003922497073479002 -0.0031265428605205163 0 -0.0036870277685191496 -0.0031955307034556226 0 -0.0037167622395262844 -0.003167263708732897 0 -0.0053393363749449649 -0.0033518787974909647 0 -0.0054022127774717155 -0.0033474238802408593 0 -0.005364478105301565 -0.0032582444996754746 0 -0.0052702616266991778 -0.0033196660986532724 0 -0.0053393363749449649 -0.0033518787974909647 0 -0.005364478105301565 -0.0032582444996754746 0 -0.0052702616266991778 -0.0033196660986532724 0 -0.0053393363749449649 -0.0033518787974909647 0 -0.0052812995272063833 -0.0034157116022922405 0 -0.0053393363749449649 -0.0033518787974909647 0 -0.0054022127774717155 -0.0033474238802408593 0 -0.0053631315141875269 -0.003399881572278266 0 -0.0053393363749449649 -0.0033518787974909647 0 -0.0053631315141875269 -0.003399881572278266 0 -0.0052812995272063833 -0.0034157116022922405 0 -0.0054022127774717155 -0.0033474238802408593 0 -0.0053631315141875269 -0.003399881572278266 0 -0.0054523584438171731 -0.0033840499135559701 0 -0.0054022127774717155 -0.0033474238802408593 0 -0.0054324055979207324 -0.0032832789892399124 0 -0.0054523584438171731 -0.0033840499135559701 0 -0.0052403093674209429 -0.0036504021713725894 0 -0.0050131976466950452 -0.0037901231076047505 0 -0.0054324055979207324 -0.0032832789892399124 0 -0.0054523584438171731 -0.0033840499135559701 0 -0.0054836095427304487 -0.0032682350354286452 0 -0.0054022127774717155 -0.0033474238802408593 0 -0.0054324055979207324 -0.0032832789892399124 0 -0.005364478105301565 -0.0032582444996754746 0 -0.0054214650485871173 -0.0032166354983102869 0 -0.005364478105301565 -0.0032582444996754746 0 -0.0053801776428714443 -0.0031447334014286705 0 -0.0054214650485871173 -0.0032166354983102869 0 -0.0053801776428714443 -0.0031447334014286705 0 -0.0054550467977612085 -0.0031694449345796771 0 -0.0054324055979207324 -0.0032832789892399124 0 -0.0054214650485871173 -0.0032166354983102869 0 -0.005364478105301565 -0.0032582444996754746 0 -0.0054324055979207324 -0.0032832789892399124 0 -0.0054214650485871173 -0.0032166354983102869 0 -0.0054608785114440327 -0.0032310352045456449 0 -0.0054214650485871173 -0.0032166354983102869 0 -0.0054608785114440327 -0.0032310352045456449 0 -0.0054550467977612085 -0.0031694449345796771 0 -0.005364478105301565 -0.0032582444996754746 0 -0.0052851799020047418 -0.0032152619195482479 0 -0.0053801776428714443 -0.0031447334014286705 0 -0.0052702616266991778 -0.0033196660986532724 0 -0.005364478105301565 -0.0032582444996754746 0 -0.0052851799020047418 -0.0032152619195482479 0 -0.0052702616266991778 -0.0033196660986532724 0 -0.0052851799020047418 -0.0032152619195482479 0 -0.0051539373240441144 -0.0032848092990543465 0 -0.0052851799020047418 -0.0032152619195482479 0 -0.0051539373240441144 -0.0032848092990543465 0 -0.0051606374286565192 -0.0031143949163909314 0 -0.0049999900664031488 -0.0031919636382092918 0 -0.0051539373240441144 -0.0032848092990543465 0 -0.0051606374286565192 -0.0031143949163909314 0 -0.0049999900664031488 -0.0031919636382092918 0 -0.0051539373240441144 -0.0032848092990543465 0 -0.0049999886716281189 -0.0034700312889446652 0 -0.0051539373240441144 -0.0032848092990543465 0 -0.0051817631919035302 -0.003416065406925971 0 -0.0049999886716281189 -0.0034700312889446652 0 -0.0052702616266991778 -0.0033196660986532724 0 -0.0051539373240441144 -0.0032848092990543465 0 -0.0051817631919035302 -0.003416065406925971 0 -0.0052702616266991778 -0.0033196660986532724 0 -0.0051817631919035302 -0.003416065406925971 0 -0.0052812995272063833 -0.0034157116022922405 0 -0.0051817631919035302 -0.003416065406925971 0 -0.005176359859449098 -0.0036234410604021172 0 -0.0052812995272063833 -0.0034157116022922405 0 -0.005176359859449098 -0.0036234410604021172 0 -0.0053308703951137921 -0.0034995384919469146 0 -0.0052812995272063833 -0.0034157116022922405 0 -0.0051817631919035302 -0.003416065406925971 0 -0.0049999886716281189 -0.0034700312889446652 0 -0.005176359859449098 -0.0036234410604021172 0 -0.0050000424769320881 -0.0037481419797741854 0 -0.005154184389518905 -0.003661994337540241 0 -0.0050685016184529412 -0.0039006442433702796 0 -0.004999915485717512 -0.0037482719980112154 0 -0.005158664216390477 -0.0036882156147364934 0 -0.0049999886716281189 -0.0034700312889446652 0 -0.0049999926132203209 -0.003748133089568337 0 -0.005176359859449098 -0.0036234410604021172 0 -0.005154184389518905 -0.003661994337540241 0 -0.0053809159675841552 -0.003523771216588588 0 -0.0052573792390842797 -0.003859249950074888 0 -0.005158664216390477 -0.0036882156147364934 0 -0.0053795161733173136 -0.0036817118754047121 0 -0.0050768580009313983 -0.0040747536059905325 0 -0.0051172997102322286 -0.0039405240134455241 0 -0.005158664216390477 -0.0036882156147364934 0 -0.0053795161733173136 -0.0036817118754047121 0 -0.0053380127899569354 -0.0036087244682038188 0 -0.0048951914007272302 -0.004266948401220611 0 -0.0048979844626560786 -0.0043087068661216196 0 -0.0048574382501353902 -0.0041881588410180321 0 -0.0048951914007272302 -0.004266948401220611 0 -0.0048574382501353902 -0.0041881588410180321 0 -0.0049146252634625805 -0.0041998070570372272 0 -0.0053308703951137921 -0.0034995384919469146 0 -0.0053631315141875269 -0.003399881572278266 0 -0.0052812995272063833 -0.0034157116022922405 0 -0.0053308703951137921 -0.0034995384919469146 0 -0.0053631315141875269 -0.003399881572278266 0 -0.0054523584438171731 -0.0033840499135559701 0 -0.0053809159675841552 -0.003523771216588588 0 -0.0052403093674209429 -0.0036504021713725894 0 -0.0053795161733173136 -0.0036817118754047121 0 -0.0053380127899569354 -0.0036087244682038188 0 -0.0054889928875712845 -0.0035318285153691422 0 -0.0048574382501353902 -0.0041881588410180321 0 -0.004939953664461239 -0.0039016053597401294 0 -0.004958766799325119 -0.0041122325732493381 0 -0.0051172997102322286 -0.0039405240134455241 0 -0.0052403093674209429 -0.0036504021713725894 0 -0.004939953664461239 -0.0039016053597401294 0 -0.004958766799325119 -0.0041122325732493381 0 -0.0050532543175267315 -0.0039810765623241231 0 -0.004958766799325119 -0.0041122325732493381 0 -0.0049146252634625805 -0.0041998070570372272 0 -0.0049591256654316846 -0.0042297179838100473 0 -0.004958766799325119 -0.0041122325732493381 0 -0.0049591256654316846 -0.0042297179838100473 0 -0.005065895489942779 -0.004129809896853345 0 -0.0048574382501353902 -0.0041881588410180321 0 -0.004958766799325119 -0.0041122325732493381 0 -0.0049146252634625805 -0.0041998070570372272 0 -0.0048951914007272302 -0.004266948401220611 0 -0.0049146252634625805 -0.0041998070570372272 0 -0.0049591256654316846 -0.0042297179838100473 0 -0.0050126899215903993 -0.0042798567984191497 0 -0.0049591256654316846 -0.0042297179838100473 0 -0.0050360019436450961 -0.0042154650369950848 0 -0.0049591256654316846 -0.0042297179838100473 0 -0.0050360019436450961 -0.0042154650369950848 0 -0.005065895489942779 -0.004129809896853345 0 -0.0050360019436450961 -0.0042154650369950848 0 -0.0050865686991692872 -0.0041905546025798298 0 -0.005065895489942779 -0.004129809896853345 0 -0.0050740395246440546 -0.0042450726106360486 0 -0.0050360019436450961 -0.0042154650369950848 0 -0.0050865686991692872 -0.0041905546025798298 0 -0.0050865686991692872 -0.0041905546025798298 0 -0.0051203554573678364 -0.0041656895291105793 0 -0.005065895489942779 -0.004129809896853345 0 -0.0050740395246440546 -0.0042450726106360486 0 -0.0051271742022477688 -0.0042177926159012759 0 -0.0050865686991692872 -0.0041905546025798298 0 -0.0051271742022477688 -0.0042177926159012759 0 -0.0050865686991692872 -0.0041905546025798298 0 -0.0051203554573678364 -0.0041656895291105793 0 -0.0054561032730543373 -0.004062425915684534 0 -0.0050358343766178206 -0.0041418287084084397 0 -0.005557530839820005 -0.0040808638127644405 0 -0.0054967741262012719 -0.0039334038204673237 0 -0.0052755665208808989 -0.0039732049206234327 0 -0.005557530839820005 -0.0040808638127644405 0 -0.0054967741262012719 -0.0039334038204673237 0 -0.0056252397500936874 -0.004011026445145535 0 -0.0054967741262012719 -0.0039334038204673237 0 -0.0055849078336815119 -0.0038957271416969644 0 -0.0056252397500936874 -0.004011026445145535 0 -0.0054967741262012719 -0.0039334038204673237 0 -0.0055849078336815119 -0.0038957271416969644 0 -0.0054584239337405202 -0.003785902981388342 0 -0.0054967741262012719 -0.0039334038204673237 0 -0.0053202767957675444 -0.0038649590009325234 0 -0.0054584239337405202 -0.003785902981388342 0 -0.0054967741262012719 -0.0039334038204673237 0 -0.0053202767957675444 -0.0038649590009325234 0 -0.0052755665208808989 -0.0039732049206234327 0 -0.0052755665208808989 -0.0039732049206234327 0 -0.005179071719262197 -0.0038698603680294018 0 -0.0050532543175267315 -0.0039810765623241231 0 -0.0053202767957675444 -0.0038649590009325234 0 -0.0052755665208808989 -0.0039732049206234327 0 -0.005179071719262197 -0.0038698603680294018 0 -0.005557530839820005 -0.0040808638127644405 0 -0.0052755665208808989 -0.0039732049206234327 0 -0.005065895489942779 -0.004129809896853345 0 -0.004939953664461239 -0.0039016053597401294 0 -0.0050532543175267315 -0.0039810765623241231 0 -0.0050553368364959538 -0.0037863041018523233 0 -0.005179071719262197 -0.0038698603680294018 0 -0.0050532543175267315 -0.0039810765623241231 0 -0.0050553368364959538 -0.0037863041018523233 0 -0.004958766799325119 -0.0041122325732493381 0 -0.0050532543175267315 -0.0039810765623241231 0 -0.005065895489942779 -0.004129809896853345 0 -0.0052755665208808989 -0.0039732049206234327 0 -0.0050532543175267315 -0.0039810765623241231 0 -0.005065895489942779 -0.004129809896853345 0 -0.0041000976706668845 -0.0057117592480498466 0 -0.0041458828782116233 -0.0056146202630146767 0 -0.0042023593848024903 -0.0056951074998946409 0 -0.0042378371362837416 -0.0055635225062724333 0 -0.0041458828782116233 -0.0056146202630146767 0 -0.0042023593848024903 -0.0056951074998946409 0 -0.0051731694947169888 -0.0042714579583363436 0 -0.0051271742022477688 -0.0042177926159012759 0 -0.0052025394333110502 -0.0041662316471618504 0 -0.0046731486322959728 -0.0049310904730098838 0 -0.0049292058066616375 -0.0049061292044486979 0 -0.0051271742022477688 -0.0042177926159012759 0 -0.0051203554573678364 -0.0041656895291105793 0 -0.0052025394333110502 -0.0041662316471618504 0 -0.0056252397500936874 -0.004011026445145535 0 -0.0058100358928720921 -0.004049057367563693 0 -0.0058568028013266261 -0.0039038008630260016 0 -0.005557530839820005 -0.0040808638127644405 0 -0.0056252397500936874 -0.004011026445145535 0 -0.0058100358928720921 -0.004049057367563693 0 -0.0054561032730543373 -0.004062425915684534 0 -0.0049292058066616375 -0.0049061292044486979 0 -0.0059263406376576467 -0.0038093641319881582 0 -0.0053088870825678432 -0.0044149078543721156 0 -0.0056252397500936874 -0.004011026445145535 0 -0.006041752211720962 -0.0037809393309309641 0 -0.005803641133755027 -0.0037999547823811832 0 -0.0055849078336815119 -0.0038957271416969644 0 -0.0056252397500936874 -0.004011026445145535 0 -0.0056685778635294781 -0.0038292105635364978 0 -0.0056252397500936874 -0.004011026445145535 0 -0.0056685778635294781 -0.0038292105635364978 0 -0.005803641133755027 -0.0037999547823811832 0 -0.0040569192299264095 -0.0057084460758720342 0 -0.0049292058066616375 -0.0049061292044486979 0 -0.0042425661670536354 -0.0056692543182633795 0 -0.0045169041698482409 -0.0056363112051744718 0 -0.004443040693403494 -0.0058441295719467434 0 -0.0049292058066616375 -0.0049061292044486979 0 -0.0053088870825678432 -0.0044149078543721156 0 -0.0042425661670536354 -0.0056692543182633795 0 -0.00423266723847944 -0.0059511653531241129 0 -0.004443040693403494 -0.0058441295719467434 0 -0.0054370700356721298 -0.0035974949868050818 0 -0.0058224060893423803 -0.0035032376766746583 0 -0.0047571029915255553 -0.0042525610026080737 0 -0.0050210009599304158 -0.004391714531055935 0 -0.0051362044558847424 -0.0040616924634977389 0 -0.0054370700356721298 -0.0035974949868050818 0 -0.0053088870825678432 -0.0044149078543721156 0 -0.0043131317507620181 -0.0051520255251601612 0 -0.0053088870825678432 -0.0044149078543721156 0 -0.0061142252132974492 -0.0035483901894926878 0 -0.006041752211720962 -0.0037809393309309641 0 -0.0058877805236854661 -0.0036801202401062477 0 -0.0061142252132974492 -0.0035483901894926878 0 -0.0058877805236854661 -0.0036801202401062477 0 -0.0057597906421301406 -0.0035756429341658952 0 -0.0058877805236854661 -0.0036801202401062477 0 -0.0057446073772258405 -0.0037220300098129698 0 -0.0057597906421301406 -0.0035756429341658952 0 -0.006041752211720962 -0.0037809393309309641 0 -0.0058877805236854661 -0.0036801202401062477 0 -0.005803641133755027 -0.0037999547823811832 0 -0.0058877805236854661 -0.0036801202401062477 0 -0.005803641133755027 -0.0037999547823811832 0 -0.0057446073772258405 -0.0037220300098129698 0 -0.0057446073772258405 -0.0037220300098129698 0 -0.0057597906421301406 -0.0035756429341658952 0 -0.0056053904175984966 -0.0037308572147871778 0 -0.0056685778635294781 -0.0038292105635364978 0 -0.005803641133755027 -0.0037999547823811832 0 -0.0057446073772258405 -0.0037220300098129698 0 -0.0056685778635294781 -0.0038292105635364978 0 -0.0057446073772258405 -0.0037220300098129698 0 -0.0056053904175984966 -0.0037308572147871778 0 -0.0056230962402667546 -0.003268723090946946 0 -0.0055611566066642946 -0.0032869625129226753 0 -0.0055850766314039938 -0.0032142167081596149 0 -0.0056110063653218951 -0.003372142501635856 0 -0.0056230962402667546 -0.003268723090946946 0 -0.0056858822306694139 -0.003274654704527083 0 -0.0056110063653218951 -0.003372142501635856 0 -0.0056230962402667546 -0.003268723090946946 0 -0.0055611566066642946 -0.0032869625129226753 0 -0.0056230962402667546 -0.003268723090946946 0 -0.0056858822306694139 -0.003274654704527083 0 -0.0056460523955354971 -0.0032168383420496426 0 -0.0056937094084955672 -0.0034456059253097516 0 -0.0056110063653218951 -0.003372142501635856 0 -0.0057834199937961154 -0.0033246421011979611 0 -0.0055989231466438546 -0.0033689752193911222 0 -0.0057887323448692265 -0.0032779956869460124 0 -0.0058711939924117346 -0.0034205642961636093 0 -0.0056937094084955672 -0.0034456059253097516 0 -0.0057834199937961154 -0.0033246421011979611 0 -0.0054024905846443132 -0.003221183202274876 0 -0.0054370700356721298 -0.0035974949868050818 0 -0.0059164912285719698 -0.0032718770979296079 0 -0.0058711939924117346 -0.0034205642961636093 0 -0.0057834199937961154 -0.0033246421011979611 0 -0.0054024905846443132 -0.003221183202274876 0 -0.0057887323448692265 -0.0032779956869460124 0 -0.0051527821881094185 -0.0035259166816177766 0 -0.0052603857905329995 -0.0037281209470022207 0 -0.0054089144529217573 -0.0035601544368999323 0 -0.0048775648024052881 -0.00387931534744336 0 -0.0051527821881094185 -0.0035259166816177766 0 -0.0050553368364959538 -0.0037863041018523233 0 -0.0052403093674209429 -0.0036504021713725894 0 -0.0053158127653897035 -0.0034086235756305185 0 -0.0051527821881094185 -0.0035259166816177766 0 -0.0050553368364959538 -0.0037863041018523233 0 -0.0052603857905329995 -0.0037281209470022207 0 -0.005179071719262197 -0.0038698603680294018 0 -0.0050553368364959538 -0.0037863041018523233 0 -0.0052603857905329995 -0.0037281209470022207 0 -0.0053202767957675444 -0.0038649590009325234 0 -0.005179071719262197 -0.0038698603680294018 0 -0.0052603857905329995 -0.0037281209470022207 0 -0.0058224060893423803 -0.0035032376766746583 0 -0.0053913226983002167 -0.0035551191500275033 0 -0.0051527821881094185 -0.0035259166816177766 0 -0.0054089144529217573 -0.0035601544368999323 0 -0.0054973388575057652 -0.0033795580587719708 0 -0.0057597906421301406 -0.0035756429341658952 0 -0.0056053904175984966 -0.0037308572147871778 0 -0.0054089144529217573 -0.0035601544368999323 0 -0.0056937094084955672 -0.0034456059253097516 0 -0.0056110063653218951 -0.003372142501635856 0 -0.0054089144529217573 -0.0035601544368999323 0 -0.0052603857905329995 -0.0037281209470022207 0 -0.0054584239337405202 -0.003785902981388342 0 -0.0054089144529217573 -0.0035601544368999323 0 -0.0053202767957675444 -0.0038649590009325234 0 -0.0052603857905329995 -0.0037281209470022207 0 -0.0054584239337405202 -0.003785902981388342 0 -0.0054584239337405202 -0.003785902981388342 0 -0.0056053904175984966 -0.0037308572147871778 0 -0.0054089144529217573 -0.0035601544368999323 0 -0.0055849078336815119 -0.0038957271416969644 0 -0.0056685778635294781 -0.0038292105635364978 0 -0.0056053904175984966 -0.0037308572147871778 0 -0.0055849078336815119 -0.0038957271416969644 0 -0.0054584239337405202 -0.003785902981388342 0 -0.0056053904175984966 -0.0037308572147871778 0 -0.0051527821881094185 -0.0035259166816177766 0 -0.0054973388575057652 -0.0033795580587719708 0 -0.005462970301775269 -0.0032344711756691815 0 -0.0056110063653218951 -0.003372142501635856 0 -0.0054089144529217573 -0.0035601544368999323 0 -0.0054973388575057652 -0.0033795580587719708 0 -0.0056110063653218951 -0.003372142501635856 0 -0.0054973388575057652 -0.0033795580587719708 0 -0.0055611566066642946 -0.0032869625129226753 0 -0.0055611566066642946 -0.0032869625129226753 0 -0.005462970301775269 -0.0032344711756691815 0 -0.0055850766314039938 -0.0032142167081596149 0 -0.0054973388575057652 -0.0033795580587719708 0 -0.0055611566066642946 -0.0032869625129226753 0 -0.005462970301775269 -0.0032344711756691815 0 -0.0054836095427304487 -0.0032682350354286452 0 -0.005462970301775269 -0.0032344711756691815 0 -0.0054608785114440327 -0.0032310352045456449 0 -0.005462970301775269 -0.0032344711756691815 0 -0.0054608785114440327 -0.0032310352045456449 0 -0.0054550467977612085 -0.0031694449345796771 0 -0.0053158127653897035 -0.0034086235756305185 0 -0.0054422325020831892 -0.0032541751120103326 0 -0.0054324055979207324 -0.0032832789892399124 0 -0.0054836095427304487 -0.0032682350354286452 0 -0.0054608785114440327 -0.0032310352045456449 0 -0.0054713648209698297 -0.0031425738839674505 0 -0.005457796303879445 -0.0030536306119732736 0 -0.0054550467977612085 -0.0031694449345796771 0 -0.005462970301775269 -0.0032344711756691815 0 -0.0054713648209698297 -0.0031425738839674505 0 -0.0054550467977612085 -0.0031694449345796771 0 -0.0054713648209698297 -0.0031425738839674505 0 -0.00554855067897779 -0.0031410668567661958 0 -0.0055157149828016809 -0.0030931474945219695 0 -0.005462970301775269 -0.0032344711756691815 0 -0.0054713648209698297 -0.0031425738839674505 0 -0.00554855067897779 -0.0031410668567661958 0 -0.005462970301775269 -0.0032344711756691815 0 -0.00554855067897779 -0.0031410668567661958 0 -0.0055850766314039938 -0.0032142167081596149 0 -0.00554855067897779 -0.0031410668567661958 0 -0.0055157149828016809 -0.0030931474945219695 0 -0.0056090584644601735 -0.0030913778494682225 0 -0.0055157149828016809 -0.0030931474945219695 0 -0.0054805834925763276 -0.0030626902622330815 0 -0.0055794495262449914 -0.0030242537815729454 0 -0.0055157149828016809 -0.0030931474945219695 0 -0.0054805834925763276 -0.0030626902622330815 0 -0.0054662150218161383 -0.0030828959526732471 0 -0.0054713648209698297 -0.0031425738839674505 0 -0.0054662150218161383 -0.0030828959526732471 0 -0.005457796303879445 -0.0030536306119732736 0 -0.0054805834925763276 -0.0030626902622330815 0 -0.0054588610317089573 -0.0030562858344760566 0 -0.0054662150218161383 -0.0030828959526732471 0 -0.0054588610317089573 -0.0030562858344760566 0 -0.0054662150218161383 -0.0030828959526732471 0 -0.005457796303879445 -0.0030536306119732736 0 -0.0054713648209698297 -0.0031425738839674505 0 -0.0055157149828016809 -0.0030931474945219695 0 -0.0054662150218161383 -0.0030828959526732471 0 -0.0057592730597136061 -0.0032319620165717502 0 -0.005725036411993123 -0.0031440928611641073 0 -0.0057503936269548113 -0.0031135441540602674 0 -0.0057592730597136061 -0.0032319620165717502 0 -0.005725036411993123 -0.0031440928611641073 0 -0.0056908907798926978 -0.0031862585394775182 0 -0.0057592730597136061 -0.0032319620165717502 0 -0.0056858822306694139 -0.003274654704527083 0 -0.0056908907798926978 -0.0031862585394775182 0 -0.005725036411993123 -0.0031440928611641073 0 -0.0056908907798926978 -0.0031862585394775182 0 -0.0056789551823863181 -0.0031111718206642833 0 -0.0056908907798926978 -0.0031862585394775182 0 -0.0056249970252311224 -0.0031488914208675617 0 -0.0056460523955354971 -0.0032168383420496426 0 -0.0056908907798926978 -0.0031862585394775182 0 -0.0056249970252311224 -0.0031488914208675617 0 -0.0056789551823863181 -0.0031111718206642833 0 -0.0056858822306694139 -0.003274654704527083 0 -0.0056908907798926978 -0.0031862585394775182 0 -0.0056460523955354971 -0.0032168383420496426 0 -0.0056249970252311224 -0.0031488914208675617 0 -0.0056460523955354971 -0.0032168383420496426 0 -0.0055850766314039938 -0.0032142167081596149 0 -0.0056230962402667546 -0.003268723090946946 0 -0.0056460523955354971 -0.0032168383420496426 0 -0.0055850766314039938 -0.0032142167081596149 0 -0.00554855067897779 -0.0031410668567661958 0 -0.0056249970252311224 -0.0031488914208675617 0 -0.0055850766314039938 -0.0032142167081596149 0 -0.0055157149828016809 -0.0030931474945219695 0 -0.0056090584644601735 -0.0030913778494682225 0 -0.0055794495262449914 -0.0030242537815729454 0 -0.0056090584644601735 -0.0030913778494682225 0 -0.0057088866027829388 -0.0030473960015029796 0 -0.0055794495262449914 -0.0030242537815729454 0 -0.00554855067897779 -0.0031410668567661958 0 -0.0056249970252311224 -0.0031488914208675617 0 -0.0056090584644601735 -0.0030913778494682225 0 -0.0056249970252311224 -0.0031488914208675617 0 -0.0056090584644601735 -0.0030913778494682225 0 -0.0056789551823863181 -0.0031111718206642833 0 -0.0056090584644601735 -0.0030913778494682225 0 -0.0056789551823863181 -0.0031111718206642833 0 -0.0057088866027829388 -0.0030473960015029796 0 -0.0056789551823863181 -0.0031111718206642833 0 -0.0057207461444031184 -0.0030986450823511972 0 -0.0057088866027829388 -0.0030473960015029796 0 -0.0057503936269548113 -0.0031135441540602674 0 -0.0057207461444031184 -0.0030986450823511972 0 -0.0057088866027829388 -0.0030473960015029796 0 -0.005725036411993123 -0.0031440928611641073 0 -0.0056789551823863181 -0.0031111718206642833 0 -0.0057207461444031184 -0.0030986450823511972 0 -0.005725036411993123 -0.0031440928611641073 0 -0.0057503936269548113 -0.0031135441540602674 0 -0.0057207461444031184 -0.0030986450823511972 0 -0.0047141381799964644 -0.003072010651128929 0 -0.0049465985471571199 -0.0032297310740379121 0 -0.0047294906664415394 -0.003032900599861344 0 -0.0048932364811887707 -0.0030541567537790519 0 -0.0049523419513008747 -0.0032289759482947338 0 -0.004586604811660947 -0.002900706817597948 0 -0.0047294906664415394 -0.003032900599861344 0 -0.0047821122501351182 -0.0029311097532420962 0 -0.0046767976944886115 -0.0031838831331639896 0 -0.0047377260864404401 -0.003142244765672317 0 -0.0047488388204711294 -0.0032342081751536174 0 -0.0047294906664415394 -0.003032900599861344 0 -0.0047821122501351182 -0.0029311097532420962 0 -0.0048932364811887707 -0.0030541567537790519 0 -0.0050900104049710453 -0.0029654107975490254 0 -0.0049523419513008747 -0.0032289759482947338 0 -0.0051928526109270307 -0.0031590789674068487 0 -0.0048932364811887707 -0.0030541567537790519 0 -0.0050900104049710453 -0.0029654107975490254 0 -0.0049523419513008747 -0.0032289759482947338 0 -0.0052623307304732721 -0.0029909670080523944 0 -0.0053359589194821424 -0.0029992740640470785 0 -0.0047821122501351182 -0.0029311097532420962 0 -0.0048932364811887707 -0.0030541567537790519 0 -0.0050900104049710453 -0.0029654107975490254 0 -0.0049523419513008747 -0.0032289759482947338 0 -0.0051188941934374576 -0.0034101391603899738 0 -0.0049016210638864769 -0.003404761275372958 0 -0.0049523419513008747 -0.0032289759482947338 0 -0.0051928526109270307 -0.0031590789674068487 0 -0.0051188941934374576 -0.0034101391603899738 0 -0.0049523419513008747 -0.0032289759482947338 0 -0.0047911983640721804 -0.0033219131412747125 0 -0.0047488388204711294 -0.0032342081751536174 0 -0.0047377260864404401 -0.003142244765672317 0 -0.0049523419513008747 -0.0032289759482947338 0 -0.0047488388204711294 -0.0032342081751536174 0 -0.0049523419513008747 -0.0032289759482947338 0 -0.0047911983640721804 -0.0033219131412747125 0 -0.0049016210638864769 -0.003404761275372958 0 -0.004681197110588702 -0.0033097646535277638 0 -0.0047911983640721804 -0.0033219131412747125 0 -0.0047488388204711294 -0.0032342081751536174 0 -0.004681197110588702 -0.0033097646535277638 0 -0.0047911983640721804 -0.0033219131412747125 0 -0.0046811136559879608 -0.0034361590225848219 0 -0.0056282798380757407 -0.002870024113104178 0 -0.0057489323908270322 -0.0027116424965714166 0 -0.0055393917910193536 -0.0026917657971148316 0 -0.0054514707685032375 -0.0030364532599489518 0 -0.0054422024956888634 -0.0030392807479469276 0 -0.0053972867537381208 -0.0030562968294686969 0 -0.0055534372830887309 -0.0029463588872774126 0 -0.0053709306009308748 -0.0028497483678950942 0 -0.0054588610317089573 -0.0030562858344760566 0 -0.0054514707685032375 -0.0030364532599489518 0 -0.0054422024956888634 -0.0030392807479469276 0 -0.0054805834925763276 -0.0030626902622330815 0 -0.0054588610317089573 -0.0030562858344760566 0 -0.0054514707685032375 -0.0030364532599489518 0 -0.0050900104049710453 -0.0029654107975490254 0 -0.0054514707685032375 -0.0030364532599489518 0 -0.0053972867537381208 -0.0030562968294686969 0 -0.0053359589194821424 -0.0029992740640470785 0 -0.0054455890577365116 -0.0030302097593554313 0 -0.0054805834925763276 -0.0030626902622330815 0 -0.0055794495262449914 -0.0030242537815729454 0 -0.0054514707685032375 -0.0030364532599489518 0 -0.0050900104049710453 -0.0029654107975490254 0 -0.0053972867537381208 -0.0030562968294686969 0 -0.0051928526109270307 -0.0031590789674068487 0 -0.005421000774231818 -0.0031169082305173347 0 -0.0053972867537381208 -0.0030562968294686969 0 -0.0051928526109270307 -0.0031590789674068487 0 -0.0053709306009308748 -0.0028497483678950942 0 -0.0053997121639392529 -0.0029259856623300965 0 -0.005421000774231818 -0.0031169082305173347 0 -0.0051928526109270307 -0.0031590789674068487 0 -0.0051188941934374576 -0.0034101391603899738 0 -0.0051260786221014095 -0.0026600757495080594 0 -0.0051031180433498647 -0.0026817810566667306 0 -0.0051365006018294539 -0.0026806482237834079 0 -0.0053709306009308748 -0.0028497483678950942 0 -0.0050949793976731717 -0.003057197583325985 0 -0.0053709306009308748 -0.0028497483678950942 0 -0.0053883280771689539 -0.0025691501499770309 0 -0.0057489323908270322 -0.0027116424965714166 0 -0.0055393917910193536 -0.0026917657971148316 0 -0.0056497824435514099 -0.0025105922862381836 0 -0.0053286422313080072 -0.0027177877823557641 0 -0.0055393917910193536 -0.0026917657971148316 0 -0.0054733479136585359 -0.0025183127614223037 0 -0.0055393917910193536 -0.0026917657971148316 0 -0.0054733479136585359 -0.0025183127614223037 0 -0.0056497824435514099 -0.0025105922862381836 0 -0.0053286422313080072 -0.0027177877823557641 0 -0.0054733479136585359 -0.0025183127614223037 0 -0.0053119509530981136 -0.0024362821183585986 0 -0.0053286422313080072 -0.0027177877823557641 0 -0.0054565811162816226 -0.0028596310652289954 0 -0.0053564458520053695 -0.0029733119411559923 0 -0.0053286422313080072 -0.0027177877823557641 0 -0.0055393917910193536 -0.0026917657971148316 0 -0.0054565811162816226 -0.0028596310652289954 0 -0.0056282798380757407 -0.002870024113104178 0 -0.0055393917910193536 -0.0026917657971148316 0 -0.0054565811162816226 -0.0028596310652289954 0 -0.0055534372830887309 -0.0029463588872774126 0 -0.0054660225463117659 -0.0030493637892673709 0 -0.0056282798380757407 -0.002870024113104178 0 -0.0054565811162816226 -0.0028596310652289954 0 -0.005457796303879445 -0.0030536306119732736 0 -0.0054565811162816226 -0.0028596310652289954 0 -0.005457796303879445 -0.0030536306119732736 0 -0.0053564458520053695 -0.0029733119411559923 0 -0.0053286422313080072 -0.0027177877823557641 0 -0.0053564458520053695 -0.0029733119411559923 0 -0.0052177343908260815 -0.0029541080657921668 0 -0.0053564458520053695 -0.0029733119411559923 0 -0.0052814731583101775 -0.003082486995983201 0 -0.0052177343908260815 -0.0029541080657921668 0 -0.0053564458520053695 -0.0029733119411559923 0 -0.0053801776428714443 -0.0031447334014286705 0 -0.0052814731583101775 -0.003082486995983201 0 -0.0052851799020047418 -0.0032152619195482479 0 -0.0053801776428714443 -0.0031447334014286705 0 -0.0052814731583101775 -0.003082486995983201 0 -0.005457796303879445 -0.0030536306119732736 0 -0.0053801776428714443 -0.0031447334014286705 0 -0.0054550467977612085 -0.0031694449345796771 0 -0.005457796303879445 -0.0030536306119732736 0 -0.0053564458520053695 -0.0029733119411559923 0 -0.0053801776428714443 -0.0031447334014286705 0 -0.0049999900664031488 -0.0031919636382092918 0 -0.0051606374286565192 -0.0031143949163909314 0 -0.0049999829222867574 -0.0029138830404124385 0 -0.0051606374286565192 -0.0031143949163909314 0 -0.0052177343908260815 -0.0029541080657921668 0 -0.0049999829222867574 -0.0029138830404124385 0 -0.0052814731583101775 -0.003082486995983201 0 -0.0051606374286565192 -0.0031143949163909314 0 -0.0052177343908260815 -0.0029541080657921668 0 -0.0052851799020047418 -0.0032152619195482479 0 -0.0052814731583101775 -0.003082486995983201 0 -0.0051606374286565192 -0.0031143949163909314 0 -0.0052177343908260815 -0.0029541080657921668 0 -0.0049999829222867574 -0.0029138830404124385 0 -0.0051387480632154158 -0.0027704522443477092 0 -0.0049999829222867574 -0.0029138830404124385 0 -0.0051387480632154158 -0.0027704522443477092 0 -0.0049999804816052377 -0.0026357634385577415 0 -0.0053286422313080072 -0.0027177877823557641 0 -0.0052177343908260815 -0.0029541080657921668 0 -0.0051387480632154158 -0.0027704522443477092 0 -0.0053286422313080072 -0.0027177877823557641 0 -0.0051581352356206579 -0.0025383950498413352 0 -0.0053119509530981136 -0.0024362821183585986 0 -0.0053286422313080072 -0.0027177877823557641 0 -0.0051387480632154158 -0.0027704522443477092 0 -0.0051581352356206579 -0.0025383950498413352 0 -0.0051387480632154158 -0.0027704522443477092 0 -0.0051581352356206579 -0.0025383950498413352 0 -0.0049999804816052377 -0.0026357634385577415 0 -0.0051581352356206579 -0.0025383950498413352 0 -0.0049999804816052377 -0.0026357634385577415 0 -0.0049999880482050757 -0.0023576484701030099 0 -0.0051581352356206579 -0.0025383950498413352 0 -0.0049999880482050757 -0.0023576484701030099 0 -0.0051760888511200847 -0.0022937498628964157 0 -0.0051581352356206579 -0.0025383950498413352 0 -0.0051760888511200847 -0.0022937498628964157 0 -0.0053119509530981136 -0.0024362821183585986 0 -0.0051760888511200847 -0.0022937498628964157 0 -0.0053119509530981136 -0.0024362821183585986 0 -0.0053005946030097893 -0.0022995232784349508 0 -0.0051760888511200847 -0.0022937498628964157 0 -0.0053005946030097893 -0.0022995232784349508 0 -0.0053088089825660571 -0.0021680802199849194 0 -0.0049999880482050757 -0.0023576484701030099 0 -0.0051760888511200847 -0.0022937498628964157 0 -0.0049999913412585827 -0.0020795315014666737 0 -0.0054733479136585359 -0.0025183127614223037 0 -0.0055593021822704838 -0.0023205108082804725 0 -0.0056497824435514099 -0.0025105922862381836 0 -0.0054733479136585359 -0.0025183127614223037 0 -0.0054057598171309423 -0.0023014049600740107 0 -0.0055593021822704838 -0.0023205108082804725 0 -0.0054733479136585359 -0.0025183127614223037 0 -0.0053119509530981136 -0.0024362821183585986 0 -0.0054057598171309423 -0.0023014049600740107 0 -0.0054057598171309423 -0.0023014049600740107 0 -0.0054704282871068091 -0.0021383850277710607 0 -0.0053088089825660571 -0.0021680802199849194 0 -0.0053119509530981136 -0.0024362821183585986 0 -0.0053005946030097893 -0.0022995232784349508 0 -0.0054057598171309423 -0.0023014049600740107 0 -0.0053005946030097893 -0.0022995232784349508 0 -0.0054057598171309423 -0.0023014049600740107 0 -0.0053088089825660571 -0.0021680802199849194 0 -0.0053588273756322077 -0.0025296951362165556 0 -0.005318856881171112 -0.0023371727754474508 0 -0.0051458669868112844 -0.0027009417141576945 0 -0.0051562444825467412 -0.0027183414113681934 0 -0.0051320736106174256 -0.0027116204031828075 0 -0.0054057598171309423 -0.0023014049600740107 0 -0.0055593021822704838 -0.0023205108082804725 0 -0.0054704282871068091 -0.0021383850277710607 0 -0.0054899185343237926 -0.0021299273531512719 0 -0.005385423244092918 -0.0020780359964021004 0 -0.0053088089825660571 -0.0021680802199849194 0 -0.005318856881171112 -0.0023371727754474508 0 -0.0053928390651288675 -0.0021487066595163307 0 -0.0054899185343237926 -0.0021299273531512719 0 -0.005385423244092918 -0.0020780359964021004 0 -0.0054208196828895707 -0.0019921394132383719 0 -0.005318856881171112 -0.0023371727754474508 0 -0.005370408063892362 -0.0020230571877002021 0 -0.005385423244092918 -0.0020780359964021004 0 -0.0053088089825660571 -0.0021680802199849194 0 -0.0053220764101371684 -0.0020238150813440816 0 -0.0054264361881368817 -0.0019896114271154937 0 -0.0052723154018089902 -0.001919151679060164 0 -0.0053136071523678212 -0.0017694190051294918 0 -0.005370408063892362 -0.0020230571877002021 0 -0.0053242269754413809 -0.0017645461781519841 0 -0.0053220764101371684 -0.0020238150813440816 0 -0.0054264361881368817 -0.0019896114271154937 0 -0.0052723154018089902 -0.001919151679060164 0 -0.005385423244092918 -0.0020780359964021004 0 -0.0053220764101371684 -0.0020238150813440816 0 -0.0054208196828895707 -0.0019921394132383719 0 -0.0053564314441254413 -0.0020183383590811287 0 -0.005370408063892362 -0.0020230571877002021 0 -0.005370408063892362 -0.0020230571877002021 0 -0.0054403130642405899 -0.0020269303433764589 0 -0.0054004334047339734 -0.0019356312480479571 0 -0.0054637148016301431 -0.0017781264282932714 0 -0.0055673039913207382 -0.0018788518161659315 0 -0.0053293733754048184 -0.0021647258935662949 0 -0.0053313703864254977 -0.0021671501074298316 0 -0.0053260243374591695 -0.0021688472210850966 0 -0.0049999913412585827 -0.0020795315014666737 0 -0.005178634480079357 -0.002082755746166801 0 -0.0051459614679749532 -0.001942692053906887 0 -0.0051760888511200847 -0.0022937498628964157 0 -0.0049999913412585827 -0.0020795315014666737 0 -0.005178634480079357 -0.002082755746166801 0 -0.0051760888511200847 -0.0022937498628964157 0 -0.0053088089825660571 -0.0021680802199849194 0 -0.005178634480079357 -0.002082755746166801 0 -0.0053088089825660571 -0.0021680802199849194 0 -0.0053220764101371684 -0.0020238150813440816 0 -0.005178634480079357 -0.002082755746166801 0 -0.005178634480079357 -0.002082755746166801 0 -0.0052276950096182906 -0.001990698753875779 0 -0.0051459614679749532 -0.001942692053906887 0 -0.0053220764101371684 -0.0020238150813440816 0 -0.0052276950096182906 -0.001990698753875779 0 -0.0052723154018089902 -0.001919151679060164 0 -0.0053220764101371684 -0.0020238150813440816 0 -0.005178634480079357 -0.002082755746166801 0 -0.0052276950096182906 -0.001990698753875779 0 -0.0052276950096182906 -0.001990698753875779 0 -0.0052723154018089902 -0.001919151679060164 0 -0.0051459614679749532 -0.001942692053906887 0 -0.0052723154018089902 -0.001919151679060164 0 -0.0051459614679749532 -0.001942692053906887 0 -0.005191314877015068 -0.0018259398146855095 0 -0.0049999913412585827 -0.0020795315014666737 0 -0.0051459614679749532 -0.001942692053906887 0 -0.0049999880282460499 -0.0018014189662741628 0 -0.0050000392798641062 -0.0018013997713458166 0 -0.0052273744829799363 -0.0016969658391735296 0 -0.0049999880282460499 -0.0018014189662741628 0 -0.0052261803683616003 -0.0016994595155861898 0 -0.005191314877015068 -0.0018259398146855095 0 -0.0051459614679749532 -0.001942692053906887 0 -0.0049999880282460499 -0.0018014189662741628 0 -0.005191314877015068 -0.0018259398146855095 0 -0.0049999971177458564 -0.0018014060562565562 0 -0.0049999975998004306 -0.0015918419436479717 0 -0.0052243373552927552 -0.0016961524790504994 0 -0.0049999975998004306 -0.0015918419436479717 0 -0.0052243373552927552 -0.0016961524790504994 0 -0.0051763893663961998 -0.0015402498746701068 0 -0.0052243373552927552 -0.0016961524790504994 0 -0.0051763893663961998 -0.0015402498746701068 0 -0.005292543282904019 -0.0015519749032401129 0 -0.0052261803683616003 -0.0016994595155861898 0 -0.005191314877015068 -0.0018259398146855095 0 -0.0053136071523678212 -0.0017694190051294918 0 -0.0052723154018089902 -0.001919151679060164 0 -0.005191314877015068 -0.0018259398146855095 0 -0.0053136071523678212 -0.0017694190051294918 0 -0.0054004334047339734 -0.0019356312480479571 0 -0.0053136071523678212 -0.0017694190051294918 0 -0.0054637148016301431 -0.0017781264282932714 0 -0.0053136071523678212 -0.0017694190051294918 0 -0.0054637148016301431 -0.0017781264282932714 0 -0.0054349326846946404 -0.001602816211214749 0 -0.0054637148016301431 -0.0017781264282932714 0 -0.005603206570523862 -0.001693822101143428 0 -0.0055673039913207382 -0.0018788518161659315 0 -0.0054637148016301431 -0.0017781264282932714 0 -0.0054349326846946404 -0.001602816211214749 0 -0.005603206570523862 -0.001693822101143428 0 -0.0052261803683616003 -0.0016994595155861898 0 -0.0053136071523678212 -0.0017694190051294918 0 -0.0054349326846946404 -0.001602816211214749 0 -0.0052243373552927552 -0.0016961524790504994 0 -0.0054349326846946404 -0.001602816211214749 0 -0.005292543282904019 -0.0015519749032401129 0 -0.0052273744829799363 -0.0016969658391735296 0 -0.0054232283471190986 -0.0016091619946088358 0 -0.0054349326846946404 -0.001602816211214749 0 -0.0053645713455783379 -0.0014575729425466981 0 -0.005292543282904019 -0.0015519749032401129 0 -0.0054349326846946404 -0.001602816211214749 0 -0.0053645713455783379 -0.0014575729425466981 0 -0.005491599436030524 -0.0013478911353520563 0 -0.0053645713455783379 -0.0014575729425466981 0 -0.005292543282904019 -0.0015519749032401129 0 -0.005250096821699286 -0.0014442745778921603 0 -0.0053645713455783379 -0.0014575729425466981 0 -0.0053245659995249488 -0.0013546732006235428 0 -0.005250096821699286 -0.0014442745778921603 0 -0.0054349326846946404 -0.001602816211214749 0 -0.005491599436030524 -0.0013478911353520563 0 -0.0056732616376429399 -0.00147611216407682 0 -0.0051799493039035669 -0.00099912960072994134 0 -0.0052528668506707805 -0.00099087071823634673 0 -0.0051891200277388323 -0.00094196367540612619 0 -0.0053645713455783379 -0.0014575729425466981 0 -0.005491599436030524 -0.0013478911353520563 0 -0.0053245659995249488 -0.0013546732006235428 0 -0.005491599436030524 -0.0013478911353520563 0 -0.0053245659995249488 -0.0013546732006235428 0 -0.0053009065689106419 -0.0012126028879136774 0 -0.0053300334010483877 -0.0011711766914702206 0 -0.0051875180054770063 -0.0010634830210320011 0 -0.0053245659995249488 -0.0013546732006235428 0 -0.0052124833305523671 -0.0013116869710598227 0 -0.0053009065689106419 -0.0012126028879136774 0 -0.0053245659995249488 -0.0013546732006235428 0 -0.0052124833305523671 -0.0013116869710598227 0 -0.005250096821699286 -0.0014442745778921603 0 -0.0052124833305523671 -0.0013116869710598227 0 -0.0051195126366904231 -0.0014242742471369484 0 -0.005250096821699286 -0.0014442745778921603 0 -0.0052124833305523671 -0.0013116869710598227 0 -0.0050978981797530571 -0.0012973163942207205 0 -0.0051529062765891601 -0.001195158081395135 0 -0.0050978981797530571 -0.0012973163942207205 0 -0.00499999528926317 -0.0013822681908570648 0 -0.0049999979007470047 -0.0011727075907205908 0 -0.0050978981797530571 -0.0012973163942207205 0 -0.00499999528926317 -0.0013822681908570648 0 -0.0051195126366904231 -0.0014242742471369484 0 -0.0052124833305523671 -0.0013116869710598227 0 -0.0050978981797530571 -0.0012973163942207205 0 -0.0051195126366904231 -0.0014242742471369484 0 -0.0049999975998004306 -0.0015918419436479717 0 -0.00499999528926317 -0.0013822681908570648 0 -0.0051195126366904231 -0.0014242742471369484 0 -0.0049999975998004306 -0.0015918419436479717 0 -0.0051195126366904231 -0.0014242742471369484 0 -0.0051763893663961998 -0.0015402498746701068 0 -0.0051763893663961998 -0.0015402498746701068 0 -0.005292543282904019 -0.0015519749032401129 0 -0.005250096821699286 -0.0014442745778921603 0 -0.0051195126366904231 -0.0014242742471369484 0 -0.0051763893663961998 -0.0015402498746701068 0 -0.005250096821699286 -0.0014442745778921603 0 -0.0053815652240465526 -0.00093742822845822339 0 -0.0053534420829739341 -0.00091085125848427344 0 -0.005330181503291659 -0.00097288868916106392 0 -0.0053534420829739341 -0.00091085125848427344 0 -0.0053147856310529259 -0.00089198558132167372 0 -0.005330181503291659 -0.00097288868916106392 0 -0.0053815652240465526 -0.00093742822845822339 0 -0.005330181503291659 -0.00097288868916106392 0 -0.0054012337735614615 -0.00097086994316868775 0 -0.0053815652240465526 -0.00093742822845822339 0 -0.0054012337735614615 -0.00097086994316868775 0 -0.0054213756152888667 -0.00091783316450405497 0 -0.0053815652240465526 -0.00093742822845822339 0 -0.0053862341412531448 -0.00088186769261378961 0 -0.0053534420829739341 -0.00091085125848427344 0 -0.0053815652240465526 -0.00093742822845822339 0 -0.0053862341412531448 -0.00088186769261378961 0 -0.0054213756152888667 -0.00091783316450405497 0 -0.0053534420829739341 -0.00091085125848427344 0 -0.0053486198555778956 -0.00088106143897485119 0 -0.0053147856310529259 -0.00089198558132167372 0 -0.0053862341412531448 -0.00088186769261378961 0 -0.0053534420829739341 -0.00091085125848427344 0 -0.0053486198555778956 -0.00088106143897485119 0 -0.0053486198555778956 -0.00088106143897485119 0 -0.0053147856310529259 -0.00089198558132167372 0 -0.0053475095739085998 -0.00084621009423243828 0 -0.0053682551540721038 -0.0010011183214258964 0 -0.0053037435587888317 -0.001002390125208063 0 -0.0053079738316868614 -0.00093699719994759392 0 -0.0053682551540721038 -0.0010011183214258964 0 -0.0053037435587888317 -0.001002390125208063 0 -0.0052915908806464582 -0.0010799375971924168 0 -0.0053300334010483877 -0.0011711766914702206 0 -0.005515860592021425 -0.0012985208897616925 0 -0.0051799493039035669 -0.00099912960072994134 0 -0.0052528668506707805 -0.00099087071823634673 0 -0.0052915908806464582 -0.0010799375971924168 0 -0.0052528668506707805 -0.00099087071823634673 0 -0.0053037435587888317 -0.001002390125208063 0 -0.0053079738316868614 -0.00093699719994759392 0 -0.0052528668506707805 -0.00099087071823634673 0 -0.0053037435587888317 -0.001002390125208063 0 -0.0052915908806464582 -0.0010799375971924168 0 -0.005515860592021425 -0.0012985208897616925 0 -0.0054812143643982285 -0.0012811930126091198 0 -0.0053682551540721038 -0.0010011183214258964 0 -0.0052915908806464582 -0.0010799375971924168 0 -0.0054222770000573366 -0.0011644822566865202 0 -0.005319364860608986 -0.00089485011637040516 0 -0.0054812143643982285 -0.0012811930126091198 0 -0.0056732616376429399 -0.00147611216407682 0 -0.0057392430945757446 -0.0016790155499232784 0 -0.0058481544809067228 -0.0015954700635894287 0 -0.0054349326846946404 -0.001602816211214749 0 -0.0056732616376429399 -0.00147611216407682 0 -0.005603206570523862 -0.001693822101143428 0 -0.0056732616376429399 -0.00147611216407682 0 -0.0057392430945757446 -0.0016790155499232784 0 -0.005603206570523862 -0.001693822101143428 0 -0.005603206570523862 -0.001693822101143428 0 -0.0057344941726576101 -0.0018190053208286911 0 -0.0055673039913207382 -0.0018788518161659315 0 -0.0057392430945757446 -0.0016790155499232784 0 -0.005603206570523862 -0.001693822101143428 0 -0.0057344941726576101 -0.0018190053208286911 0 -0.0055502142195081906 -0.0019921828538024579 0 -0.0054724454158594478 -0.001919839008126323 0 -0.0057392430945757446 -0.0016790155499232784 0 -0.0057344941726576101 -0.0018190053208286911 0 -0.0058979880584266861 -0.0017623634134927204 0 -0.0053202178703286463 -0.002169803060490172 0 -0.0053138488203100841 -0.0021704270360175496 0 -0.0053117442916383187 -0.0021681748430559039 0 -0.0054724454158594478 -0.001919839008126323 0 -0.0053906485612799154 -0.0021731445413738617 0 -0.0053116552176531292 -0.0021674502712325499 0 -0.0053098750445594546 -0.0021679122289787814 0 -0.0053117442916383187 -0.0021681748430559039 0 -0.0054724454158594478 -0.001919839008126323 0 -0.0054812143643982285 -0.0012811930126091198 0 -0.0057392430945757446 -0.0016790155499232784 0 -0.0058979880584266861 -0.0017623634134927204 0 -0.0058481544809067228 -0.0015954700635894287 0 -0.0053802718571352107 -0.001622100940882799 0 -0.0053553766727139646 -0.0015389594436356457 0 -0.0054466258692839869 -0.0015998799473655727 0 -0.0054812143643982285 -0.0012811930126091198 0 -0.0052464028406843241 -0.0016276635027280245 0 -0.005330181503291659 -0.00097288868916106392 0 -0.0054012337735614615 -0.00097086994316868775 0 -0.0053910610538893192 -0.0010191108259133769 0 -0.0054012337735614615 -0.00097086994316868775 0 -0.0053910610538893192 -0.0010191108259133769 0 -0.0054203267653147123 -0.0010095675259577767 0 -0.0052464028406843241 -0.0016276635027280245 0 -0.004883197702330944 -0.001441455401080226 0 -0.0053080079961682018 -0.0021678995540114735 0 -0.0053066142006208319 -0.0021678633418845323 0 -0.0053098750445594546 -0.0021679122289787814 0 -0.0053066142006208319 -0.0021678633418845323 0 -0.0053098750445594546 -0.0021679122289787814 0 -0.0053107985312328427 -0.0021672947070063902 0 -0.0052464028406843241 -0.0016276635027280245 0 -0.0049625537903659834 -0.0020899962343802797 0 -0.0053116552176531292 -0.0021674502712325499 0 -0.0053080079961682018 -0.0021678995540114735 0 -0.0053098750445594546 -0.0021679122289787814 0 -0.0054724454158594478 -0.001919839008126323 0 -0.0052464028406843241 -0.0016276635027280245 0 -0.0050462893569043809 -0.0016278980513542382 0 -0.0049931730704978862 -0.0015949374066982871 0 -0.0049436897635554517 -0.001660064305671271 0 -0.0049625537903659834 -0.0020899962343802797 0 -0.0052109590684230071 -0.0025947789601755292 0 -0.0050260594656514552 -0.0027972962672215243 0 -0.0050312002572828144 -0.0027727726434149144 0 -0.0050621401913682812 -0.0027646915911767786 0 -0.0050312002572828144 -0.0027727726434149144 0 -0.0050428209781468898 -0.0027615182330005214 0 -0.0050281282383185192 -0.0027519995090686902 0 -0.0050312002572828144 -0.0027727726434149144 0 -0.0050428209781468898 -0.0027615182330005214 0 -0.0050621401913682812 -0.0027646915911767786 0 -0.0050428209781468898 -0.0027615182330005214 0 -0.0050621401913682812 -0.0027646915911767786 0 -0.005057580341424105 -0.0027500802327270774 0 -0.0053098750445594546 -0.0021679122289787814 0 -0.0053117442916383187 -0.0021681748430559039 0 -0.0053107985312328427 -0.0021672947070063902 0 -0.0053202178703286463 -0.002169803060490172 0 -0.0053117442916383187 -0.0021681748430559039 0 -0.0053107985312328427 -0.0021672947070063902 0 -0.005086003175008705 -0.0027417343606724741 0 -0.005057580341424105 -0.0027500802327270774 0 -0.0050665475315205925 -0.0027121904565920946 0 -0.0051017446814043358 -0.0027273014303834603 0 -0.0051072079219066594 -0.0027206763869062093 0 -0.0051222495462607256 -0.0027262050470592369 0 -0.0050621401913682812 -0.0027646915911767786 0 -0.005086003175008705 -0.0027417343606724741 0 -0.005057580341424105 -0.0027500802327270774 0 -0.0052109590684230071 -0.0025947789601755292 0 -0.005078603976180613 -0.0027553207478265007 0 -0.005078603976180613 -0.0027553207478265007 0 -0.0051132357404676107 -0.0027081601667998676 0 -0.0050281282383185192 -0.0027519995090686902 0 -0.005057580341424105 -0.0027500802327270774 0 -0.0050665475315205925 -0.0027121904565920946 0 -0.0048814852287267646 -0.0033665091606137499 0 -0.0049854871660456861 -0.0031345737304560323 0 -0.0050428209781468898 -0.0027615182330005214 0 -0.0050281282383185192 -0.0027519995090686902 0 -0.005057580341424105 -0.0027500802327270774 0 -0.0053202178703286463 -0.002169803060490172 0 -0.0053260243374591695 -0.0021688472210850966 0 -0.0053206058354926837 -0.0021661056372625741 0 -0.0055502142195081906 -0.0019921828538024579 0 -0.0054403130642405899 -0.0020269303433764589 0 -0.0052109590684230071 -0.0025947789601755292 0 -0.0052048270437427121 -0.0024410446402050078 0 -0.0053202178703286463 -0.002169803060490172 0 -0.0053107985312328427 -0.0021672947070063902 0 -0.0053206058354926837 -0.0021661056372625741 0 -0.0051222495462607256 -0.0027262050470592369 0 -0.0051320736106174256 -0.0027116204031828075 0 -0.0051091944638315696 -0.0027133391006421586 0 -0.0051072079219066594 -0.0027206763869062093 0 -0.0051222495462607256 -0.0027262050470592369 0 -0.0051091944638315696 -0.0027133391006421586 0 -0.005318856881171112 -0.0023371727754474508 0 -0.0052048270437427121 -0.0024410446402050078 0 -0.0053293733754048184 -0.0021647258935662949 0 -0.0053260243374591695 -0.0021688472210850966 0 -0.0053206058354926837 -0.0021661056372625741 0 -0.0051562444825467412 -0.0027183414113681934 0 -0.0051222495462607256 -0.0027262050470592369 0 -0.0051320736106174256 -0.0027116204031828075 0 -0.0051458669868112844 -0.0027009417141576945 0 -0.0051264067800640186 -0.0026987945640881187 0 -0.0051320736106174256 -0.0027116204031828075 0 -0.0051264067800640186 -0.0026987945640881187 0 -0.0051320736106174256 -0.0027116204031828075 0 -0.0051091944638315696 -0.0027133391006421586 0 -0.0051264067800640186 -0.0026987945640881187 0 -0.0051031180433498647 -0.0026817810566667306 0 -0.0051365006018294539 -0.0026806482237834079 0 -0.0051264067800640186 -0.0026987945640881187 0 -0.0051091944638315696 -0.0027133391006421586 0 -0.0051031180433498647 -0.0026817810566667306 0 -0.0051458669868112844 -0.0027009417141576945 0 -0.0051264067800640186 -0.0026987945640881187 0 -0.0051365006018294539 -0.0026806482237834079 0 -0.0053588273756322077 -0.0025296951362165556 0 -0.0053883280771689539 -0.0025691501499770309 0 -0.004884872569293537 -0.0036027782023849843 0 -0.0046811136559879608 -0.0034361590225848219 0 -0.0046574399873925108 -0.003610453448669709 0 -0.0047088344900993 -0.0037625639583289271 0 -0.004884872569293537 -0.0036027782023849843 0 -0.0046574399873925108 -0.003610453448669709 0 -0.005086003175008705 -0.0027417343606724741 0 -0.0051091944638315696 -0.0027133391006421586 0 -0.0050665475315205925 -0.0027121904565920946 0 -0.0051091944638315696 -0.0027133391006421586 0 -0.0051031180433498647 -0.0026817810566667306 0 -0.0050665475315205925 -0.0027121904565920946 0 -0.0050949793976731717 -0.003057197583325985 0 -0.0049854871660456861 -0.0031345737304560323 0 -0.0051188941934374576 -0.0034101391603899738 0 -0.004884872569293537 -0.0036027782023849843 0 -0.0049016210638864769 -0.003404761275372958 0 -0.0047911983640721804 -0.0033219131412747125 0 -0.0049016210638864769 -0.003404761275372958 0 -0.0046811136559879608 -0.0034361590225848219 0 -0.004884872569293537 -0.0036027782023849843 0 -0.0049016210638864769 -0.003404761275372958 0 -0.0046811136559879608 -0.0034361590225848219 0 -0.0046811136559879608 -0.0034361590225848219 0 -0.0046574399873925108 -0.003610453448669709 0 -0.0045532637825972276 -0.0035044027107018227 0 -0.0045979918616323636 -0.0033529782456140434 0 -0.0046811136559879608 -0.0034361590225848219 0 -0.0045184665758445028 -0.0034080916789132002 0 -0.0046811136559879608 -0.0034361590225848219 0 -0.0045532637825972276 -0.0035044027107018227 0 -0.0045184665758445028 -0.0034080916789132002 0 -0.0044589068695991309 -0.0035985668761025669 0 -0.0044485970983856168 -0.0034561956549034314 0 -0.0043698940049585336 -0.0035047662001563163 0 -0.0046574399873925108 -0.003610453448669709 0 -0.0044589068695991309 -0.0035985668761025669 0 -0.0045328673766915663 -0.0037540532950821161 0 -0.0044589068695991309 -0.0035985668761025669 0 -0.0044485970983856168 -0.0034561956549034314 0 -0.0045532637825972276 -0.0035044027107018227 0 -0.0046574399873925108 -0.003610453448669709 0 -0.0044589068695991309 -0.0035985668761025669 0 -0.0045532637825972276 -0.0035044027107018227 0 -0.0044485970983856168 -0.0034561956549034314 0 -0.0045532637825972276 -0.0035044027107018227 0 -0.0045184665758445028 -0.0034080916789132002 0 -0.0044485970983856168 -0.0034561956549034314 0 -0.0045184665758445028 -0.0034080916789132002 0 -0.0044298130573838315 -0.0033916637010389422 0 -0.0044485970983856168 -0.0034561956549034314 0 -0.0044298130573838315 -0.0033916637010389422 0 -0.0043526026121399096 -0.0034151882932813892 0 -0.0044537658322861854 -0.003336725934307424 0 -0.0045184665758445028 -0.0034080916789132002 0 -0.0044298130573838315 -0.0033916637010389422 0 -0.0043845365630589411 -0.0033380609962210153 0 -0.0044298130573838315 -0.0033916637010389422 0 -0.0043526026121399096 -0.0034151882932813892 0 -0.0043526026121399096 -0.0034151882932813892 0 -0.0042794459061477668 -0.0034734746624895054 0 -0.0042414108082183986 -0.0033858617882314215 0 -0.0043088811452417931 -0.0033433612791890499 0 -0.0043526026121399096 -0.0034151882932813892 0 -0.0042414108082183986 -0.0033858617882314215 0 -0.0043526026121399096 -0.0034151882932813892 0 -0.0042794459061477668 -0.0034734746624895054 0 -0.0043698940049585336 -0.0035047662001563163 0 -0.0044485970983856168 -0.0034561956549034314 0 -0.0043526026121399096 -0.0034151882932813892 0 -0.0043698940049585336 -0.0035047662001563163 0 -0.0041520345239930588 -0.0033498734672218851 0 -0.0042046081708699947 -0.0034482240754737858 0 -0.0041235623727616071 -0.0034991839268107539 0 -0.0042794459061477668 -0.0034734746624895054 0 -0.0042414108082183986 -0.0033858617882314215 0 -0.0042046081708699947 -0.0034482240754737858 0 -0.0041520345239930588 -0.0033498734672218851 0 -0.0042414108082183986 -0.0033858617882314215 0 -0.0042046081708699947 -0.0034482240754737858 0 -0.0042794459061477668 -0.0034734746624895054 0 -0.0042046081708699947 -0.0034482240754737858 0 -0.0042302021479998135 -0.0035348358987158401 0 -0.0042046081708699947 -0.0034482240754737858 0 -0.0042302021479998135 -0.0035348358987158401 0 -0.0041235623727616071 -0.0034991839268107539 0 -0.0041872150660127181 -0.003607573516851622 0 -0.0041235623727616071 -0.0034991839268107539 0 -0.004130832559812234 -0.0036404223617347176 0 -0.0042302021479998135 -0.0035348358987158401 0 -0.0041872150660127181 -0.003607573516851622 0 -0.0041235623727616071 -0.0034991839268107539 0 -0.0042302021479998135 -0.0035348358987158401 0 -0.0041872150660127181 -0.003607573516851622 0 -0.0043135692080507066 -0.0035822154123699651 0 -0.0039484249981954437 -0.0033096408202257115 0 -0.0037996210506892883 -0.0029726874893137405 0 -0.0044589068695991309 -0.0035985668761025669 0 -0.0043698940049585336 -0.0035047662001563163 0 -0.0043135692080507066 -0.0035822154123699651 0 -0.0042794459061477668 -0.0034734746624895054 0 -0.0042302021479998135 -0.0035348358987158401 0 -0.0043135692080507066 -0.0035822154123699651 0 -0.0042794459061477668 -0.0034734746624895054 0 -0.0043698940049585336 -0.0035047662001563163 0 -0.0043135692080507066 -0.0035822154123699651 0 -0.0041872150660127181 -0.003607573516851622 0 -0.0043135692080507066 -0.0035822154123699651 0 -0.0043418361229670471 -0.0037934224579700515 0 -0.0039126388669209469 -0.0016840473267935028 0 -0.003504473778486041 -0.0018421525128679743 0 -0.0037228931958264867 -0.0019526754059595406 0 -0.0039126388669209469 -0.0016840473267935028 0 -0.0036075957606786194 -0.0014980660737141322 0 -0.003504473778486041 -0.0018421525128679743 0 -0.0044589068695991309 -0.0035985668761025669 0 -0.0043135692080507066 -0.0035822154123699651 0 -0.0043418361229670471 -0.0037934224579700515 0 -0.0041872150660127181 -0.003607573516851622 0 -0.0043418361229670471 -0.0037934224579700515 0 -0.004121407337496821 -0.0036504496927284732 0 -0.0041227938345137494 -0.0027167288836211531 0 -0.0037996210506892883 -0.0029726874893137405 0 -0.0039126388669209469 -0.0016840473267935028 0 -0.0039302891579846887 -0.0019470199121706562 0 -0.0037228931958264867 -0.0019526754059595406 0 -0.0043418361229670471 -0.0037934224579700515 0 -0.0045328673766915663 -0.0037540532950821161 0 -0.0045599344946916209 -0.003924178521849106 0 -0.0039126388669209469 -0.0016840473267935028 0 -0.0042193282329039145 -0.0018709758931268756 0 -0.0039302891579846887 -0.0019470199121706562 0 -0.0041227938345137494 -0.0027167288836211531 0 -0.0044507984089201648 -0.002641347344004826 0 -0.0048814852287267646 -0.0033665091606137499 0 -0.0044507984089201648 -0.002641347344004826 0 -0.0050312002572828144 -0.0027727726434149144 0 -0.0050281282383185192 -0.0027519995090686902 0 -0.0049967102769000148 -0.0027823275349590777 0 -0.0047088344900993 -0.0037625639583289271 0 -0.0045328673766915663 -0.0037540532950821161 0 -0.0045599344946916209 -0.003924178521849106 0 -0.0047088344900993 -0.0037625639583289271 0 -0.0046574399873925108 -0.003610453448669709 0 -0.0045328673766915663 -0.0037540532950821161 0 -0.0044589068695991309 -0.0035985668761025669 0 -0.0043418361229670471 -0.0037934224579700515 0 -0.0045328673766915663 -0.0037540532950821161 0 -0.0030338243839378651 -0.0029202100396151904 0 -0.0032675078153469217 -0.0031277970267083715 0 -0.0030815523670495244 -0.0030287987878922749 0 -0.0030757217994279843 -0.0029103695164109647 0 -0.0030014356510738621 -0.0029468445657685905 0 -0.0039256987567306487 -0.0032917584291486399 0 -0.0037832699618075946 -0.003392576933979684 0 -0.0039477844539743409 -0.0035065790679372289 0 -0.0032675078153469217 -0.0031277970267083715 0 -0.0036322828955090876 -0.0032931315753788313 0 -0.0030815523670495244 -0.0030287987878922749 0 -0.0030932989313893879 -0.0028644243828779945 0 -0.0031763642784747048 -0.0030198843991289599 0 -0.0030932989313893879 -0.0028644243828779945 0 -0.0031763642784747048 -0.0030198843991289599 0 -0.0032371662347076024 -0.0029508919088204666 0 -0.0040382155189833818 -0.003380337832389258 0 -0.0039256987567306487 -0.0032917584291486399 0 -0.0039477844539743409 -0.0035065790679372289 0 -0.0040382155189833818 -0.003380337832389258 0 -0.0039477844539743409 -0.0035065790679372289 0 -0.0041235623727616071 -0.0034991839268107539 0 -0.0041520345239930588 -0.0033498734672218851 0 -0.0040382155189833818 -0.003380337832389258 0 -0.0041235623727616071 -0.0034991839268107539 0 -0.0036322828955090876 -0.0032931315753788313 0 -0.0037996210506892883 -0.0029726874893137405 0 -0.0039477844539743409 -0.0035065790679372289 0 -0.0041235623727616071 -0.0034991839268107539 0 -0.004130832559812234 -0.0036404223617347176 0 -0.0032371662347076024 -0.0029508919088204666 0 -0.0033863023962351483 -0.0030363515554704111 0 -0.0032556518913017542 -0.0031223207035995146 0 -0.0037996210506892883 -0.0029726874893137405 0 -0.0033186799446622041 -0.0022731020725045453 0 -0.0036075957606786194 -0.0014980660737141322 0 -0.003504473778486041 -0.0018421525128679743 0 -0.0033297970124395115 -0.0016756121084260365 0 -0.0033297970124395115 -0.0016756121084260365 0 -0.0030192823785787806 -0.0018583262756942678 0 -0.0032738627727850276 -0.0019290331746766257 0 -0.003504473778486041 -0.0018421525128679743 0 -0.0033297970124395115 -0.0016756121084260365 0 -0.0032738627727850276 -0.0019290331746766257 0 -0.0031763642784747048 -0.0030198843991289599 0 -0.0032371662347076024 -0.0029508919088204666 0 -0.0032556518913017542 -0.0031223207035995146 0 -0.0031763642784747048 -0.0030198843991289599 0 -0.0032556518913017542 -0.0031223207035995146 0 -0.0031494748364383316 -0.0031028488702964964 0 -0.0030815523670495244 -0.0030287987878922749 0 -0.0031763642784747048 -0.0030198843991289599 0 -0.0031494748364383316 -0.0031028488702964964 0 -0.0033186799446622041 -0.0022731020725045453 0 -0.0028423820061112882 -0.0027103639248974667 0 -0.0032556518913017542 -0.0031223207035995146 0 -0.0031494748364383316 -0.0031028488702964964 0 -0.0031274057428855055 -0.0032038478342022773 0 -0.0031494748364383316 -0.0031028488702964964 0 -0.003045471504683748 -0.0031026215680295698 0 -0.0031274057428855055 -0.0032038478342022773 0 -0.0018356759015197503 -0.0030176001663542351 0 -0.0018327752991819804 -0.003027105981044709 0 -0.0018386739312882729 -0.003014302796458276 0 -0.0024229598005259434 -0.0031059211860649926 0 -0.0028423820061112882 -0.0027103639248974667 0 -0.0018356759015197503 -0.0030176001663542351 0 -0.0018327752991819804 -0.003027105981044709 0 -0.0018362569897492863 -0.003016656968890574 0 -0.0030815523670495244 -0.0030287987878922749 0 -0.0031494748364383316 -0.0031028488702964964 0 -0.003045471504683748 -0.0031026215680295698 0 -0.0030815523670495244 -0.0030287987878922749 0 -0.003045471504683748 -0.0031026215680295698 0 -0.0029756262694827832 -0.0030143181049896322 0 -0.0029266227853844049 -0.0021471470132295978 0 -0.0030480812903349577 -0.0020722571597483965 0 -0.002671273014645789 -0.0020615663127665036 0 -0.0031344544501676736 -0.0020132967639130304 0 -0.0024254800631280287 -0.0022973766273261891 0 -0.0029266227853844049 -0.0021471470132295978 0 -0.0028482011434206936 -0.0021792626723759153 0 -0.002671273014645789 -0.0020615663127665036 0 -0.0028482011434206936 -0.0021792626723759153 0 -0.002766353999683262 -0.0022414357047194633 0 -0.002671273014645789 -0.0020615663127665036 0 -0.0029266227853844049 -0.0021471470132295978 0 -0.0028482011434206936 -0.0021792626723759153 0 -0.0028946883957524797 -0.0023179360927772829 0 -0.0022864822184807156 -0.0025468776745886327 0 -0.0024254800631280287 -0.0022973766273261891 0 -0.0018356759015197503 -0.0030176001663542351 0 -0.0018370929107517906 -0.0030116383563626005 0 -0.0018362569897492863 -0.003016656968890574 0 -0.0028370942145051442 -0.0019796686543417149 0 -0.0030480812903349577 -0.0020722571597483965 0 -0.0026611529358532607 -0.0021071919260576702 0 -0.0028370942145051442 -0.0019796686543417149 0 -0.0030004818598478237 -0.0019530003445385393 0 -0.0030192823785787806 -0.0018583262756942678 0 -0.0018356759015197503 -0.0030176001663542351 0 -0.0018370929107517906 -0.0030116383563626005 0 -0.0018386739312882729 -0.003014302796458276 0 -0.0022864822184807156 -0.0025468776745886327 0 -0.0028423820061112882 -0.0027103639248974667 0 -0.0030428269275982922 -0.0019859283679079897 0 -0.0030004818598478237 -0.0019530003445385393 0 -0.0030480812903349577 -0.0020722571597483965 0 -0.0030896571303823004 -0.0019827816299484301 0 -0.0030698317986390263 -0.0021355148310832467 0 -0.0032738627727850276 -0.0019290331746766257 0 -0.0028370942145051442 -0.0019796686543417149 0 -0.0030004818598478237 -0.0019530003445385393 0 -0.0030480812903349577 -0.0020722571597483965 0 -0.0031263873057644754 -0.002117606284116186 0 -0.0032583064982726817 -0.0019472561014996193 0 -0.0030192823785787806 -0.0018583262756942678 0 -0.0030896571303823004 -0.0019827816299484301 0 -0.0032738627727850276 -0.0019290331746766257 0 -0.0030428269275982922 -0.0019859283679079897 0 -0.0030896571303823004 -0.0019827816299484301 0 -0.0030480812903349577 -0.0020722571597483965 0 -0.0030428269275982922 -0.0019859283679079897 0 -0.0030004818598478237 -0.0019530003445385393 0 -0.0030330449102154299 -0.0019339785695170724 0 -0.0030428269275982922 -0.0019859283679079897 0 -0.0030330449102154299 -0.0019339785695170724 0 -0.0030896571303823004 -0.0019827816299484301 0 -0.0030330449102154299 -0.0019339785695170724 0 -0.0030192823785787806 -0.0018583262756942678 0 -0.0030896571303823004 -0.0019827816299484301 0 -0.0030004818598478237 -0.0019530003445385393 0 -0.0030330449102154299 -0.0019339785695170724 0 -0.0030192823785787806 -0.0018583262756942678 0 -0.0030896571303823004 -0.0019827816299484301 0 -0.0030698317986390263 -0.0021355148310832467 0 -0.0030480812903349577 -0.0020722571597483965 0 -0.0029266227853844049 -0.0021471470132295978 0 -0.0030698317986390263 -0.0021355148310832467 0 -0.0028946883957524797 -0.0023179360927772829 0 -0.0031263873057644754 -0.002117606284116186 0 -0.0029272218828148957 -0.002378565311798191 0 -0.0029266227853844049 -0.0021471470132295978 0 -0.0030698317986390263 -0.0021355148310832467 0 -0.0030480812903349577 -0.0020722571597483965 0 -0.0031550247941436386 -0.0021395473723737103 0 -0.0032596864507726648 -0.002203697222812316 0 -0.0031679725849304992 -0.0022840307781743438 0 -0.0032596864507726648 -0.002203697222812316 0 -0.0033709120468844948 -0.0021092740231318892 0 -0.0033785800435750042 -0.0023590984181686737 0 -0.0032596864507726648 -0.002203697222812316 0 -0.0033709120468844948 -0.0021092740231318892 0 -0.0032642399253631593 -0.0020965618331194955 0 -0.0031550247941436386 -0.0021395473723737103 0 -0.0032596864507726648 -0.002203697222812316 0 -0.0032642399253631593 -0.0020965618331194955 0 -0.0033709120468844948 -0.0021092740231318892 0 -0.0032642399253631593 -0.0020965618331194955 0 -0.0032738627727850276 -0.0019290331746766257 0 -0.0031550247941436386 -0.0021395473723737103 0 -0.0032642399253631593 -0.0020965618331194955 0 -0.0032738627727850276 -0.0019290331746766257 0 -0.003504473778486041 -0.0018421525128679743 0 -0.0033709120468844948 -0.0021092740231318892 0 -0.0032738627727850276 -0.0019290331746766257 0 -0.003504473778486041 -0.0018421525128679743 0 -0.0033709120468844948 -0.0021092740231318892 0 -0.0035715585119501774 -0.0021117386003133439 0 -0.003504473778486041 -0.0018421525128679743 0 -0.0035715585119501774 -0.0021117386003133439 0 -0.0037228931958264867 -0.0019526754059595406 0 -0.0033709120468844948 -0.0021092740231318892 0 -0.0035715585119501774 -0.0021117386003133439 0 -0.0033785800435750042 -0.0023590984181686737 0 -0.0036331318747728392 -0.0011223373392983238 0 -0.0037082159790907108 -0.0011052104234838486 0 -0.0036933040640151353 -0.0011437203449711031 0 -0.0035715585119501774 -0.0021117386003133439 0 -0.0033785800435750042 -0.0023590984181686737 0 -0.0036605969750677725 -0.0022867717942730171 0 -0.0035036529590107084 -0.0017436451876804799 0 -0.0036440856939537287 -0.0017089441038858817 0 -0.0036543781706517699 -0.0011717872053283104 0 -0.0036331318747728392 -0.0011223373392983238 0 -0.0036933040640151353 -0.0011437203449711031 0 -0.0036543781706517699 -0.0011717872053283104 0 -0.0036933040640151353 -0.0011437203449711031 0 -0.003703514420897678 -0.0011778399122426716 0 -0.0036543781706517699 -0.0011717872053283104 0 -0.0036092281735484 -0.0011615702594306393 0 -0.0036331318747728392 -0.0011223373392983238 0 -0.0036092281735484 -0.0011615702594306393 0 -0.0036331318747728392 -0.0011223373392983238 0 -0.0035627773546675835 -0.0011418260751251135 0 -0.0036543781706517699 -0.0011717872053283104 0 -0.0036092281735484 -0.0011615702594306393 0 -0.0036197811888522584 -0.0012006951544197807 0 -0.0036092281735484 -0.0011615702594306393 0 -0.0035755305522403675 -0.0011635458119738733 0 -0.0036197811888522584 -0.0012006951544197807 0 -0.0032596864507726648 -0.002203697222812316 0 -0.0033785800435750042 -0.0023590984181686737 0 -0.0031679725849304992 -0.0022840307781743438 0 -0.0035036529590107084 -0.0017436451876804799 0 -0.003404998350667549 -0.0017357863538152913 0 -0.0031550247941436386 -0.0021395473723737103 0 -0.0031679725849304992 -0.0022840307781743438 0 -0.0030389568920269798 -0.0023201696629717118 0 -0.0033785800435750042 -0.0023590984181686737 0 -0.0031679725849304992 -0.0022840307781743438 0 -0.0031351274114443132 -0.0024148406797299053 0 -0.0031679725849304992 -0.0022840307781743438 0 -0.0031351274114443132 -0.0024148406797299053 0 -0.0030389568920269798 -0.0023201696629717118 0 -0.0036092281735484 -0.0011615702594306393 0 -0.0035755305522403675 -0.0011635458119738733 0 -0.0035627773546675835 -0.0011418260751251135 0 -0.0035755305522403675 -0.0011635458119738733 0 -0.0035530392615120469 -0.0011639642939635739 0 -0.0035627773546675835 -0.0011418260751251135 0 -0.0031351274114443132 -0.0024148406797299053 0 -0.0030389568920269798 -0.0023201696629717118 0 -0.0029258107685749234 -0.0024744922579985982 0 -0.0035530392615120469 -0.0011639642939635739 0 -0.0035424018826953939 -0.0011751458465439379 0 -0.0035182379707299253 -0.0011608430191899764 0 -0.0035530392615120469 -0.0011639642939635739 0 -0.0035627773546675835 -0.0011418260751251135 0 -0.0035182379707299253 -0.0011608430191899764 0 -0.0029272218828148957 -0.002378565311798191 0 -0.0030050738554484703 -0.0021678950063657291 0 -0.003404998350667549 -0.0017357863538152913 0 -0.0030050738554484703 -0.0021678950063657291 0 -0.0028946883957524797 -0.0023179360927772829 0 -0.0027284438947139974 -0.0023539049881150147 0 -0.0027329500382105151 -0.002506494343630893 0 -0.0028482011434206936 -0.0021792626723759153 0 -0.0028946883957524797 -0.0023179360927772829 0 -0.002766353999683262 -0.0022414357047194633 0 -0.0028946883957524797 -0.0023179360927772829 0 -0.002766353999683262 -0.0022414357047194633 0 -0.0027284438947139974 -0.0023539049881150147 0 -0.0041680348913435208 -0.002151358955304748 0 -0.004027586429913175 -0.002109373523852362 0 -0.0039509842205501782 -0.002210438428776349 0 -0.0043050731850900479 -0.0016746112443259947 0 -0.0040704438323858 -0.0015782287357076102 0 -0.0045383055896058774 -0.0011741102653181062 0 -0.0045531974197104636 -0.0011666310496741331 0 -0.0045398125356006982 -0.0011494759638144044 0 -0.0041680348913435208 -0.002151358955304748 0 -0.004027586429913175 -0.002109373523852362 0 -0.0041058685106182911 -0.0020095268272707946 0 -0.0041680348913435208 -0.002151358955304748 0 -0.0044051678306013687 -0.0020826702906000375 0 -0.0042736111570785516 -0.0020198711950659815 0 -0.004883197702330944 -0.001441455401080226 0 -0.0050316062300120607 -0.00097181447116292366 0 -0.0054012337735614615 -0.00097086994316868775 0 -0.0054203267653147123 -0.0010095675259577767 0 -0.005473629349691209 -0.00093674779183515802 0 -0.0045383055896058774 -0.0011741102653181062 0 -0.004524127638098647 -0.0011829753928218713 0 -0.0045398125356006982 -0.0011494759638144044 0 -0.0043050731850900479 -0.0016746112443259947 0 -0.004883197702330944 -0.001441455401080226 0 -0.0050260594656514552 -0.0027972962672215243 0 -0.0050312002572828144 -0.0027727726434149144 0 -0.0049967102769000148 -0.0027823275349590777 0 -0.0044805553639289605 -0.0019838439692911871 0 -0.0042736111570785516 -0.0020198711950659815 0 -0.0042424172792928979 -0.0018385401255476481 0 -0.0049625537903659834 -0.0020899962343802797 0 -0.0044507984089201648 -0.002641347344004826 0 -0.0044805553639289605 -0.0019838439692911871 0 -0.0044051678306013687 -0.0020826702906000375 0 -0.0042736111570785516 -0.0020198711950659815 0 -0.0049625537903659834 -0.0020899962343802797 0 -0.004883197702330944 -0.001441455401080226 0 -0.0042193282329039145 -0.0018709758931268756 0 -0.0041058685106182911 -0.0020095268272707946 0 -0.0039302891579846887 -0.0019470199121706562 0 -0.0044507984089201648 -0.002641347344004826 0 -0.0042699162799602099 -0.001930784752718041 0 -0.0041680348913435208 -0.002151358955304748 0 -0.0042736111570785516 -0.0020198711950659815 0 -0.0041058685106182911 -0.0020095268272707946 0 -0.0042736111570785516 -0.0020198711950659815 0 -0.0042424172792928979 -0.0018385401255476481 0 -0.0041058685106182911 -0.0020095268272707946 0 -0.004027586429913175 -0.002109373523852362 0 -0.0041058685106182911 -0.0020095268272707946 0 -0.0039302891579846887 -0.0019470199121706562 0 -0.0039302891579846887 -0.0019470199121706562 0 -0.0037228931958264867 -0.0019526754059595406 0 -0.0038096093641777095 -0.0021021506165463839 0 -0.004027586429913175 -0.002109373523852362 0 -0.0039302891579846887 -0.0019470199121706562 0 -0.0038096093641777095 -0.0021021506165463839 0 -0.0035715585119501774 -0.0021117386003133439 0 -0.0037228931958264867 -0.0019526754059595406 0 -0.0038096093641777095 -0.0021021506165463839 0 -0.0035715585119501774 -0.0021117386003133439 0 -0.0038096093641777095 -0.0021021506165463839 0 -0.0036605969750677725 -0.0022867717942730171 0 -0.0040704438323858 -0.0015782287357076102 0 -0.0036440856939537287 -0.0017089441038858817 0 -0.0038096093641777095 -0.0021021506165463839 0 -0.003952746721791139 -0.0022047496960317207 0 -0.0036605969750677725 -0.0022867717942730171 0 -0.004027586429913175 -0.002109373523852362 0 -0.0038096093641777095 -0.0021021506165463839 0 -0.003952746721791139 -0.0022047496960317207 0 -0.0038876749435568648 -0.0020996666253228933 0 -0.0040704438323858 -0.0015782287357076102 0 -0.0040704438323858 -0.0015782287357076102 0 -0.004190296260160143 -0.001069877412746169 0 -0.0045531974197104636 -0.0011666310496741331 0 -0.004554491690586809 -0.0011440850354424979 0 -0.0045661217535014776 -0.0011427839715455533 0 -0.0037794596069821822 -0.001090591276845642 0 -0.0037082159790907108 -0.0011052104234838486 0 -0.0037411004881022412 -0.0011322640170884769 0 -0.0037082159790907108 -0.0011052104234838486 0 -0.0037411004881022412 -0.0011322640170884769 0 -0.0036933040640151353 -0.0011437203449711031 0 -0.0045661217535014776 -0.0011427839715455533 0 -0.0045747206146488847 -0.0011222462503473868 0 -0.0045589288999822166 -0.0011189082027896634 0 -0.0037411004881022412 -0.0011322640170884769 0 -0.0036933040640151353 -0.0011437203449711031 0 -0.003703514420897678 -0.0011778399122426716 0 -0.004190296260160143 -0.001069877412746169 0 -0.0041577401873320874 -0.0011472724363976313 0 -0.004554491690586809 -0.0011440850354424979 0 -0.0045661217535014776 -0.0011427839715455533 0 -0.0045589288999822166 -0.0011189082027896634 0 -0.004554491690586809 -0.0011440850354424979 0 -0.0045398125356006982 -0.0011494759638144044 0 -0.0045589288999822166 -0.0011189082027896634 0 -0.0050316062300120607 -0.00097181447116292366 0 -0.0050745908735891779 -0.00099978454701562603 0 -0.0054587862949178369 -0.00086133133463045476 0 -0.005473629349691209 -0.00093674779183515802 0 -0.0055376318291187106 -0.00084471086157509321 0 -0.0045531974197104636 -0.0011666310496741331 0 -0.004554491690586809 -0.0011440850354424979 0 -0.0045398125356006982 -0.0011494759638144044 0 -0.0054012337735614615 -0.00097086994316868775 0 -0.005473629349691209 -0.00093674779183515802 0 -0.0054213756152888667 -0.00091783316450405497 0 -0.0054587862949178369 -0.00086133133463045476 0 -0.005473629349691209 -0.00093674779183515802 0 -0.0054213756152888667 -0.00091783316450405497 0 -0.0053862341412531448 -0.00088186769261378961 0 -0.0054587862949178369 -0.00086133133463045476 0 -0.0054213756152888667 -0.00091783316450405497 0 -0.0054587862949178369 -0.00086133133463045476 0 -0.0054482486116133929 -0.00079025903817337567 0 -0.0054009757144473786 -0.00083021443312868138 0 -0.0053862341412531448 -0.00088186769261378961 0 -0.0054587862949178369 -0.00086133133463045476 0 -0.0054009757144473786 -0.00083021443312868138 0 -0.0054260088214284378 -0.00072715058543611948 0 -0.0053362169761047634 -0.00069561285711480195 0 -0.0053911772378194885 -0.00066109514565642138 0 -0.0055678077162388253 -0.00077021774066709278 0 -0.0055135843221081763 -0.00057597561291135172 0 -0.0054260088214284378 -0.00072715058543611948 0 -0.0055652893241430875 -0.00076957165273740333 0 -0.0054587862949178369 -0.00086133133463045476 0 -0.0054482486116133929 -0.00079025903817337567 0 -0.0055376318291187106 -0.00084471086157509321 0 -0.0055376318291187106 -0.00084471086157509321 0 -0.0055678077162388253 -0.00077021774066709278 0 -0.0056480332257871583 -0.0006881935540331898 0 -0.0054482486116133929 -0.00079025903817337567 0 -0.0055376318291187106 -0.00084471086157509321 0 -0.0055678077162388253 -0.00077021774066709278 0 -0.0045747206146488847 -0.0011222462503473868 0 -0.0045589288999822166 -0.0011189082027896634 0 -0.0045725501556442682 -0.001097578352072629 0 -0.0050745908735891779 -0.00099978454701562603 0 -0.0048950062824438213 -0.00082654004535859466 0 -0.0045747206146488847 -0.0011222462503473868 0 -0.0045725501556442682 -0.001097578352072629 0 -0.0045805665963638076 -0.0011072755643976968 0 -0.0048950062824438213 -0.00082654004535859466 0 -0.0055103608188390562 -0.00047642323702544334 0 -0.0055678077162388253 -0.00077021774066709278 0 -0.0056480332257871583 -0.0006881935540331898 0 -0.0055135843221081763 -0.00057597561291135172 0 -0.0053506280963968788 -0.00039670210895009647 0 -0.005360794309783823 -0.00045967232138300658 0 -0.0053201519463567711 -0.00043622517780860832 0 -0.0053506280963968788 -0.00039670210895009647 0 -0.0052176844560879914 -0.00039024927972516053 0 -0.0053201519463567711 -0.00043622517780860832 0 -0.0052179656757797297 -0.00033303764519472442 0 -0.0052176844560879914 -0.00039024927972516053 0 -0.0051759214224386405 -0.00039621997890761128 0 -0.0048950062824438213 -0.00082654004535859466 0 -0.0044299296252978838 -0.00086215453931941417 0 -0.0052179656757797297 -0.00033303764519472442 0 -0.0053506280963968788 -0.00039670210895009647 0 -0.0052176844560879914 -0.00039024927972516053 0 -0.0052176844560879914 -0.00039024927972516053 0 -0.0051780922400031671 -0.00038115248763660151 0 -0.0051759214224386405 -0.00039621997890761128 0 -0.0052176844560879914 -0.00039024927972516053 0 -0.0053201519463567711 -0.00043622517780860832 0 -0.0053433118270404256 -0.00046985469726274946 0 -0.0052176844560879914 -0.00039024927972516053 0 -0.0051780922400031671 -0.00038115248763660151 0 -0.0051182240902234314 -0.00036036802131672211 0 -0.0051911707890423438 -0.00033720281254680793 0 -0.0053007973608984894 -0.00051048743009748975 0 -0.0051780922400031671 -0.00038115248763660151 0 -0.0051705132535726324 -0.00037073194782051929 0 -0.0051182240902234314 -0.00036036802131672211 0 -0.0051705132535726324 -0.00037073194782051929 0 -0.0051518943887000736 -0.00035009990666626673 0 -0.0051182240902234314 -0.00036036802131672211 0 -0.0051705132535726324 -0.00037073194782051929 0 -0.0051657124575361655 -0.00035334706317116356 0 -0.0051518943887000736 -0.00035009990666626673 0 -0.005360794309783823 -0.00045967232138300658 0 -0.0053201519463567711 -0.00043622517780860832 0 -0.0053433118270404256 -0.00046985469726274946 0 -0.005360794309783823 -0.00045967232138300658 0 -0.005391151953378308 -0.00048915098203427371 0 -0.0053786105040194935 -0.00044795585445589112 0 -0.0053506280963968788 -0.00039670210895009647 0 -0.005360794309783823 -0.00045967232138300658 0 -0.005391151953378308 -0.00048915098203427371 0 -0.005391151953378308 -0.00048915098203427371 0 -0.0053596512510512466 -0.00042933620446933019 0 -0.005329207357201101 -0.00051418493864108608 0 -0.0053911772378194885 -0.00066109514565642138 0 -0.005391151953378308 -0.00048915098203427371 0 -0.005329207357201101 -0.00051418493864108608 0 -0.0055103608188390562 -0.00047642323702544334 0 -0.0053654159555687926 -0.0004785299075477352 0 -0.0053911772378194885 -0.00066109514565642138 0 -0.0055135843221081763 -0.00057597561291135172 0 -0.005391151953378308 -0.00048915098203427371 0 -0.0035247105624647279 -0.0011951578999710027 0 -0.0035194115598413791 -0.0011731377829138289 0 -0.0035137936833913564 -0.0011966371537233905 0 -0.0035247105624647279 -0.0011951578999710027 0 -0.0035424018826953939 -0.0011751458465439379 0 -0.0035653583967116915 -0.0011916791626006484 0 -0.0035041833507903769 -0.0011712035492864943 0 -0.0035718399228413084 -0.00127994392044017 0 -0.0035225849141792579 -0.0011761838422930688 0 -0.0035424018826953939 -0.0011751458465439379 0 -0.0035171067529984894 -0.0011898222343557148 0 -0.0035247105624647279 -0.0011951578999710027 0 -0.0035424018826953939 -0.0011751458465439379 0 -0.0035171067529984894 -0.0011898222343557148 0 -0.0035225849141792579 -0.0011761838422930688 0 -0.0035424018826953939 -0.0011751458465439379 0 -0.0035182379707299253 -0.0011608430191899764 0 -0.0035424018826953939 -0.0011751458465439379 0 -0.0035703047986256884 -0.0011754757462244404 0 -0.0035653583967116915 -0.0011916791626006484 0 -0.0035755305522403675 -0.0011635458119738733 0 -0.0035703047986256884 -0.0011754757462244404 0 -0.0036051106838775097 -0.0011684383758460571 0 -0.0035755305522403675 -0.0011635458119738733 0 -0.0035530392615120469 -0.0011639642939635739 0 -0.0035703047986256884 -0.0011754757462244404 0 -0.0035530392615120469 -0.0011639642939635739 0 -0.0035424018826953939 -0.0011751458465439379 0 -0.0035703047986256884 -0.0011754757462244404 0 -0.0035703047986256884 -0.0011754757462244404 0 -0.0035653583967116915 -0.0011916791626006484 0 -0.0035995266297240238 -0.0011886819573396358 0 -0.0035653583967116915 -0.0011916791626006484 0 -0.0035844060710682425 -0.0012102861561362837 0 -0.0035995266297240238 -0.0011886819573396358 0 -0.0035247105624647279 -0.0011951578999710027 0 -0.0035577173855468889 -0.0012079595652791843 0 -0.0035573619223982543 -0.0012374743007866125 0 -0.0035653583967116915 -0.0011916791626006484 0 -0.0035577173855468889 -0.0012079595652791843 0 -0.0035844060710682425 -0.0012102861561362837 0 -0.0035247105624647279 -0.0011951578999710027 0 -0.0035653583967116915 -0.0011916791626006484 0 -0.0035577173855468889 -0.0012079595652791843 0 -0.0035995266297240238 -0.0011886819573396358 0 -0.0036305538667163613 -0.0011808136340733025 0 -0.0036240099691069992 -0.001211748526094645 0 -0.0038288095168513927 -0.0011392779624725257 0 -0.0035896644946941669 -0.0012082748346214959 0 -0.0035844060710682425 -0.0012102861561362837 0 -0.0035995266297240238 -0.0011886819573396358 0 -0.0036240099691069992 -0.001211748526094645 0 -0.0035703047986256884 -0.0011754757462244404 0 -0.0035995266297240238 -0.0011886819573396358 0 -0.0036051106838775097 -0.0011684383758460571 0 -0.0035995266297240238 -0.0011886819573396358 0 -0.0036051106838775097 -0.0011684383758460571 0 -0.0036305538667163613 -0.0011808136340733025 0 -0.0035872359490013114 -0.0011698415166795197 0 -0.0035984695168701877 -0.0011709760554080575 0 -0.0036543781706517699 -0.0011717872053283104 0 -0.0036197811888522584 -0.0012006951544197807 0 -0.0036653922534779773 -0.001229089507895436 0 -0.0035984695168701877 -0.0011709760554080575 0 -0.0038288095168513927 -0.0011392779624725257 0 -0.0041577401873320874 -0.0011472724363976313 0 -0.0038288095168513927 -0.0011392779624725257 0 -0.0036543781706517699 -0.0011717872053283104 0 -0.003703514420897678 -0.0011778399122426716 0 -0.0036653922534779773 -0.001229089507895436 0 -0.0038752800302710977 -0.0011178829847310072 0 -0.003741878814463544 -0.0010341260327958724 0 -0.0037481027680885959 -0.0011558059239478362 0 -0.003741878814463544 -0.0010341260327958724 0 -0.0037481027680885959 -0.0011558059239478362 0 -0.0036240099691069992 -0.001211748526094645 0 -0.0048950062824438213 -0.00082654004535859466 0 -0.0038288095168513927 -0.0011392779624725257 0 -0.0037481027680885959 -0.0011558059239478362 0 -0.0037542885242348805 -0.0012540272140673229 0 -0.0036240099691069992 -0.001211748526094645 0 -0.0038752800302710977 -0.0011178829847310072 0 -0.0037481027680885959 -0.0011558059239478362 0 -0.0037542885242348805 -0.0012540272140673229 0 -0.0044299296252978838 -0.00086215453931941417 0 -0.004307456571118716 -0.00057483109343513554 0 -0.0051780922400031671 -0.00038115248763660151 0 -0.0051705132535726324 -0.00037073194782051929 0 -0.0051759214224386405 -0.00039621997890761128 0 -0.0051759214224386405 -0.00039621997890761128 0 -0.0051743052436291417 -0.00036443682609277312 0 -0.0051942097029250732 -0.00036325885997521179 0 -0.0051705132535726324 -0.00037073194782051929 0 -0.0051759214224386405 -0.00039621997890761128 0 -0.0051743052436291417 -0.00036443682609277312 0 -0.0051705132535726324 -0.00037073194782051929 0 -0.0051743052436291417 -0.00036443682609277312 0 -0.0051657124575361655 -0.00035334706317116356 0 -0.0051743052436291417 -0.00036443682609277312 0 -0.0051942097029250732 -0.00036325885997521179 0 -0.0051601991575715885 -0.00033660348126576014 0 -0.0036616523609410948 -0.0013475670901992472 0 -0.0036089418313938696 -0.0013111958077193016 0 -0.0036457074677976745 -0.0012761608969306616 0 -0.0037542885242348805 -0.0012540272140673229 0 -0.0036616523609410948 -0.0013475670901992472 0 -0.0036457074677976745 -0.0012761608969306616 0 -0.0039284445721812708 -0.00071400730906794963 0 -0.0039771387981625541 -0.00064832689069986983 0 -0.0037318852168739683 -0.00049650609751777399 0 -0.0040483436122524764 -0.00033258026560211719 0 -0.004307456571118716 -0.00057483109343513554 0 -0.0030420906248727784 3.790920102619825e-05 0 -0.0031095358742694698 -4.0194562870520004e-05 0 -0.0031373180489952645 7.1769037346568082e-05 0 -0.0040483436122524764 -0.00033258026560211719 0 -0.0035066475589155661 -0.0006803999456925896 0 -0.004307456571118716 -0.00057483109343513554 0 -0.0035066475589155661 -0.0006803999456925896 0 -0.0036089418313938696 -0.0013111958077193016 0 -0.0036027276974633761 -0.0012485056069653094 0 -0.0036457074677976745 -0.0012761608969306616 0 -0.0036027276974633761 -0.0012485056069653094 0 -0.0036457074677976745 -0.0012761608969306616 0 -0.0036240099691069992 -0.001211748526094645 0 -0.0037542885242348805 -0.0012540272140673229 0 -0.0036457074677976745 -0.0012761608969306616 0 -0.0036240099691069992 -0.001211748526094645 0 -0.0035844060710682425 -0.0012102861561362837 0 -0.0036027276974633761 -0.0012485056069653094 0 -0.0036240099691069992 -0.001211748526094645 0 -0.0034620815592258181 -0.0011135845171830749 0 -0.0034975997578720005 -0.0011727415876504335 0 -0.0035194115598413791 -0.0011731377829138289 0 -0.0035066475589155661 -0.0006803999456925896 0 -0.0034026742806191395 -0.0006364604599722577 0 -0.0035844060710682425 -0.0012102861561362837 0 -0.0036027276974633761 -0.0012485056069653094 0 -0.0035573619223982543 -0.0012374743007866125 0 -0.0035577173855468889 -0.0012079595652791843 0 -0.0035844060710682425 -0.0012102861561362837 0 -0.0035573619223982543 -0.0012374743007866125 0 -0.0036089418313938696 -0.0013111958077193016 0 -0.0036027276974633761 -0.0012485056069653094 0 -0.0035573619223982543 -0.0012374743007866125 0 -0.0035066475589155661 -0.0006803999456925896 0 -0.0035718399228413084 -0.00127994392044017 0 -0.0031095358742694698 -4.0194562870520004e-05 0 -0.0032147758810676468 1.0371643875129564e-05 0 -0.0033170827045474311 -0.00017584536964550525 0 -0.0031095358742694698 -4.0194562870520004e-05 0 -0.0032147758810676468 1.0371643875129564e-05 0 -0.0031373180489952645 7.1769037346568082e-05 0 -0.0032188020155311564 0.00025436093964567819 0 -0.0028523096136670932 0.00032331510788673483 0 -0.0032147758810676468 1.0371643875129564e-05 0 -0.0033263316638868349 3.3557729552505421e-05 0 -0.0033170827045474311 -0.00017584536964550525 0 -0.0033263316638868349 3.3557729552505421e-05 0 -0.0033170827045474311 -0.00017584536964550525 0 -0.0034699229390539928 -0.00016114816981008896 0 -0.0029192069598555966 0.00073736670973378166 0 -0.0030088964289443814 0.0008601943445508245 0 -0.0031626986366394905 0.00041283420344005804 0 -0.0035247105624647279 -0.0011951578999710027 0 -0.0034975997578720005 -0.0011727415876504335 0 -0.0035194115598413791 -0.0011731377829138289 0 -0.0034026742806191395 -0.0006364604599722577 0 -0.0033146098002266129 -0.00090272802061501869 0 -0.002579982337165534 0.0013190133204761016 0 -0.0025686245819590363 0.0013559164108509149 0 -0.0025920973038587661 0.001347165540774412 0 -0.0027784221560573719 0.0011797137560925705 0 -0.0027622672839197403 0.0014197610537842525 0 -0.0029192069598555966 0.00073736670973378166 0 -0.0030088964289443814 0.0008601943445508245 0 -0.0026666753529258546 0.0010634325676663731 0 -0.0032147758810676468 1.0371643875129564e-05 0 -0.0033263316638868349 3.3557729552505421e-05 0 -0.0031817875802018772 0.00016900383110278401 0 -0.0032147758810676468 1.0371643875129564e-05 0 -0.0031373180489952645 7.1769037346568082e-05 0 -0.0031817875802018772 0.00016900383110278401 0 -0.0033263316638868349 3.3557729552505421e-05 0 -0.0031817875802018772 0.00016900383110278401 0 -0.0031757975403635566 0.00023630330647081527 0 -0.0032188020155311564 0.00025436093964567819 0 -0.0029432585589019926 0.0010905675678534628 0 -0.0031373180489952645 7.1769037346568082e-05 0 -0.0031817875802018772 0.00016900383110278401 0 -0.0031370767389705622 0.00017897780999383514 0 -0.0031466996322848306 0.00043053708827922235 0 -0.0030529975937907202 0.0005185179522242127 0 -0.0031817875802018772 0.00016900383110278401 0 -0.0031345832764664086 0.00018147206793882954 0 -0.0031757975403635566 0.00023630330647081527 0 -0.0030088964289443814 0.0008601943445508245 0 -0.0026666753529258546 0.0010634325676663731 0 -0.0028459508842346871 0.0013094371899055426 0 -0.0030529975937907202 0.0005185179522242127 0 -0.0029432585589019926 0.0010905675678534628 0 -0.0027795846061700012 0.0015977797667079162 0 -0.002779996150810319 0.0015795015084993044 0 -0.0027679844700907682 0.0015775751816918895 0 -0.0029432585589019926 0.0010905675678534628 0 -0.0027622672839197403 0.0014197610537842525 0 -0.0030216285548224481 0.0013127161728060006 0 -0.0028807997317395703 0.0013652889701580339 0 -0.0028064435909605999 0.0015573893250894057 0 -0.0029432585589019926 0.0010905675678534628 0 -0.0027695233323525885 0.0016953720165026709 0 -0.0030529975937907202 0.0005185179522242127 0 -0.0039890936012086375 0.00043398504008259833 0 -0.0029756649654615604 0.00125283205050743 0 -0.0028807997317395703 0.0013652889701580339 0 -0.0026834704784426144 0.0013310435160795062 0 -0.0029756649654615604 0.00125283205050743 0 -0.0030216285548224481 0.0013127161728060006 0 -0.0028807997317395703 0.0013652889701580339 0 -0.0036868102646088852 0.00028840327104795888 0 -0.0036235226742285893 0.00020895730776705987 0 -0.0037962668592415763 0.00017069884349986416 0 -0.0030420906248727784 3.790920102619825e-05 0 -0.0031373180489952645 7.1769037346568082e-05 0 -0.0031370767389705622 0.00017897780999383514 0 -0.0040483436122524764 -0.00033258026560211719 0 -0.0030529975937907202 0.0005185179522242127 0 -0.0051143856244750428 -0.00032514510198554733 0 -0.005118673859204185 -0.00031874314150180601 0 -0.0051601991575715885 -0.00033660348126576014 0 -0.0040483436122524764 -0.00033258026560211719 0 -0.0039890936012086375 0.00043398504008259833 0 -0.0051143856244750428 -0.00032514510198554733 0 -0.0051601991575715885 -0.00033660348126576014 0 -0.005161811078977843 -0.00035909088066089063 0 -0.004307456571118716 -0.00057483109343513554 0 -0.005305903129250682 -0.00045828341804424807 0 -0.0051743052436291417 -0.00036443682609277312 0 -0.0051657124575361655 -0.00035334706317116356 0 -0.0051601991575715885 -0.00033660348126576014 0 -0.0051657124575361655 -0.00035334706317116356 0 -0.0051601991575715885 -0.00033660348126576014 0 -0.005164145027976878 -0.00033543212366764105 0 -0.0051601991575715885 -0.00033660348126576014 0 -0.005161811078977843 -0.00035909088066089063 0 -0.005164145027976878 -0.00033543212366764105 0 -0.0039890936012086375 0.00043398504008259833 0 -0.0049744744531736197 -0.00037534254371688177 0 -0.0028807997317395703 0.0013652889701580339 0 -0.0028140303777695877 0.0014345220916318572 0 -0.0026834704784426144 0.0013310435160795062 0 -0.003475681361045954 0.00095114034305082587 0 -0.0034673838594419144 0.0010844841923093589 0 -0.0034485256044583497 0.0010207323819817092 0 -0.0039890936012086375 0.00043398504008259833 0 -0.0030819464450949894 0.0014551232992939009 0 -0.0028140303777695877 0.0014345220916318572 0 -0.0026834704784426144 0.0013310435160795062 0 -0.0027812981367719889 0.001571920755765779 0 -0.003475681361045954 0.00095114034305082587 0 -0.0034673838594419144 0.0010844841923093589 0 -0.0035251513402638603 0.0011328766553982883 0 -0.0028140303777695877 0.0014345220916318572 0 -0.0027812981367719889 0.001571920755765779 0 -0.0028064435909605999 0.0015573893250894057 0 -0.0034673838594419144 0.0010844841923093589 0 -0.0035251513402638603 0.0011328766553982883 0 -0.0034396562378348518 0.0011614639694064396 0 -0.0035251513402638603 0.0011328766553982883 0 -0.0034891405478528841 0.0012449110107537419 0 -0.0034396562378348518 0.0011614639694064396 0 -0.0030819464450949894 0.0014551232992939009 0 -0.00298136605744424 0.0014892153006189079 0 -0.0035251513402638603 0.0011328766553982883 0 -0.0034891405478528841 0.0012449110107537419 0 -0.0035744693260317882 0.0013097346704603881 0 -0.0034891405478528841 0.0012449110107537419 0 -0.0034396562378348518 0.0011614639694064396 0 -0.0034022875140466702 0.0012627329579290715 0 -0.0027812981367719889 0.001571920755765779 0 -0.0027920884349954341 0.0015682949228737837 0 -0.0027986182911720193 0.0015636674053411232 0 -0.0027812981367719889 0.001571920755765779 0 -0.0027920884349954341 0.0015682949228737837 0 -0.0027989056733445359 0.0015554433107766998 0 -0.0027920884349954341 0.0015682949228737837 0 -0.0027805924769859548 0.0015712377268014941 0 -0.0027989056733445359 0.0015554433107766998 0 -0.0027920884349954341 0.0015682949228737837 0 -0.002786849442049761 0.0015689706729637494 0 -0.0027805924769859548 0.0015712377268014941 0 -0.0027920884349954341 0.0015682949228737837 0 -0.002786849442049761 0.0015689706729637494 0 -0.0027986182911720193 0.0015636674053411232 0 -0.002786849442049761 0.0015689706729637494 0 -0.0027863779271549908 0.001570476428541032 0 -0.0027986182911720193 0.0015636674053411232 0 -0.0027795846061700012 0.0015977797667079162 0 -0.0028064435909605999 0.0015573893250894057 0 -0.002779996150810319 0.0015795015084993044 0 -0.0027863779271549908 0.001570476428541032 0 -0.0028064435909605999 0.0015573893250894057 0 -0.002779996150810319 0.0015795015084993044 0 -0.0028807997317395703 0.0013652889701580339 0 -0.0028140303777695877 0.0014345220916318572 0 -0.0028064435909605999 0.0015573893250894057 0 -0.0027863779271549908 0.001570476428541032 0 -0.0028064435909605999 0.0015573893250894057 0 -0.0027986182911720193 0.0015636674053411232 0 -0.0027812981367719889 0.001571920755765779 0 -0.0028064435909605999 0.0015573893250894057 0 -0.0027986182911720193 0.0015636674053411232 0 -0.0027863779271549908 0.001570476428541032 0 -0.002779996150810319 0.0015795015084993044 0 -0.0027748214961700879 0.0015757376143725403 0 -0.002779996150810319 0.0015795015084993044 0 -0.0027748214961700879 0.0015757376143725403 0 -0.0027679844700907682 0.0015775751816918895 0 -0.0027748214961700879 0.0015757376143725403 0 -0.0027686182446180177 0.0015754517799774362 0 -0.0027679844700907682 0.0015775751816918895 0 -0.0027453734947287659 0.0016035657907488962 0 -0.0027622672839197403 0.0014197610537842525 0 -0.0027686182446180177 0.0015754517799774362 0 -0.0027636417146392179 0.0015770550264123445 0 -0.0027645550124318036 0.0015775914214332433 0 -0.0027863779271549908 0.001570476428541032 0 -0.0027789235788558846 0.0015723016938381062 0 -0.0027748214961700879 0.0015757376143725403 0 -0.0027789235788558846 0.0015723016938381062 0 -0.0027748214961700879 0.0015757376143725403 0 -0.0027686182446180177 0.0015754517799774362 0 -0.002786849442049761 0.0015689706729637494 0 -0.0027863779271549908 0.001570476428541032 0 -0.0027789235788558846 0.0015723016938381062 0 -0.002786849442049761 0.0015689706729637494 0 -0.0027789235788558846 0.0015723016938381062 0 -0.0027805924769859548 0.0015712377268014941 0 -0.0027789235788558846 0.0015723016938381062 0 -0.0027805924769859548 0.0015712377268014941 0 -0.0027686182446180177 0.0015754517799774362 0 -0.0026839500494130904 0.0016210584057482643 0 -0.00298136605744424 0.0014892153006189079 0 -0.0027805924769859548 0.0015712377268014941 0 -0.0027632078230714306 0.0015770729899313872 0 -0.0027989056733445359 0.0015554433107766998 0 -0.0027632078230714306 0.0015770729899313872 0 -0.0027604909757520842 0.0015819850775623413 0 -0.0027598627254653077 0.0015910022547839298 0 -0.0027805924769859548 0.0015712377268014941 0 -0.0027632078230714306 0.0015770729899313872 0 -0.0027686182446180177 0.0015754517799774362 0 -0.0027632078230714306 0.0015770729899313872 0 -0.0027686182446180177 0.0015754517799774362 0 -0.0027636417146392179 0.0015770550264123445 0 -0.0027636417146392179 0.0015770550264123445 0 -0.0027604909757520842 0.0015819850775623413 0 -0.0027631322570346702 0.0015781046666094472 0 -0.0027632078230714306 0.0015770729899313872 0 -0.0027636417146392179 0.0015770550264123445 0 -0.0027604909757520842 0.0015819850775623413 0 -0.0027604909757520842 0.0015819850775623413 0 -0.0027631322570346702 0.0015781046666094472 0 -0.0027527031736449279 0.0015899607022111209 0 -0.0025607457340010662 0.0013781533941925718 0 -0.0025799028024539408 0.0013853572322737623 0 -0.002517122860317324 0.0014225471964810642 0 -0.0026316563831992276 0.0014668494231259151 0 -0.0026322901903593466 0.0015114712666539831 0 -0.0025803259100787997 0.0013711782559690257 0 -0.0025814136053338788 0.0013613677053731985 0 -0.0025686245819590363 0.0013559164108509149 0 -0.0025814136053338788 0.0013613677053731985 0 -0.0025686245819590363 0.0013559164108509149 0 -0.0025920973038587661 0.001347165540774412 0 -0.0027636417146392179 0.0015770550264123445 0 -0.0027631322570346702 0.0015781046666094472 0 -0.0027645550124318036 0.0015775914214332433 0 -0.0026316563831992276 0.0014668494231259151 0 -0.0026056104867737302 0.0013639232545408545 0 -0.0026316563831992276 0.0014668494231259151 0 -0.0027622672839197403 0.0014197610537842525 0 -0.0053786105040194935 -0.00044795585445589112 0 -0.0053858983493425515 -0.00042447317786976723 0 -0.0053806724890639946 -0.00038258516670146655 0 -0.004801883236311446 7.7379164553290325e-05 0 -0.0055876924542125599 -0.00040332776815219635 0 -0.0053596512510512466 -0.00042933620446933019 0 -0.0053786105040194935 -0.00044795585445589112 0 -0.0053806724890639946 -0.00038258516670146655 0 -0.0053596512510512466 -0.00042933620446933019 0 -0.0053806724890639946 -0.00038258516670146655 0 -0.0053397332194877875 -0.00030312716642790958 0 -0.005391151953378308 -0.00048915098203427371 0 -0.0053596512510512466 -0.00042933620446933019 0 -0.0053786105040194935 -0.00044795585445589112 0 -0.0053007973608984894 -0.00051048743009748975 0 -0.004801883236311446 7.7379164553290325e-05 0 -0.0051182240902234314 -0.00036036802131672211 0 -0.0051158720736044164 -0.00027770809532698528 0 -0.0050548231832031583 -0.00022931121473724841 0 -0.0053786105040194935 -0.00044795585445589112 0 -0.0053433118270404256 -0.00046985469726274946 0 -0.0053858983493425515 -0.00042447317786976723 0 -0.005360794309783823 -0.00045967232138300658 0 -0.0053786105040194935 -0.00044795585445589112 0 -0.0053433118270404256 -0.00046985469726274946 0 -0.0051182240902234314 -0.00036036802131672211 0 -0.0051410175284767002 -0.00032359508466135001 0 -0.0051158720736044164 -0.00027770809532698528 0 -0.0051657124575361655 -0.00035334706317116356 0 -0.005164145027976878 -0.00033543212366764105 0 -0.0051518943887000736 -0.00035009990666626673 0 -0.005164145027976878 -0.00033543212366764105 0 -0.0051518943887000736 -0.00035009990666626673 0 -0.0051410175284767002 -0.00032359508466135001 0 -0.0051518943887000736 -0.00035009990666626673 0 -0.0051182240902234314 -0.00036036802131672211 0 -0.0051410175284767002 -0.00032359508466135001 0 -0.0051410175284767002 -0.00032359508466135001 0 -0.0051540659343363663 -0.00028625226267801142 0 -0.0051158720736044164 -0.00027770809532698528 0 -0.0051849884479855668 -0.00026068953041405473 0 -0.005164145027976878 -0.00033543212366764105 0 -0.0051540659343363663 -0.00028625226267801142 0 -0.005164145027976878 -0.00033543212366764105 0 -0.0051410175284767002 -0.00032359508466135001 0 -0.0051540659343363663 -0.00028625226267801142 0 -0.0051849884479855668 -0.00026068953041405473 0 -0.0051158720736044164 -0.00027770809532698528 0 -0.0050548231832031583 -0.00022931121473724841 0 -0.0039890936012086375 0.00043398504008259833 0 -0.004801883236311446 7.7379164553290325e-05 0 -0.003475681361045954 0.00095114034305082587 0 -0.0034485256044583497 0.0010207323819817092 0 -0.0032944373664243408 0.00099440952451338056 0 -0.0051849884479855668 -0.00026068953041405473 0 -0.0051540659343363663 -0.00028625226267801142 0 -0.0051158720736044164 -0.00027770809532698528 0 -0.004801883236311446 7.7379164553290325e-05 0 -0.0043576519024483944 0.00056379054856156813 0 -0.0032944373664243408 0.00099440952451338056 0 -0.0033439053842686996 0.0011737966842922975 0 -0.0032308933137507752 0.0011852090116611722 0 -0.0032944373664243408 0.00099440952451338056 0 -0.0033996394272558335 0.0010862739218630837 0 -0.0033439053842686996 0.0011737966842922975 0 -0.0034485256044583497 0.0010207323819817092 0 -0.0032944373664243408 0.00099440952451338056 0 -0.0033996394272558335 0.0010862739218630837 0 -0.0034673838594419144 0.0010844841923093589 0 -0.0034485256044583497 0.0010207323819817092 0 -0.0033996394272558335 0.0010862739218630837 0 -0.0033996394272558335 0.0010862739218630837 0 -0.0034396562378348518 0.0011614639694064396 0 -0.0033439053842686996 0.0011737966842922975 0 -0.0034673838594419144 0.0010844841923093589 0 -0.0033996394272558335 0.0010862739218630837 0 -0.0034396562378348518 0.0011614639694064396 0 -0.0034396562378348518 0.0011614639694064396 0 -0.0033439053842686996 0.0011737966842922975 0 -0.0034022875140466702 0.0012627329579290715 0 -0.0033439053842686996 0.0011737966842922975 0 -0.0032308933137507752 0.0011852090116611722 0 -0.0032927677504566997 0.0013436425555611827 0 -0.0055728316425472726 -0.00017391413732783324 0 -0.00548642247527973 -0.00029946936152015627 0 -0.0054368342619515939 -0.00020909748486293452 0 -0.0056069202598556011 -0.00031901685209417081 0 -0.0055728316425472726 -0.00017391413732783324 0 -0.00548642247527973 -0.00029946936152015627 0 -0.00548642247527973 -0.00029946936152015627 0 -0.0054368342619515939 -0.00020909748486293452 0 -0.0053397332194877875 -0.00030312716642790958 0 -0.0055876924542125599 -0.00040332776815219635 0 -0.0052739967656131046 -0.00028607680690888066 0 -0.0055728316425472726 -0.00017391413732783324 0 -0.0054368342619515939 -0.00020909748486293452 0 -0.0054188937777155752 -8.3182224413102255e-05 0 -0.0054368342619515939 -0.00020909748486293452 0 -0.0053439725388817064 -0.00016628826601667421 0 -0.0054188937777155752 -8.3182224413102255e-05 0 -0.0054368342619515939 -0.00020909748486293452 0 -0.0053439725388817064 -0.00016628826601667421 0 -0.0053397332194877875 -0.00030312716642790958 0 -0.0053439725388817064 -0.00016628826601667421 0 -0.0052309688619609192 -0.00017413819720619905 0 -0.0052999191696067949 -6.2372303615496885e-05 0 -0.0053439725388817064 -0.00016628826601667421 0 -0.0052309688619609192 -0.00017413819720619905 0 -0.0053397332194877875 -0.00030312716642790958 0 -0.0052309688619609192 -0.00017413819720619905 0 -0.0053397332194877875 -0.00030312716642790958 0 -0.005224458746635588 -0.00034243334143469817 0 -0.0053596512510512466 -0.00042933620446933019 0 -0.0053397332194877875 -0.00030312716642790958 0 -0.0052961160089589222 -0.00038616575613782049 0 -0.0052961160089589222 -0.00038616575613782049 0 -0.0052332424705136662 -0.00047059603408579554 0 -0.005224458746635588 -0.00034243334143469817 0 -0.0053397332194877875 -0.00030312716642790958 0 -0.0052961160089589222 -0.00038616575613782049 0 -0.005224458746635588 -0.00034243334143469817 0 -0.0052961160089589222 -0.00038616575613782049 0 -0.0053030695373154765 -0.00046284503858613833 0 -0.0052332424705136662 -0.00047059603408579554 0 -0.0053596512510512466 -0.00042933620446933019 0 -0.0053030695373154765 -0.00046284503858613833 0 -0.005329207357201101 -0.00051418493864108608 0 -0.0053596512510512466 -0.00042933620446933019 0 -0.0052961160089589222 -0.00038616575613782049 0 -0.0053030695373154765 -0.00046284503858613833 0 -0.0052108096457304139 -0.00042823230921513908 0 -0.0052332424705136662 -0.00047059603408579554 0 -0.0052276813748407475 -0.00049227867970602396 0 -0.0052108096457304139 -0.00042823230921513908 0 -0.0052332424705136662 -0.00047059603408579554 0 -0.005224458746635588 -0.00034243334143469817 0 -0.0052108096457304139 -0.00042823230921513908 0 -0.005224458746635588 -0.00034243334143469817 0 -0.0051858282330711726 -0.00035986554589070505 0 -0.0052108096457304139 -0.00042823230921513908 0 -0.0051858282330711726 -0.00035986554589070505 0 -0.0052164768629381448 -0.00042144707596761239 0 -0.0051858282330711726 -0.00035986554589070505 0 -0.0051430723775365925 -0.0002251469776445253 0 -0.0050067923149767915 -0.00021851820926877634 0 -0.0051782462660024649 -0.00033594392526501094 0 -0.0051399356112768963 -0.00022394772482528649 0 -0.005224458746635588 -0.00034243334143469817 0 -0.0051858282330711726 -0.00035986554589070505 0 -0.0051430723775365925 -0.0002251469776445253 0 -0.0052309688619609192 -0.00017413819720619905 0 -0.005224458746635588 -0.00034243334143469817 0 -0.0051430723775365925 -0.0002251469776445253 0 -0.0052309688619609192 -0.00017413819720619905 0 -0.0051430723775365925 -0.0002251469776445253 0 -0.0051319398937492589 -0.00010475359137375239 0 -0.0051430723775365925 -0.0002251469776445253 0 -0.0051319398937492589 -0.00010475359137375239 0 -0.005027950027798646 -9.1843551674830555e-05 0 -0.0051430723775365925 -0.0002251469776445253 0 -0.0050067923149767915 -0.00021851820926877634 0 -0.005027950027798646 -9.1843551674830555e-05 0 -0.0050067923149767915 -0.00021851820926877634 0 -0.005027950027798646 -9.1843551674830555e-05 0 -0.0049288634822215807 -8.6682700047427058e-05 0 -0.0052769326544554167 -0.00025017722350353862 0 -0.0052272320202575995 -0.00018100010869729892 0 -0.0052789705464901934 -7.0846356833837075e-05 0 -0.0051399356112768963 -0.00022394772482528649 0 -0.0050933389032840771 -8.9640351634135508e-05 0 -0.0052272320202575995 -0.00018100010869729892 0 -0.005158232587257003 -0.00019675334700949674 0 -0.0051822517535851853 -4.6606259798766119e-05 0 -0.0052272320202575995 -0.00018100010869729892 0 -0.0052789705464901934 -7.0846356833837075e-05 0 -0.0051822517535851853 -4.6606259798766119e-05 0 -0.0052272320202575995 -0.00018100010869729892 0 -0.0052289340026219454 -0.00031472831121224967 0 -0.005158232587257003 -0.00019675334700949674 0 -0.0052289340026219454 -0.00031472831121224967 0 -0.005158232587257003 -0.00019675334700949674 0 -0.0051839747574590252 -0.00039841726351567361 0 -0.0052769326544554167 -0.00025017722350353862 0 -0.0052272320202575995 -0.00018100010869729892 0 -0.0052289340026219454 -0.00031472831121224967 0 -0.0051858282330711726 -0.00035986554589070505 0 -0.0052769326544554167 -0.00025017722350353862 0 -0.0052289340026219454 -0.00031472831121224967 0 -0.0049999611365385832 -0.000112492882398715 0 -0.005158232587257003 -0.00019675334700949674 0 -0.0050966393333243647 -2.6120526976787257e-05 0 -0.005158232587257003 -0.00019675334700949674 0 -0.0051822517535851853 -4.6606259798766119e-05 0 -0.0050966393333243647 -2.6120526976787257e-05 0 -0.005158232587257003 -0.00019675334700949674 0 -0.0051047745864469382 -0.00031916295060926525 0 -0.0051839747574590252 -0.00039841726351567361 0 -0.0049999611365385832 -0.000112492882398715 0 -0.005158232587257003 -0.00019675334700949674 0 -0.0051047745864469382 -0.00031916295060926525 0 -0.0049999611365385832 -0.000112492882398715 0 -0.0051047745864469382 -0.00031916295060926525 0 -0.004999962292945981 -0.00036390923793032381 0 -0.0051047745864469382 -0.00031916295060926525 0 -0.004999962292945981 -0.00036390923793032381 0 -0.0051209184363074124 -0.00051320495018949681 0 -0.0051047745864469382 -0.00031916295060926525 0 -0.0051209184363074124 -0.00051320495018949681 0 -0.0051839747574590252 -0.00039841726351567361 0 -0.0051209184363074124 -0.00051320495018949681 0 -0.0051839747574590252 -0.00039841726351567361 0 -0.0051947501869610653 -0.00049464573634541459 0 -0.004999962292945981 -0.00036390923793032381 0 -0.0051209184363074124 -0.00051320495018949681 0 -0.0049999560022099187 -0.00061525429720687399 0 -0.0051209184363074124 -0.00051320495018949681 0 -0.0049999560022099187 -0.00061525429720687399 0 -0.0050782805027398802 -0.00065662864262172062 0 -0.0051858282330711726 -0.00035986554589070505 0 -0.0052289340026219454 -0.00031472831121224967 0 -0.0052164768629381448 -0.00042144707596761239 0 -0.0052289340026219454 -0.00031472831121224967 0 -0.0051839747574590252 -0.00039841726351567361 0 -0.0052164768629381448 -0.00042144707596761239 0 -0.0051839747574590252 -0.00039841726351567361 0 -0.0051947501869610653 -0.00049464573634541459 0 -0.0052164768629381448 -0.00042144707596761239 0 -0.0052108096457304139 -0.00042823230921513908 0 -0.0052164768629381448 -0.00042144707596761239 0 -0.0052276813748407475 -0.00049227867970602396 0 -0.0051947501869610653 -0.00049464573634541459 0 -0.0052164768629381448 -0.00042144707596761239 0 -0.0052276813748407475 -0.00049227867970602396 0 -0.0051757561003710397 -0.0006172059809676075 0 -0.0051736267838251148 -0.00068582661111441217 0 -0.0052117387346998327 -0.00057373511010068196 0 -0.0051757561003710397 -0.0006172059809676075 0 -0.0051336936401127258 -0.00073589110601687683 0 -0.0051736267838251148 -0.00068582661111441217 0 -0.0051947501869610653 -0.00049464573634541459 0 -0.0052276813748407475 -0.00049227867970602396 0 -0.0051759774975030353 -0.00064775851147508626 0 -0.0052036915697242728 -0.00055639252578173635 0 -0.0051240933194247025 -0.00070448188517486501 0 -0.0051757561003710397 -0.0006172059809676075 0 -0.0051336936401127258 -0.00073589110601687683 0 -0.0050811218848653217 -0.00075946554551949055 0 -0.0051336936401127258 -0.00073589110601687683 0 -0.0051051211135779324 -0.00081864203589798799 0 -0.0050811218848653217 -0.00075946554551949055 0 -0.0051336936401127258 -0.00073589110601687683 0 -0.0051051211135779324 -0.00081864203589798799 0 -0.0051605679065541638 -0.00079306679015792047 0 -0.0051605679065541638 -0.00079306679015792047 0 -0.0051736267838251148 -0.00068582661111441217 0 -0.0052262696922231447 -0.00077575041711958818 0 -0.0051336936401127258 -0.00073589110601687683 0 -0.0051605679065541638 -0.00079306679015792047 0 -0.0051736267838251148 -0.00068582661111441217 0 -0.0049999560022099187 -0.00061525429720687399 0 -0.0050782805027398802 -0.00065662864262172062 0 -0.0049999914529354327 -0.000866620762211589 0 -0.0050782805027398802 -0.00065662864262172062 0 -0.0051759774975030353 -0.00064775851147508626 0 -0.0049999914529354327 -0.000866620762211589 0 -0.0051209184363074124 -0.00051320495018949681 0 -0.0051947501869610653 -0.00049464573634541459 0 -0.0051759774975030353 -0.00064775851147508626 0 -0.0051209184363074124 -0.00051320495018949681 0 -0.0050782805027398802 -0.00065662864262172062 0 -0.0051759774975030353 -0.00064775851147508626 0 -0.0051051211135779324 -0.00081864203589798799 0 -0.0050811218848653217 -0.00075946554551949055 0 -0.0050567199369986457 -0.0008746088197469934 0 -0.0050811218848653217 -0.00075946554551949055 0 -0.0049999551807088831 -0.00086697014916357255 0 -0.0050567199369986457 -0.0008746088197469934 0 -0.0049999551807088831 -0.00086697014916357255 0 -0.0049999952832491734 -0.00099029615309121992 0 -0.0050567199369986457 -0.0008746088197469934 0 -0.0051240933194247025 -0.00070448188517486501 0 -0.0050000051205208685 -0.00086670995956873731 0 -0.0050000160952683882 -0.00099065542492680339 0 -0.0050970765131525307 -0.0010068445900518475 0 -0.0049999952832491734 -0.00099029615309121992 0 -0.005049932399820792 -0.00091639970546950294 0 -0.0050567199369986457 -0.0008746088197469934 0 -0.0049999975678652149 -0.00099068432937267944 0 -0.0051549519037469441 -0.001092406548912587 0 -0.0049999997070890373 -0.0011726721179793659 0 -0.0051051211135779324 -0.00081864203589798799 0 -0.0050567199369986457 -0.0008746088197469934 0 -0.0050861478323697331 -0.0008827002082103533 0 -0.005049932399820792 -0.00091639970546950294 0 -0.0050567199369986457 -0.0008746088197469934 0 -0.0050861478323697331 -0.0008827002082103533 0 -0.0052124833305523671 -0.0013116869710598227 0 -0.0051529062765891601 -0.001195158081395135 0 -0.0053009065689106419 -0.0012126028879136774 0 -0.0051709804362870702 -0.0011844491077599661 0 -0.0051875180054770063 -0.0010634830210320011 0 -0.005049932399820792 -0.00091639970546950294 0 -0.0050861478323697331 -0.0008827002082103533 0 -0.0050954927984936836 -0.00092713210169172221 0 -0.0050970765131525307 -0.0010068445900518475 0 -0.0051875180054770063 -0.0010634830210320011 0 -0.0051549519037469441 -0.001092406548912587 0 -0.0051542978075111139 -0.0011780361683243364 0 -0.0053009511991956026 -0.001186153067998982 0 -0.0051709804362870702 -0.0011844491077599661 0 -0.0050000300476114824 -0.0011726900679768402 0 -0.0050978981797530571 -0.0012973163942207205 0 -0.0051529062765891601 -0.001195158081395135 0 -0.0049999979007470047 -0.0011727075907205908 0 -0.0051549519037469441 -0.001092406548912587 0 -0.0051542978075111139 -0.0011780361683243364 0 -0.0049999997070890373 -0.0011726721179793659 0 -0.0051605679065541638 -0.00079306679015792047 0 -0.0052044712923579985 -0.0008286009706476086 0 -0.0051434263005470729 -0.00087886038000691848 0 -0.0052044712923579985 -0.0008286009706476086 0 -0.0051434263005470729 -0.00087886038000691848 0 -0.0051906997161618547 -0.00087834623226443198 0 -0.0052044712923579985 -0.0008286009706476086 0 -0.0051906997161618547 -0.00087834623226443198 0 -0.0052415904923314065 -0.00086943930262738936 0 -0.0051605679065541638 -0.00079306679015792047 0 -0.0052044712923579985 -0.0008286009706476086 0 -0.0052262696922231447 -0.00077575041711958818 0 -0.0051051211135779324 -0.00081864203589798799 0 -0.0051605679065541638 -0.00079306679015792047 0 -0.0051434263005470729 -0.00087886038000691848 0 -0.0051051211135779324 -0.00081864203589798799 0 -0.0050861478323697331 -0.0008827002082103533 0 -0.0051434263005470729 -0.00087886038000691848 0 -0.0051875180054770063 -0.0010634830210320011 0 -0.0051682866060763248 -0.00092230067224693566 0 -0.0050861478323697331 -0.0008827002082103533 0 -0.0051434263005470729 -0.00087886038000691848 0 -0.0050954927984936836 -0.00092713210169172221 0 -0.0051434263005470729 -0.00087886038000691848 0 -0.0050954927984936836 -0.00092713210169172221 0 -0.0051864451137872804 -0.00092800903645213172 0 -0.0051799493039035669 -0.00099912960072994134 0 -0.0050860529736065502 -0.00093814790067469603 0 -0.0051891200277388323 -0.00094196367540612619 0 -0.0051434263005470729 -0.00087886038000691848 0 -0.0051906997161618547 -0.00087834623226443198 0 -0.0051864451137872804 -0.00092800903645213172 0 -0.0051906997161618547 -0.00087834623226443198 0 -0.0051864451137872804 -0.00092800903645213172 0 -0.0052415904923314065 -0.00086943930262738936 0 -0.0051864451137872804 -0.00092800903645213172 0 -0.0052415904923314065 -0.00086943930262738936 0 -0.0053079738316868614 -0.00093699719994759392 0 -0.0051682866060763248 -0.00092230067224693566 0 -0.0053092282855487661 -0.00094031655833755692 0 -0.0052415904923314065 -0.00086943930262738936 0 -0.0053039020648090636 -0.0008380973327435031 0 -0.0053079738316868614 -0.00093699719994759392 0 -0.0052528668506707805 -0.00099087071823634673 0 -0.0051891200277388323 -0.00094196367540612619 0 -0.0053079738316868614 -0.00093699719994759392 0 -0.0052044712923579985 -0.0008286009706476086 0 -0.0052415904923314065 -0.00086943930262738936 0 -0.0052603152253594106 -0.00081281286601943867 0 -0.0052603152253594106 -0.00081281286601943867 0 -0.0053039020648090636 -0.0008380973327435031 0 -0.005316646480907088 -0.00077383035567877927 0 -0.0052415904923314065 -0.00086943930262738936 0 -0.0052603152253594106 -0.00081281286601943867 0 -0.0053039020648090636 -0.0008380973327435031 0 -0.0052044712923579985 -0.0008286009706476086 0 -0.0052603152253594106 -0.00081281286601943867 0 -0.0052262696922231447 -0.00077575041711958818 0 -0.0053039020648090636 -0.0008380973327435031 0 -0.0053475095739085998 -0.00084621009423243828 0 -0.005316646480907088 -0.00077383035567877927 0 -0.0053682551540721038 -0.0010011183214258964 0 -0.0053039020648090636 -0.0008380973327435031 0 -0.0053079738316868614 -0.00093699719994759392 0 -0.005319364860608986 -0.00089485011637040516 0 -0.0053149581758674793 -0.00086661415968335511 0 -0.0053147856310529259 -0.00089198558132167372 0 -0.0053039020648090636 -0.0008380973327435031 0 -0.0053475095739085998 -0.00084621009423243828 0 -0.0053862341412531448 -0.00088186769261378961 0 -0.0053486198555778956 -0.00088106143897485119 0 -0.0053475095739085998 -0.00084621009423243828 0 -0.0053862341412531448 -0.00088186769261378961 0 -0.0053475095739085998 -0.00084621009423243828 0 -0.0054009757144473786 -0.00083021443312868138 0 -0.0054482486116133929 -0.00079025903817337567 0 -0.0054009757144473786 -0.00083021443312868138 0 -0.0053752806607898244 -0.0007933133163299526 0 -0.0053475095739085998 -0.00084621009423243828 0 -0.0054009757144473786 -0.00083021443312868138 0 -0.0053752806607898244 -0.0007933133163299526 0 -0.0053475095739085998 -0.00084621009423243828 0 -0.0053752806607898244 -0.0007933133163299526 0 -0.005316646480907088 -0.00077383035567877927 0 -0.0052940509849064392 -0.00059652487928139571 0 -0.0052680867802347995 -0.00053232465002931654 0 -0.0052284050327977231 -0.00058549816722283329 0 -0.0053362169761047634 -0.00069561285711480195 0 -0.0052666873171284918 -0.00068106456323089204 0 -0.0052940509849064392 -0.00059652487928139571 0 -0.005329207357201101 -0.00051418493864108608 0 -0.0052680867802347995 -0.00053232465002931654 0 -0.0053911772378194885 -0.00066109514565642138 0 -0.0052940509849064392 -0.00059652487928139571 0 -0.005329207357201101 -0.00051418493864108608 0 -0.0053030695373154765 -0.00046284503858613833 0 -0.005329207357201101 -0.00051418493864108608 0 -0.0052680867802347995 -0.00053232465002931654 0 -0.0053030695373154765 -0.00046284503858613833 0 -0.0052332424705136662 -0.00047059603408579554 0 -0.0052680867802347995 -0.00053232465002931654 0 -0.0052332424705136662 -0.00047059603408579554 0 -0.0052680867802347995 -0.00053232465002931654 0 -0.0052117387346998327 -0.00057373511010068196 0 -0.0052680867802347995 -0.00053232465002931654 0 -0.0052117387346998327 -0.00057373511010068196 0 -0.0052284050327977231 -0.00058549816722283329 0 -0.0052393031833493217 -0.00047842696653921683 0 -0.0052036915697242728 -0.00055639252578173635 0 -0.0052332424705136662 -0.00047059603408579554 0 -0.0051757561003710397 -0.0006172059809676075 0 -0.0052117387346998327 -0.00057373511010068196 0 -0.0051721279554314218 -0.00067933758982323259 0 -0.0052666873171284918 -0.00068106456323089204 0 -0.0051736267838251148 -0.00068582661111441217 0 -0.0052117387346998327 -0.00057373511010068196 0 -0.0052284050327977231 -0.00058549816722283329 0 -0.0052603152253594106 -0.00081281286601943867 0 -0.0052262696922231447 -0.00077575041711958818 0 -0.005316646480907088 -0.00077383035567877927 0 -0.0051736267838251148 -0.00068582661111441217 0 -0.0052262696922231447 -0.00077575041711958818 0 -0.005316646480907088 -0.00077383035567877927 0 -0.001340073867979318 -0.0012662730812686511 0 -0.0014274183774688868 -0.0011364074603178633 0 -0.0013054790452764389 -0.0011528450852246414 0 -0.001340073867979318 -0.0012662730812686511 0 -0.001282237109398473 -0.0013716649346133837 0 -0.0013907388345014802 -0.0013926531050692359 0 -0.0014535519993072138 -0.0012881122560119598 0 -0.001340073867979318 -0.0012662730812686511 0 -0.0013907388345014802 -0.0013926531050692359 0 -0.0014535519993072138 -0.0012881122560119598 0 -0.0013907388345014802 -0.0013926531050692359 0 -0.0015638428161491699 -0.0013996965185903607 0 -0.0014535519993072138 -0.0012881122560119598 0 -0.001340073867979318 -0.0012662730812686511 0 -0.0014274183774688868 -0.0011364074603178633 0 -0.001340073867979318 -0.0012662730812686511 0 -0.0012123754878401649 -0.001283842056883933 0 -0.001282237109398473 -0.0013716649346133837 0 -0.001340073867979318 -0.0012662730812686511 0 -0.0012123754878401649 -0.001283842056883933 0 -0.0013054790452764389 -0.0011528450852246414 0 -0.001282237109398473 -0.0013716649346133837 0 -0.0013234811770490987 -0.0014248749733789801 0 -0.0012716148023753952 -0.0014520290262723375 0 -0.0012123754878401649 -0.001283842056883933 0 -0.001282237109398473 -0.0013716649346133837 0 -0.0011904440990630476 -0.0014415315046055065 0 -0.001282237109398473 -0.0013716649346133837 0 -0.0011904440990630476 -0.0014415315046055065 0 -0.0012716148023753952 -0.0014520290262723375 0 -0.0012389117529296415 -0.0015212623733280915 0 -0.0011904440990630476 -0.0014415315046055065 0 -0.0012716148023753952 -0.0014520290262723375 0 -0.0012389117529296415 -0.0015212623733280915 0 -0.0011904440990630476 -0.0014415315046055065 0 -0.001162523704476664 -0.0015669595390832328 0 -0.0012389117529296415 -0.0015212623733280915 0 -0.0012716148023753952 -0.0014520290262723375 0 -0.0013419771784325791 -0.0014861396912510968 0 -0.0013234811770490987 -0.0014248749733789801 0 -0.0012716148023753952 -0.0014520290262723375 0 -0.0013419771784325791 -0.0014861396912510968 0 -0.0012799538354616639 -0.0015678051921907414 0 -0.0013277917791539424 -0.001610552758640614 0 -0.0014352852789222489 -0.0015228237000839758 0 -0.0012799538354616639 -0.0015678051921907414 0 -0.0013907388345014802 -0.0013926531050692359 0 -0.0014352852789222489 -0.0015228237000839758 0 -0.0013234811770490987 -0.0014248749733789801 0 -0.0013419771784325791 -0.0014861396912510968 0 -0.0013907388345014802 -0.0013926531050692359 0 -0.001282237109398473 -0.0013716649346133837 0 -0.0013234811770490987 -0.0014248749733789801 0 -0.0013907388345014802 -0.0013926531050692359 0 -0.0013136488359571216 -0.0015259136158919532 0 -0.0013875095032433965 -0.0014019474862346391 0 -0.0013907388345014802 -0.0013926531050692359 0 -0.0014352852789222489 -0.0015228237000839758 0 -0.0015638428161491699 -0.0013996965185903607 0 -0.0013277917791539424 -0.001610552758640614 0 -0.0014352852789222489 -0.0015228237000839758 0 -0.0014724293377267937 -0.0016258435340362574 0 -0.0014352852789222489 -0.0015228237000839758 0 -0.0015687957332413448 -0.0015466087124150689 0 -0.0015638428161491699 -0.0013996965185903607 0 -0.0014352852789222489 -0.0015228237000839758 0 -0.0015687957332413448 -0.0015466087124150689 0 -0.0014724293377267937 -0.0016258435340362574 0 -0.0015687957332413448 -0.0015466087124150689 0 -0.0016600332552227706 -0.0014924002835620431 0 -0.0015638428161491699 -0.0013996965185903607 0 -0.0015687957332413448 -0.0015466087124150689 0 -0.0016600332552227706 -0.0014924002835620431 0 -0.0017010560704023507 -0.0015935878257043311 0 -0.0016600332552227706 -0.0014924002835620431 0 -0.0015638428161491699 -0.0013996965185903607 0 -0.0017090797279619725 -0.0014272637972676393 0 -0.0015638428161491699 -0.0013996965185903607 0 -0.0017090797279619725 -0.0014272637972676393 0 -0.001695996573356093 -0.0013425250305676565 0 -0.0017978813525173789 -0.0015061544255162943 0 -0.0018018407793230014 -0.001437340249794824 0 -0.0018389463192039993 -0.0015257958702582252 0 -0.0017978813525173789 -0.0015061544255162943 0 -0.0017915098585163571 -0.0015591321166288747 0 -0.0018389463192039993 -0.0015257958702582252 0 -0.0017915098585163571 -0.0015591321166288747 0 -0.0018407555170206469 -0.0015776128701934483 0 -0.0018389463192039993 -0.0015257958702582252 0 -0.0017978813525173789 -0.0015061544255162943 0 -0.0017915098585163571 -0.0015591321166288747 0 -0.0017475619800072109 -0.0014990507735329786 0 -0.0017978813525173789 -0.0015061544255162943 0 -0.0017475619800072109 -0.0014990507735329786 0 -0.0018018407793230014 -0.001437340249794824 0 -0.0017915098585163571 -0.0015591321166288747 0 -0.0017475619800072109 -0.0014990507735329786 0 -0.0017010560704023507 -0.0015935878257043311 0 -0.0016600332552227706 -0.0014924002835620431 0 -0.0017475619800072109 -0.0014990507735329786 0 -0.0017010560704023507 -0.0015935878257043311 0 -0.0017090797279619725 -0.0014272637972676393 0 -0.0018018407793230014 -0.001437340249794824 0 -0.001695996573356093 -0.0013425250305676565 0 -0.0016600332552227706 -0.0014924002835620431 0 -0.0017475619800072109 -0.0014990507735329786 0 -0.0017090797279619725 -0.0014272637972676393 0 -0.0017240963429577306 -0.0012718591600242978 0 -0.001528379654885337 -0.0012051638692105453 0 -0.0014019285599330409 -0.001092835779635988 0 -0.0014001675006181278 -0.0010813485629188485 0 -0.0014060186396100563 -0.0010918944718153905 0 -0.0017475619800072109 -0.0014990507735329786 0 -0.0017090797279619725 -0.0014272637972676393 0 -0.0018018407793230014 -0.001437340249794824 0 -0.0014019285599330409 -0.001092835779635988 0 -0.0014001675006181278 -0.0010813485629188485 0 -0.0014047956943330226 -0.0010826963204388527 0 -0.0014005952364667285 -0.0010935171463038035 0 -0.0014169793870513704 -0.00104364577379793 0 -0.0014001675006181278 -0.0010813485629188485 0 -0.0014047956943330226 -0.0010826963204388527 0 -0.0014070770083942242 -0.0010865220768766497 0 -0.0014001675006181278 -0.0010813485629188485 0 -0.0014070770083942242 -0.0010865220768766497 0 -0.001402121380881185 -0.0010784378246116156 0 -0.0014001675006181278 -0.0010813485629188485 0 -0.001402121380881185 -0.0010784378246116156 0 -0.0013921908935709164 -0.0010764323910024732 0 -0.0014535519993072138 -0.0012881122560119598 0 -0.0015638428161491699 -0.0013996965185903607 0 -0.0015784566491730209 -0.001240779905000733 0 -0.0015638428161491699 -0.0013996965185903607 0 -0.001695996573356093 -0.0013425250305676565 0 -0.0015784566491730209 -0.001240779905000733 0 -0.001528379654885337 -0.0012051638692105453 0 -0.0014984866544528077 -0.0011696418412370094 0 -0.0014070770083942242 -0.0010865220768766497 0 -0.0014163041926777027 -0.0010918835944880075 0 -0.0014151066341378323 -0.0010979752079603162 0 -0.0014047956943330226 -0.0010826963204388527 0 -0.0014070770083942242 -0.0010865220768766497 0 -0.0014163041926777027 -0.0010918835944880075 0 -0.0014984866544528077 -0.0011696418412370094 0 -0.0014309725183972346 -0.0011341570763778047 0 -0.0014535519993072138 -0.0012881122560119598 0 -0.0015784566491730209 -0.001240779905000733 0 -0.0014274183774688868 -0.0011364074603178633 0 -0.0014163041926777027 -0.0010918835944880075 0 -0.0014151066341378323 -0.0010979752079603162 0 -0.0014274183774688868 -0.0011364074603178633 0 -0.0014151066341378323 -0.0010979752079603162 0 -0.0014109763288737871 -0.0010693618498251558 0 -0.0014274183774688868 -0.0011364074603178633 0 -0.0014151066341378323 -0.0010979752079603162 0 -0.0014125634559520837 -0.0010785856790217581 0 -0.0014109763288737871 -0.0010693618498251558 0 -0.0014070770083942242 -0.0010865220768766497 0 -0.001402121380881185 -0.0010784378246116156 0 -0.0014125634559520837 -0.0010785856790217581 0 -0.0014070770083942242 -0.0010865220768766497 0 -0.0014151066341378323 -0.0010979752079603162 0 -0.0014125634559520837 -0.0010785856790217581 0 -0.0014125634559520837 -0.0010785856790217581 0 -0.0014145555532833654 -0.0010657110676213042 0 -0.0013997124508470752 -0.0010662793491865979 0 -0.001402121380881185 -0.0010784378246116156 0 -0.0014125634559520837 -0.0010785856790217581 0 -0.0013997124508470752 -0.0010662793491865979 0 -0.0014145555532833654 -0.0010657110676213042 0 -0.0014242096241905593 -0.0010591144247081466 0 -0.0013997124508470752 -0.0010662793491865979 0 -0.0014145555532833654 -0.0010657110676213042 0 -0.001412497517597884 -0.001055771606804972 0 -0.0014242096241905593 -0.0010591144247081466 0 -0.0014125634559520837 -0.0010785856790217581 0 -0.0014145555532833654 -0.0010657110676213042 0 -0.001412497517597884 -0.001055771606804972 0 -0.001412497517597884 -0.001055771606804972 0 -0.0014030840311892489 -0.001031814114460099 0 -0.0014124497255447741 -0.0010179132736558784 0 -0.001412497517597884 -0.001055771606804972 0 -0.0014242096241905593 -0.0010591144247081466 0 -0.0014124497255447741 -0.0010179132736558784 0 -0.001412497517597884 -0.001055771606804972 0 -0.0014109763288737871 -0.0010693618498251558 0 -0.0014030840311892489 -0.001031814114460099 0 -0.0014125634559520837 -0.0010785856790217581 0 -0.001412497517597884 -0.001055771606804972 0 -0.0014109763288737871 -0.0010693618498251558 0 -0.0014109763288737871 -0.0010693618498251558 0 -0.0014030840311892489 -0.001031814114460099 0 -0.0013800819924167079 -0.0010059581952566203 0 -0.0013692994417911833 -0.0010682595776134267 0 -0.001323131783961757 -0.0010116963793269918 0 -0.0013800819924167079 -0.0010059581952566203 0 -0.0014109763288737871 -0.0010693618498251558 0 -0.0013692994417911833 -0.0010682595776134267 0 -0.0013800819924167079 -0.0010059581952566203 0 -0.001709608286758636 0.00019296901634382847 0 -0.0016305485713813269 0.00015412690976123787 0 -0.0020980713900139 0.0014004464802724519 0 -0.0020449230128313334 0.0012683551994987514 0 -0.0018854550843557083 0.0013159596649868772 0 -0.0014109763288737871 -0.0010693618498251558 0 -0.0013692994417911833 -0.0010682595776134267 0 -0.0014274183774688868 -0.0011364074603178633 0 -0.0013692994417911833 -0.0010682595776134267 0 -0.0014274183774688868 -0.0011364074603178633 0 -0.0013054790452764389 -0.0011528450852246414 0 -0.0012123754878401649 -0.001283842056883933 0 -0.0013054790452764389 -0.0011528450852246414 0 -0.0012050487353534554 -0.0011470395285752644 0 -0.0013692994417911833 -0.0010682595776134267 0 -0.0013054790452764389 -0.0011528450852246414 0 -0.0012902369349434108 -0.0010769769425672145 0 -0.0012902369349434108 -0.0010769769425672145 0 -0.0012180392922853092 -0.0010425002639040566 0 -0.0012050487353534554 -0.0011470395285752644 0 -0.0013054790452764389 -0.0011528450852246414 0 -0.0012902369349434108 -0.0010769769425672145 0 -0.0012050487353534554 -0.0011470395285752644 0 -0.0023243727375848421 0.0014598773100690345 0 -0.0020980713900139 0.0014004464802724519 0 -0.0023009083396098623 0.0013530917249880701 0 -0.0012902369349434108 -0.0010769769425672145 0 -0.0012180392922853092 -0.0010425002639040566 0 -0.001323131783961757 -0.0010116963793269918 0 -0.0017639047498561502 0.00020275533686838545 0 -0.001709608286758636 0.00019296901634382847 0 -0.0013692994417911833 -0.0010682595776134267 0 -0.0012902369349434108 -0.0010769769425672145 0 -0.001323131783961757 -0.0010116963793269918 0 -0.0020980713900139 0.0014004464802724519 0 -0.0023009083396098623 0.0013530917249880701 0 -0.0021915239939105792 0.0012596972785099067 0 -0.0023009083396098623 0.0013530917249880701 0 -0.0023953845068934525 0.0013056313150880384 0 -0.0024577025231628134 0.0013989994317159303 0 -0.0023243727375848421 0.0014598773100690345 0 -0.0023009083396098623 0.0013530917249880701 0 -0.0024577025231628134 0.0013989994317159303 0 -0.0023243727375848421 0.0014598773100690345 0 -0.0024577025231628134 0.0013989994317159303 0 -0.0025147733398997174 0.0014611368940716254 0 -0.0024577025231628134 0.0013989994317159303 0 -0.0026071532337842485 0.0014122875459734918 0 -0.0025147733398997174 0.0014611368940716254 0 -0.0024577025231628134 0.0013989994317159303 0 -0.0025618870501993578 0.0013582693711112531 0 -0.0024992865385626488 0.0013013916201581733 0 -0.0023953845068934525 0.0013056313150880384 0 -0.0024577025231628134 0.0013989994317159303 0 -0.0024992865385626488 0.0013013916201581733 0 -0.0025618870501993578 0.0013582693711112531 0 -0.0026352261159702014 0.0013705041314068785 0 -0.0026563085615916508 0.0013361008434996688 0 -0.0026352261159702014 0.0013705041314068785 0 -0.0027057259735598564 0.0013694972830453102 0 -0.0026563085615916508 0.0013361008434996688 0 -0.0026352261159702014 0.0013705041314068785 0 -0.0027057259735598564 0.0013694972830453102 0 -0.0026707565036193301 0.0013795104878170958 0 -0.0026071532337842485 0.0014122875459734918 0 -0.0026497698581547111 0.0013906048633633007 0 -0.0026707565036193301 0.0013795104878170958 0 -0.0026352261159702014 0.0013705041314068785 0 -0.0026071532337842485 0.0014122875459734918 0 -0.0026707565036193301 0.0013795104878170958 0 -0.0024577025231628134 0.0013989994317159303 0 -0.0025618870501993578 0.0013582693711112531 0 -0.0026071532337842485 0.0014122875459734918 0 -0.0025618870501993578 0.0013582693711112531 0 -0.0026352261159702014 0.0013705041314068785 0 -0.0026071532337842485 0.0014122875459734918 0 -0.0026071532337842485 0.0014122875459734918 0 -0.0026293618142235959 0.0014066946139302445 0 -0.0025147733398997174 0.0014611368940716254 0 -0.0026071532337842485 0.0014122875459734918 0 -0.0026293618142235959 0.0014066946139302445 0 -0.0026438560515564596 0.0013927039537458459 0 -0.0026071532337842485 0.0014122875459734918 0 -0.0026497698581547111 0.0013906048633633007 0 -0.0026438560515564596 0.0013927039537458459 0 -0.00099876683727699697 -0.0011633961990402872 0 -0.0011024466794860085 -0.0011008573599142304 0 -0.0010852667517335293 -0.0012440402828399265 0 -0.0017284486053588328 7.0003220243729979e-05 0 -0.0018241170223304297 0.00018857786678202476 0 -0.0012050487353534554 -0.0011470395285752644 0 -0.0011024466794860085 -0.0011008573599142304 0 -0.0010852667517335293 -0.0012440402828399265 0 -0.0012180392922853092 -0.0010425002639040566 0 -0.0012050487353534554 -0.0011470395285752644 0 -0.0011024466794860085 -0.0011008573599142304 0 -0.0017639047498561502 0.00020275533686838545 0 -0.0018241170223304297 0.00018857786678202476 0 -0.0025814136053338788 0.0013613677053731985 0 -0.0026080806377429553 0.0013602277656091148 0 -0.0025920973038587661 0.001347165540774412 0 -0.0026080806377429553 0.0013602277656091148 0 -0.00261950536473648 0.0013504646527812451 0 -0.0025920973038587661 0.001347165540774412 0 -0.0026080806377429553 0.0013602277656091148 0 -0.0025961994423995076 0.0013700363905628508 0 -0.0026201298781078218 0.0013775517347954904 0 -0.0025814136053338788 0.0013613677053731985 0 -0.0026080806377429553 0.0013602277656091148 0 -0.0025961994423995076 0.0013700363905628508 0 -0.0025814136053338788 0.0013613677053731985 0 -0.0025961994423995076 0.0013700363905628508 0 -0.0025799028024539408 0.0013853572322737623 0 -0.0025607457340010662 0.0013781533941925718 0 -0.0025814136053338788 0.0013613677053731985 0 -0.0025799028024539408 0.0013853572322737623 0 -0.0025799028024539408 0.0013853572322737623 0 -0.002517122860317324 0.0014225471964810642 0 -0.0025899944205083156 0.0014256265072546343 0 -0.0025799028024539408 0.0013853572322737623 0 -0.0026201298781078218 0.0013775517347954904 0 -0.0025899944205083156 0.0014256265072546343 0 -0.0025961994423995076 0.0013700363905628508 0 -0.0025799028024539408 0.0013853572322737623 0 -0.0026201298781078218 0.0013775517347954904 0 -0.0026201298781078218 0.0013775517347954904 0 -0.0026621635997640292 0.0013754177464394826 0 -0.0026575121145888374 0.0014199565295858474 0 -0.0026201298781078218 0.0013775517347954904 0 -0.0025899944205083156 0.0014256265072546343 0 -0.0026575121145888374 0.0014199565295858474 0 -0.0026201298781078218 0.0013775517347954904 0 -0.0026621635997640292 0.0013754177464394826 0 -0.002638264545465121 0.0013633704548585061 0 -0.0026621635997640292 0.0013754177464394826 0 -0.002638264545465121 0.0013633704548585061 0 -0.0026657226117988066 0.0013671774574173581 0 -0.0026080806377429553 0.0013602277656091148 0 -0.0026201298781078218 0.0013775517347954904 0 -0.002638264545465121 0.0013633704548585061 0 -0.0026080806377429553 0.0013602277656091148 0 -0.002638264545465121 0.0013633704548585061 0 -0.00261950536473648 0.0013504646527812451 0 -0.002638264545465121 0.0013633704548585061 0 -0.0026657226117988066 0.0013671774574173581 0 -0.0026468434046665172 0.0013582469171993493 0 -0.002638264545465121 0.0013633704548585061 0 -0.0026468434046665172 0.0013582469171993493 0 -0.00261950536473648 0.0013504646527812451 0 -0.0026657226117988066 0.0013671774574173581 0 -0.0026650707922282915 0.0013753344150393006 0 -0.0026468434046665172 0.0013582469171993493 0 -0.0026657226117988066 0.0013671774574173581 0 -0.0026850531874698844 0.0013726449294842711 0 -0.0026650707922282915 0.0013753344150393006 0 -0.0026621635997640292 0.0013754177464394826 0 -0.0027049103184898487 0.0013760535363786027 0 -0.0026575121145888374 0.0014199565295858474 0 -0.0026621635997640292 0.0013754177464394826 0 -0.0026657226117988066 0.0013671774574173581 0 -0.0027049103184898487 0.0013760535363786027 0 -0.0026657226117988066 0.0013671774574173581 0 -0.0027049103184898487 0.0013760535363786027 0 -0.0026850531874698844 0.0013726449294842711 0 -0.0027049103184898487 0.0013760535363786027 0 -0.0027057259735598564 0.0013694972830453102 0 -0.0027706608608411543 0.0013664217895723938 0 -0.0027049103184898487 0.0013760535363786027 0 -0.0027057259735598564 0.0013694972830453102 0 -0.0026850531874698844 0.0013726449294842711 0 -0.0027057259735598564 0.0013694972830453102 0 -0.0026707565036193301 0.0013795104878170958 0 -0.0026850531874698844 0.0013726449294842711 0 -0.0026707565036193301 0.0013795104878170958 0 -0.0026850531874698844 0.0013726449294842711 0 -0.0026650707922282915 0.0013753344150393006 0 -0.0026497698581547111 0.0013906048633633007 0 -0.0026707565036193301 0.0013795104878170958 0 -0.0026650707922282915 0.0013753344150393006 0 -0.0026650707922282915 0.0013753344150393006 0 -0.0026438560515564596 0.0013927039537458459 0 -0.0026522944293812284 0.0013646875538144048 0 -0.0026497698581547111 0.0013906048633633007 0 -0.0026650707922282915 0.0013753344150393006 0 -0.0026438560515564596 0.0013927039537458459 0 -0.0017284486053588328 7.0003220243729979e-05 0 -0.0020592985566219978 0.00031071769366425761 0 -0.0026293618142235959 0.0014066946139302445 0 -0.0026438560515564596 0.0013927039537458459 0 -0.0026146915447810407 0.0013580274109054756 0 -0.0029116461232536325 0.0018140683600149623 0 -0.0020592985566219978 0.00031071769366425761 0 -0.0026438560515564596 0.0013927039537458459 0 -0.0026522944293812284 0.0013646875538144048 0 -0.0026552545694020135 0.0013135107028550202 0 -0.0026460925467780365 0.0013550210531004584 0 -0.0026343748515982937 0.0013163685743294272 0 -0.0026552545694020135 0.0013135107028550202 0 -0.0026522944293812284 0.0013646875538144048 0 -0.0026460925467780365 0.0013550210531004584 0 -0.0026552545694020135 0.0013135107028550202 0 -0.0026650707922282915 0.0013753344150393006 0 -0.0026460925467780365 0.0013550210531004584 0 -0.0026468434046665172 0.0013582469171993493 0 -0.0026650707922282915 0.0013753344150393006 0 -0.0026522944293812284 0.0013646875538144048 0 -0.0026460925467780365 0.0013550210531004584 0 -0.0026468434046665172 0.0013582469171993493 0 -0.00261950536473648 0.0013504646527812451 0 -0.0026287146839528404 0.0013400472636344032 0 -0.00261950536473648 0.0013504646527812451 0 -0.0026287146839528404 0.0013400472636344032 0 -0.0026060397957527784 0.0013307157102400722 0 -0.0026460925467780365 0.0013550210531004584 0 -0.0026468434046665172 0.0013582469171993493 0 -0.0026287146839528404 0.0013400472636344032 0 -0.0026460925467780365 0.0013550210531004584 0 -0.0026287146839528404 0.0013400472636344032 0 -0.0026343748515982937 0.0013163685743294272 0 -0.0026287146839528404 0.0013400472636344032 0 -0.0026177029533300442 0.0013178309114648243 0 -0.0026343748515982937 0.0013163685743294272 0 -0.0026287146839528404 0.0013400472636344032 0 -0.0026177029533300442 0.0013178309114648243 0 -0.0026060397957527784 0.0013307157102400722 0 -0.002579982337165534 0.0013190133204761016 0 -0.0026060397957527784 0.0013307157102400722 0 -0.0026024022346065856 0.0013018360304597341 0 -0.0026177029533300442 0.0013178309114648243 0 -0.0026060397957527784 0.0013307157102400722 0 -0.0026024022346065856 0.0013018360304597341 0 -0.002579982337165534 0.0013190133204761016 0 -0.0026060397957527784 0.0013307157102400722 0 -0.0025920973038587661 0.001347165540774412 0 -0.00261950536473648 0.0013504646527812451 0 -0.0026060397957527784 0.0013307157102400722 0 -0.0025920973038587661 0.001347165540774412 0 -0.0028523096136670932 0.00032331510788673483 0 -0.0033146098002266129 -0.00090272802061501869 0 -0.0033170827045474311 -0.00017584536964550525 0 -0.0034699229390539928 -0.00016114816981008896 0 -0.0035220515022849571 -0.00031547510583483938 0 -0.0025038887462579856 -0.00030306731978895933 0 -0.0023671196382863855 -0.00012362286353967997 0 -0.0025977273550856026 -0.00077337953730378451 0 -0.0025965148607314751 0.001250157248917202 0 -0.0025900749254412761 0.0012611121600947127 0 -0.0026078085365139167 0.0012782628145998906 0 -0.0024084131105960643 2.0803321944455389e-05 0 -0.0028523096136670932 0.00032331510788673483 0 -0.0025900749254412761 0.0012611121600947127 0 -0.0026024022346065856 0.0013018360304597341 0 -0.0026078085365139167 0.0012782628145998906 0 -0.002579982337165534 0.0013190133204761016 0 -0.0025900749254412761 0.0012611121600947127 0 -0.0026024022346065856 0.0013018360304597341 0 -0.0027784221560573719 0.0011797137560925705 0 -0.0028523096136670932 0.00032331510788673483 0 -0.0026024022346065856 0.0013018360304597341 0 -0.0026078085365139167 0.0012782628145998906 0 -0.002617595921984398 0.0012990505399092663 0 -0.0026078085365139167 0.0012782628145998906 0 -0.002617595921984398 0.0012990505399092663 0 -0.0026293205870156536 0.00127942935744565 0 -0.0026177029533300442 0.0013178309114648243 0 -0.0026024022346065856 0.0013018360304597341 0 -0.002617595921984398 0.0012990505399092663 0 -0.0026177029533300442 0.0013178309114648243 0 -0.002617595921984398 0.0012990505399092663 0 -0.0026343748515982937 0.0013163685743294272 0 -0.002617595921984398 0.0012990505399092663 0 -0.0026343748515982937 0.0013163685743294272 0 -0.0026293205870156536 0.00127942935744565 0 -0.0020063133305907926 -0.00042154345136948343 0 -0.0021502175492413202 -0.00038676524428550736 0 -0.0019974452964688309 -0.00060576118787425426 0 -0.0018533888069601873 -0.00041304418358507336 0 -0.0020808606234172526 -0.00028831556754983892 0 -0.0020063133305907926 -0.00042154345136948343 0 -0.0025965148607314751 0.001250157248917202 0 -0.0026078085365139167 0.0012782628145998906 0 -0.0026293205870156536 0.00127942935744565 0 -0.0024084131105960643 2.0803321944455389e-05 0 -0.002425672476950864 0.00056724633177239936 0 -0.0020808606234172526 -0.00028831556754983892 0 -0.0020063133305907926 -0.00042154345136948343 0 -0.0021502175492413202 -0.00038676524428550736 0 -0.0018533888069601873 -0.00041304418358507336 0 -0.0020063133305907926 -0.00042154345136948343 0 -0.0019974452964688309 -0.00060576118787425426 0 -0.00081507785957924707 -0.0014281253388691002 0 -0.0007275149277450872 -0.0013700534199887933 0 -0.00085096141410533033 -0.0013551438885768489 0 -0.00081507785957924707 -0.0014281253388691002 0 -0.0007275149277450872 -0.0013700534199887933 0 -0.00077388790642250879 -0.0015083247612728255 0 -0.0007275149277450872 -0.0013700534199887933 0 -0.00083901664736176829 -0.0012300403991737676 0 -0.00085096141410533033 -0.0013551438885768489 0 -0.0026343748515982937 0.0013163685743294272 0 -0.0026293205870156536 0.00127942935744565 0 -0.0026552545694020135 0.0013135107028550202 0 -0.002425672476950864 0.00056724633177239936 0 -0.0020592985566219978 0.00031071769366425761 0 -0.0012606186504864002 -0.0010670584168181966 0 -0.0020592985566219978 0.00031071769366425761 0 -0.0020808606234172526 -0.00028831556754983892 0 -0.0021502175492413202 -0.00038676524428550736 0 -0.0023022563836633211 -0.00016112456555920557 0 -0.00099876683727699697 -0.0011633961990402872 0 -0.00083901664736176829 -0.0012300403991737676 0 -0.00098149454124173141 -0.0012852086485875076 0 -0.00083901664736176829 -0.0012300403991737676 0 -0.00085096141410533033 -0.0013551438885768489 0 -0.00098149454124173141 -0.0012852086485875076 0 -0.00085096141410533033 -0.0013551438885768489 0 -0.00090780408542273584 -0.0014786443465965764 0 -0.00098149454124173141 -0.0012852086485875076 0 -0.00081507785957924707 -0.0014281253388691002 0 -0.00085096141410533033 -0.0013551438885768489 0 -0.00090780408542273584 -0.0014786443465965764 0 -0.00090780408542273584 -0.0014786443465965764 0 -0.00087664703290132873 -0.0015866387679173758 0 -0.00077388790642250879 -0.0015083247612728255 0 -0.00090780408542273584 -0.0014786443465965764 0 -0.00087664703290132873 -0.0015866387679173758 0 -0.00099144125164493408 -0.0016309618371377701 0 -0.00092733941770005196 -0.0016774643853822322 0 -0.00087664703290132873 -0.0015866387679173758 0 -0.00099144125164493408 -0.0016309618371377701 0 -0.00092733941770005196 -0.0016774643853822322 0 -0.00087664703290132873 -0.0015866387679173758 0 -0.0008222666462499278 -0.0016805413340863131 0 -0.00078208669683401733 -0.0015827796416293825 0 -0.0008222666462499278 -0.0016805413340863131 0 -0.00065792087057429819 -0.0015551452508599118 0 -0.001638428392553765 -0.0017397361492379887 0 -0.0016897101299310935 -0.0022879983085369502 0 -0.0010042645903625032 -0.0018313116798030354 0 -0.0010596358693796075 -0.00186325363815143 0 -0.0010136068662328537 -0.0018290245837065669 0 -0.00076199880218233418 -0.0017115646838909765 0 -0.001638428392553765 -0.0017397361492379887 0 -0.00087664703290132873 -0.0015866387679173758 0 -0.00078208669683401733 -0.0015827796416293825 0 -0.0008222666462499278 -0.0016805413340863131 0 -0.00078208669683401733 -0.0015827796416293825 0 -0.00077388790642250879 -0.0015083247612728255 0 -0.00065792087057429819 -0.0015551452508599118 0 -0.00081507785957924707 -0.0014281253388691002 0 -0.00090780408542273584 -0.0014786443465965764 0 -0.00077388790642250879 -0.0015083247612728255 0 -0.00087664703290132873 -0.0015866387679173758 0 -0.00078208669683401733 -0.0015827796416293825 0 -0.00077388790642250879 -0.0015083247612728255 0 -0.0012606186504864002 -0.0010670584168181966 0 -0.0020334628090226022 -0.0012990187398726619 0 -0.00077388790642250879 -0.0015083247612728255 0 -0.00062940022136703246 -0.0015155596372588671 0 -0.00065792087057429819 -0.0015551452508599118 0 -0.0007275149277450872 -0.0013700534199887933 0 -0.00077388790642250879 -0.0015083247612728255 0 -0.00062940022136703246 -0.0015155596372588671 0 -0.0029736315870493735 -0.0009207463581092049 0 -0.0029253453585526825 -0.00098707580291862982 0 -0.0025977273550856026 -0.00077337953730378451 0 -0.0018704787844009954 -0.0016274685634786394 0 -0.0018739113261173716 -0.0016229664027724278 0 -0.0018585243073005722 -0.0016151865468318513 0 -0.0020334628090226022 -0.0012990187398726619 0 -0.0023847714806769322 -0.0014478080094069709 0 -0.0023847714806769322 -0.0014478080094069709 0 -0.001638428392553765 -0.0017397361492379887 0 -0.0020334628090226022 -0.0012990187398726619 0 -0.001638428392553765 -0.0017397361492379887 0 -0.002438330853769342 -0.0027294763437114965 0 -0.002412506719729304 -0.0025791727186276533 0 -0.0026095142217439863 -0.0026198949491949611 0 -0.002438330853769342 -0.0027294763437114965 0 -0.002412506719729304 -0.0025791727186276533 0 -0.0022637527200949615 -0.0025298113101440891 0 -0.0024952087628224199 -0.0027620833471732669 0 -0.002438330853769342 -0.0027294763437114965 0 -0.0026095142217439863 -0.0026198949491949611 0 -0.0034956543672999582 -0.001193632046579909 0 -0.0035059043560859327 -0.0011805302698181808 0 -0.0035026410930265443 -0.0011908695250591288 0 -0.0035059043560859327 -0.0011805302698181808 0 -0.0035171067529984894 -0.0011898222343557148 0 -0.0035026410930265443 -0.0011908695250591288 0 -0.002412506719729304 -0.0025791727186276533 0 -0.0026095142217439863 -0.0026198949491949611 0 -0.0027264200747134887 -0.0024575710680399716 0 -0.0023847714806769322 -0.0014478080094069709 0 -0.0030717853455116749 -0.0018527615760171778 0 -0.0035225849141792579 -0.0011761838422930688 0 -0.0035059043560859327 -0.0011805302698181808 0 -0.0035182379707299253 -0.0011608430191899764 0 -0.0030717853455116749 -0.0018527615760171778 0 -0.0030050738554484703 -0.0021678950063657291 0 -0.0035225849141792579 -0.0011761838422930688 0 -0.0035059043560859327 -0.0011805302698181808 0 -0.0035171067529984894 -0.0011898222343557148 0 -0.0035247105624647279 -0.0011951578999710027 0 -0.0035171067529984894 -0.0011898222343557148 0 -0.0035137936833913564 -0.0011966371537233905 0 -0.0023847714806769322 -0.0014478080094069709 0 -0.0033146098002266129 -0.00090272802061501869 0 -0.0034956543672999582 -0.001193632046579909 0 -0.0035026410930265443 -0.0011908695250591288 0 -0.0035026482681031275 -0.0011949579516841253 0 -0.0035171067529984894 -0.0011898222343557148 0 -0.0035026410930265443 -0.0011908695250591288 0 -0.0035137936833913564 -0.0011966371537233905 0 -0.0034619537455857692 -0.0011959151172405539 0 -0.0033146098002266129 -0.00090272802061501869 0 -0.0024084131105960643 2.0803321944455389e-05 0 -0.0020334628090226022 -0.0012990187398726619 0 -0.0025038887462579856 -0.00030306731978895933 0 -0.0029736315870493735 -0.0009207463581092049 0 -0.0025977273550856026 -0.00077337953730378451 0 -0.0012123754878401649 -0.001283842056883933 0 -0.0012050487353534554 -0.0011470395285752644 0 -0.0010852667517335293 -0.0012440402828399265 0 -0.0012123754878401649 -0.001283842056883933 0 -0.0010852667517335293 -0.0012440402828399265 0 -0.0011082350336326357 -0.0013691981156131359 0 -0.0010852667517335293 -0.0012440402828399265 0 -0.0010093693283635527 -0.0013854466548750496 0 -0.0011082350336326357 -0.0013691981156131359 0 -0.00099876683727699697 -0.0011633961990402872 0 -0.0010852667517335293 -0.0012440402828399265 0 -0.00098149454124173141 -0.0012852086485875076 0 -0.0009858928889754958 -0.00129530915339968 0 -0.0010672615430056746 -0.0014501110920525477 0 -0.00090780408542273584 -0.0014786443465965764 0 -0.00098149454124173141 -0.0012852086485875076 0 -0.0011301948591577837 -0.0015151983707912665 0 -0.0010852667517335293 -0.0012440402828399265 0 -0.00098149454124173141 -0.0012852086485875076 0 -0.0010093693283635527 -0.0013854466548750496 0 -0.00090780408542273584 -0.0014786443465965764 0 -0.0011301948591577837 -0.0015151983707912665 0 -0.00099144125164493408 -0.0016309618371377701 0 -0.00099144125164493408 -0.0016309618371377701 0 -0.001102736607520072 -0.0017132917165547433 0 -0.0010192975891659475 -0.0018139484328400432 0 -0.0011301948591577837 -0.0015151983707912665 0 -0.00099144125164493408 -0.0016309618371377701 0 -0.001102736607520072 -0.0017132917165547433 0 -0.00092733941770005196 -0.0016774643853822322 0 -0.00099144125164493408 -0.0016309618371377701 0 -0.0010192975891659475 -0.0018139484328400432 0 -0.0011301948591577837 -0.0015151983707912665 0 -0.001102736607520072 -0.0017132917165547433 0 -0.0012179920442212033 -0.0017306391775016193 0 -0.0010672615430056746 -0.0014501110920525477 0 -0.0011294714012161661 -0.0016275214259345702 0 -0.0010093693283635527 -0.0013854466548750496 0 -0.0010410950809109111 -0.0015222094944852558 0 -0.0011082350336326357 -0.0013691981156131359 0 -0.0012123754878401649 -0.001283842056883933 0 -0.0011904440990630476 -0.0014415315046055065 0 -0.0011082350336326357 -0.0013691981156131359 0 -0.0011904440990630476 -0.0014415315046055065 0 -0.0010410950809109111 -0.0015222094944852558 0 -0.0011082350336326357 -0.0013691981156131359 0 -0.0011904440990630476 -0.0014415315046055065 0 -0.0010410950809109111 -0.0015222094944852558 0 -0.001162523704476664 -0.0015669595390832328 0 -0.0010410950809109111 -0.0015222094944852558 0 -0.001162523704476664 -0.0015669595390832328 0 -0.00108895827582198 -0.0017150886326697552 0 -0.0012657890152178344 -0.0018945724776730508 0 -0.0011402888605140788 -0.0018426505302902474 0 -0.0011744647657810651 -0.0019680783105872324 0 -0.0012179920442212033 -0.0017306391775016193 0 -0.0012657890152178344 -0.0018945724776730508 0 -0.0011402888605140788 -0.0018426505302902474 0 -0.0011294714012161661 -0.0016275214259345702 0 -0.0011776138509206765 -0.001804616338152262 0 -0.001102736607520072 -0.0017132917165547433 0 -0.0010192975891659475 -0.0018139484328400432 0 -0.0011402888605140788 -0.0018426505302902474 0 -0.001102736607520072 -0.0017132917165547433 0 -0.0012179920442212033 -0.0017306391775016193 0 -0.0011402888605140788 -0.0018426505302902474 0 -0.0010192975891659475 -0.0018139484328400432 0 -0.001067554373700507 -0.0018862205648781738 0 -0.00099323542323829128 -0.0018483440834477442 0 -0.0010192975891659475 -0.0018139484328400432 0 -0.001067554373700507 -0.0018862205648781738 0 -0.0011402888605140788 -0.0018426505302902474 0 -0.001067554373700507 -0.0018862205648781738 0 -0.0010448521958522305 -0.0019586565283136567 0 -0.00099323542323829128 -0.0018483440834477442 0 -0.001067554373700507 -0.0018862205648781738 0 -0.0011402888605140788 -0.0018426505302902474 0 -0.0011744647657810651 -0.0019680783105872324 0 -0.001067554373700507 -0.0018862205648781738 0 -0.0010448521958522305 -0.0019586565283136567 0 -0.0011744647657810651 -0.0019680783105872324 0 -0.0015151428415612752 -0.0022382806270173521 0 -0.0009883649834494055 -0.0019122861020512381 0 -0.0018682576523722579 -0.0029813532161533816 0 -0.0018905619623327326 -0.0029986958394442945 0 -0.0018613864296804421 -0.0030059270873282907 0 -0.0015151428415612752 -0.0022382806270173521 0 -0.0015257604165484458 -0.0025660513179011058 0 -0.0011015444411574123 -0.0019806859672187047 0 -0.0011496901503296377 -0.0020476730656500829 0 -0.0011744647657810651 -0.0019680783105872324 0 -0.0011496901503296377 -0.0020476730656500829 0 -0.0012192950077012071 -0.0020331175873245398 0 -0.0011744647657810651 -0.0019680783105872324 0 -0.0012192950077012071 -0.0020331175873245398 0 -0.001236680039234882 -0.001979270974453926 0 -0.0012786888209485267 -0.0020121231829634575 0 -0.0012192950077012071 -0.0020331175873245398 0 -0.0012465595312752477 -0.0020704882935674773 0 -0.0012786888209485267 -0.0020121231829634575 0 -0.0011776138509206765 -0.001804616338152262 0 -0.0012235968779846288 -0.0019648853047239873 0 -0.0012657890152178344 -0.0018945724776730508 0 -0.001236680039234882 -0.001979270974453926 0 -0.0012786888209485267 -0.0020121231829634575 0 -0.00108895827582198 -0.0017150886326697552 0 -0.0011464371649916104 -0.0018128690546735978 0 -0.0011659848473759688 -0.0019213180457978314 0 -0.0012657890152178344 -0.0018945724776730508 0 -0.001236680039234882 -0.001979270974453926 0 -0.0011744647657810651 -0.0019680783105872324 0 -0.0012192950077012071 -0.0020331175873245398 0 -0.001236680039234882 -0.001979270974453926 0 -0.0011744647657810651 -0.0019680783105872324 0 -0.002766353999683262 -0.0022414357047194633 0 -0.0026589279235597982 -0.0022640321938506643 0 -0.0027284438947139974 -0.0023539049881150147 0 -0.0026589279235597982 -0.0022640321938506643 0 -0.0025472927000497552 -0.0024009446678575231 0 -0.0025249768657013695 -0.002300548374218963 0 -0.0026589279235597982 -0.0022640321938506643 0 -0.0027284438947139974 -0.0023539049881150147 0 -0.0025472927000497552 -0.0024009446678575231 0 -0.0027284438947139974 -0.0023539049881150147 0 -0.0027329500382105151 -0.002506494343630893 0 -0.0025472927000497552 -0.0024009446678575231 0 -0.002412506719729304 -0.0025791727186276533 0 -0.0027329500382105151 -0.002506494343630893 0 -0.0025472927000497552 -0.0024009446678575231 0 -0.0023005669978108656 -0.0026737000115482838 0 -0.0030050738554484703 -0.0021678950063657291 0 -0.002412506719729304 -0.0025791727186276533 0 -0.0025472927000497552 -0.0024009446678575231 0 -0.0023721389168375965 -0.0024333546638161236 0 -0.0025472927000497552 -0.0024009446678575231 0 -0.0023721389168375965 -0.0024333546638161236 0 -0.0024337670832115781 -0.0023338866942812534 0 -0.0026589279235597982 -0.0022640321938506643 0 -0.0025249768657013695 -0.002300548374218963 0 -0.002459640515749257 -0.0022019919663575868 0 -0.0024337670832115781 -0.0023338866942812534 0 -0.0022474618966821912 -0.0023430037757282206 0 -0.002459640515749257 -0.0022019919663575868 0 -0.0025472927000497552 -0.0024009446678575231 0 -0.0024337670832115781 -0.0023338866942812534 0 -0.0025249768657013695 -0.002300548374218963 0 -0.0024337670832115781 -0.0023338866942812534 0 -0.0025249768657013695 -0.002300548374218963 0 -0.002459640515749257 -0.0022019919663575868 0 -0.0022474618966821912 -0.0023430037757282206 0 -0.0022724545429603951 -0.0022131351546239636 0 -0.002395466567566415 -0.0022230303374830809 0 -0.0022474618966821912 -0.0023430037757282206 0 -0.0020949954807447544 -0.0023234482802602582 0 -0.0022724545429603951 -0.0022131351546239636 0 -0.002244510341049845 -0.002344854276631567 0 -0.0024662050661971042 -0.0021812396672174412 0 -0.0023721389168375965 -0.0024333546638161236 0 -0.0024337670832115781 -0.0023338866942812534 0 -0.0022474618966821912 -0.0023430037757282206 0 -0.0016897101299310935 -0.0022879983085369502 0 -0.0015204711303019949 -0.0020355422855815896 0 -0.0010042645903625032 -0.0018313116798030354 0 -0.0010136068662328537 -0.0018290245837065669 0 -0.00099323542323829128 -0.0018483440834477442 0 -0.0023721389168375965 -0.0024333546638161236 0 -0.0022474618966821912 -0.0023430037757282206 0 -0.0022637527200949615 -0.0025298113101440891 0 -0.0022474618966821912 -0.0023430037757282206 0 -0.0022637527200949615 -0.0025298113101440891 0 -0.0020949954807447544 -0.0023234482802602582 0 -0.002412506719729304 -0.0025791727186276533 0 -0.0023721389168375965 -0.0024333546638161236 0 -0.0022637527200949615 -0.0025298113101440891 0 -0.0010042645903625032 -0.0018313116798030354 0 -0.0010192975891659475 -0.0018139484328400432 0 -0.00099323542323829128 -0.0018483440834477442 0 -0.00092733941770005196 -0.0016774643853822322 0 -0.0008222666462499278 -0.0016805413340863131 0 -0.0010192975891659475 -0.0018139484328400432 0 -0.00076199880218233418 -0.0017115646838909765 0 -0.0010739676500877268 -0.0018386170358183824 0 -0.0015151428415612752 -0.0022382806270173521 0 -0.0015204711303019949 -0.0020355422855815896 0 -0.0019392288170689801 -0.0021360831719035847 0 -0.0020949954807447544 -0.0023234482802602582 0 -0.0021580399582829153 -0.0021269242517732334 0 -0.0015151428415612752 -0.0022382806270173521 0 -0.0020903646707797247 -0.0025763186620864358 0 -0.0018522772250962505 -0.0029917973489978393 0 -0.0018613864296804421 -0.0030059270873282907 0 -0.0018477255758744041 -0.0030121537419682777 0 -0.0018682576523722579 -0.0029813532161533816 0 -0.0018522772250962505 -0.0029917973489978393 0 -0.0018613864296804421 -0.0030059270873282907 0 -0.0018477255758744041 -0.0030121537419682777 0 -0.0018420719800177239 -0.003000704410880971 0 -0.0018397249764214565 -0.0030150738567504987 0 -0.0018522772250962505 -0.0029917973489978393 0 -0.0018477255758744041 -0.0030121537419682777 0 -0.0018420719800177239 -0.003000704410880971 0 -0.0020903646707797247 -0.0025763186620864358 0 -0.0020367525542449821 -0.0025821168368109814 0 -0.0020949954807447544 -0.0023234482802602582 0 -0.0021580399582829153 -0.0021269242517732334 0 -0.0022724545429603951 -0.0022131351546239636 0 -0.0021580399582829153 -0.0021269242517732334 0 -0.0022724545429603951 -0.0022131351546239636 0 -0.002360665308050105 -0.002128232971060638 0 -0.0020367525542449821 -0.0025821168368109814 0 -0.0024254800631280287 -0.0022973766273261891 0 -0.002395466567566415 -0.0022230303374830809 0 -0.002360665308050105 -0.002128232971060638 0 -0.0025345425246852994 -0.0021243768779425536 0 -0.0018420719800177239 -0.003000704410880971 0 -0.0018391009345865028 -0.0030091436639753536 0 -0.0018390412326702449 -0.0030054695036880429 0 -0.0022724545429603951 -0.0022131351546239636 0 -0.002395466567566415 -0.0022230303374830809 0 -0.002360665308050105 -0.002128232971060638 0 -0.0018420719800177239 -0.003000704410880971 0 -0.0018397249764214565 -0.0030150738567504987 0 -0.0018391009345865028 -0.0030091436639753536 0 -0.0018397249764214565 -0.0030150738567504987 0 -0.0018391009345865028 -0.0030091436639753536 0 -0.0018362569897492863 -0.003016656968890574 0 -0.0018370929107517906 -0.0030116383563626005 0 -0.0018390412326702449 -0.0030054695036880429 0 -0.0018362569897492863 -0.003016656968890574 0 -0.0018391009345865028 -0.0030091436639753536 0 -0.0018390412326702449 -0.0030054695036880429 0 -0.0018362569897492863 -0.003016656968890574 0 -0.0026589279235597982 -0.0022640321938506643 0 -0.002459640515749257 -0.0022019919663575868 0 -0.002671273014645789 -0.0020615663127665036 0 -0.002766353999683262 -0.0022414357047194633 0 -0.0026589279235597982 -0.0022640321938506643 0 -0.002671273014645789 -0.0020615663127665036 0 -0.0024662050661971042 -0.0021812396672174412 0 -0.0024254800631280287 -0.0022973766273261891 0 -0.0018327752991819804 -0.003027105981044709 0 -0.0018326295767716629 -0.0030359728121214153 0 -0.0018306175592178776 -0.0030450582139662577 0 -0.0024229598005259434 -0.0031059211860649926 0 -0.0023171988593675033 -0.0030798943287233759 0 -0.0018327752991819804 -0.003027105981044709 0 -0.0018326295767716629 -0.0030359728121214153 0 -0.0018348666989872169 -0.0030290443301198801 0 -0.0018326295767716629 -0.0030359728121214153 0 -0.0018348666989872169 -0.0030290443301198801 0 -0.0018328049516864269 -0.0030426587904352686 0 -0.0018326295767716629 -0.0030359728121214153 0 -0.0018328049516864269 -0.0030426587904352686 0 -0.0018306175592178776 -0.0030450582139662577 0 -0.0018327752991819804 -0.003027105981044709 0 -0.0018362569897492863 -0.003016656968890574 0 -0.0018348666989872169 -0.0030290443301198801 0 -0.0018397249764214565 -0.0030150738567504987 0 -0.0018348666989872169 -0.0030290443301198801 0 -0.0018405782419284708 -0.0030279128905665595 0 -0.0018397249764214565 -0.0030150738567504987 0 -0.0018362569897492863 -0.003016656968890574 0 -0.0018348666989872169 -0.0030290443301198801 0 -0.0018348666989872169 -0.0030290443301198801 0 -0.0018360711887694869 -0.0030375614814349646 0 -0.0018405782419284708 -0.0030279128905665595 0 -0.0018348666989872169 -0.0030290443301198801 0 -0.0018360711887694869 -0.0030375614814349646 0 -0.0018328049516864269 -0.0030426587904352686 0 -0.0018360711887694869 -0.0030375614814349646 0 -0.0018328049516864269 -0.0030426587904352686 0 -0.0018349181943652123 -0.003049341486772651 0 -0.0018414948448550455 -0.0030425036657722531 0 -0.0018405782419284708 -0.0030279128905665595 0 -0.0018509182365128803 -0.0030275245020881308 0 -0.0018360711887694869 -0.0030375614814349646 0 -0.0018414948448550455 -0.0030425036657722531 0 -0.0018349181943652123 -0.003049341486772651 0 -0.0018360711887694869 -0.0030375614814349646 0 -0.0018414948448550455 -0.0030425036657722531 0 -0.0018405782419284708 -0.0030279128905665595 0 -0.0018477255758744041 -0.0030121537419682777 0 -0.0018405782419284708 -0.0030279128905665595 0 -0.0018509182365128803 -0.0030275245020881308 0 -0.0018477255758744041 -0.0030121537419682777 0 -0.0018397249764214565 -0.0030150738567504987 0 -0.0018405782419284708 -0.0030279128905665595 0 -0.0018613864296804421 -0.0030059270873282907 0 -0.0018477255758744041 -0.0030121537419682777 0 -0.0018509182365128803 -0.0030275245020881308 0 -0.0018613864296804421 -0.0030059270873282907 0 -0.0018509182365128803 -0.0030275245020881308 0 -0.0018675724494708547 -0.0030255449524428258 0 -0.0018509182365128803 -0.0030275245020881308 0 -0.0018540826028074701 -0.0030505838669534716 0 -0.0018675724494708547 -0.0030255449524428258 0 -0.0018414948448550455 -0.0030425036657722531 0 -0.0018540826028074701 -0.0030505838669534716 0 -0.0018403914522157614 -0.0030602027077341219 0 -0.0018414948448550455 -0.0030425036657722531 0 -0.0018509182365128803 -0.0030275245020881308 0 -0.0018540826028074701 -0.0030505838669534716 0 -0.0018523095682285357 -0.0030771388033271263 0 -0.001832255158198931 -0.0030742963125753157 0 -0.0018403914522157614 -0.0030602027077341219 0 -0.0018540826028074701 -0.0030505838669534716 0 -0.0018523095682285357 -0.0030771388033271263 0 -0.0018403914522157614 -0.0030602027077341219 0 -0.0019316845158647016 -0.0032573067312049145 0 -0.0019423270923416946 -0.0032792719817953163 0 -0.0018982523831013445 -0.0032504951099322191 0 -0.0018523095682285357 -0.0030771388033271263 0 -0.001832255158198931 -0.0030742963125753157 0 -0.0018464771949868888 -0.0031225369588613826 0 -0.0018333431329499903 -0.0031777479071667773 0 -0.0018886429463530439 -0.0031906585426769445 0 -0.0019316845158647016 -0.0032573067312049145 0 -0.0019583585259903831 -0.0032657265686529447 0 -0.0019423270923416946 -0.0032792719817953163 0 -0.0019583585259903831 -0.0032657265686529447 0 -0.0019423270923416946 -0.0032792719817953163 0 -0.0019781453120261529 -0.0032768531070481444 0 -0.001832255158198931 -0.0030742963125753157 0 -0.00183459416345881 -0.0030594902956351715 0 -0.0018321772864790401 -0.0030538110302292922 0 -0.001832255158198931 -0.0030742963125753157 0 -0.00183459416345881 -0.0030594902956351715 0 -0.0018403914522157614 -0.0030602027077341219 0 -0.00183459416345881 -0.0030594902956351715 0 -0.0018403914522157614 -0.0030602027077341219 0 -0.0018349181943652123 -0.003049341486772651 0 -0.0018414948448550455 -0.0030425036657722531 0 -0.0018403914522157614 -0.0030602027077341219 0 -0.0018349181943652123 -0.003049341486772651 0 -0.001832255158198931 -0.0030742963125753157 0 -0.0018321772864790401 -0.0030538110302292922 0 -0.0018306127675715568 -0.0030472599859247408 0 -0.0018333431329499903 -0.0031777479071667773 0 -0.0021911240502256939 -0.003116510817416799 0 -0.00183459416345881 -0.0030594902956351715 0 -0.0018349181943652123 -0.003049341486772651 0 -0.0018321772864790401 -0.0030538110302292922 0 -0.0018328049516864269 -0.0030426587904352686 0 -0.0018349181943652123 -0.003049341486772651 0 -0.0018321772864790401 -0.0030538110302292922 0 -0.0018316445314739106 -0.003047910357070581 0 -0.0018321772864790401 -0.0030538110302292922 0 -0.0018306127675715568 -0.0030472599859247408 0 -0.0018328049516864269 -0.0030426587904352686 0 -0.0018316445314739106 -0.003047910357070581 0 -0.0018321772864790401 -0.0030538110302292922 0 -0.0019423270923416946 -0.0032792719817953163 0 -0.0019781453120261529 -0.0032768531070481444 0 -0.002016080845205671 -0.0033078652063619537 0 -0.0019583585259903831 -0.0032657265686529447 0 -0.0019781453120261529 -0.0032768531070481444 0 -0.0019809164186805335 -0.0032707511220462118 0 -0.0024008844381244242 -0.003242626563622032 0 -0.0024746829260571747 -0.0031765487983803674 0 -0.0019583585259903831 -0.0032657265686529447 0 -0.0019809164186805335 -0.0032707511220462118 0 -0.0019462490159615985 -0.0032462645682216924 0 -0.0024746829260571747 -0.0031765487983803674 0 -0.0021804848663662473 -0.0034147027929485045 0 -0.0019781453120261529 -0.0032768531070481444 0 -0.0019826027199455216 -0.003269657266509031 0 -0.002016080845205671 -0.0033078652063619537 0 -0.0024746829260571747 -0.0031765487983803674 0 -0.0021911240502256939 -0.003116510817416799 0 -0.002912350317204741 -0.0029381188654360917 0 -0.0030014356510738621 -0.0029468445657685905 0 -0.0029635966797973336 -0.0029997371642959784 0 -0.002912350317204741 -0.0029381188654360917 0 -0.0030014356510738621 -0.0029468445657685905 0 -0.002967270873851 -0.0028476402117188567 0 -0.0030014356510738621 -0.0029468445657685905 0 -0.0029635966797973336 -0.0029997371642959784 0 -0.0029756262694827832 -0.0030143181049896322 0 -0.0030815523670495244 -0.0030287987878922749 0 -0.0030014356510738621 -0.0029468445657685905 0 -0.0029756262694827832 -0.0030143181049896322 0 -0.0018328049516864269 -0.0030426587904352686 0 -0.0018316445314739106 -0.003047910357070581 0 -0.0018306175592178776 -0.0030450582139662577 0 -0.0018316445314739106 -0.003047910357070581 0 -0.0018306127675715568 -0.0030472599859247408 0 -0.0018306175592178776 -0.0030450582139662577 0 -0.0021911240502256939 -0.003116510817416799 0 -0.0023171988593675033 -0.0030798943287233759 0 -0.0011988805155608347 -0.0021094656485304954 0 -0.0012311893549132485 -0.0021558905983172501 0 -0.0012474126042653438 -0.0021153535691068402 0 -0.0011988805155608347 -0.0021094656485304954 0 -0.0012465595312752477 -0.0020704882935674773 0 -0.0012474126042653438 -0.0021153535691068402 0 -0.0015769141439292366 -0.0025586691650797016 0 -0.001486059237627732 -0.0026567826084017533 0 -0.0012192950077012071 -0.0020331175873245398 0 -0.0011988805155608347 -0.0021094656485304954 0 -0.0012465595312752477 -0.0020704882935674773 0 -0.0015257604165484458 -0.0025660513179011058 0 -0.0015769141439292366 -0.0025586691650797016 0 -0.0011496901503296377 -0.0020476730656500829 0 -0.0012192950077012071 -0.0020331175873245398 0 -0.0011988805155608347 -0.0021094656485304954 0 -0.0018905619623327326 -0.0029986958394442945 0 -0.0019275539128423842 -0.0030270509834005995 0 -0.0018856290058779197 -0.0030484653862362593 0 -0.0018905619623327326 -0.0029986958394442945 0 -0.0018675724494708547 -0.0030255449524428258 0 -0.0018856290058779197 -0.0030484653862362593 0 -0.0018905619623327326 -0.0029986958394442945 0 -0.0018613864296804421 -0.0030059270873282907 0 -0.0018675724494708547 -0.0030255449524428258 0 -0.0018540826028074701 -0.0030505838669534716 0 -0.0018675724494708547 -0.0030255449524428258 0 -0.0018856290058779197 -0.0030484653862362593 0 -0.0019275539128423842 -0.0030270509834005995 0 -0.0018856290058779197 -0.0030484653862362593 0 -0.0019175430729032217 -0.0030697566864260491 0 -0.0018856290058779197 -0.0030484653862362593 0 -0.0018869661555656577 -0.0030987800536776767 0 -0.0019175430729032217 -0.0030697566864260491 0 -0.0018523095682285357 -0.0030771388033271263 0 -0.0018856290058779197 -0.0030484653862362593 0 -0.0018869661555656577 -0.0030987800536776767 0 -0.0018540826028074701 -0.0030505838669534716 0 -0.0018523095682285357 -0.0030771388033271263 0 -0.0018856290058779197 -0.0030484653862362593 0 -0.0018523095682285357 -0.0030771388033271263 0 -0.0018869661555656577 -0.0030987800536776767 0 -0.0018464771949868888 -0.0031225369588613826 0 -0.0018869661555656577 -0.0030987800536776767 0 -0.0019317425523572677 -0.0031183420729261756 0 -0.0019175430729032217 -0.0030697566864260491 0 -0.0018869661555656577 -0.0030987800536776767 0 -0.0018940812248282469 -0.0031472213679817444 0 -0.0018464771949868888 -0.0031225369588613826 0 -0.0018869661555656577 -0.0030987800536776767 0 -0.0018940812248282469 -0.0031472213679817444 0 -0.0019317425523572677 -0.0031183420729261756 0 -0.0018940812248282469 -0.0031472213679817444 0 -0.0019317425523572677 -0.0031183420729261756 0 -0.0019266582039477163 -0.0031800562511089528 0 -0.0019317425523572677 -0.0031183420729261756 0 -0.0019266582039477163 -0.0031800562511089528 0 -0.0019724613323268626 -0.0031708436782161517 0 -0.0019275539128423842 -0.0030270509834005995 0 -0.0019175430729032217 -0.0030697566864260491 0 -0.0019602185263313493 -0.0030735517713557582 0 -0.0019317425523572677 -0.0031183420729261756 0 -0.0019175430729032217 -0.0030697566864260491 0 -0.0019602185263313493 -0.0030735517713557582 0 -0.0019275539128423842 -0.0030270509834005995 0 -0.0019602185263313493 -0.0030735517713557582 0 -0.0019764322431145395 -0.0030678598005919894 0 -0.0019002474624597832 -0.0028103354934936801 0 -0.001486059237627732 -0.0026567826084017533 0 -0.0019602185263313493 -0.0030735517713557582 0 -0.0019965507174003212 -0.0030586664174945323 0 -0.0019953248828364074 -0.0031146170394166757 0 -0.0019317425523572677 -0.0031183420729261756 0 -0.0019602185263313493 -0.0030735517713557582 0 -0.0019953248828364074 -0.0031146170394166757 0 -0.0019317425523572677 -0.0031183420729261756 0 -0.0019953248828364074 -0.0031146170394166757 0 -0.0019724613323268626 -0.0031708436782161517 0 -0.0019965507174003212 -0.0030586664174945323 0 -0.0019953248828364074 -0.0031146170394166757 0 -0.0020712712027084958 -0.0031225430839915426 0 -0.0019953248828364074 -0.0031146170394166757 0 -0.0020712712027084958 -0.0031225430839915426 0 -0.0020264282673571488 -0.0031651031401149533 0 -0.0019953248828364074 -0.0031146170394166757 0 -0.0020264282673571488 -0.0031651031401149533 0 -0.0019724613323268626 -0.0031708436782161517 0 -0.001486059237627732 -0.0026567826084017533 0 -0.001551629271176771 -0.0028058814043385666 0 -0.0010184157792580309 -0.0024762626132957388 0 -0.0012165374514259834 -0.0024566043574783683 0 -0.0011153206133304862 -0.0026157715013372476 0 -0.0010184157792580309 -0.0024762626132957388 0 -0.0010925694134856321 -0.0023033669788327122 0 -0.0012165374514259834 -0.0024566043574783683 0 -0.0010925694134856321 -0.0023033669788327122 0 -0.0012165374514259834 -0.0024566043574783683 0 -0.0012692352525987471 -0.0022514779072234396 0 -0.0011104225649741304 -0.0021985623458368139 0 -0.0013240774721482878 -0.002207117835382254 0 -0.001486059237627732 -0.0026567826084017533 0 -0.0011104225649741304 -0.0021985623458368139 0 -0.00092559351634104419 -0.0023498573987419278 0 -0.0010184157792580309 -0.0024762626132957388 0 -0.0010925694134856321 -0.0023033669788327122 0 -0.0012311893549132485 -0.0021558905983172501 0 -0.0012729382394969185 -0.0021504641692541111 0 -0.0012474126042653438 -0.0021153535691068402 0 -0.0013932610665679051 -0.0024537928801987244 0 -0.0013290769480936988 -0.002549900224289216 0 -0.0013365795461749831 -0.0023680557242165639 0 -0.0014724129712673898 -0.0023441157317135681 0 -0.0014121993728385695 -0.0025637513160532074 0 -0.0012165374514259834 -0.0024566043574783683 0 -0.0013365795461749831 -0.0023680557242165639 0 -0.0014121993728385695 -0.0025637513160532074 0 -0.0012165374514259834 -0.0024566043574783683 0 -0.0013365795461749831 -0.0023680557242165639 0 -0.0012692352525987471 -0.0022514779072234396 0 -0.0013365795461749831 -0.0023680557242165639 0 -0.0012692352525987471 -0.0022514779072234396 0 -0.0014374696880824166 -0.0021963642002784775 0 -0.0013365795461749831 -0.0023680557242165639 0 -0.0014374696880824166 -0.0021963642002784775 0 -0.0014724129712673898 -0.0023441157317135681 0 -0.0013240774721482878 -0.002207117835382254 0 -0.0014257630849934865 -0.0021934387172417775 0 -0.0013847350230140364 -0.0021295813408390304 0 -0.0013380083195307123 -0.0021596623951259763 0 -0.0014374696880824166 -0.0021963642002784775 0 -0.0013847350230140364 -0.0021295813408390304 0 -0.0014350158332360468 -0.0020674935159562479 0 -0.0014374696880824166 -0.0021963642002784775 0 -0.0013847350230140364 -0.0021295813408390304 0 -0.0013380083195307123 -0.0021596623951259763 0 -0.0013449809964922919 -0.0020812239930662934 0 -0.0013380083195307123 -0.0021596623951259763 0 -0.0013449809964922919 -0.0020812239930662934 0 -0.0012708332307028276 -0.0020767777439308554 0 -0.0013449809964922919 -0.0020812239930662934 0 -0.0014350158332360468 -0.0020674935159562479 0 -0.0014147131044040856 -0.0019433771983634145 0 -0.0013847350230140364 -0.0021295813408390304 0 -0.0013449809964922919 -0.0020812239930662934 0 -0.0014350158332360468 -0.0020674935159562479 0 -0.0012729382394969185 -0.0021504641692541111 0 -0.0012474126042653438 -0.0021153535691068402 0 -0.0012708332307028276 -0.0020767777439308554 0 -0.0012729382394969185 -0.0021504641692541111 0 -0.0013380083195307123 -0.0021596623951259763 0 -0.0012708332307028276 -0.0020767777439308554 0 -0.0013449809964922919 -0.0020812239930662934 0 -0.0012708332307028276 -0.0020767777439308554 0 -0.0012936888664053273 -0.0019378258196336433 0 -0.0012465595312752477 -0.0020704882935674773 0 -0.0012474126042653438 -0.0021153535691068402 0 -0.0012708332307028276 -0.0020767777439308554 0 -0.0012465595312752477 -0.0020704882935674773 0 -0.0012708332307028276 -0.0020767777439308554 0 -0.0012786888209485267 -0.0020121231829634575 0 -0.0012686198087325316 -0.002069004954149232 0 -0.0012235968779846288 -0.0019648853047239873 0 -0.0011464371649916104 -0.0018128690546735978 0 -0.0011659848473759688 -0.0019213180457978314 0 -0.00123410654168826 -0.0018273744321789026 0 -0.0011659848473759688 -0.0019213180457978314 0 -0.00123410654168826 -0.0018273744321789026 0 -0.0012936888664053273 -0.0019378258196336433 0 -0.00123410654168826 -0.0018273744321789026 0 -0.0012936888664053273 -0.0019378258196336433 0 -0.0013434973601059823 -0.0018253213877349617 0 -0.0012708332307028276 -0.0020767777439308554 0 -0.0011659848473759688 -0.0019213180457978314 0 -0.0012936888664053273 -0.0019378258196336433 0 -0.0013449809964922919 -0.0020812239930662934 0 -0.0012936888664053273 -0.0019378258196336433 0 -0.0014147131044040856 -0.0019433771983634145 0 -0.0014350158332360468 -0.0020674935159562479 0 -0.0014147131044040856 -0.0019433771983634145 0 -0.0015072704195651743 -0.0019869506406063929 0 -0.0014147131044040856 -0.0019433771983634145 0 -0.0014499133671549633 -0.0018140152551898306 0 -0.0015177698332096948 -0.0018932615112930422 0 -0.0014147131044040856 -0.0019433771983634145 0 -0.0013434973601059823 -0.0018253213877349617 0 -0.0014499133671549633 -0.0018140152551898306 0 -0.0012936888664053273 -0.0019378258196336433 0 -0.0014147131044040856 -0.0019433771983634145 0 -0.0013434973601059823 -0.0018253213877349617 0 -0.0013434973601059823 -0.0018253213877349617 0 -0.0013755053638229062 -0.0017379655220851706 0 -0.0012865313661627323 -0.0017145802071499372 0 -0.0013434973601059823 -0.0018253213877349617 0 -0.0014499133671549633 -0.0018140152551898306 0 -0.0013755053638229062 -0.0017379655220851706 0 -0.0014499133671549633 -0.0018140152551898306 0 -0.0014577978049232232 -0.0017045147058134236 0 -0.0013755053638229062 -0.0017379655220851706 0 -0.0013326845471950553 -0.001613061880742374 0 -0.0014599902261529169 -0.0016637374974087405 0 -0.0013277917791539424 -0.001610552758640614 0 -0.0014577978049232232 -0.0017045147058134236 0 -0.0013755053638229062 -0.0017379655220851706 0 -0.0013277917791539424 -0.001610552758640614 0 -0.0013755053638229062 -0.0017379655220851706 0 -0.0012865313661627323 -0.0017145802071499372 0 -0.0012799538354616639 -0.0015678051921907414 0 -0.0013277917791539424 -0.001610552758640614 0 -0.0012865313661627323 -0.0017145802071499372 0 -0.0012389117529296415 -0.0015212623733280915 0 -0.0013419771784325791 -0.0014861396912510968 0 -0.0012763425562022266 -0.0016267423597861208 0 -0.0012799538354616639 -0.0015678051921907414 0 -0.0012865313661627323 -0.0017145802071499372 0 -0.0012044836376385367 -0.0017266590026240938 0 -0.0013136488359571216 -0.0015259136158919532 0 -0.0012367707119514612 -0.0016772745095133038 0 -0.0012389117529296415 -0.0015212623733280915 0 -0.001162523704476664 -0.0015669595390832328 0 -0.0012763425562022266 -0.0016267423597861208 0 -0.001162523704476664 -0.0015669595390832328 0 -0.00108895827582198 -0.0017150886326697552 0 -0.0012763425562022266 -0.0016267423597861208 0 -0.0011464371649916104 -0.0018128690546735978 0 -0.00123410654168826 -0.0018273744321789026 0 -0.0012044836376385367 -0.0017266590026240938 0 -0.0011515846081675348 -0.0018045446685497344 0 -0.0012367707119514612 -0.0016772745095133038 0 -0.00108895827582198 -0.0017150886326697552 0 -0.0011464371649916104 -0.0018128690546735978 0 -0.0012763425562022266 -0.0016267423597861208 0 -0.00123410654168826 -0.0018273744321789026 0 -0.0012865313661627323 -0.0017145802071499372 0 -0.0012044836376385367 -0.0017266590026240938 0 -0.00123410654168826 -0.0018273744321789026 0 -0.0013434973601059823 -0.0018253213877349617 0 -0.0012865313661627323 -0.0017145802071499372 0 -0.0017219409156013904 -0.0017070429521297878 0 -0.0017922102153389969 -0.0016428269356800246 0 -0.0018446735926869328 -0.0017551649544248343 0 -0.0017048822282436865 -0.0017549023466464553 0 -0.0016679573100040245 -0.0019992522094217893 0 -0.0017915098585163571 -0.0015591321166288747 0 -0.0017922102153389969 -0.0016428269356800246 0 -0.0017010560704023507 -0.0015935878257043311 0 -0.0017915098585163571 -0.0015591321166288747 0 -0.0017922102153389969 -0.0016428269356800246 0 -0.0018407555170206469 -0.0015776128701934483 0 -0.0017219409156013904 -0.0017070429521297878 0 -0.0017010560704023507 -0.0015935878257043311 0 -0.0015982713370283443 -0.001663131164163419 0 -0.0017219409156013904 -0.0017070429521297878 0 -0.0017922102153389969 -0.0016428269356800246 0 -0.0017010560704023507 -0.0015935878257043311 0 -0.0015687957332413448 -0.0015466087124150689 0 -0.0017010560704023507 -0.0015935878257043311 0 -0.0015982713370283443 -0.001663131164163419 0 -0.0014599902261529169 -0.0016637374974087405 0 -0.0015771236608979789 -0.0017196033551941108 0 -0.0015687957332413448 -0.0015466087124150689 0 -0.0014724293377267937 -0.0016258435340362574 0 -0.0015982713370283443 -0.001663131164163419 0 -0.0014499133671549633 -0.0018140152551898306 0 -0.0015640313764834057 -0.0017746909314370922 0 -0.0015177698332096948 -0.0018932615112930422 0 -0.0014499133671549633 -0.0018140152551898306 0 -0.0014577978049232232 -0.0017045147058134236 0 -0.0015640313764834057 -0.0017746909314370922 0 -0.0016551502100141217 -0.0018347850657940545 0 -0.0015640313764834057 -0.0017746909314370922 0 -0.0016090903885464705 -0.001919150460329038 0 -0.0017048822282436865 -0.0017549023466464553 0 -0.0015771236608979789 -0.0017196033551941108 0 -0.0015640313764834057 -0.0017746909314370922 0 -0.0016090903885464705 -0.001919150460329038 0 -0.0015177698332096948 -0.0018932615112930422 0 -0.0016090903885464705 -0.001919150460329038 0 -0.0015177698332096948 -0.0018932615112930422 0 -0.0015072704195651743 -0.0019869506406063929 0 -0.0014147131044040856 -0.0019433771983634145 0 -0.0015177698332096948 -0.0018932615112930422 0 -0.0015072704195651743 -0.0019869506406063929 0 -0.0016090903885464705 -0.001919150460329038 0 -0.0015072704195651743 -0.0019869506406063929 0 -0.001596531943377039 -0.0020190284028839562 0 -0.0016090903885464705 -0.001919150460329038 0 -0.0016601415545867448 -0.0019881581347558786 0 -0.001596531943377039 -0.0020190284028839562 0 -0.0016090903885464705 -0.001919150460329038 0 -0.0016601415545867448 -0.0019881581347558786 0 -0.0016751741495925783 -0.0019108393455732377 0 -0.0016551502100141217 -0.0018347850657940545 0 -0.0016090903885464705 -0.001919150460329038 0 -0.0016751741495925783 -0.0019108393455732377 0 -0.0016751741495925783 -0.0019108393455732377 0 -0.0017055356494292107 -0.0019619075864957679 0 -0.0017371986716357695 -0.0018786181234065119 0 -0.0016393686628642986 -0.0020483321409300111 0 -0.0016679573100040245 -0.0019992522094217893 0 -0.0016551502100141217 -0.0018347850657940545 0 -0.0016751741495925783 -0.0019108393455732377 0 -0.0017371986716357695 -0.0018786181234065119 0 -0.0016601415545867448 -0.0019881581347558786 0 -0.0017055356494292107 -0.0019619075864957679 0 -0.0016356142432131353 -0.0020107173876035308 0 -0.0016601415545867448 -0.0019881581347558786 0 -0.0016751741495925783 -0.0019108393455732377 0 -0.0017055356494292107 -0.0019619075864957679 0 -0.0016393686628642986 -0.0020483321409300111 0 -0.0016421000231393815 -0.0020053472870653947 0 -0.0016356142432131353 -0.0020107173876035308 0 -0.0016609056567483203 -0.002011369262520621 0 -0.0015592024745049531 -0.0019434498784639911 0 -0.001583774454949541 -0.0021220017211759042 0 -0.0016356142432131353 -0.0020107173876035308 0 -0.0015363145681737298 -0.0020516361571063365 0 -0.0016601415545867448 -0.0019881581347558786 0 -0.0016356142432131353 -0.0020107173876035308 0 -0.0016609056567483203 -0.002011369262520621 0 -0.0016601415545867448 -0.0019881581347558786 0 -0.0016609056567483203 -0.002011369262520621 0 -0.001596531943377039 -0.0020190284028839562 0 -0.0016768965484429061 -0.002157121569682952 0 -0.0018323766777593919 -0.0021215257882978159 0 -0.001596531943377039 -0.0020190284028839562 0 -0.0017476854591527932 -0.0020461398776319027 0 -0.0016075084310095389 -0.0020225323062522016 0 -0.001822410952092064 -0.0022832347053060647 0 -0.001659325693217575 -0.0023048092719903227 0 -0.0018412810386660985 -0.0024739481237450295 0 -0.0016768965484429061 -0.002157121569682952 0 -0.0018323766777593919 -0.0021215257882978159 0 -0.001822410952092064 -0.0022832347053060647 0 -0.0016768965484429061 -0.002157121569682952 0 -0.001822410952092064 -0.0022832347053060647 0 -0.001659325693217575 -0.0023048092719903227 0 -0.0018323766777593919 -0.0021215257882978159 0 -0.001822410952092064 -0.0022832347053060647 0 -0.0020953776695987751 -0.002245714013754297 0 -0.001822410952092064 -0.0022832347053060647 0 -0.0018412810386660985 -0.0024739481237450295 0 -0.0020953776695987751 -0.002245714013754297 0 -0.0019629279037558368 -0.002434472028331771 0 -0.0017349565948731106 -0.0023066484911847887 0 -0.0017476854591527932 -0.0020461398776319027 0 -0.0017349565948731106 -0.0023066484911847887 0 -0.0015072704195651743 -0.0019869506406063929 0 -0.001596531943377039 -0.0020190284028839562 0 -0.0014910629989609763 -0.002170158364448475 0 -0.0014350158332360468 -0.0020674935159562479 0 -0.0015072704195651743 -0.0019869506406063929 0 -0.0014910629989609763 -0.002170158364448475 0 -0.0016768965484429061 -0.002157121569682952 0 -0.001596531943377039 -0.0020190284028839562 0 -0.0014910629989609763 -0.002170158364448475 0 -0.0016768965484429061 -0.002157121569682952 0 -0.001659325693217575 -0.0023048092719903227 0 -0.0014910629989609763 -0.002170158364448475 0 -0.001659325693217575 -0.0023048092719903227 0 -0.0014910629989609763 -0.002170158364448475 0 -0.0015200465817154071 -0.002373464163470116 0 -0.0014350158332360468 -0.0020674935159562479 0 -0.0014910629989609763 -0.002170158364448475 0 -0.0014374696880824166 -0.0021963642002784775 0 -0.0014910629989609763 -0.002170158364448475 0 -0.0014374696880824166 -0.0021963642002784775 0 -0.0014724129712673898 -0.0023441157317135681 0 -0.0014880253368606223 -0.0021761271503193225 0 -0.0013932610665679051 -0.0024537928801987244 0 -0.0013268330636236388 -0.0025031120119561375 0 -0.0015200465817154071 -0.002373464163470116 0 -0.0015841233976983176 -0.0025256530328966139 0 -0.0014910629989609763 -0.002170158364448475 0 -0.0013268330636236388 -0.0025031120119561375 0 -0.0015200465817154071 -0.002373464163470116 0 -0.001659325693217575 -0.0023048092719903227 0 -0.0015200465817154071 -0.002373464163470116 0 -0.0015841233976983176 -0.0025256530328966139 0 -0.0015841233976983176 -0.0025256530328966139 0 -0.0014141331327354692 -0.0027214281236259351 0 -0.0016056101319448612 -0.0027985513212811512 0 -0.0013268330636236388 -0.0025031120119561375 0 -0.0015841233976983176 -0.0025256530328966139 0 -0.0014141331327354692 -0.0027214281236259351 0 -0.0013268330636236388 -0.0025031120119561375 0 -0.0014141331327354692 -0.0027214281236259351 0 -0.0012131220912835641 -0.0028090759906076106 0 -0.0018412810386660985 -0.0024739481237450295 0 -0.0018344764919689589 -0.0026722590785523228 0 -0.002003251288918712 -0.0024981620468361838 0 -0.0018412810386660985 -0.0024739481237450295 0 -0.0020194347676654361 -0.0023505433803246143 0 -0.002003251288918712 -0.0024981620468361838 0 -0.001659325693217575 -0.0023048092719903227 0 -0.0015841233976983176 -0.0025256530328966139 0 -0.0018412810386660985 -0.0024739481237450295 0 -0.0015841233976983176 -0.0025256530328966139 0 -0.0018344764919689589 -0.0026722590785523228 0 -0.0016056101319448612 -0.0027985513212811512 0 -0.0015841233976983176 -0.0025256530328966139 0 -0.0018412810386660985 -0.0024739481237450295 0 -0.0018344764919689589 -0.0026722590785523228 0 -0.0018344764919689589 -0.0026722590785523228 0 -0.002003251288918712 -0.0024981620468361838 0 -0.0020805193721496478 -0.0026582346732824005 0 -0.0018344764919689589 -0.0026722590785523228 0 -0.0019222737241332145 -0.0029170296445784282 0 -0.0020805193721496478 -0.0026582346732824005 0 -0.0019222737241332145 -0.0029170296445784282 0 -0.001597307771476568 -0.003009207957642666 0 -0.0016056101319448612 -0.0027985513212811512 0 -0.0018344764919689589 -0.0026722590785523228 0 -0.0019222737241332145 -0.0029170296445784282 0 -0.0016056101319448612 -0.0027985513212811512 0 -0.0019222737241332145 -0.0029170296445784282 0 -0.0017254325797229949 -0.0031933818814635227 0 -0.001597307771476568 -0.003009207957642666 0 -0.0011441108164337971 -0.0038725295959245957 0 -0.00099854860463763719 -0.0045480728058137259 0 -0.00038460013545036899 -0.0049428657075092416 0 -0.00038074988019759027 -0.005261520423753269 0 -0.00017792395227453594 -0.005225445191501016 0 -0.00038460013545036899 -0.0049428657075092416 0 -0.00038074988019759027 -0.005261520423753269 0 -0.00050992663853415823 -0.0051177096536116455 0 -0.00046331981537416756 -0.0053444499528467505 0 -0.00049404988790457526 -0.0054558969375248824 0 -0.00059871406069612486 -0.0053138548635857565 0 -0.00032115278176402754 -0.0052839032063836848 0 -0.00099854860463763719 -0.0045480728058137259 0 -0.00046331981537416756 -0.0053444499528467505 0 -0.00034077743999839309 -0.0053433417212485597 0 -0.00038285777456941399 -0.0054843163070000091 0 -0.00038285777456941399 -0.0054843163070000091 0 -0.00023856013569524616 -0.0055420912845971209 0 -0.00030562318358453411 -0.0056587577389694563 0 -0.00034077743999839309 -0.0053433417212485597 0 -0.00038285777456941399 -0.0054843163070000091 0 -0.00023856013569524616 -0.0055420912845971209 0 -0.00049404988790457526 -0.0054558969375248824 0 -0.00045333394954613849 -0.005600512249104116 0 -0.0006003477136023584 -0.0055330740706310182 0 -0.00038285777456941399 -0.0054843163070000091 0 -0.00049404988790457526 -0.0054558969375248824 0 -0.00045333394954613849 -0.005600512249104116 0 -0.00046331981537416756 -0.0053444499528467505 0 -0.00038285777456941399 -0.0054843163070000091 0 -0.00049404988790457526 -0.0054558969375248824 0 -0.001302599808447872 -0.0044618686250650413 0 -0.0013137013896248868 -0.0044691896454166604 0 -0.0013062039177575771 -0.0044400441003390884 0 -0.00099854860463763719 -0.0045480728058137259 0 -0.0007368114835797551 -0.0050858335478804429 0 -0.00099854860463763719 -0.0045480728058137259 0 -0.0014523033485317584 -0.0037318510882056693 0 -0.0013236389235844743 -0.0044482469695614323 0 -0.0013137013896248868 -0.0044691896454166604 0 -0.0013062039177575771 -0.0044400441003390884 0 -0.001302599808447872 -0.0044618686250650413 0 -0.0013062039177575771 -0.0044400441003390884 0 -0.0012937526749366107 -0.0044468749545838104 0 -0.0014213280161959909 -0.0031496839222962345 0 -0.0013407260214583305 -0.0029640715878510369 0 -0.0011065103628758763 -0.003111156660770237 0 -0.0014213280161959909 -0.0031496839222962345 0 -0.0013407260214583305 -0.0029640715878510369 0 -0.001597307771476568 -0.003009207957642666 0 -0.0017254325797229949 -0.0031933818814635227 0 -0.0014213280161959909 -0.0031496839222962345 0 -0.001597307771476568 -0.003009207957642666 0 -0.0013407260214583305 -0.0029640715878510369 0 -0.001597307771476568 -0.003009207957642666 0 -0.0016056101319448612 -0.0027985513212811512 0 -0.0014141331327354692 -0.0027214281236259351 0 -0.0013407260214583305 -0.0029640715878510369 0 -0.0016056101319448612 -0.0027985513212811512 0 -0.0014141331327354692 -0.0027214281236259351 0 -0.0013407260214583305 -0.0029640715878510369 0 -0.0012131220912835641 -0.0028090759906076106 0 -0.0012165374514259834 -0.0024566043574783683 0 -0.0014121993728385695 -0.0025637513160532074 0 -0.0012603339075851175 -0.0026357823775277796 0 -0.0012603339075851175 -0.0026357823775277796 0 -0.0012202989184346117 -0.0027661602068207829 0 -0.0013424656718189212 -0.002783816289084876 0 -0.0012603339075851175 -0.0026357823775277796 0 -0.0012202989184346117 -0.0027661602068207829 0 -0.0011699276893141794 -0.0026953492853160721 0 -0.0012141514735342636 -0.0039843506037804096 0 -0.0012664457605510446 -0.0036098318128977651 0 -0.0013407260214583305 -0.0029640715878510369 0 -0.0012131220912835641 -0.0028090759906076106 0 -0.0011065103628758763 -0.003111156660770237 0 -0.0014121993728385695 -0.0025637513160532074 0 -0.0012603339075851175 -0.0026357823775277796 0 -0.0013424656718189212 -0.002783816289084876 0 -0.0013290769480936988 -0.002549900224289216 0 -0.0012664457605510446 -0.0036098318128977651 0 -0.0020712712027084958 -0.0031225430839915426 0 -0.0020943046188921879 -0.0032105493121015035 0 -0.0020264282673571488 -0.0031651031401149533 0 -0.0020712712027084958 -0.0031225430839915426 0 -0.0020943046188921879 -0.0032105493121015035 0 -0.002173988247816993 -0.0032148799956646344 0 -0.001551629271176771 -0.0028058814043385666 0 -0.0015840370601707351 -0.0029517523131273194 0 -0.0020943046188921879 -0.0032105493121015035 0 -0.0020264282673571488 -0.0031651031401149533 0 -0.0020254034501764242 -0.0032252562650641275 0 -0.0020943046188921879 -0.0032105493121015035 0 -0.002173988247816993 -0.0032148799956646344 0 -0.0021576859971572503 -0.0032580174209595834 0 -0.0012165374514259834 -0.0024566043574783683 0 -0.0012603339075851175 -0.0026357823775277796 0 -0.0011153206133304862 -0.0026157715013372476 0 -0.0012603339075851175 -0.0026357823775277796 0 -0.0011153206133304862 -0.0026157715013372476 0 -0.0011699276893141794 -0.0026953492853160721 0 -0.0022280646579720662 -0.0032751802875377613 0 -0.0021262887013076678 -0.0033079122428050708 0 -0.0021386079089003706 -0.0034450649471908078 0 -0.0012571246153395418 -0.004362226950421438 0 -0.0012529401641796223 -0.0043815738422092968 0 -0.0012274023967575631 -0.0044193366887474751 0 -0.0014174884333069473 -0.0034037064717647894 0 -0.0017084520083173863 -0.0039986489601853033 0 -0.0015840370601707351 -0.0029517523131273194 0 -0.0014174884333069473 -0.0034037064717647894 0 -0.0012729625003962295 -0.0043812089693846448 0 -0.0012571246153395418 -0.004362226950421438 0 -0.0012529401641796223 -0.0043815738422092968 0 -0.0012141514735342636 -0.0039843506037804096 0 -0.0014174884333069473 -0.0034037064717647894 0 -0.0012141514735342636 -0.0039843506037804096 0 -0.0012844313818796912 -0.0041928116759122492 0 -0.001270761015735184 -0.0043871661891694896 0 -0.0012529401641796223 -0.0043815738422092968 0 -0.0012583649369196548 -0.0044099033930898807 0 -0.0022280646579720662 -0.0032751802875377613 0 -0.0021576859971572503 -0.0032580174209595834 0 -0.0021262887013076678 -0.0033079122428050708 0 -0.002173988247816993 -0.0032148799956646344 0 -0.0022280646579720662 -0.0032751802875377613 0 -0.0021576859971572503 -0.0032580174209595834 0 -0.0021262887013076678 -0.0033079122428050708 0 -0.0020254034501764242 -0.0032252562650641275 0 -0.0019694420875342659 -0.0033122202850589168 0 -0.0021262887013076678 -0.0033079122428050708 0 -0.0021386079089003706 -0.0034450649471908078 0 -0.0019694420875342659 -0.0033122202850589168 0 -0.0020943046188921879 -0.0032105493121015035 0 -0.0021576859971572503 -0.0032580174209595834 0 -0.0021262887013076678 -0.0033079122428050708 0 -0.0020943046188921879 -0.0032105493121015035 0 -0.0021262887013076678 -0.0033079122428050708 0 -0.0020254034501764242 -0.0032252562650641275 0 -0.0012529401641796223 -0.0043815738422092968 0 -0.0012274023967575631 -0.0044193366887474751 0 -0.0012583649369196548 -0.0044099033930898807 0 -0.0012274023967575631 -0.0044193366887474751 0 -0.0012583649369196548 -0.0044099033930898807 0 -0.0012507432524098095 -0.0044313530959147274 0 -0.0012583649369196548 -0.0044099033930898807 0 -0.0012507432524098095 -0.0044313530959147274 0 -0.0012665830420155223 -0.0044285246978109528 0 -0.0012274023967575631 -0.0044193366887474751 0 -0.0012507432524098095 -0.0044313530959147274 0 -0.0012394638620754897 -0.0044547129002644259 0 -0.0012507432524098095 -0.0044313530959147274 0 -0.0012625474082694169 -0.0044517528984724204 0 -0.0012665830420155223 -0.0044285246978109528 0 -0.0012507432524098095 -0.0044313530959147274 0 -0.0012625474082694169 -0.0044517528984724204 0 -0.0012394638620754897 -0.0044547129002644259 0 -0.0012625474082694169 -0.0044517528984724204 0 -0.0012394638620754897 -0.0044547129002644259 0 -0.0012573683717948191 -0.0044791794006807167 0 -0.0017084520083173863 -0.0039986489601853033 0 -0.0015965793924566337 -0.0040277874464722781 0 -0.0012274023967575631 -0.0044193366887474751 0 -0.0012394638620754897 -0.0044547129002644259 0 -0.0012097791415285966 -0.0044597714892348223 0 -0.0014523033485317584 -0.0037318510882056693 0 -0.0012664457605510446 -0.0036098318128977651 0 -0.0013062039177575771 -0.0044400441003390884 0 -0.0012850434529704682 -0.0044308317245650587 0 -0.0012937526749366107 -0.0044468749545838104 0 -0.0012865403046903323 -0.0044403730724128761 0 -0.0012937526749366107 -0.0044468749545838104 0 -0.001286084158084683 -0.0044559899056187419 0 -0.0012850434529704682 -0.0044308317245650587 0 -0.0012865403046903323 -0.0044403730724128761 0 -0.0012937526749366107 -0.0044468749545838104 0 -0.0012425576340840863 -0.0043537060000843879 0 -0.0013165405276385632 -0.0043679809440704846 0 -0.0012844197558578995 -0.0044087958553123262 0 -0.0012850434529704682 -0.0044308317245650587 0 -0.0012865403046903323 -0.0044403730724128761 0 -0.00128205224755443 -0.0044435607378343752 0 -0.0013165405276385632 -0.0043679809440704846 0 -0.0012844197558578995 -0.0044087958553123262 0 -0.00128205224755443 -0.0044435607378343752 0 -0.0012664457605510446 -0.0036098318128977651 0 -0.0012022924063188006 -0.0046689154657006066 0 -0.0012141514735342636 -0.0039843506037804096 0 -0.0013594962191136994 -0.0044315918368178983 0 -0.001270761015735184 -0.0043871661891694896 0 -0.0012583649369196548 -0.0044099033930898807 0 -0.0012844197558578995 -0.0044087958553123262 0 -0.0012583649369196548 -0.0044099033930898807 0 -0.0012844197558578995 -0.0044087958553123262 0 -0.0012665830420155223 -0.0044285246978109528 0 -0.0012844197558578995 -0.0044087958553123262 0 -0.0012665830420155223 -0.0044285246978109528 0 -0.00128205224755443 -0.0044435607378343752 0 -0.0012865403046903323 -0.0044403730724128761 0 -0.00128205224755443 -0.0044435607378343752 0 -0.001286084158084683 -0.0044559899056187419 0 -0.0012625474082694169 -0.0044517528984724204 0 -0.00128205224755443 -0.0044435607378343752 0 -0.0012765888776459402 -0.0044695343364464703 0 -0.00128205224755443 -0.0044435607378343752 0 -0.001286084158084683 -0.0044559899056187419 0 -0.0012765888776459402 -0.0044695343364464703 0 -0.0012625474082694169 -0.0044517528984724204 0 -0.0012665830420155223 -0.0044285246978109528 0 -0.00128205224755443 -0.0044435607378343752 0 -0.0012625474082694169 -0.0044517528984724204 0 -0.0012765888776459402 -0.0044695343364464703 0 -0.0012573683717948191 -0.0044791794006807167 0 -0.001286084158084683 -0.0044559899056187419 0 -0.0012921675153794469 -0.0044694378517147748 0 -0.0012765888776459402 -0.0044695343364464703 0 -0.0012937526749366107 -0.0044468749545838104 0 -0.001286084158084683 -0.0044559899056187419 0 -0.0012921675153794469 -0.0044694378517147748 0 -0.001302599808447872 -0.0044618686250650413 0 -0.0012937526749366107 -0.0044468749545838104 0 -0.0012921675153794469 -0.0044694378517147748 0 -0.0012921675153794469 -0.0044694378517147748 0 -0.0012765888776459402 -0.0044695343364464703 0 -0.0012784659655756918 -0.0044954615555206964 0 -0.0012921675153794469 -0.0044694378517147748 0 -0.0012784659655756918 -0.0044954615555206964 0 -0.0013023619534576548 -0.0044990882939121681 0 -0.0012765888776459402 -0.0044695343364464703 0 -0.0012784659655756918 -0.0044954615555206964 0 -0.0012573683717948191 -0.0044791794006807167 0 -0.0012784659655756918 -0.0044954615555206964 0 -0.0012573683717948191 -0.0044791794006807167 0 -0.0012545992525013485 -0.0045186811947891606 0 -0.0012784659655756918 -0.0044954615555206964 0 -0.0012545992525013485 -0.0045186811947891606 0 -0.0012833690461340815 -0.0045326470766693019 0 -0.0010250416820503675 -0.0055366673152399378 0 -0.00074507909725630441 -0.0050425457219937918 0 -0.0012784659655756918 -0.0044954615555206964 0 -0.0012833690461340815 -0.0045326470766693019 0 -0.0013023619534576548 -0.0044990882939121681 0 -0.0012394638620754897 -0.0044547129002644259 0 -0.0012320580527394346 -0.0044812380171624679 0 -0.0012097791415285966 -0.0044597714892348223 0 -0.0012320580527394346 -0.0044812380171624679 0 -0.00122249649209925 -0.0045042792093343007 0 -0.0012093911145600671 -0.0044848825081950771 0 -0.0012394638620754897 -0.0044547129002644259 0 -0.0012320580527394346 -0.0044812380171624679 0 -0.0012573683717948191 -0.0044791794006807167 0 -0.0012320580527394346 -0.0044812380171624679 0 -0.0012573683717948191 -0.0044791794006807167 0 -0.0012545992525013485 -0.0045186811947891606 0 -0.0012320580527394346 -0.0044812380171624679 0 -0.0012545992525013485 -0.0045186811947891606 0 -0.00122249649209925 -0.0045042792093343007 0 -0.0014201259994259126 -0.0051264176631418811 0 -0.0013721372952587069 -0.0052465290408724692 0 -0.0014766651285023637 -0.0058191202698479093 0 -0.0015687995148067737 -0.0058398779961653892 0 -0.0015358349335886151 -0.0057674456371160096 0 -0.0015687995148067737 -0.0058398779961653892 0 -0.0015358349335886151 -0.0057674456371160096 0 -0.0016146659188803808 -0.0058054939916027826 0 -0.0014766651285023637 -0.0058191202698479093 0 -0.0015358349335886151 -0.0057674456371160096 0 -0.0014410268267319208 -0.0057733593514240466 0 -0.0015358349335886151 -0.0057674456371160096 0 -0.0014410268267319208 -0.0057733593514240466 0 -0.0014446953912498573 -0.0057183382287194105 0 -0.0015358349335886151 -0.0057674456371160096 0 -0.0014446953912498573 -0.0057183382287194105 0 -0.0015546121441653937 -0.0057067703726057023 0 -0.0015358349335886151 -0.0057674456371160096 0 -0.00159659121426967 -0.0057538653624985021 0 -0.0015546121441653937 -0.0057067703726057023 0 -0.00025355234650636222 -0.005842636771774194 0 -0.00027556528236608279 -0.0058460690969132107 0 -0.00023873050037572129 -0.0058371823666474761 0 -0.0014201259994259126 -0.0051264176631418811 0 -0.0010250416820503675 -0.0055366673152399378 0 -0.0014766651285023637 -0.0058191202698479093 0 -0.0013837581024861573 -0.005793807513829392 0 -0.0014410268267319208 -0.0057733593514240466 0 -0.0013837581024861573 -0.005793807513829392 0 -0.0014410268267319208 -0.0057733593514240466 0 -0.0014446953912498573 -0.0057183382287194105 0 -0.0010250416820503675 -0.0055366673152399378 0 -0.00086155687691729732 -0.0058428242650041817 0 -0.00025355234650636222 -0.005842636771774194 0 -0.00036766548992164512 -0.0058563549318379699 0 -0.00027556528236608279 -0.0058460690969132107 0 -0.00027556528236608279 -0.0058460690969132107 0 -0.00024862358258484523 -0.0058530169538747127 0 -0.00023873050037572129 -0.0058371823666474761 0 -0.00025355234650636222 -0.005842636771774194 0 -0.00023873050037572129 -0.0058371823666474761 0 -0.0002005957805836768 -0.0057318876807545167 0 -0.00023873050037572129 -0.0058371823666474761 0 -0.00024420162982514461 -0.0058606403045167134 0 -0.00027881410459023909 -0.0057800340552475789 0 -0.00024862358258484523 -0.0058530169538747127 0 -0.00023873050037572129 -0.0058371823666474761 0 -0.00024420162982514461 -0.0058606403045167134 0 -0.00024862358258484523 -0.0058530169538747127 0 -0.00024420162982514461 -0.0058606403045167134 0 -0.00023812240166450749 -0.0058709461147922045 0 -0.00024420162982514461 -0.0058606403045167134 0 -0.00023812240166450749 -0.0058709461147922045 0 -0.00023937478409923551 -0.0059104676272015034 0 -0.00024363553978098274 -0.0059157599358394663 0 -0.00024372464260979503 -0.0059502529095470267 0 -0.00024420162982514461 -0.0058606403045167134 0 -0.00023937478409923551 -0.0059104676272015034 0 -0.00041622311452789933 -0.0058431390003255614 0 -0.00023937478409923551 -0.0059104676272015034 0 -1.5818751034517424e-05 -0.0059939250066409332 0 -5.9391169242804458e-05 -0.0060770441468509743 0 -0.00023937478409923551 -0.0059104676272015034 0 -1.5818751034517424e-05 -0.0059939250066409332 0 -6.7359480385069929e-05 -0.0059030471394253018 0 -1.5818751034517424e-05 -0.0059939250066409332 0 -5.9391169242804458e-05 -0.0060770441468509743 0 4.1719883674329116e-05 -0.006065804595481946 0 -0.00041622311452789933 -0.0058431390003255614 0 -0.00039078677286218171 -0.0057324200712985099 0 -0.00027881410459023909 -0.0057800340552475789 0 -0.00024420162982514461 -0.0058606403045167134 0 -0.00041622311452789933 -0.0058431390003255614 0 -0.00027881410459023909 -0.0057800340552475789 0 -0.00039078677286218171 -0.0057324200712985099 0 -0.00030562318358453411 -0.0056587577389694563 0 -0.00027881410459023909 -0.0057800340552475789 0 -0.00041622311452789933 -0.0058431390003255614 0 -0.00039078677286218171 -0.0057324200712985099 0 -0.00059641700492575177 -0.0057351060828484558 0 -0.00039078677286218171 -0.0057324200712985099 0 -0.00045333394954613849 -0.005600512249104116 0 -0.00059641700492575177 -0.0057351060828484558 0 -0.00039078677286218171 -0.0057324200712985099 0 -0.00045333394954613849 -0.005600512249104116 0 -0.00030562318358453411 -0.0056587577389694563 0 -0.00038285777456941399 -0.0054843163070000091 0 -0.00045333394954613849 -0.005600512249104116 0 -0.00030562318358453411 -0.0056587577389694563 0 -0.00023856013569524616 -0.0055420912845971209 0 -0.00030562318358453411 -0.0056587577389694563 0 -0.0002005957805836768 -0.0057318876807545167 0 -0.0007368114835797551 -0.0050858335478804429 0 -0.00074507909725630441 -0.0050425457219937918 0 -0.001302599808447872 -0.0044618686250650413 0 -0.0012921675153794469 -0.0044694378517147748 0 -0.0013023619534576548 -0.0044990882939121681 0 -0.001302599808447872 -0.0044618686250650413 0 -0.0013137013896248868 -0.0044691896454166604 0 -0.0013023619534576548 -0.0044990882939121681 0 -0.00023873050037572129 -0.0058371823666474761 0 -0.0002005957805836768 -0.0057318876807545167 0 -0.00027881410459023909 -0.0057800340552475789 0 -0.00030562318358453411 -0.0056587577389694563 0 -0.0002005957805836768 -0.0057318876807545167 0 -0.00027881410459023909 -0.0057800340552475789 0 -0.0024734691621431694 -0.0036920051480209262 0 -0.0026054158369266086 -0.0037397674672881936 0 -0.0025747563830884898 -0.0036607678749667853 0 -0.0027761059852867047 -0.0054738396062461109 0 -0.0025416028335921753 -0.0046826324845484794 0 -0.0030636122918513615 -0.003489491930774732 0 -0.0025416028335921753 -0.0046826324845484794 0 -0.0029066538420671672 -0.0044433964003111398 0 -0.0029194655955130013 -0.0045412430716957244 0 -0.0027957290642966681 -0.0045081228838332287 0 -0.0026054158369266086 -0.0037397674672881936 0 -0.0025747563830884898 -0.0036607678749667853 0 -0.0027021221212665471 -0.0036791268230679649 0 -0.0022396028089169745 -0.0045996023359720665 0 -0.0024158504144058987 -0.0044869987933536873 0 -0.0024122483818076897 -0.0045559033240489223 0 -0.0025416028335921753 -0.0046826324845484794 0 -0.0022089580066048694 -0.0051845443164188999 0 -0.0022396028089169745 -0.0045996023359720665 0 -0.0024122483818076897 -0.0045559033240489223 0 -0.0024068080954269132 -0.0046534488143279784 0 -0.0024915321456644188 -0.0059904106948426711 0 -0.0024066532854332286 -0.0059639320804548528 0 -0.0025081866421638654 -0.005936102081582244 0 -0.0025416028335921753 -0.0046826324845484794 0 -0.0023564514425112619 -0.0039196380207461023 0 -0.0026288333765958484 -0.0035913791472228312 0 -0.0027093369940452998 -0.0035681481727700077 0 -0.0027021221212665471 -0.0036791268230679649 0 -0.0025747563830884898 -0.0036607678749667853 0 -0.0026288333765958484 -0.0035913791472228312 0 -0.0027021221212665471 -0.0036791268230679649 0 -0.0024734691621431694 -0.0036920051480209262 0 -0.0025747563830884898 -0.0036607678749667853 0 -0.0025229180810648851 -0.0035953312504094837 0 -0.0025747563830884898 -0.0036607678749667853 0 -0.0025229180810648851 -0.0035953312504094837 0 -0.0026288333765958484 -0.0035913791472228312 0 -0.0025229180810648851 -0.0035953312504094837 0 -0.0025743541979557751 -0.0034930664107429925 0 -0.0026113997096287593 -0.0035349010976643623 0 -0.0025229180810648851 -0.0035953312504094837 0 -0.0026113997096287593 -0.0035349010976643623 0 -0.0026288333765958484 -0.0035913791472228312 0 -0.002801071234945135 -0.0035078685925958074 0 -0.0029069572690344496 -0.0032320174515570945 0 -0.0031436570159214714 -0.0033156452376084549 0 -0.0031464355972108658 -0.0033259985592490834 0 -0.0031513642610938547 -0.0033141211222574062 0 -0.0030757217994279843 -0.0029103695164109647 0 -0.0030014356510738621 -0.0029468445657685905 0 -0.002967270873851 -0.0028476402117188567 0 -0.0026422729916389352 -0.0033620204814604781 0 -0.0025743541979557751 -0.0034930664107429925 0 -0.0026450523383887165 -0.003458761688543097 0 -0.0026422729916389352 -0.0033620204814604781 0 -0.0026450523383887165 -0.003458761688543097 0 -0.002715018714890586 -0.0034554197101894892 0 -0.0024746829260571747 -0.0031765487983803674 0 -0.0029069572690344496 -0.0032320174515570945 0 -0.0025743541979557751 -0.0034930664107429925 0 -0.0026173653808978601 -0.003493435541760116 0 -0.0026450523383887165 -0.003458761688543097 0 -0.0026173653808978601 -0.003493435541760116 0 -0.0026450523383887165 -0.003458761688543097 0 -0.0026561373732037897 -0.0035150550036970232 0 -0.0026450523383887165 -0.003458761688543097 0 -0.0026561373732037897 -0.0035150550036970232 0 -0.002715018714890586 -0.0034554197101894892 0 -0.0026561373732037897 -0.0035150550036970232 0 -0.0026113997096287593 -0.0035349010976643623 0 -0.0026288333765958484 -0.0035913791472228312 0 -0.0025743541979557751 -0.0034930664107429925 0 -0.0026173653808978601 -0.003493435541760116 0 -0.0026113997096287593 -0.0035349010976643623 0 -0.0026173653808978601 -0.003493435541760116 0 -0.0026561373732037897 -0.0035150550036970232 0 -0.0026113997096287593 -0.0035349010976643623 0 -0.0026561373732037897 -0.0035150550036970232 0 -0.0026288333765958484 -0.0035913791472228312 0 -0.0027093369940452998 -0.0035681481727700077 0 -0.0023847323678835267 -0.0036076800775809263 0 -0.0021804848663662473 -0.0034147027929485045 0 -0.0020479689336629948 -0.0036814233841614987 0 -0.0020598904914095142 -0.003478125650743227 0 -0.0022091412295343706 -0.0036713716400024556 0 -0.0026561373732037897 -0.0035150550036970232 0 -0.0027093369940452998 -0.0035681481727700077 0 -0.002715018714890586 -0.0034554197101894892 0 -0.0021804848663662473 -0.0034147027929485045 0 -0.0020162053277965855 -0.0033689077533445907 0 -0.0020479689336629948 -0.0036814233841614987 0 -0.0022091412295343706 -0.0036713716400024556 0 -0.0020994442220589938 -0.0037599442180947006 0 -0.0019456606208089863 -0.0032440014732907159 0 -0.0019216951191747989 -0.0032439780985336459 0 -0.0019176125004084826 -0.0032280275051544791 0 -0.0019456606208089863 -0.0032440014732907159 0 -0.0019462490159615985 -0.0032462645682216924 0 -0.0019216951191747989 -0.0032439780985336459 0 -0.0019316845158647016 -0.0032573067312049145 0 -0.0019462490159615985 -0.0032462645682216924 0 -0.0019216951191747989 -0.0032439780985336459 0 -0.0019316845158647016 -0.0032573067312049145 0 -0.0019583585259903831 -0.0032657265686529447 0 -0.0019462490159615985 -0.0032462645682216924 0 -0.0019809164186805335 -0.0032707511220462118 0 -0.0019461636729361212 -0.0032428783232396358 0 -0.0019462490159615985 -0.0032462645682216924 0 -0.0021804848663662473 -0.0034147027929485045 0 -0.0021744275587315606 -0.0033973711361736398 0 -0.0019316845158647016 -0.0032573067312049145 0 -0.0019216951191747989 -0.0032439780985336459 0 -0.0018982523831013445 -0.0032504951099322191 0 -0.0019216951191747989 -0.0032439780985336459 0 -0.0018982523831013445 -0.0032504951099322191 0 -0.0018959365998609942 -0.0032371826720538639 0 -0.0019216951191747989 -0.0032439780985336459 0 -0.0019176125004084826 -0.0032280275051544791 0 -0.0018959365998609942 -0.0032371826720538639 0 -0.0019176125004084826 -0.0032280275051544791 0 -0.0018983756878595476 -0.0032288986012084359 0 -0.0018959365998609942 -0.0032371826720538639 0 -0.0021890266983709186 -0.0038051376653108755 0 -0.0021963808846278731 -0.0039085277071293171 0 -0.0023563868137845673 -0.0038635479520492122 0 -0.0022091412295343706 -0.0036713716400024556 0 -0.0021890266983709186 -0.0038051376653108755 0 -0.0023563868137845673 -0.0038635479520492122 0 -0.0019176125004084826 -0.0032280275051544791 0 -0.0019032275127488858 -0.0032215769956452042 0 -0.0018983756878595476 -0.0032288986012084359 0 -0.0020162053277965855 -0.0033689077533445907 0 -0.0021151735997160348 -0.003959807220133945 0 -0.0021245717838411136 -0.0043406238915609362 0 -0.0021151735997160348 -0.003959807220133945 0 -0.0022091412295343706 -0.0036713716400024556 0 -0.0021890266983709186 -0.0038051376653108755 0 -0.0020994442220589938 -0.0037599442180947006 0 -0.0021890266983709186 -0.0038051376653108755 0 -0.0020994442220589938 -0.0037599442180947006 0 -0.0020873945891683662 -0.0038532501028578563 0 -0.0023847323678835267 -0.0036076800775809263 0 -0.0023564514425112619 -0.0039196380207461023 0 -0.0020479689336629948 -0.0036814233841614987 0 -0.0020994442220589938 -0.0037599442180947006 0 -0.0020378996720151537 -0.0038843381215065624 0 -0.0020873945891683662 -0.0038532501028578563 0 -0.0020379028438945773 -0.0038849949999895167 0 -0.0020341688829102786 -0.0039556690975251262 0 -0.0020994442220589938 -0.0037599442180947006 0 -0.0020873945891683662 -0.0038532501028578563 0 -0.0020378996720151537 -0.0038843381215065624 0 -0.0022097151824678101 -0.003952269908910142 0 -0.0023564514425112619 -0.0039196380207461023 0 -0.0020873945891683662 -0.0038532501028578563 0 -0.0020341688829102786 -0.0039556690975251262 0 -0.0021963808846278731 -0.0039085277071293171 0 -0.0021890266983709186 -0.0038051376653108755 0 -0.0020873945891683662 -0.0038532501028578563 0 -0.0021963808846278731 -0.0039085277071293171 0 -0.0019285310992294051 -0.0048271688375223351 0 -0.0020506790158417837 -0.0048782528309810093 0 -0.0020652118229193116 -0.0047890832030910791 0 -0.0020923996465376433 -0.0044573342452580338 0 -0.0021245717838411136 -0.0043406238915609362 0 -0.0023564514425112619 -0.0039196380207461023 0 -0.0020923996465376433 -0.0044573342452580338 0 -0.0019285310992294051 -0.0048271688375223351 0 -0.00192361512901178 -0.0049108123295378012 0 -0.0020506790158417837 -0.0048782528309810093 0 -0.0020923996465376433 -0.0044573342452580338 0 -0.0022089580066048694 -0.0051845443164188999 0 -0.00192361512901178 -0.0049108123295378012 0 -0.0020506790158417837 -0.0048782528309810093 0 -0.0021760784447780218 -0.0049969296817201636 0 -0.0020506790158417837 -0.0048782528309810093 0 -0.0021598609548786987 -0.0048690678988986208 0 -0.0021760784447780218 -0.0049969296817201636 0 -0.0021598609548786987 -0.0048690678988986208 0 -0.0020652118229193116 -0.0047890832030910791 0 -0.0022008438496681354 -0.0047488906496243252 0 -0.0020506790158417837 -0.0048782528309810093 0 -0.0021598609548786987 -0.0048690678988986208 0 -0.0020652118229193116 -0.0047890832030910791 0 -0.0021598609548786987 -0.0048690678988986208 0 -0.0023339303867240899 -0.0049265021422759117 0 -0.0022008438496681354 -0.0047488906496243252 0 -0.0020019556840842356 -0.0041172697775293376 0 -0.0020174250740120051 -0.003794914604369988 0 -0.0017987482360427116 -0.0038570035991819457 0 -0.0018751797630054447 -0.0043307017662423328 0 -0.0021151735997160348 -0.003959807220133945 0 -0.0021598609548786987 -0.0048690678988986208 0 -0.0023339303867240899 -0.0049265021422759117 0 -0.0021760784447780218 -0.0049969296817201636 0 -0.0016607926468111935 -0.0035780557123442085 0 -0.001478849145621291 -0.0037457188598857645 0 -0.0017913021393502506 -0.0037508766260973278 0 -0.0016607926468111935 -0.0035780557123442085 0 -0.001478849145621291 -0.0037457188598857645 0 -0.0014969717989647307 -0.0034355519057954757 0 -0.0018751797630054447 -0.0043307017662423328 0 -0.0018297010515956435 -0.0034297602909595156 0 -0.0016607926468111935 -0.0035780557123442085 0 -0.0014969717989647307 -0.0034355519057954757 0 -0.0017319543435964097 -0.0033703943902743641 0 -0.0018768197422892722 -0.0032890718857442932 0 -0.001904721540789569 -0.0032516822421668297 0 -0.0019203881386688976 -0.0032857272502317919 0 -0.0018297010515956435 -0.0034297602909595156 0 -0.0018080730778163774 -0.0033332961672769895 0 -0.0018906228023493582 -0.0032239805908096104 0 -0.0019032275127488858 -0.0032215769956452042 0 -0.0018983756878595476 -0.0032288986012084359 0 -0.0018297010515956435 -0.0034297602909595156 0 -0.0021151735997160348 -0.003959807220133945 0 -0.0018906228023493582 -0.0032239805908096104 0 -0.0018983756878595476 -0.0032288986012084359 0 -0.001888201469704133 -0.003235606108920824 0 -0.0018983756878595476 -0.0032288986012084359 0 -0.0018959365998609942 -0.0032371826720538639 0 -0.001888201469704133 -0.003235606108920824 0 -0.0018982523831013445 -0.0032504951099322191 0 -0.0018959365998609942 -0.0032371826720538639 0 -0.001895741780768492 -0.0032133389084589531 0 -0.0018886429463530439 -0.0031906585426769445 0 -0.0018939961053797904 -0.0032108599903050636 0 -0.0018959365998609942 -0.0032371826720538639 0 -0.001895741780768492 -0.0032133389084589531 0 -0.001888201469704133 -0.003235606108920824 0 -0.0018940812248282469 -0.0031472213679817444 0 -0.0018464771949868888 -0.0031225369588613826 0 -0.001895741780768492 -0.0032133389084589531 0 -0.0018940812248282469 -0.0031472213679817444 0 -0.001895741780768492 -0.0032133389084589531 0 -0.0019266582039477163 -0.0031800562511089528 0 -0.001895741780768492 -0.0032133389084589531 0 -0.001888201469704133 -0.003235606108920824 0 -0.001904721540789569 -0.0032516822421668297 0 -0.0018297010515956435 -0.0034297602909595156 0 -0.0018907641376544871 -0.0031786543341336504 0 -0.0018768197422892722 -0.0032890718857442932 0 -0.001888201469704133 -0.003235606108920824 0 -0.001904721540789569 -0.0032516822421668297 0 -0.0019636816346609866 -0.0033067318523851762 0 -0.0018080730778163774 -0.0033332961672769895 0 -0.001904721540789569 -0.0032516822421668297 0 -0.0019369201608042783 -0.0032404115168977701 0 -0.0019203881386688976 -0.0032857272502317919 0 -0.0019369201608042783 -0.0032404115168977701 0 -0.0019694420875342659 -0.0033122202850589168 0 -0.0019203881386688976 -0.0032857272502317919 0 -0.001895741780768492 -0.0032133389084589531 0 -0.001904721540789569 -0.0032516822421668297 0 -0.0019369201608042783 -0.0032404115168977701 0 -0.001895741780768492 -0.0032133389084589531 0 -0.0019369201608042783 -0.0032404115168977701 0 -0.0019266582039477163 -0.0031800562511089528 0 -0.0019369201608042783 -0.0032404115168977701 0 -0.0019266582039477163 -0.0031800562511089528 0 -0.0019724613323268626 -0.0031708436782161517 0 -0.0019369201608042783 -0.0032404115168977701 0 -0.0019724613323268626 -0.0031708436782161517 0 -0.0020254034501764242 -0.0032252562650641275 0 -0.0020264282673571488 -0.0031651031401149533 0 -0.0019724613323268626 -0.0031708436782161517 0 -0.0020254034501764242 -0.0032252562650641275 0 -0.0019369201608042783 -0.0032404115168977701 0 -0.0020254034501764242 -0.0032252562650641275 0 -0.0019694420875342659 -0.0033122202850589168 0 -0.0021386079089003706 -0.0034450649471908078 0 -0.0019694420875342659 -0.0033122202850589168 0 -0.001894868149840862 -0.0035114862327421054 0 -0.0016607926468111935 -0.0035780557123442085 0 -0.001894868149840862 -0.0035114862327421054 0 -0.0017319543435964097 -0.0033703943902743641 0 -0.0019694420875342659 -0.0033122202850589168 0 -0.001894868149840862 -0.0035114862327421054 0 -0.0017319543435964097 -0.0033703943902743641 0 -0.0016607926468111935 -0.0035780557123442085 0 -0.001894868149840862 -0.0035114862327421054 0 -0.0017913021393502506 -0.0037508766260973278 0 -0.001894868149840862 -0.0035114862327421054 0 -0.0019881059882124966 -0.0036988716000820147 0 -0.0017913021393502506 -0.0037508766260973278 0 -0.0021386079089003706 -0.0034450649471908078 0 -0.001894868149840862 -0.0035114862327421054 0 -0.0019881059882124966 -0.0036988716000820147 0 -0.0012320580527394346 -0.0044812380171624679 0 -0.0012097791415285966 -0.0044597714892348223 0 -0.0012093911145600671 -0.0044848825081950771 0 -0.0012097791415285966 -0.0044597714892348223 0 -0.0012093911145600671 -0.0044848825081950771 0 -0.0011923294867434281 -0.0044914386046623535 0 -0.0015965793924566337 -0.0040277874464722781 0 -0.0015804861269428994 -0.0045139345911736177 0 -0.0019881059882124966 -0.0036988716000820147 0 -0.0017913021393502506 -0.0037508766260973278 0 -0.0017902186107425905 -0.0039733293718200524 0 -0.0017913021393502506 -0.0037508766260973278 0 -0.001680395574717479 -0.0039440002791609691 0 -0.0017902186107425905 -0.0039733293718200524 0 -0.0016365002147982232 -0.004229098909345981 0 -0.0015804861269428994 -0.0045139345911736177 0 -0.0016557678629510609 -0.0058548036670167218 0 -0.0016647431760693429 -0.0058253172271809555 0 -0.0016146659188803808 -0.0058054939916027826 0 -0.001680395574717479 -0.0039440002791609691 0 -0.0017890672683265742 -0.003979609282446837 0 -0.0017183979928239257 -0.0040640844256026685 0 -0.0016557678629510609 -0.0058548036670167218 0 -0.0016732309634087874 -0.0058346813045445879 0 -0.0016647431760693429 -0.0058253172271809555 0 -0.0015804861269428994 -0.0045139345911736177 0 -0.0016685736847069246 -0.0050271089095514946 0 -0.0016741497975338816 -0.0058357575679364353 0 -0.0016751971383539984 -0.005800482126875524 0 -0.0017124889219501135 -0.0057998731322486986 0 -0.0016741497975338816 -0.0058357575679364353 0 -0.0016647431760693429 -0.0058253172271809555 0 -0.0016751971383539984 -0.005800482126875524 0 -0.0016685736847069246 -0.0050271089095514946 0 -0.0018063924746517124 -0.0053484543359962498 0 -0.0013721372952587069 -0.0052465290408724692 0 -0.0015804861269428994 -0.0045139345911736177 0 -0.0015687995148067737 -0.0058398779961653892 0 -0.0016557678629510609 -0.0058548036670167218 0 -0.0016146659188803808 -0.0058054939916027826 0 -0.00122249649209925 -0.0045042792093343007 0 -0.0012093911145600671 -0.0044848825081950771 0 -0.0011923294867434281 -0.0044914386046623535 0 -0.0015358349335886151 -0.0057674456371160096 0 -0.0016146659188803808 -0.0058054939916027826 0 -0.00159659121426967 -0.0057538653624985021 0 -0.0016146659188803808 -0.0058054939916027826 0 -0.00159659121426967 -0.0057538653624985021 0 -0.0016532512817979998 -0.0057681273550107852 0 -0.00159659121426967 -0.0057538653624985021 0 -0.0016227497113093471 -0.0057195873577858946 0 -0.0015546121441653937 -0.0057067703726057023 0 -0.00159659121426967 -0.0057538653624985021 0 -0.0016227497113093471 -0.0057195873577858946 0 -0.0016532512817979998 -0.0057681273550107852 0 -0.0016227497113093471 -0.0057195873577858946 0 -0.0016532512817979998 -0.0057681273550107852 0 -0.0016980145865401687 -0.0057215795997997828 0 -0.0016532512817979998 -0.0057681273550107852 0 -0.0016996317004476559 -0.0057665353750911063 0 -0.0016980145865401687 -0.0057215795997997828 0 -0.0016532512817979998 -0.0057681273550107852 0 -0.0016751971383539984 -0.005800482126875524 0 -0.0016996317004476559 -0.0057665353750911063 0 -0.0016146659188803808 -0.0058054939916027826 0 -0.0016532512817979998 -0.0057681273550107852 0 -0.0016504010194731988 -0.005801596751785325 0 -0.0016532512817979998 -0.0057681273550107852 0 -0.0016504010194731988 -0.005801596751785325 0 -0.0016751971383539984 -0.005800482126875524 0 -0.0016647431760693429 -0.0058253172271809555 0 -0.0016146659188803808 -0.0058054939916027826 0 -0.0016504010194731988 -0.005801596751785325 0 -0.0016647431760693429 -0.0058253172271809555 0 -0.0016504010194731988 -0.005801596751785325 0 -0.0016751971383539984 -0.005800482126875524 0 -0.0016751971383539984 -0.005800482126875524 0 -0.0017124889219501135 -0.0057998731322486986 0 -0.0016996317004476559 -0.0057665353750911063 0 -0.0019031815259115514 -0.0053321161070507021 0 -0.0016818828639255129 -0.0056015144251273701 0 -0.0017040568636168887 -0.0050795114082860127 0 -0.0017704247156322646 -0.0056011411976491206 0 -0.0019082335898639238 -0.0056462202798309904 0 -0.0017124889219501135 -0.0057998731322486986 0 -0.0016996317004476559 -0.0057665353750911063 0 -0.0017516711106647161 -0.0057613188042887186 0 -0.0016996317004476559 -0.0057665353750911063 0 -0.0016980145865401687 -0.0057215795997997828 0 -0.0017516711106647161 -0.0057613188042887186 0 -0.0016980145865401687 -0.0057215795997997828 0 -0.0017516711106647161 -0.0057613188042887186 0 -0.0017655969706105218 -0.0056815946649956209 0 -0.0023031566546357221 -0.0053462771161558818 0 -0.0021032806041301451 -0.0053568463288914646 0 -0.0021682586964164629 -0.0055006032183954117 0 -0.0019082335898639238 -0.0056462202798309904 0 -0.0020957747355760466 -0.0057142331133514601 0 -0.0019082335898639238 -0.0056462202798309904 0 -0.0017987490819259856 -0.0058480764056627619 0 -0.0019082335898639238 -0.0056462202798309904 0 -0.0020339336781296288 -0.0051587265716342432 0 -0.0023031566546357221 -0.0053462771161558818 0 -0.0023181671453337441 -0.0051441523731402799 0 -0.0021462703254946712 -0.0051770856959560806 0 -0.0023181671453337441 -0.0051441523731402799 0 -0.0021760784447780218 -0.0049969296817201636 0 -0.0021462703254946712 -0.0051770856959560806 0 -0.002125570846814064 -0.0050625048395820209 0 -0.0019031815259115514 -0.0053321161070507021 0 -0.0017040568636168887 -0.0050795114082860127 0 -0.0016685736847069246 -0.0050271089095514946 0 -0.0017704247156322646 -0.0056011411976491206 0 -0.0018751797630054447 -0.0043307017662423328 0 -0.0016685736847069246 -0.0050271089095514946 0 -0.001478849145621291 -0.0037457188598857645 0 -0.0017913021393502506 -0.0037508766260973278 0 -0.001680395574717479 -0.0039440002791609691 0 -0.001728858712950445 -0.004555235418161995 0 -0.002125570846814064 -0.0050625048395820209 0 -0.0017040568636168887 -0.0050795114082860127 0 -0.001478849145621291 -0.0037457188598857645 0 -0.001680395574717479 -0.0039440002791609691 0 -0.0017183979928239257 -0.0040640844256026685 0 -0.0018751797630054447 -0.0043307017662423328 0 -0.0020339336781296288 -0.0051587265716342432 0 -0.0023339303867240899 -0.0049265021422759117 0 -0.0023181671453337441 -0.0051441523731402799 0 -0.0021760784447780218 -0.0049969296817201636 0 -0.0021760784447780218 -0.0049969296817201636 0 -0.0020400666506334179 -0.0050507781764058948 0 -0.0021462703254946712 -0.0051770856959560806 0 -0.0022089580066048694 -0.0051845443164188999 0 -0.0020412016036544913 -0.0049061648919707327 0 -0.0019551281588911914 -0.0049387418107302234 0 -0.0020400666506334179 -0.0050507781764058948 0 -0.0019426673251430246 -0.0051605616145201736 0 -0.0022089580066048694 -0.0051845443164188999 0 -0.0021715653279406073 -0.0055520362316262501 0 -0.0019551281588911914 -0.0049387418107302234 0 -0.0021760784447780218 -0.0049969296817201636 0 -0.0020400666506334179 -0.0050507781764058948 0 -0.0020400666506334179 -0.0050507781764058948 0 -0.0019426673251430246 -0.0051605616145201736 0 -0.0021462703254946712 -0.0051770856959560806 0 -0.0023031566546357221 -0.0053462771161558818 0 -0.0021462703254946712 -0.0051770856959560806 0 -0.0021032806041301451 -0.0053568463288914646 0 -0.0021032806041301451 -0.0053568463288914646 0 -0.0020345720613640854 -0.0054957918137417648 0 -0.0021682586964164629 -0.0055006032183954117 0 -0.0021032806041301451 -0.0053568463288914646 0 -0.0019368601998254816 -0.0053833681862155191 0 -0.0020345720613640854 -0.0054957918137417648 0 -0.0019426673251430246 -0.0051605616145201736 0 -0.0021462703254946712 -0.0051770856959560806 0 -0.0021032806041301451 -0.0053568463288914646 0 -0.0019426673251430246 -0.0051605616145201736 0 -0.0021032806041301451 -0.0053568463288914646 0 -0.0019368601998254816 -0.0053833681862155191 0 -0.0024919191843068901 -0.0057741815612997885 0 -0.0024212967128557274 -0.0056677351212977255 0 -0.0025312249144328167 -0.0056810100757164646 0 -0.0021715653279406073 -0.0055520362316262501 0 -0.0021809915876960144 -0.0055117354843548664 0 -0.0024095466946847388 -0.005823650061386328 0 -0.0024919191843068901 -0.0057741815612997885 0 -0.0024212967128557274 -0.0056677351212977255 0 -0.0024212967128557274 -0.0056677351212977255 0 -0.0025312249144328167 -0.0056810100757164646 0 -0.002495187638251478 -0.005603599945716695 0 -0.0025737009716219391 -0.0055996526262084611 0 -0.0025312249144328167 -0.0056810100757164646 0 -0.002495187638251478 -0.005603599945716695 0 -0.0025891182076933929 -0.0057819152972085107 0 -0.0024919191843068901 -0.0057741815612997885 0 -0.0025312249144328167 -0.0056810100757164646 0 -0.0024919191843068901 -0.0057741815612997885 0 -0.0025523114978700102 -0.0058624587552748323 0 -0.0024731858839728491 -0.0058741398890851844 0 -0.0025891182076933929 -0.0057819152972085107 0 -0.0024919191843068901 -0.0057741815612997885 0 -0.0025523114978700102 -0.0058624587552748323 0 -0.0024095466946847388 -0.005823650061386328 0 -0.0024919191843068901 -0.0057741815612997885 0 -0.0024731858839728491 -0.0058741398890851844 0 -0.0024066532854332286 -0.0059639320804548528 0 -0.0024731858839728491 -0.0058741398890851844 0 -0.0025081866421638654 -0.005936102081582244 0 -0.0024066532854332286 -0.0059639320804548528 0 -0.0024095466946847388 -0.005823650061386328 0 -0.0024731858839728491 -0.0058741398890851844 0 -0.0025523114978700102 -0.0058624587552748323 0 -0.0024731858839728491 -0.0058741398890851844 0 -0.0025081866421638654 -0.005936102081582244 0 -0.0027761059852867047 -0.0054738396062461109 0 -0.0024505814643269882 -0.0059643124560785606 0 -0.0026038265971916963 -0.005921744605549728 0 -0.0024915321456644188 -0.0059904106948426711 0 -0.0025081866421638654 -0.005936102081582244 0 -0.0026156435641066888 -0.0059507432052282047 0 -0.0025523114978700102 -0.0058624587552748323 0 -0.0025081866421638654 -0.005936102081582244 0 -0.0025682895818190097 -0.0054793149315724779 0 -0.0024711880400201513 -0.0054883427959262349 0 -0.0024786261869876457 -0.0054639565327958654 0 -0.0024711880400201513 -0.0054883427959262349 0 -0.0024786261869876457 -0.0054639565327958654 0 -0.0024166834918985763 -0.0054873277462408653 0 -0.0024166834918985763 -0.0054873277462408653 0 -0.0022940395055149592 -0.0055063657015568292 0 -0.002272328942318116 -0.0055760326750710102 0 -0.0024166834918985763 -0.0054873277462408653 0 -0.0022940395055149592 -0.0055063657015568292 0 -0.0022749619387615475 -0.0054525039353082822 0 -0.0024711880400201513 -0.0054883427959262349 0 -0.0024166834918985763 -0.0054873277462408653 0 -0.0024416497866122399 -0.0054887924796937692 0 -0.0022940395055149592 -0.0055063657015568292 0 -0.0022223044296792211 -0.0055140338143555715 0 -0.0022749619387615475 -0.0054525039353082822 0 -0.0022940395055149592 -0.0055063657015568292 0 -0.002272328942318116 -0.0055760326750710102 0 -0.0022223044296792211 -0.0055140338143555715 0 -0.002272328942318116 -0.0055760326750710102 0 -0.0022606744926575101 -0.0056403658622469341 0 -0.0021524110401670406 -0.0055577201144926874 0 -0.0022311641913572841 -0.0056028837937987692 0 -0.0022036442324012899 -0.0056212459896873958 0 -0.0024398696999804368 -0.0054676176875287277 0 -0.0022036442324012899 -0.0056212459896873958 0 -0.0024166834918985763 -0.0054873277462408653 0 -0.002272328942318116 -0.0055760326750710102 0 -0.0022675662975264336 -0.0056812477005181976 0 -0.0022036442324012899 -0.0056212459896873958 0 -0.0021856481008915834 -0.0055753152714526364 0 -0.0024416497866122399 -0.0054887924796937692 0 -0.0024906011185495988 -0.0054982913604768816 0 -0.0024409900366736915 -0.0055505289033534622 0 -0.0025682895818190097 -0.0054793149315724779 0 -0.0024711880400201513 -0.0054883427959262349 0 -0.0024906011185495988 -0.0054982913604768816 0 -0.0024711880400201513 -0.0054883427959262349 0 -0.0024416497866122399 -0.0054887924796937692 0 -0.0024906011185495988 -0.0054982913604768816 0 -0.0025529241482831399 -0.0055300783475720179 0 -0.0024906011185495988 -0.0054982913604768816 0 -0.0024409900366736915 -0.0055505289033534622 0 -0.0025737009716219391 -0.0055996526262084611 0 -0.0025529241482831399 -0.0055300783475720179 0 -0.002495187638251478 -0.005603599945716695 0 -0.0025529241482831399 -0.0055300783475720179 0 -0.002495187638251478 -0.005603599945716695 0 -0.0024409900366736915 -0.0055505289033534622 0 -0.0021809915876960144 -0.0055117354843548664 0 -0.0021856481008915834 -0.0055753152714526364 0 -0.0024212967128557274 -0.0056677351212977255 0 -0.002495187638251478 -0.005603599945716695 0 -0.0024409900366736915 -0.0055505289033534622 0 -0.0019332117552221539 -0.0057741005709102226 0 -0.0019368624149658947 -0.0055893740438706556 0 -0.0020424158531201263 -0.0056424586613284282 0 -0.0019368624149658947 -0.0055893740438706556 0 -0.0020424158531201263 -0.0056424586613284282 0 -0.0020345720613640854 -0.0054957918137417648 0 -0.0019368601998254816 -0.0053833681862155191 0 -0.0019368624149658947 -0.0055893740438706556 0 -0.0020345720613640854 -0.0054957918137417648 0 -0.0020490477683863229 -0.0057414521454675323 0 -0.0020957747355760466 -0.0057142331133514601 0 -0.0020424158531201263 -0.0056424586613284282 0 -0.0020345720613640854 -0.0054957918137417648 0 -0.0021682586964164629 -0.0055006032183954117 0 -0.0021030018484506493 -0.0057993796071429248 0 -0.00196386612224194 -0.0059368334041166879 0 -0.0019578598862115076 -0.0058008632209190182 0 -0.0021030018484506493 -0.0057993796071429248 0 -0.0019578598862115076 -0.0058008632209190182 0 -0.0020262895872549254 -0.0056295460613424416 0 -0.0022036442324012899 -0.0056212459896873958 0 -0.0020490477683863229 -0.0057414521454675323 0 -0.0022606744926575101 -0.0056403658622469341 0 -0.0021030018484506493 -0.0057993796071429248 0 -0.0020262895872549254 -0.0056295460613424416 0 -0.0021524110401670406 -0.0055577201144926874 0 -0.002004727284563352 -0.0054721386002237089 0 -0.0021395429121935624 -0.0054508998590304617 0 -0.0022606744926575101 -0.0056403658622469341 0 -0.0020262895872549254 -0.0056295460613424416 0 -0.0021524110401670406 -0.0055577201144926874 0 -0.002272328942318116 -0.0055760326750710102 0 -0.0021524110401670406 -0.0055577201144926874 0 -0.0022223044296792211 -0.0055140338143555715 0 -0.0021524110401670406 -0.0055577201144926874 0 -0.0022223044296792211 -0.0055140338143555715 0 -0.0021395429121935624 -0.0054508998590304617 0 -0.0020262895872549254 -0.0056295460613424416 0 -0.0018412167702864569 -0.0054926299111235566 0 -0.002004727284563352 -0.0054721386002237089 0 -0.0020262895872549254 -0.0056295460613424416 0 -0.0021524110401670406 -0.0055577201144926874 0 -0.002004727284563352 -0.0054721386002237089 0 -0.0018377015939796517 -0.0055051125442784577 0 -0.0018241095967315964 -0.0056360136228097886 0 -0.0020262895872549254 -0.0056295460613424416 0 -0.0018412167702864569 -0.0054926299111235566 0 -0.0018487303307502573 -0.0057141894799300572 0 -0.0018412167702864569 -0.0054926299111235566 0 -0.0017021204730781176 -0.0055474743899218268 0 -0.0017341556985919189 -0.0054599248862718724 0 -0.0018412167702864569 -0.0054926299111235566 0 -0.0017931094181707684 -0.0055951734784277975 0 -0.0017021204730781176 -0.0055474743899218268 0 -0.0017931094181707684 -0.0055951734784277975 0 -0.0016699258242485473 -0.0056234304966394011 0 -0.0017021204730781176 -0.0055474743899218268 0 -0.0019578598862115076 -0.0058008632209190182 0 -0.0020262895872549254 -0.0056295460613424416 0 -0.0018487303307502573 -0.0057141894799300572 0 -0.0018241095967315964 -0.0056360136228097886 0 -0.0017987490819259856 -0.0058480764056627619 0 -0.0019578598862115076 -0.0058008632209190182 0 -0.0018487303307502573 -0.0057141894799300572 0 -0.0018574238011772526 -0.0059015798603450995 0 -0.00196386612224194 -0.0059368334041166879 0 -0.0019578598862115076 -0.0058008632209190182 0 -0.0018574238011772526 -0.0059015798603450995 0 -0.0018543148645348111 -0.0060564949954371857 0 -0.00196386612224194 -0.0059368334041166879 0 -0.0018574238011772526 -0.0059015798603450995 0 -0.0016980145865401687 -0.0057215795997997828 0 -0.0017655969706105218 -0.0056815946649956209 0 -0.0017167891887045711 -0.0056640119450610156 0 -0.0017931094181707684 -0.0055951734784277975 0 -0.0017167891887045711 -0.0056640119450610156 0 -0.0016699258242485473 -0.0056234304966394011 0 -0.0017931094181707684 -0.0055951734784277975 0 -0.0017655969706105218 -0.0056815946649956209 0 -0.0017167891887045711 -0.0056640119450610156 0 -0.0017167891887045711 -0.0056640119450610156 0 -0.0016699258242485473 -0.0056234304966394011 0 -0.0016612058423143539 -0.0056817610969146573 0 -0.0016699258242485473 -0.0056234304966394011 0 -0.0016612058423143539 -0.0056817610969146573 0 -0.0015961680190791834 -0.0056605537255350986 0 -0.0016227497113093471 -0.0057195873577858946 0 -0.0016980145865401687 -0.0057215795997997828 0 -0.0016612058423143539 -0.0056817610969146573 0 -0.0016980145865401687 -0.0057215795997997828 0 -0.0017167891887045711 -0.0056640119450610156 0 -0.0016612058423143539 -0.0056817610969146573 0 -0.0016227497113093471 -0.0057195873577858946 0 -0.0015961680190791834 -0.0056605537255350986 0 -0.0015546121441653937 -0.0057067703726057023 0 -0.0016227497113093471 -0.0057195873577858946 0 -0.0016612058423143539 -0.0056817610969146573 0 -0.0015961680190791834 -0.0056605537255350986 0 -0.0016699258242485473 -0.0056234304966394011 0 -0.0015961680190791834 -0.0056605537255350986 0 -0.001563783821085949 -0.0055723055775171448 0 -0.0016699258242485473 -0.0056234304966394011 0 -0.0017021204730781176 -0.0055474743899218268 0 -0.001563783821085949 -0.0055723055775171448 0 -0.0017021204730781176 -0.0055474743899218268 0 -0.0016274155345525005 -0.005480417747782765 0 -0.001563783821085949 -0.0055723055775171448 0 -0.0017021204730781176 -0.0055474743899218268 0 -0.0016274155345525005 -0.005480417747782765 0 -0.0017341556985919189 -0.0054599248862718724 0 -0.0012347405119804361 -0.0054819543466285963 0 -0.0011152888872306898 -0.0056114019327576387 0 -0.00083088504454735686 -0.0054940511666651624 0 -0.00067119945418474356 -0.0056467255875941322 0 -0.00069153136871777799 -0.005492053436740283 0 -0.0008511535290175715 -0.0053469124620381444 0 -0.00069140611940551454 -0.0055119062183259715 0 -0.00083088504454735686 -0.0054940511666651624 0 -0.00086259445925068214 -0.005337262135829181 0 -0.00069153136871777799 -0.005492053436740283 0 -0.00073003367271863345 -0.0054013805386182384 0 -0.00086259445925068214 -0.005337262135829181 0 -0.00068820822161875465 -0.0055373903095670488 0 -0.0012347405119804361 -0.0054819543466285963 0 -0.0013313620708448543 -0.0053420580921286088 0 -0.0016274155345525005 -0.005480417747782765 0 -0.001706496714562588 -0.0053468496618958809 0 -0.0017341556985919189 -0.0054599248862718724 0 -0.00083088504454735686 -0.0054940511666651624 0 -0.00086259445925068214 -0.005337262135829181 0 -0.00099799958512149776 -0.0053301315886179548 0 -0.00086259445925068214 -0.005337262135829181 0 -0.00099799958512149776 -0.0053301315886179548 0 -0.00092461709059480268 -0.0052627106546603748 0 -0.00099799958512149776 -0.0053301315886179548 0 -0.00092461709059480268 -0.0052627106546603748 0 -0.00099403494569758164 -0.0051888528738683239 0 -0.00086259445925068214 -0.005337262135829181 0 -0.00092461709059480268 -0.0052627106546603748 0 -0.0008451048106304335 -0.005192382428059872 0 -0.00073003367271863345 -0.0054013805386182384 0 -0.0008451048106304335 -0.005192382428059872 0 -0.00061169400040810657 -0.0053385701289013912 0 -0.00073003367271863345 -0.0054013805386182384 0 -0.00086259445925068214 -0.005337262135829181 0 -0.0008451048106304335 -0.005192382428059872 0 -0.0010982509563853794 -0.0052395888340968279 0 -0.00088259060682347281 -0.0053790183764146323 0 -0.0013948320065862866 -0.0052832358312056866 0 -0.0013332553492944677 -0.0051381575190137512 0 -0.0012018873376347695 -0.0052285998212675345 0 -0.0013948320065862866 -0.0052832358312056866 0 -0.0013332553492944677 -0.0051381575190137512 0 -0.0014661407443165258 -0.0051418399718350296 0 -0.0013332553492944677 -0.0051381575190137512 0 -0.0014908974374997211 -0.0050000016774055661 0 -0.0011997288250445454 -0.0049999987845603753 0 -0.0014908974374997211 -0.0050000016774055661 0 -0.0014661407443165258 -0.0051418399718350296 0 -0.0016446924064232704 -0.0051456885478502676 0 -0.0013332553492944677 -0.0051381575190137512 0 -0.0014908974374997211 -0.0050000016774055661 0 -0.0014661407443165258 -0.0051418399718350296 0 -0.0010982509563853794 -0.0052395888340968279 0 -0.0014828754949907611 -0.0051141134681822482 0 -0.0013948320065862866 -0.0052832358312056866 0 -0.0014661407443165258 -0.0051418399718350296 0 -0.0016446924064232704 -0.0051456885478502676 0 -0.0008451048106304335 -0.005192382428059872 0 -0.00099403494569758164 -0.0051888528738683239 0 -0.0011001772088727992 -0.0050497483555269644 0 -0.00092461709059480268 -0.0052627106546603748 0 -0.0008451048106304335 -0.005192382428059872 0 -0.00099403494569758164 -0.0051888528738683239 0 -0.00099799958512149776 -0.0053301315886179548 0 -0.0010677217810218021 -0.0051726954888406023 0 -0.0011772178197218981 -0.0051195493097098291 0 -0.0010677217810218021 -0.0051726954888406023 0 -0.0011001772088727992 -0.0050497483555269644 0 -0.0011772178197218981 -0.0051195493097098291 0 -0.0014828754949907611 -0.0051141134681822482 0 -0.0016402560269627952 -0.0051600935406414137 0 -0.00099403494569758164 -0.0051888528738683239 0 -0.0010677217810218021 -0.0051726954888406023 0 -0.0011001772088727992 -0.0050497483555269644 0 -0.0014909085974833891 -0.0049999997480740885 0 -0.0016898043296855333 -0.0049999995623832578 0 -0.0016493557527857898 -0.005146398614399814 0 -0.0014910854152778601 -0.0050001333325713814 0 -0.0014828754949907611 -0.0051141134681822482 0 -0.0018756017733854704 -0.0050099541418612533 0 -0.0016402560269627952 -0.0051600935406414137 0 -0.0014828754949907611 -0.0051141134681822482 0 -0.0018756017733854704 -0.0050099541418612533 0 -0.0018898249510247639 -0.0050219609526149451 0 -0.0018930582530445003 -0.0051456755019277456 0 -0.0017903822095078768 -0.0051744498605200062 0 -0.0015655633732460229 -0.0051159134017621866 0 -0.0018118633961612895 -0.0049825200156004409 0 -0.0016484399712152866 -0.0051922510772872323 0 -0.0016898043296855333 -0.0049999995623832578 0 -0.0018660471841766264 -0.0050290546222029244 0 -0.0018887027778709004 -0.0049999997348894286 0 -0.0016898043296855333 -0.0049999995623832578 0 -0.0016493557527857898 -0.005146398614399814 0 -0.0018660471841766264 -0.0050290546222029244 0 -0.0016402560269627952 -0.0051600935406414137 0 -0.0019165366144356826 -0.0052808625695938633 0 -0.0018930582530445003 -0.0051456755019277456 0 -0.0017903822095078768 -0.0051744498605200062 0 -0.0018915499021740691 -0.0052618320900919566 0 -0.001706496714562588 -0.0053468496618958809 0 -0.0019061067712202459 -0.0052645010801024355 0 -0.0018563054175077226 -0.0053968666771549035 0 -0.0019061067712202459 -0.0052645010801024355 0 -0.0018563054175077226 -0.0053968666771549035 0 -0.0020050872387475834 -0.0053443454239396155 0 -0.0013313620708448543 -0.0053420580921286088 0 -0.0016402560269627952 -0.0051600935406414137 0 -0.001706496714562588 -0.0053468496618958809 0 -0.0018212132409857868 -0.005188597361390321 0 -0.0019061067712202459 -0.0052645010801024355 0 -0.00099799958512149776 -0.0053301315886179548 0 -0.00099403494569758164 -0.0051888528738683239 0 -0.0010677217810218021 -0.0051726954888406023 0 -0.001706496714562588 -0.0053468496618958809 0 -0.0017341556985919189 -0.0054599248862718724 0 -0.0018563054175077226 -0.0053968666771549035 0 -0.0018412167702864569 -0.0054926299111235566 0 -0.0017341556985919189 -0.0054599248862718724 0 -0.0018563054175077226 -0.0053968666771549035 0 -0.0018412167702864569 -0.0054926299111235566 0 -0.0018563054175077226 -0.0053968666771549035 0 -0.002004727284563352 -0.0054721386002237089 0 -0.0018563054175077226 -0.0053968666771549035 0 -0.002004727284563352 -0.0054721386002237089 0 -0.0020050872387475834 -0.0053443454239396155 0 -0.002004727284563352 -0.0054721386002237089 0 -0.0021395429121935624 -0.0054508998590304617 0 -0.0020050872387475834 -0.0053443454239396155 0 -0.0021395429121935624 -0.0054508998590304617 0 -0.0021611356395317958 -0.0053316769648564001 0 -0.0020050872387475834 -0.0053443454239396155 0 -0.0021395429121935624 -0.0054508998590304617 0 -0.0021611356395317958 -0.0053316769648564001 0 -0.0022749619387615475 -0.0054525039353082822 0 -0.0022223044296792211 -0.0055140338143555715 0 -0.0021395429121935624 -0.0054508998590304617 0 -0.0022749619387615475 -0.0054525039353082822 0 -0.0021611356395317958 -0.0053316769648564001 0 -0.0020487170661674719 -0.0052556481023903071 0 -0.0020050872387475834 -0.0053443454239396155 0 -0.0021611356395317958 -0.0053316769648564001 0 -0.0020487170661674719 -0.0052556481023903071 0 -0.002187940436916704 -0.0052143417385620405 0 -0.0018915499021740691 -0.0052618320900919566 0 -0.0020487170661674719 -0.0052556481023903071 0 -0.0020050872387475834 -0.0053443454239396155 0 -0.0019165366144356826 -0.0052808625695938633 0 -0.0019831932835354229 -0.0053304513012879615 0 -0.0018915499021740691 -0.0052618320900919566 0 -0.0020487170661674719 -0.0052556481023903071 0 -0.0020026793328524182 -0.0051228337597829651 0 -0.0018930582530445003 -0.0051456755019277456 0 -0.0018915499021740691 -0.0052618320900919566 0 -0.0020026793328524182 -0.0051228337597829651 0 -0.0018898249510247639 -0.0050219609526149451 0 -0.0018930582530445003 -0.0051456755019277456 0 -0.0020026793328524182 -0.0051228337597829651 0 -0.0018898249510247639 -0.0050219609526149451 0 -0.0020026793328524182 -0.0051228337597829651 0 -0.0019197510976079874 -0.0049999862846958716 0 -0.0018756017733854704 -0.0050099541418612533 0 -0.0019195936567593178 -0.0050000023265817772 0 -0.0018661688039768444 -0.0050290258209930499 0 -0.0019196335572671912 -0.0050000001167358329 0 -0.0018887034156027116 -0.0049999997669241056 0 -0.0018756017733854704 -0.0050099541418612533 0 -0.0018886780580999909 -0.005000014298969669 0 -0.0020026793328524182 -0.0051228337597829651 0 -0.0019197510976079874 -0.0049999862846958716 0 -0.0021933515394155305 -0.004999979563610985 0 -0.0020026793328524182 -0.0051228337597829651 0 -0.002187940436916704 -0.0052143417385620405 0 -0.0021933515394155305 -0.004999979563610985 0 -0.0020487170661674719 -0.0052556481023903071 0 -0.0020026793328524182 -0.0051228337597829651 0 -0.002187940436916704 -0.0052143417385620405 0 -0.002187940436916704 -0.0052143417385620405 0 -0.0021933515394155305 -0.004999979563610985 0 -0.0023949534307753551 -0.0051986756587636953 0 -0.0025850749945488332 -0.0051567284354489566 0 -0.0024670890357279822 -0.0049999823341575211 0 -0.0023949534307753551 -0.0051986756587636953 0 -0.0021933515394155305 -0.004999979563610985 0 -0.0024670890357279822 -0.0049999823341575211 0 -0.0023949534307753551 -0.0051986756587636953 0 -0.0025143341789775906 -0.0054472427849971269 0 -0.002439079101518732 -0.0053376988863918376 0 -0.0023170524366768509 -0.0053652370667117829 0 -0.0025718739192886714 -0.0053276584861205994 0 -0.0023949534307753551 -0.0051986756587636953 0 -0.002439079101518732 -0.0053376988863918376 0 -0.0023949534307753551 -0.0051986756587636953 0 -0.002439079101518732 -0.0053376988863918376 0 -0.0023170524366768509 -0.0053652370667117829 0 -0.0025143341789775906 -0.0054472427849971269 0 -0.0025718739192886714 -0.0053276584861205994 0 -0.002439079101518732 -0.0053376988863918376 0 -0.0021611356395317958 -0.0053316769648564001 0 -0.002187940436916704 -0.0052143417385620405 0 -0.0023170524366768509 -0.0053652370667117829 0 -0.002187940436916704 -0.0052143417385620405 0 -0.0023949534307753551 -0.0051986756587636953 0 -0.0023170524366768509 -0.0053652370667117829 0 -0.0021611356395317958 -0.0053316769648564001 0 -0.0023170524366768509 -0.0053652370667117829 0 -0.0022749619387615475 -0.0054525039353082822 0 -0.0024166834918985763 -0.0054873277462408653 0 -0.0023170524366768509 -0.0053652370667117829 0 -0.0022749619387615475 -0.0054525039353082822 0 -0.0025143341789775906 -0.0054472427849971269 0 -0.0024631345953136652 -0.0055667204147064305 0 -0.0023170524366768509 -0.0053652370667117829 0 -0.0024786261869876457 -0.0054639565327958654 0 -0.0024166834918985763 -0.0054873277462408653 0 -0.0023170524366768509 -0.0053652370667117829 0 -0.0024703824458049547 -0.0055146180210151816 0 -0.0023328405389025177 -0.0053763752852748195 0 -0.00029671296273030382 -0.0057347925450657892 0 -0.00022001777955113288 -0.0057673419980390651 0 -0.00025209665958119039 -0.0056920035841774045 0 -0.00016551892544448322 -0.0057376576591235112 0 -0.00023402609121917414 -0.0057775263879722817 0 -0.00019506571165871879 -0.0056916428670343031 0 -0.00019595076307687067 -0.0057669443110903067 0 -0.00025511584484848147 -0.0057551049680974273 0 -0.00019506571165871879 -0.0056916428670343031 0 -0.00028535362879184299 -0.0056936414170054286 0 -0.00028828612583823351 -0.0056024899251593263 0 -0.00019506571165871879 -0.0056916428670343031 0 -0.00028535362879184299 -0.0056936414170054286 0 -0.00025511584484848147 -0.0057551049680974273 0 -0.00038043343768589556 -0.0058312101145539781 0 -0.0006322587527538237 -0.0056961759229758385 0 -0.0004298622388950546 -0.0055970910641227464 0 -0.00029671296273030382 -0.0057347925450657892 0 -0.00045963323107824788 -0.0056523568182203689 0 -0.00029671296273030382 -0.0057347925450657892 0 -0.00040884288239978407 -0.005564625887659185 0 -0.00032031590957010717 -0.0057061082693331258 0 -0.00025287608633066595 -0.0055750172709245751 0 -0.00037741805027871183 -0.0055218104006530405 0 -0.00032031590957010717 -0.0057061082693331258 0 -0.00025287608633066595 -0.0055750172709245751 0 -0.00018877134845044806 -0.0056554626582933625 0 -0.00025287608633066595 -0.0055750172709245751 0 -0.00018877134845044806 -0.0056554626582933625 0 -0.00013317242892440994 -0.005557949170599358 0 -0.00013317242892440994 -0.005557949170599358 0 -5.3329942153226472e-05 -0.0056920448802088757 0 3.4891547399299278e-05 -0.0055867670886938746 0 -0.00018877134845044806 -0.0056554626582933625 0 -0.00013317242892440994 -0.005557949170599358 0 -5.3329942153226472e-05 -0.0056920448802088757 0 -5.3329942153226472e-05 -0.0056920448802088757 0 -0.00018235411915302563 -0.0057649459609060765 0 -5.8871729127509616e-05 -0.0058037879217818257 0 -5.3329942153226472e-05 -0.0056920448802088757 0 -5.8871729127509616e-05 -0.0058037879217818257 0 6.5155931813432657e-05 -0.0057806931485760091 0 -0.00029671296273030382 -0.0057347925450657892 0 -0.00017405517029657542 -0.0057501974463430756 0 -0.00018877134845044806 -0.0056554626582933625 0 -5.3329942153226472e-05 -0.0056920448802088757 0 -0.00018235411915302563 -0.0057649459609060765 0 -0.00032031590957010717 -0.0057061082693331258 0 -0.00018877134845044806 -0.0056554626582933625 0 -0.00018235411915302563 -0.0057649459609060765 0 -0.00017566720016723555 -0.005801775559340203 0 -0.00021942066374597204 -0.0058475214250681981 0 -0.00023402609121917414 -0.0057775263879722817 0 -0.00017566720016723555 -0.005801775559340203 0 -5.8871729127509616e-05 -0.0058037879217818257 0 -0.00013980331832335365 -0.005845837652420212 0 -0.00016551892544448322 -0.0057376576591235112 0 -0.00017566720016723555 -0.005801775559340203 0 -0.00023402609121917414 -0.0057775263879722817 0 -0.00016551892544448322 -0.0057376576591235112 0 -0.00017566720016723555 -0.005801775559340203 0 -5.8871729127509616e-05 -0.0058037879217818257 0 -0.00017405517029657542 -0.0057501974463430756 0 -7.3704099421861055e-05 -0.0057988963686818242 0 -1.5818751034517424e-05 -0.0059939250066409332 0 -6.7359480385069929e-05 -0.0059030471394253018 0 5.4871630304583033e-05 -0.005905496461728452 0 -5.8871729127509616e-05 -0.0058037879217818257 0 -6.7359480385069929e-05 -0.0059030471394253018 0 -0.00013980331832335365 -0.005845837652420212 0 -5.8871729127509616e-05 -0.0058037879217818257 0 -6.7359480385069929e-05 -0.0059030471394253018 0 5.4871630304583033e-05 -0.005905496461728452 0 -0.00023937478409923551 -0.0059104676272015034 0 -6.7359480385069929e-05 -0.0059030471394253018 0 -0.00013980331832335365 -0.005845837652420212 0 -0.00023937478409923551 -0.0059104676272015034 0 -0.00013980331832335365 -0.005845837652420212 0 -0.00021942066374597204 -0.0058475214250681981 0 -0.00017566720016723555 -0.005801775559340203 0 -0.00013980331832335365 -0.005845837652420212 0 -0.00021942066374597204 -0.0058475214250681981 0 -0.00023812240166450749 -0.0058709461147922045 0 -0.00023937478409923551 -0.0059104676272015034 0 -0.00021942066374597204 -0.0058475214250681981 0 -0.00023812240166450749 -0.0058709461147922045 0 -0.00024034263314777658 -0.005821764866662511 0 -0.00021942066374597204 -0.0058475214250681981 0 -0.00024862358258484523 -0.0058530169538747127 0 -0.00023812240166450749 -0.0058709461147922045 0 -0.00024034263314777658 -0.005821764866662511 0 -0.00024034263314777658 -0.005821764866662511 0 -0.00019595076307687067 -0.0057669443110903067 0 -0.00025511584484848147 -0.0057551049680974273 0 -0.00021491105141425496 -0.0058349663715874375 0 -0.00022001777955113288 -0.0057673419980390651 0 -0.00024034263314777658 -0.005821764866662511 0 -0.00021942066374597204 -0.0058475214250681981 0 -0.00019595076307687067 -0.0057669443110903067 0 -0.00028535362879184299 -0.0056936414170054286 0 -0.00025511584484848147 -0.0057551049680974273 0 -0.00032237252138097336 -0.0057472301223898264 0 -0.00025511584484848147 -0.0057551049680974273 0 -0.00027614646150638233 -0.0058126857308579303 0 -0.00032237252138097336 -0.0057472301223898264 0 -0.00024034263314777658 -0.005821764866662511 0 -0.00025511584484848147 -0.0057551049680974273 0 -0.00027614646150638233 -0.0058126857308579303 0 -0.00027556528236608279 -0.0058460690969132107 0 -0.00024862358258484523 -0.0058530169538747127 0 -0.00027614646150638233 -0.0058126857308579303 0 -0.00024862358258484523 -0.0058530169538747127 0 -0.00024034263314777658 -0.005821764866662511 0 -0.00027614646150638233 -0.0058126857308579303 0 -0.00027556528236608279 -0.0058460690969132107 0 -0.00027614646150638233 -0.0058126857308579303 0 -0.00032349216273957712 -0.0058149583019221525 0 -0.00027614646150638233 -0.0058126857308579303 0 -0.00032349216273957712 -0.0058149583019221525 0 -0.00032237252138097336 -0.0057472301223898264 0 -0.00036766548992164512 -0.0058563549318379699 0 -0.00027556528236608279 -0.0058460690969132107 0 -0.00032349216273957712 -0.0058149583019221525 0 -0.00036766548992164512 -0.0058563549318379699 0 -0.00032349216273957712 -0.0058149583019221525 0 -0.00039059642488107504 -0.0057787169716418769 0 -0.00039059642488107504 -0.0057787169716418769 0 -0.00032237252138097336 -0.0057472301223898264 0 -0.00038152250696410939 -0.0056652673457895011 0 -0.00032349216273957712 -0.0058149583019221525 0 -0.00039059642488107504 -0.0057787169716418769 0 -0.00032237252138097336 -0.0057472301223898264 0 -0.0015961680190791834 -0.0056605537255350986 0 -0.0015546121441653937 -0.0057067703726057023 0 -0.0015056732718360872 -0.0056477704682565541 0 -0.00086155687691729732 -0.0058428242650041817 0 -0.0010211658908537452 -0.0056985615000267279 0 -0.00036766548992164512 -0.0058563549318379699 0 -0.00039059642488107504 -0.0057787169716418769 0 -0.00051415698113014489 -0.0057825795402816609 0 -0.0014446953912498573 -0.0057183382287194105 0 -0.0015546121441653937 -0.0057067703726057023 0 -0.0015056732718360872 -0.0056477704682565541 0 -0.00039059642488107504 -0.0057787169716418769 0 -0.00051415698113014489 -0.0057825795402816609 0 -0.00052549895922777729 -0.005642984056314802 0 -0.00040087028458823021 -0.0057738495292101186 0 -0.0005241247431663253 -0.0056643247554256431 0 -0.0010211658908537452 -0.0056985615000267279 0 -0.0011152888872306898 -0.0056114019327576387 0 -0.0015961680190791834 -0.0056605537255350986 0 -0.0015056732718360872 -0.0056477704682565541 0 -0.001563783821085949 -0.0055723055775171448 0 -0.00067119945418474356 -0.0056467255875941322 0 -0.00052549895922777729 -0.005642984056314802 0 -0.00069153136871777799 -0.005492053436740283 0 -0.00051415698113014489 -0.0057825795402816609 0 -0.00067119945418474356 -0.0056467255875941322 0 -0.00052549895922777729 -0.005642984056314802 0 -0.00052465610505341592 -0.0056848170286583049 0 -0.00046552033461818594 -0.0055948691301505628 0 -0.00038152250696410939 -0.0056652673457895011 0 -0.00053774204095236608 -0.0055405947486054175 0 -0.00046552033461818594 -0.0055948691301505628 0 -0.00041922097981749297 -0.0054845689199234555 0 -0.00052465610505341592 -0.0056848170286583049 0 -0.00053774204095236608 -0.0055405947486054175 0 -0.00046552033461818594 -0.0055948691301505628 0 -0.00052465610505341592 -0.0056848170286583049 0 -0.00053774204095236608 -0.0055405947486054175 0 -0.00068820822161875465 -0.0055373903095670488 0 -0.0005241247431663253 -0.0056643247554256431 0 -0.00069140611940551454 -0.0055119062183259715 0 -0.00028535362879184299 -0.0056936414170054286 0 -0.00038152250696410939 -0.0056652673457895011 0 -0.00028828612583823351 -0.0056024899251593263 0 -0.00028535362879184299 -0.0056936414170054286 0 -0.00032237252138097336 -0.0057472301223898264 0 -0.00038152250696410939 -0.0056652673457895011 0 -0.00039059642488107504 -0.0057787169716418769 0 -0.00052465610505341592 -0.0056848170286583049 0 -0.00038152250696410939 -0.0056652673457895011 0 -0.00046552033461818594 -0.0055948691301505628 0 -0.00038152250696410939 -0.0056652673457895011 0 -0.00041922097981749297 -0.0054845689199234555 0 -0.00038152250696410939 -0.0056652673457895011 0 -0.00028828612583823351 -0.0056024899251593263 0 -0.00041922097981749297 -0.0054845689199234555 0 -0.00045963323107824788 -0.0056523568182203689 0 -0.00065487947057430427 -0.0055205621174776887 0 -0.0006322587527538237 -0.0056961759229758385 0 -0.00063884476853290806 -0.0054726400089282158 0 -0.00088676653439581144 -0.0055596203720683253 0 -0.00088676653439581144 -0.0055596203720683253 0 -0.00076787113950842938 -0.0053341065992441082 0 -0.00098031889816977422 -0.0052358306546260542 0 -0.00063884476853290806 -0.0054726400089282158 0 -0.00088676653439581144 -0.0055596203720683253 0 -0.00076787113950842938 -0.0053341065992441082 0 -0.00063884476853290806 -0.0054726400089282158 0 -0.00076787113950842938 -0.0053341065992441082 0 -0.00062929077017299007 -0.0052898755122451936 0 -0.00088676653439581144 -0.0055596203720683253 0 -0.0011413240939755758 -0.0054216257560287372 0 -0.00098031889816977422 -0.0052358306546260542 0 -0.00053774204095236608 -0.0055405947486054175 0 -0.00068820822161875465 -0.0055373903095670488 0 -0.00061169400040810657 -0.0053385701289013912 0 -0.00073003367271863345 -0.0054013805386182384 0 -0.00068820822161875465 -0.0055373903095670488 0 -0.00061169400040810657 -0.0053385701289013912 0 -0.00065487947057430427 -0.0055205621174776887 0 -0.00088259060682347281 -0.0053790183764146323 0 -0.00053774204095236608 -0.0055405947486054175 0 -0.00041922097981749297 -0.0054845689199234555 0 -0.00061169400040810657 -0.0053385701289013912 0 -0.0013948320065862866 -0.0052832358312056866 0 -0.0011413240939755758 -0.0054216257560287372 0 -0.0012018873376347695 -0.0052285998212675345 0 -0.0011413240939755758 -0.0054216257560287372 0 -0.0012018873376347695 -0.0052285998212675345 0 -0.00098031889816977422 -0.0052358306546260542 0 -0.00098031889816977422 -0.0052358306546260542 0 -0.0011997288250445454 -0.0049999987845603753 0 -0.00090855093623276692 -0.0050000003879450174 0 -0.0013332553492944677 -0.0051381575190137512 0 -0.0012018873376347695 -0.0052285998212675345 0 -0.0011997288250445454 -0.0049999987845603753 0 -0.0012018873376347695 -0.0052285998212675345 0 -0.00098031889816977422 -0.0052358306546260542 0 -0.0011997288250445454 -0.0049999987845603753 0 -0.00073396587295778543 -0.005158064240619222 0 -0.00062929077017299007 -0.0052898755122451936 0 -0.00052580349373536296 -0.0051201059117660184 0 -0.00076787113950842938 -0.0053341065992441082 0 -0.00073396587295778543 -0.005158064240619222 0 -0.00062929077017299007 -0.0052898755122451936 0 -0.00076787113950842938 -0.0053341065992441082 0 -0.00098031889816977422 -0.0052358306546260542 0 -0.00073396587295778543 -0.005158064240619222 0 -0.00098031889816977422 -0.0052358306546260542 0 -0.00073396587295778543 -0.005158064240619222 0 -0.00090855093623276692 -0.0050000003879450174 0 -0.00073396587295778543 -0.005158064240619222 0 -0.00061735788679725598 -0.0049999932332401333 0 -0.00052580349373536296 -0.0051201059117660184 0 -0.00073396587295778543 -0.005158064240619222 0 -0.00090855093623276692 -0.0050000003879450174 0 -0.00061735788679725598 -0.0049999932332401333 0 -0.00061735788679725598 -0.0049999932332401333 0 -0.00052580349373536296 -0.0051201059117660184 0 -0.00032617153350580365 -0.0049999920329088128 0 -0.00052580349373536296 -0.0051201059117660184 0 -0.00032617153350580365 -0.0049999920329088128 0 -0.00031818076909792889 -0.0052060591660205921 0 -0.00052580349373536296 -0.0051201059117660184 0 -0.00031818076909792889 -0.0052060591660205921 0 -0.00044582632154853489 -0.0053274017496569718 0 -0.00051958261893445749 -0.0051329147668399662 0 -0.00046358791439656482 -0.0053379576850239845 0 -0.00062929077017299007 -0.0052898755122451936 0 -0.00052580349373536296 -0.0051201059117660184 0 -0.00047866498440412919 -0.0053609581525368632 0 -0.00063884476853290806 -0.0054726400089282158 0 -0.00062929077017299007 -0.0052898755122451936 0 -0.00047866498440412919 -0.0053609581525368632 0 -0.00031818076909792889 -0.0052060591660205921 0 -0.00044582632154853489 -0.0053274017496569718 0 -0.00024398836639624223 -0.0054296233935736899 0 -0.00044582632154853489 -0.0053274017496569718 0 -0.00037741805027871183 -0.0055218104006530405 0 -0.00024398836639624223 -0.0054296233935736899 0 -0.00046358791439656482 -0.0053379576850239845 0 -0.00040884288239978407 -0.005564625887659185 0 -0.00025287608633066595 -0.0055750172709245751 0 -0.00037741805027871183 -0.0055218104006530405 0 -0.00024398836639624223 -0.0054296233935736899 0 -0.0006322587527538237 -0.0056961759229758385 0 -0.00063884476853290806 -0.0054726400089282158 0 -0.0004298622388950546 -0.0055970910641227464 0 -0.00063884476853290806 -0.0054726400089282158 0 -0.00047866498440412919 -0.0053609581525368632 0 -0.0004298622388950546 -0.0055970910641227464 0 -0.00013317242892440994 -0.005557949170599358 0 -7.2225005685397893e-05 -0.0054257213996945462 0 3.4891547399299278e-05 -0.0055867670886938746 0 -0.00025287608633066595 -0.0055750172709245751 0 -0.00013317242892440994 -0.005557949170599358 0 -0.00024398836639624223 -0.0054296233935736899 0 -0.00013317242892440994 -0.005557949170599358 0 -7.2225005685397893e-05 -0.0054257213996945462 0 -0.00024398836639624223 -0.0054296233935736899 0 -7.2225005685397893e-05 -0.0054257213996945462 0 -0.00024398836639624223 -0.0054296233935736899 0 -0.00015087278351079029 -0.0052881817104712377 0 -0.00031818076909792889 -0.0052060591660205921 0 -0.00024398836639624223 -0.0054296233935736899 0 -0.00015087278351079029 -0.0052881817104712377 0 -7.2225005685397893e-05 -0.0054257213996945462 0 -0.00015087278351079029 -0.0052881817104712377 0 5.1280531026566473e-05 -0.005237326502372912 0 -0.00015087278351079029 -0.0052881817104712377 0 -0.00015985202140457569 -0.0051347084841454841 0 5.1280531026566473e-05 -0.005237326502372912 0 -0.00031818076909792889 -0.0052060591660205921 0 -0.00015087278351079029 -0.0052881817104712377 0 -0.00015985202140457569 -0.0051347084841454841 0 -0.00032617153350580365 -0.0049999920329088128 0 -0.00031818076909792889 -0.0052060591660205921 0 -0.00015985202140457569 -0.0051347084841454841 0 -0.00032617153350580365 -0.0049999920329088128 0 -0.00015985202140457569 -0.0051347084841454841 0 -3.5014067422217068e-05 -0.0049999897072328285 0 -0.00015985202140457569 -0.0051347084841454841 0 -3.5014067422217068e-05 -0.0049999897072328285 0 5.1280531026566473e-05 -0.005237326502372912 0 -3.5014067422217068e-05 -0.0049999897072328285 0 0.00025615220215771575 -0.0049999836289021399 0 5.1280531026566473e-05 -0.005237326502372912 0 0.00025615220215771575 -0.0049999836289021399 0 0.00029284030400068562 -0.0052683918742091312 0 5.1280531026566473e-05 -0.005237326502372912 0 0.00054733078020407751 -0.0049999790231619436 0 0.00045392453904664605 -0.0051523299366617384 0 0.00064846363774196682 -0.0051902453860480481 0 0.00025615220215771575 -0.0049999836289021399 0 0.00054733078020407751 -0.0049999790231619436 0 0.00045392453904664605 -0.0051523299366617384 0 0.00025615220215771575 -0.0049999836289021399 0 0.00029284030400068562 -0.0052683918742091312 0 0.00045392453904664605 -0.0051523299366617384 0 0.00029284030400068562 -0.0052683918742091312 0 0.00045392453904664605 -0.0051523299366617384 0 0.00047187469573528877 -0.0053210485663146402 0 0.00045392453904664605 -0.0051523299366617384 0 0.00047187469573528877 -0.0053210485663146402 0 0.00064846363774196682 -0.0051902453860480481 0 0.00047187469573528877 -0.0053210485663146402 0 0.00066799408019687116 -0.0053797847141699925 0 0.00064846363774196682 -0.0051902453860480481 0 0.00047187469573528877 -0.0053210485663146402 0 0.00047232569053866195 -0.0054838171348441456 0 0.00066799408019687116 -0.0053797847141699925 0 0.00029284030400068562 -0.0052683918742091312 0 0.00047187469573528877 -0.0053210485663146402 0 0.00030190910948003761 -0.0054550286120626981 0 0.00047187469573528877 -0.0053210485663146402 0 0.00030190910948003761 -0.0054550286120626981 0 0.00047232569053866195 -0.0054838171348441456 0 0.00030190910948003761 -0.0054550286120626981 0 0.00047232569053866195 -0.0054838171348441456 0 0.00031762757468504002 -0.0056273658083523951 0 0.00047232569053866195 -0.0054838171348441456 0 0.00052843482413660449 -0.0056028142623307051 0 0.00067520475840454695 -0.0055437491426497763 0 0.00047232569053866195 -0.0054838171348441456 0 0.00067520475840454695 -0.0055437491426497763 0 0.00066799408019687116 -0.0053797847141699925 0 0.00029284030400068562 -0.0052683918742091312 0 5.1280531026566473e-05 -0.005237326502372912 0 8.8195237965927608e-05 -0.0054550326108857034 0 -7.2225005685397893e-05 -0.0054257213996945462 0 5.1280531026566473e-05 -0.005237326502372912 0 8.8195237965927608e-05 -0.0054550326108857034 0 0.00029284030400068562 -0.0052683918742091312 0 0.00030190910948003761 -0.0054550286120626981 0 8.8195237965927608e-05 -0.0054550326108857034 0 0.00030190910948003761 -0.0054550286120626981 0 8.8195237965927608e-05 -0.0054550326108857034 0 0.00017305221362090556 -0.005564704155123959 0 -7.2225005685397893e-05 -0.0054257213996945462 0 8.8195237965927608e-05 -0.0054550326108857034 0 3.4891547399299278e-05 -0.0055867670886938746 0 8.8195237965927608e-05 -0.0054550326108857034 0 3.4891547399299278e-05 -0.0055867670886938746 0 0.00017305221362090556 -0.005564704155123959 0 -5.3329942153226472e-05 -0.0056920448802088757 0 3.4891547399299278e-05 -0.0055867670886938746 0 0.00012537875800858149 -0.0056822820853969268 0 3.4891547399299278e-05 -0.0055867670886938746 0 0.00012537875800858149 -0.0056822820853969268 0 0.00017305221362090556 -0.005564704155123959 0 -5.3329942153226472e-05 -0.0056920448802088757 0 0.00012537875800858149 -0.0056822820853969268 0 6.5155931813432657e-05 -0.0057806931485760091 0 0.00012537875800858149 -0.0056822820853969268 0 0.00022637795671297893 -0.0057682174483221936 0 6.5155931813432657e-05 -0.0057806931485760091 0 0.00012537875800858149 -0.0056822820853969268 0 0.00022637795671297893 -0.0057682174483221936 0 0.00031762757468504002 -0.0056273658083523951 0 0.00012537875800858149 -0.0056822820853969268 0 0.00017305221362090556 -0.005564704155123959 0 0.00031762757468504002 -0.0056273658083523951 0 0.00030190910948003761 -0.0054550286120626981 0 0.00017305221362090556 -0.005564704155123959 0 0.00031762757468504002 -0.0056273658083523951 0 0.00047232569053866195 -0.0054838171348441456 0 0.00031762757468504002 -0.0056273658083523951 0 0.00052843482413660449 -0.0056028142623307051 0 0.00031762757468504002 -0.0056273658083523951 0 0.00052843482413660449 -0.0056028142623307051 0 0.00045730053517273333 -0.0056994009796676615 0 0.00052843482413660449 -0.0056028142623307051 0 0.00057923562715337957 -0.0057056837474518942 0 0.00045730053517273333 -0.0056994009796676615 0 0.00052843482413660449 -0.0056028142623307051 0 0.00057923562715337957 -0.0057056837474518942 0 0.00066137404494947887 -0.0056469884833830128 0 0.00057923562715337957 -0.0057056837474518942 0 0.00045730053517273333 -0.0056994009796676615 0 0.00051008810538328924 -0.0057795872221015343 0 0.00045730053517273333 -0.0056994009796676615 0 0.00051008810538328924 -0.0057795872221015343 0 0.00037067434362563493 -0.0057906851224130496 0 0.00057923562715337957 -0.0057056837474518942 0 0.00051008810538328924 -0.0057795872221015343 0 0.0006126345921262619 -0.0058005289309264853 0 0.00051008810538328924 -0.0057795872221015343 0 0.00055608293102081161 -0.0059212017538405517 0 0.0006126345921262619 -0.0058005289309264853 0 0.00031762757468504002 -0.0056273658083523951 0 0.00045730053517273333 -0.0056994009796676615 0 0.00037067434362563493 -0.0057906851224130496 0 0.00022637795671297893 -0.0057682174483221936 0 0.00031762757468504002 -0.0056273658083523951 0 0.00037067434362563493 -0.0057906851224130496 0 0.00037067434362563493 -0.0057906851224130496 0 0.00033122671214745033 -0.0058688096310880542 0 0.00026539074631279662 -0.0058382070596108846 0 0.00022637795671297893 -0.0057682174483221936 0 0.00037067434362563493 -0.0057906851224130496 0 0.00026539074631279662 -0.0058382070596108846 0 0.00036492746775758437 -0.0057978131821188198 0 0.00036781789852695655 -0.0059406633885972495 0 0.00033122671214745033 -0.0058688096310880542 0 0.00026539074631279662 -0.0058382070596108846 0 0.00024170455684849898 -0.0059064153432088354 0 0.00051008810538328924 -0.0057795872221015343 0 0.00037067434362563493 -0.0057906851224130496 0 0.00055608293102081161 -0.0059212017538405517 0 0.00037067434362563493 -0.0057906851224130496 0 0.00038526164793026426 -0.0059788820301935599 0 0.00055608293102081161 -0.0059212017538405517 0 0.00055608293102081161 -0.0059212017538405517 0 0.00039602669897511635 -0.0061515335480393412 0 0.00068591625192438376 -0.0060657024380383435 0 0.00038526164793026426 -0.0059788820301935599 0 0.00055608293102081161 -0.0059212017538405517 0 0.00039602669897511635 -0.0061515335480393412 0 0.0011875288504462032 -0.0058083578772966382 0 0.0011488054192309223 -0.0058210314916066486 0 0.0011738389850493602 -0.0057948840382490898 0 0.00055113412976139119 -0.0059143745544960255 0 0.00099553136823576156 -0.0059192213554953715 0 0.00033122671214745033 -0.0058688096310880542 0 0.00032911734763975008 -0.005968503040799448 0 0.00024170455684849898 -0.0059064153432088354 0 0.00032911734763975008 -0.005968503040799448 0 0.00024170455684849898 -0.0059064153432088354 0 0.00021072222559308349 -0.0059956365177679972 0 0.00036781789852695655 -0.0059406633885972495 0 0.00055113412976139119 -0.0059143745544960255 0 0.00024170455684849898 -0.0059064153432088354 0 0.00014628353686275118 -0.005928957993745384 0 0.00021072222559308349 -0.0059956365177679972 0 0.00024170455684849898 -0.0059064153432088354 0 0.00014628353686275118 -0.005928957993745384 0 0.00015427304094112844 -0.0058484601274585001 0 0.00014628353686275118 -0.005928957993745384 0 5.4871630304583033e-05 -0.005905496461728452 0 0.00015427304094112844 -0.0058484601274585001 0 0.00014628353686275118 -0.005928957993745384 0 5.4871630304583033e-05 -0.005905496461728452 0 7.0479582333068933e-05 -0.0060026777478081727 0 -5.8871729127509616e-05 -0.0058037879217818257 0 5.4871630304583033e-05 -0.005905496461728452 0 6.5155931813432657e-05 -0.0057806931485760091 0 5.4871630304583033e-05 -0.005905496461728452 0 6.5155931813432657e-05 -0.0057806931485760091 0 0.00015427304094112844 -0.0058484601274585001 0 0.00022637795671297893 -0.0057682174483221936 0 6.5155931813432657e-05 -0.0057806931485760091 0 0.00015427304094112844 -0.0058484601274585001 0 0.00022637795671297893 -0.0057682174483221936 0 0.00026539074631279662 -0.0058382070596108846 0 0.00015427304094112844 -0.0058484601274585001 0 0.00026539074631279662 -0.0058382070596108846 0 0.00024170455684849898 -0.0059064153432088354 0 0.00015427304094112844 -0.0058484601274585001 0 0.0011401241700952826 -0.005859385099260277 0 0.0012093504584120434 -0.005818968334558589 0 0.001190420821270493 -0.0058782318189709651 0 0.0010956757936140692 -0.0058410657115383633 0 0.0011139139653322282 -0.0059095507672984942 0 0.001045396662268607 -0.0058736726894311675 0 0.0011401241700952826 -0.005859385099260277 0 0.0010956757936140692 -0.0058410657115383633 0 0.0011139139653322282 -0.0059095507672984942 0 0.0011401241700952826 -0.005859385099260277 0 0.0010956757936140692 -0.0058410657115383633 0 0.0011262584615226391 -0.0058075199520580328 0 0.0010636823426729289 -0.0057766119943770686 0 0.0011262584615226391 -0.0058075199520580328 0 0.0011492013561494078 -0.0057492453933788712 0 0.0010956757936140692 -0.0058410657115383633 0 0.0010636823426729289 -0.0057766119943770686 0 0.0011262584615226391 -0.0058075199520580328 0 0.0011262584615226391 -0.0058075199520580328 0 0.0012093504584120434 -0.005818968334558589 0 0.0011492013561494078 -0.0057492453933788712 0 0.0011401241700952826 -0.005859385099260277 0 0.0011262584615226391 -0.0058075199520580328 0 0.0012093504584120434 -0.005818968334558589 0 0.0012093504584120434 -0.005818968334558589 0 0.0011492013561494078 -0.0057492453933788712 0 0.0012437022591228928 -0.0057594728526859443 0 0.0012437022591228928 -0.0057594728526859443 0 0.0013281102633030074 -0.0057364922652086998 0 0.0013063864160801854 -0.0058287164887845366 0 0.0012093504584120434 -0.005818968334558589 0 0.0012437022591228928 -0.0057594728526859443 0 0.0013063864160801854 -0.0058287164887845366 0 0.0012093504584120434 -0.005818968334558589 0 0.0012383584045341917 -0.0058910636622836526 0 0.0013063864160801854 -0.0058287164887845366 0 0.0012093504584120434 -0.005818968334558589 0 0.001190420821270493 -0.0058782318189709651 0 0.0012383584045341917 -0.0058910636622836526 0 0.001190420821270493 -0.0058782318189709651 0 0.0012383584045341917 -0.0058910636622836526 0 0.0011741188594698775 -0.0059424657419438025 0 0.0012383584045341917 -0.0058910636622836526 0 0.0012540719485300722 -0.0059427020671303813 0 0.0011741188594698775 -0.0059424657419438025 0 0.0012383584045341917 -0.0058910636622836526 0 0.0012540719485300722 -0.0059427020671303813 0 0.0013249642477103011 -0.00592725069480151 0 0.0012383584045341917 -0.0058910636622836526 0 0.0013063864160801854 -0.0058287164887845366 0 0.0013249642477103011 -0.00592725069480151 0 0.0012540719485300722 -0.0059427020671303813 0 0.0013249642477103011 -0.00592725069480151 0 0.0012898544432023255 -0.0059897187792266474 0 0.0012540719485300722 -0.0059427020671303813 0 0.0012898544432023255 -0.0059897187792266474 0 0.0012261629148491537 -0.0059888341367557657 0 0.0012540719485300722 -0.0059427020671303813 0 0.0011741188594698775 -0.0059424657419438025 0 0.0012261629148491537 -0.0059888341367557657 0 0.0011741188594698775 -0.0059424657419438025 0 0.0011139139653322282 -0.0059095507672984942 0 0.0011346261778179927 -0.0060188189418547977 0 0.0011401241700952826 -0.005859385099260277 0 0.001190420821270493 -0.0058782318189709651 0 0.0011741188594698775 -0.0059424657419438025 0 0.0011401241700952826 -0.005859385099260277 0 0.0011741188594698775 -0.0059424657419438025 0 0.0011139139653322282 -0.0059095507672984942 0 0.0011229631352780705 -0.0058076983565654508 0 0.0010731588843576347 -0.0058422474179065835 0 0.0011078608720923571 -0.0057969328307558403 0 0.0011139139653322282 -0.0059095507672984942 0 0.001045396662268607 -0.0058736726894311675 0 0.0011346261778179927 -0.0060188189418547977 0 0.0011229631352780705 -0.0058076983565654508 0 0.0010731588843576347 -0.0058422474179065835 0 0.0011469682040263546 -0.0058349295924397492 0 0.0010731588843576347 -0.0058422474179065835 0 0.0010684262870672007 -0.0058416931831006642 0 0.0011078608720923571 -0.0057969328307558403 0 0.0010929884843299189 -0.0058374050782891932 0 0.00099553136823576156 -0.0059192213554953715 0 0.0010564657547284407 -0.0058525414445728874 0 0.001121967079884448 -0.005904680361739423 0 0.00099553136823576156 -0.0059192213554953715 0 0.0011412470324309342 -0.0057691222237592488 0 0.0011229631352780705 -0.0058076983565654508 0 0.0011469682040263546 -0.0058349295924397492 0 0.0011554948323587771 -0.005799594332335364 0 0.00055608293102081161 -0.0059212017538405517 0 0.00073383331328348209 -0.0058484480769344874 0 0.0006126345921262619 -0.0058005289309264853 0 0.00055608293102081161 -0.0059212017538405517 0 0.00068591625192438376 -0.0060657024380383435 0 0.00073383331328348209 -0.0058484480769344874 0 0.00099553136823576156 -0.0059192213554953715 0 0.00083148811334501286 -0.0058200055494649046 0 0.0010636823426729289 -0.0057766119943770686 0 0.001045396662268607 -0.0058736726894311675 0 0.00098599392629648516 -0.0056948148840046172 0 0.0010564657547284407 -0.0058525414445728874 0 0.00099641279477803517 -0.0057075217904260581 0 0.00096039157191400411 -0.0057599049196145188 0 0.0010684262870672007 -0.0058416931831006642 0 0.00098599392629648516 -0.0056948148840046172 0 0.0010731588843576347 -0.0058422474179065835 0 0.00094377636714430575 -0.0058855625875710894 0 0.00096039157191400411 -0.0057599049196145188 0 0.0010956757936140692 -0.0058410657115383633 0 0.0010636823426729289 -0.0057766119943770686 0 0.001045396662268607 -0.0058736726894311675 0 0.0010731588843576347 -0.0058422474179065835 0 0.00096039157191400411 -0.0057599049196145188 0 0.0010684262870672007 -0.0058416931831006642 0 0.00083148811334501286 -0.0058200055494649046 0 0.00086927506120588257 -0.0056328765674389077 0 0.0010636823426729289 -0.0057766119943770686 0 0.00098599392629648516 -0.0056948148840046172 0 0.0010728936864622144 -0.0056969470224495023 0 0.00096039157191400411 -0.0057599049196145188 0 0.00098599392629648516 -0.0056948148840046172 0 0.0009380142204975468 -0.0056343968499171972 0 0.00098599392629648516 -0.0056948148840046172 0 0.0010170898270269978 -0.0056394130965191618 0 0.0010728936864622144 -0.0056969470224495023 0 0.00073383331328348209 -0.0058484480769344874 0 0.00068170410878567534 -0.005733319507947649 0 0.0007929002400194579 -0.0056591487937484499 0 0.00073383331328348209 -0.0058484480769344874 0 0.0006126345921262619 -0.0058005289309264853 0 0.00068170410878567534 -0.005733319507947649 0 0.00057923562715337957 -0.0057056837474518942 0 0.0006126345921262619 -0.0058005289309264853 0 0.00068170410878567534 -0.005733319507947649 0 0.00057923562715337957 -0.0057056837474518942 0 0.00068170410878567534 -0.005733319507947649 0 0.00066137404494947887 -0.0056469884833830128 0 0.00068170410878567534 -0.005733319507947649 0 0.00066137404494947887 -0.0056469884833830128 0 0.0007929002400194579 -0.0056591487937484499 0 0.00066137404494947887 -0.0056469884833830128 0 0.0007929002400194579 -0.0056591487937484499 0 0.00067520475840454695 -0.0055437491426497763 0 0.00052843482413660449 -0.0056028142623307051 0 0.00066137404494947887 -0.0056469884833830128 0 0.00067520475840454695 -0.0055437491426497763 0 0.0009380142204975468 -0.0056343968499171972 0 0.0010103572368962677 -0.0055430405637421258 0 0.00089002039018800283 -0.0054651566502528651 0 0.00086927506120588257 -0.0056328765674389077 0 0.00089238525018257972 -0.0054744553928161594 0 0.0007929002400194579 -0.0056591487937484499 0 0.00067520475840454695 -0.0055437491426497763 0 0.00089002039018800283 -0.0054651566502528651 0 0.0010170898270269978 -0.0056394130965191618 0 0.0009380142204975468 -0.0056343968499171972 0 0.0010103572368962677 -0.0055430405637421258 0 0.00098599392629648516 -0.0056948148840046172 0 0.0010170898270269978 -0.0056394130965191618 0 0.0009380142204975468 -0.0056343968499171972 0 0.0010170898270269978 -0.0056394130965191618 0 0.0011195065528097289 -0.0056193797081919477 0 0.0010103572368962677 -0.0055430405637421258 0 0.0011195065528097289 -0.0056193797081919477 0 0.0011659977085751508 -0.0054556807539385332 0 0.0010103572368962677 -0.0055430405637421258 0 0.0010170898270269978 -0.0056394130965191618 0 0.0011195065528097289 -0.0056193797081919477 0 0.0010728936864622144 -0.0056969470224495023 0 0.0010728936864622144 -0.0056969470224495023 0 0.0011382265406408979 -0.0056876785641295242 0 0.0011492013561494078 -0.0057492453933788712 0 0.0011382265406408979 -0.0056876785641295242 0 0.0011492013561494078 -0.0057492453933788712 0 0.0012135150855084825 -0.0056855061430816072 0 0.0011195065528097289 -0.0056193797081919477 0 0.0011382265406408979 -0.0056876785641295242 0 0.0012135150855084825 -0.0056855061430816072 0 0.0011195065528097289 -0.0056193797081919477 0 0.0010728936864622144 -0.0056969470224495023 0 0.0011382265406408979 -0.0056876785641295242 0 0.0010636823426729289 -0.0057766119943770686 0 0.0010728936864622144 -0.0056969470224495023 0 0.0011492013561494078 -0.0057492453933788712 0 0.0012135150855084825 -0.0056855061430816072 0 0.0013281102633030074 -0.0057364922652086998 0 0.0013638270860345178 -0.0056406382952475052 0 0.0012437022591228928 -0.0057594728526859443 0 0.0012135150855084825 -0.0056855061430816072 0 0.0013281102633030074 -0.0057364922652086998 0 0.0011492013561494078 -0.0057492453933788712 0 0.0012437022591228928 -0.0057594728526859443 0 0.0012135150855084825 -0.0056855061430816072 0 0.0012135150855084825 -0.0056855061430816072 0 0.0012663730531691294 -0.0055809315455604813 0 0.0013638270860345178 -0.0056406382952475052 0 0.0011195065528097289 -0.0056193797081919477 0 0.0012663730531691294 -0.0055809315455604813 0 0.0011659977085751508 -0.0054556807539385332 0 0.0011195065528097289 -0.0056193797081919477 0 0.0012135150855084825 -0.0056855061430816072 0 0.0012663730531691294 -0.0055809315455604813 0 0.0011659977085751508 -0.0054556807539385332 0 0.0013183840893769337 -0.0054749185118819861 0 0.0012925538162285128 -0.0053469930425990653 0 0.0012663730531691294 -0.0055809315455604813 0 0.0011659977085751508 -0.0054556807539385332 0 0.0013183840893769337 -0.0054749185118819861 0 0.0011659977085751508 -0.0054556807539385332 0 0.0010103572368962677 -0.0055430405637421258 0 0.001012015357803295 -0.0053882635566626456 0 0.0011659977085751508 -0.0054556807539385332 0 0.001012015357803295 -0.0053882635566626456 0 0.0010822756451090601 -0.0052379696401462037 0 0.001012015357803295 -0.0053882635566626456 0 0.00086013498864144185 -0.0052715427711572723 0 0.0010822756451090601 -0.0052379696401462037 0 0.0011659977085751508 -0.0054556807539385332 0 0.0010822756451090601 -0.0052379696401462037 0 0.0012925538162285128 -0.0053469930425990653 0 0.00067520475840454695 -0.0055437491426497763 0 0.00089002039018800283 -0.0054651566502528651 0 0.00066799408019687116 -0.0053797847141699925 0 0.0010103572368962677 -0.0055430405637421258 0 0.001012015357803295 -0.0053882635566626456 0 0.00089002039018800283 -0.0054651566502528651 0 0.00089002039018800283 -0.0054651566502528651 0 0.00086013498864144185 -0.0052715427711572723 0 0.00066799408019687116 -0.0053797847141699925 0 0.001012015357803295 -0.0053882635566626456 0 0.00089002039018800283 -0.0054651566502528651 0 0.00086013498864144185 -0.0052715427711572723 0 0.00086013498864144185 -0.0052715427711572723 0 0.00066799408019687116 -0.0053797847141699925 0 0.00064846363774196682 -0.0051902453860480481 0 0.00086013498864144185 -0.0052715427711572723 0 0.00064846363774196682 -0.0051902453860480481 0 0.00083852703528795381 -0.0049999708187593254 0 0.00086013498864144185 -0.0052715427711572723 0 0.00083852703528795381 -0.0049999708187593254 0 0.0010822756451090601 -0.0052379696401462037 0 0.00054733078020407751 -0.0049999790231619436 0 0.00064846363774196682 -0.0051902453860480481 0 0.00083852703528795381 -0.0049999708187593254 0 0.0010822756451090601 -0.0052379696401462037 0 0.0011297164292651788 -0.0049999815964300483 0 0.001271056267246174 -0.0051748380956011851 0 0.0010822756451090601 -0.0052379696401462037 0 0.001271056267246174 -0.0051748380956011851 0 0.0012925538162285128 -0.0053469930425990653 0 0.00083852703528795381 -0.0049999708187593254 0 0.0010822756451090601 -0.0052379696401462037 0 0.0011297164292651788 -0.0049999815964300483 0 0.0011297164292651788 -0.0049999815964300483 0 0.001271056267246174 -0.0051748380956011851 0 0.0014208845524111421 -0.0049999764612357247 0 0.001271056267246174 -0.0051748380956011851 0 0.0014726074795701151 -0.0052451590204986706 0 0.0012925538162285128 -0.0053469930425990653 0 0.001271056267246174 -0.0051748380956011851 0 0.0014726074795701151 -0.0052451590204986706 0 0.0014208845524111421 -0.0049999764612357247 0 0.0014726074795701151 -0.0052451590204986706 0 0.0014208845524111421 -0.0049999764612357247 0 0.0015878743324129808 -0.0051221192601296666 0 0.0015878743324129808 -0.0051221192601296666 0 0.0017120566430902928 -0.0049999849209656283 0 0.0017158608372077901 -0.0052397534277632473 0 0.0014208845524111421 -0.0049999764612357247 0 0.0015878743324129808 -0.0051221192601296666 0 0.0017120566430902928 -0.0049999849209656283 0 0.0017120566430902928 -0.0049999849209656283 0 0.0020031774696460118 -0.0049999842005100026 0 0.0019018900534916803 -0.005191933852323396 0 0.0017120566430902928 -0.0049999849209656283 0 0.0017158608372077901 -0.0052397534277632473 0 0.0019018900534916803 -0.005191933852323396 0 0.0017158608372077901 -0.0052397534277632473 0 0.0018722417711579658 -0.0052844420742224367 0 0.0019129427193431193 -0.0051420303500932319 0 0.001735279242880048 -0.005232508780825847 0 0.0019039255043815729 -0.0051672726035360888 0 0.0014726074795701151 -0.0052451590204986706 0 0.0015878743324129808 -0.0051221192601296666 0 0.0017158608372077901 -0.0052397534277632473 0 0.0017158608372077901 -0.0052397534277632473 0 0.0017206423043385065 -0.0053838963916418023 0 0.0015777973158854297 -0.0053676943574422036 0 0.0014726074795701151 -0.0052451590204986706 0 0.0017158608372077901 -0.0052397534277632473 0 0.0015777973158854297 -0.0053676943574422036 0 0.0017206423043385065 -0.0053838963916418023 0 0.0018722417711579658 -0.0052844420742224367 0 0.0018508858912479847 -0.0053986592581207263 0 0.0017158608372077901 -0.0052397534277632473 0 0.0017206423043385065 -0.0053838963916418023 0 0.0018722417711579658 -0.0052844420742224367 0 0.0017206423043385065 -0.0053838963916418023 0 0.0018508858912479847 -0.0053986592581207263 0 0.001759600760604093 -0.0055067221133411537 0 0.0018508858912479847 -0.0053986592581207263 0 0.001759600760604093 -0.0055067221133411537 0 0.0018611845236724182 -0.0054919751514900389 0 0.0017206423043385065 -0.0053838963916418023 0 0.0015777973158854297 -0.0053676943574422036 0 0.0015882305273567257 -0.0055243129539354471 0 0.0017206423043385065 -0.0053838963916418023 0 0.001759600760604093 -0.0055067221133411537 0 0.0015882305273567257 -0.0055243129539354471 0 0.0014410255420572876 -0.0054357843615360337 0 0.0014249738388610112 -0.0055513172482201719 0 0.0015882305273567257 -0.0055243129539354471 0 0.0014410255420572876 -0.0054357843615360337 0 0.0015777973158854297 -0.0053676943574422036 0 0.0015882305273567257 -0.0055243129539354471 0 0.0014410255420572876 -0.0054357843615360337 0 0.0013183840893769337 -0.0054749185118819861 0 0.0014249738388610112 -0.0055513172482201719 0 0.0014410255420572876 -0.0054357843615360337 0 0.0013183840893769337 -0.0054749185118819861 0 0.0012925538162285128 -0.0053469930425990653 0 0.0014726074795701151 -0.0052451590204986706 0 0.0014410255420572876 -0.0054357843615360337 0 0.0012925538162285128 -0.0053469930425990653 0 0.0014726074795701151 -0.0052451590204986706 0 0.0014410255420572876 -0.0054357843615360337 0 0.0015777973158854297 -0.0053676943574422036 0 0.0024172747625413851 -0.0051744676436062224 0 0.002544805236748277 -0.0051210282678315396 0 0.0025574624238718954 -0.0053179081151213219 0 0.002390291910585336 -0.005169239055014087 0 0.0024421443313819595 -0.0050141199934292573 0 0.0024421443313819595 -0.0050141199934292573 0 0.0022987563531286438 -0.0050686813449925825 0 0.0023634851371678086 -0.0051645053129405535 0 0.002420414787969916 -0.0050196821998352379 0 0.0022936962521332292 -0.0050678346054169833 0 0.0024172747625413851 -0.0051744676436062224 0 0.002482564109601266 -0.0050009196021973575 0 0.002544805236748277 -0.0051210282678315396 0 0.0024825138473924704 -0.0050009463548656725 0 0.0022941509422628116 -0.0050706721275258571 0 0.002242869643604639 -0.0050000006027360964 0 0.0022941509422628116 -0.0050706721275258571 0 0.002242869643604639 -0.0050000006027360964 0 0.002105960697188409 -0.0051418229412346569 0 0.0022987563531286438 -0.0050686813449925825 0 0.0021142678785998387 -0.0051123073739090001 0 0.0023634851371678086 -0.0051645053129405535 0 0.0022936962521332292 -0.0050678346054169833 0 0.0022369616935660952 -0.005212557662691783 0 0.0023634851371678086 -0.0051645053129405535 0 0.0022369616935660952 -0.005212557662691783 0 0.0023068160880647484 -0.0053093127379073282 0 0.0022936962521332292 -0.0050678346054169833 0 0.0022369616935660952 -0.005212557662691783 0 0.0021668961509816427 -0.0051158502815852472 0 0.0022102253534345986 -0.0052035320604310962 0 0.0020427778837983045 -0.0052155030538433419 0 0.0021079817214913581 -0.0050651749841295205 0 0.0022237793635132759 -0.0052073737559172276 0 0.0021142678785998387 -0.0051123073739090001 0 0.002242869643604639 -0.0050000006027360964 0 0.002105960697188409 -0.0051418229412346569 0 0.0020032254576024442 -0.0049999992000299932 0 0.0021142678785998387 -0.0051123073739090001 0 0.0020032553821763997 -0.0050000443499878906 0 0.0020912909199027763 -0.0051273112654540024 0 0.0020031774696460118 -0.0049999842005100026 0 0.0019018900534916803 -0.005191933852323396 0 0.0021142678785998387 -0.0051123073739090001 0 0.0019039255043815729 -0.0051672726035360888 0 0.0018722417711579658 -0.0052844420742224367 0 0.0020427778837983045 -0.0052155030538433419 0 0.0019129427193431193 -0.0051420303500932319 0 0.0020427778837983045 -0.0052155030538433419 0 0.0021079817214913581 -0.0050651749841295205 0 0.0019129427193431193 -0.0051420303500932319 0 0.0018722417711579658 -0.0052844420742224367 0 0.0020427778837983045 -0.0052155030538433419 0 0.0019866940297963436 -0.0053548172352444676 0 0.0018722417711579658 -0.0052844420742224367 0 0.0018508858912479847 -0.0053986592581207263 0 0.0019866940297963436 -0.0053548172352444676 0 0.0018508858912479847 -0.0053986592581207263 0 0.0019866940297963436 -0.0053548172352444676 0 0.0019620389250130442 -0.0054842754135610901 0 0.0018508858912479847 -0.0053986592581207263 0 0.0018611845236724182 -0.0054919751514900389 0 0.0019620389250130442 -0.0054842754135610901 0 0.0019620389250130442 -0.0054842754135610901 0 0.002064154374767833 -0.0054344352884945595 0 0.0020662010434460351 -0.005520344833714305 0 0.0019866940297963436 -0.0053548172352444676 0 0.0019620389250130442 -0.0054842754135610901 0 0.002064154374767833 -0.0054344352884945595 0 0.002064154374767833 -0.0054344352884945595 0 0.0021408117482579919 -0.0054227298912811663 0 0.002119372058301061 -0.0053374773926047519 0 0.002064154374767833 -0.0054344352884945595 0 0.0021250489760826119 -0.0054790492126407893 0 0.0021408117482579919 -0.0054227298912811663 0 0.002064154374767833 -0.0054344352884945595 0 0.0021250489760826119 -0.0054790492126407893 0 0.0020662010434460351 -0.005520344833714305 0 0.0021250489760826119 -0.0054790492126407893 0 0.0021495173230754367 -0.005534228557846895 0 0.0020662010434460351 -0.005520344833714305 0 0.0021689996469543222 -0.0054963894971877475 0 0.0022182128708742588 -0.0055117654764064343 0 0.0021495173230754367 -0.005534228557846895 0 0.0021689996469543222 -0.0054963894971877475 0 0.0021832564697828604 -0.0054602172862979045 0 0.0022182128708742588 -0.0055117654764064343 0 0.0021689996469543222 -0.0054963894971877475 0 0.0021250489760826119 -0.0054790492126407893 0 0.0021495173230754367 -0.005534228557846895 0 0.0021250489760826119 -0.0054790492126407893 0 0.0021832564697828604 -0.0054602172862979045 0 0.0021408117482579919 -0.0054227298912811663 0 0.0021689996469543222 -0.0054963894971877475 0 0.0021250489760826119 -0.0054790492126407893 0 0.0021832564697828604 -0.0054602172862979045 0 0.0021832564697828604 -0.0054602172862979045 0 0.0021408117482579919 -0.0054227298912811663 0 0.0022066977778067323 -0.0054204660947714828 0 0.0021408117482579919 -0.0054227298912811663 0 0.0021835030485091557 -0.0053810764641550844 0 0.002119372058301061 -0.0053374773926047519 0 0.0021408117482579919 -0.0054227298912811663 0 0.0021835030485091557 -0.0053810764641550844 0 0.0022066977778067323 -0.0054204660947714828 0 0.0022102253534345986 -0.0052035320604310962 0 0.0020427778837983045 -0.0052155030538433419 0 0.002119372058301061 -0.0053374773926047519 0 0.0021835030485091557 -0.0053810764641550844 0 0.002119372058301061 -0.0053374773926047519 0 0.0022290805150075471 -0.0053339916923559718 0 0.0019866940297963436 -0.0053548172352444676 0 0.002064154374767833 -0.0054344352884945595 0 0.002119372058301061 -0.0053374773926047519 0 0.0020427778837983045 -0.0052155030538433419 0 0.0019866940297963436 -0.0053548172352444676 0 0.002119372058301061 -0.0053374773926047519 0 0.0022102253534345986 -0.0052035320604310962 0 0.002119372058301061 -0.0053374773926047519 0 0.0022290805150075471 -0.0053339916923559718 0 0.0022237793635132759 -0.0052073737559172276 0 0.0023139263521087259 -0.005326726328707402 0 0.0022102253534345986 -0.0052035320604310962 0 0.002318162698358064 -0.0053432866921967158 0 0.0022290805150075471 -0.0053339916923559718 0 0.002318162698358064 -0.0053432866921967158 0 0.0023122098257539491 -0.0053608404014734313 0 0.0022290805150075471 -0.0053339916923559718 0 0.0023161823323155487 -0.0053300249047809611 0 0.0023139263521087259 -0.005326726328707402 0 0.0023139263521087259 -0.005326726328707402 0 0.0023130892218848204 -0.0053297946994183684 0 0.0023348716819055456 -0.005361650807577595 0 0.0023209483678287169 -0.0053408390973032445 0 0.0023122098257539491 -0.0053608404014734313 0 0.0023122098257539491 -0.0053608404014734313 0 0.0023242902137286157 -0.0053789364019025216 0 0.0023114221724551427 -0.0053925516608731815 0 0.0023348716819055456 -0.005361650807577595 0 0.0023122098257539491 -0.0053608404014734313 0 0.0023242902137286157 -0.0053789364019025216 0 0.0023348716819055456 -0.005361650807577595 0 0.0023242902137286157 -0.0053789364019025216 0 0.0023599779258256311 -0.0053846365927589443 0 0.0023122098257539491 -0.0053608404014734313 0 0.0022424531237719087 -0.0053772804908017958 0 0.0022841130547963944 -0.0053908026163339024 0 0.0023122098257539491 -0.0053608404014734313 0 0.0022424531237719087 -0.0053772804908017958 0 0.0022290805150075471 -0.0053339916923559718 0 0.0021835030485091557 -0.0053810764641550844 0 0.0022424531237719087 -0.0053772804908017958 0 0.0022290805150075471 -0.0053339916923559718 0 0.0021835030485091557 -0.0053810764641550844 0 0.0022424531237719087 -0.0053772804908017958 0 0.0022066977778067323 -0.0054204660947714828 0 0.0022424531237719087 -0.0053772804908017958 0 0.0022502450404538392 -0.0054136204772933395 0 0.0022841130547963944 -0.0053908026163339024 0 0.0022424531237719087 -0.0053772804908017958 0 0.0022502450404538392 -0.0054136204772933395 0 0.0022066977778067323 -0.0054204660947714828 0 0.0022502450404538392 -0.0054136204772933395 0 0.0022651294023950746 -0.0054415394516362141 0 0.0022309809569978313 -0.005454429306044937 0 0.0022502450404538392 -0.0054136204772933395 0 0.0022651294023950746 -0.0054415394516362141 0 0.00227804628923238 -0.005416504138507288 0 0.0022502450404538392 -0.0054136204772933395 0 0.0022066977778067323 -0.0054204660947714828 0 0.0022309809569978313 -0.005454429306044937 0 0.0021832564697828604 -0.0054602172862979045 0 0.0022066977778067323 -0.0054204660947714828 0 0.0022309809569978313 -0.005454429306044937 0 0.0021832564697828604 -0.0054602172862979045 0 0.0022309809569978313 -0.005454429306044937 0 0.0022182128708742588 -0.0055117654764064343 0 0.0022671460639524096 -0.0054773364094224978 0 0.0022309809569978313 -0.005454429306044937 0 0.0022182128708742588 -0.0055117654764064343 0 0.0022651294023950746 -0.0054415394516362141 0 0.0022671460639524096 -0.0054773364094224978 0 0.0022309809569978313 -0.005454429306044937 0 0.0022671460639524096 -0.0054773364094224978 0 0.0022182128708742588 -0.0055117654764064343 0 0.0022902235089533683 -0.0055202218752627864 0 0.0023420396751560458 -0.00551492131471758 0 0.0022902235089533683 -0.0055202218752627864 0 0.0023138971076932012 -0.0054797409251679278 0 0.0022671460639524096 -0.0054773364094224978 0 0.0022902235089533683 -0.0055202218752627864 0 0.0023138971076932012 -0.0054797409251679278 0 0.0022671460639524096 -0.0054773364094224978 0 0.0022895906489751737 -0.0054574858998272949 0 0.0023138971076932012 -0.0054797409251679278 0 0.0022651294023950746 -0.0054415394516362141 0 0.0022671460639524096 -0.0054773364094224978 0 0.0022895906489751737 -0.0054574858998272949 0 0.0023138971076932012 -0.0054797409251679278 0 0.0023262630060397614 -0.0054396507432289028 0 0.0023694020222441263 -0.005467977182298937 0 0.0022895906489751737 -0.0054574858998272949 0 0.0023138971076932012 -0.0054797409251679278 0 0.0023262630060397614 -0.0054396507432289028 0 0.0023420396751560458 -0.00551492131471758 0 0.0023138971076932012 -0.0054797409251679278 0 0.0023694020222441263 -0.005467977182298937 0 0.0023262630060397614 -0.0054396507432289028 0 0.0023339184966523902 -0.0054008120115073112 0 0.0023650150750516344 -0.0054194431282456913 0 0.0022651294023950746 -0.0054415394516362141 0 0.0022895906489751737 -0.0054574858998272949 0 0.0022908130290077312 -0.005432209735012428 0 0.0022895906489751737 -0.0054574858998272949 0 0.0023262630060397614 -0.0054396507432289028 0 0.0022908130290077312 -0.005432209735012428 0 0.0023262630060397614 -0.0054396507432289028 0 0.0022908130290077312 -0.005432209735012428 0 0.0023071305637641032 -0.0054143919361151352 0 0.0022908130290077312 -0.005432209735012428 0 0.00227804628923238 -0.005416504138507288 0 0.0023071305637641032 -0.0054143919361151352 0 0.0022651294023950746 -0.0054415394516362141 0 0.0022908130290077312 -0.005432209735012428 0 0.00227804628923238 -0.005416504138507288 0 0.0022502450404538392 -0.0054136204772933395 0 0.00227804628923238 -0.005416504138507288 0 0.0022841130547963944 -0.0053908026163339024 0 0.00227804628923238 -0.005416504138507288 0 0.0023071305637641032 -0.0054143919361151352 0 0.0022841130547963944 -0.0053908026163339024 0 0.0023122098257539491 -0.0053608404014734313 0 0.0022841130547963944 -0.0053908026163339024 0 0.0023114221724551427 -0.0053925516608731815 0 0.0023071305637641032 -0.0054143919361151352 0 0.0022841130547963944 -0.0053908026163339024 0 0.0023114221724551427 -0.0053925516608731815 0 0.0023262630060397614 -0.0054396507432289028 0 0.0023071305637641032 -0.0054143919361151352 0 0.0023339184966523902 -0.0054008120115073112 0 0.0023071305637641032 -0.0054143919361151352 0 0.0023114221724551427 -0.0053925516608731815 0 0.0023339184966523902 -0.0054008120115073112 0 0.0023242902137286157 -0.0053789364019025216 0 0.0023114221724551427 -0.0053925516608731815 0 0.0023339184966523902 -0.0054008120115073112 0 0.0023242902137286157 -0.0053789364019025216 0 0.0023339184966523902 -0.0054008120115073112 0 0.0023599779258256311 -0.0053846365927589443 0 0.0023339184966523902 -0.0054008120115073112 0 0.0023599779258256311 -0.0053846365927589443 0 0.0023650150750516344 -0.0054194431282456913 0 0.0023599779258256311 -0.0053846365927589443 0 0.0023650150750516344 -0.0054194431282456913 0 0.0023942966476945158 -0.0053885922066882874 0 0.0023942966476945158 -0.0053885922066882874 0 0.0024049116559442204 -0.0054284044557315484 0 0.0024668079452896492 -0.0054036275741251695 0 0.0023650150750516344 -0.0054194431282456913 0 0.0023942966476945158 -0.0053885922066882874 0 0.0024049116559442204 -0.0054284044557315484 0 0.0024049116559442204 -0.0054284044557315484 0 0.0023694020222441263 -0.005467977182298937 0 0.0024282600883449158 -0.0054628114673130118 0 0.0023650150750516344 -0.0054194431282456913 0 0.0024049116559442204 -0.0054284044557315484 0 0.0023694020222441263 -0.005467977182298937 0 0.0023262630060397614 -0.0054396507432289028 0 0.0023650150750516344 -0.0054194431282456913 0 0.0023694020222441263 -0.005467977182298937 0 0.0023694020222441263 -0.005467977182298937 0 0.0024282600883449158 -0.0054628114673130118 0 0.0024052861695720838 -0.0055265440430617959 0 0.0023420396751560458 -0.00551492131471758 0 0.0023694020222441263 -0.005467977182298937 0 0.0024052861695720838 -0.0055265440430617959 0 0.002494488331964825 -0.0054860370410855144 0 0.0024282600883449158 -0.0054628114673130118 0 0.0024052861695720838 -0.0055265440430617959 0 0.002494488331964825 -0.0054860370410855144 0 0.0024825658108519125 -0.0055709616027990044 0 0.0024052861695720838 -0.0055265440430617959 0 0.002494488331964825 -0.0054860370410855144 0 0.0024282600883449158 -0.0054628114673130118 0 0.0024668079452896492 -0.0054036275741251695 0 0.0024049116559442204 -0.0054284044557315484 0 0.0024282600883449158 -0.0054628114673130118 0 0.0024668079452896492 -0.0054036275741251695 0 0.0024668079452896492 -0.0054036275741251695 0 0.0024167167997666793 -0.0053326613353783152 0 0.0025574624238718954 -0.0053179081151213219 0 0.0024172747625413851 -0.0051744676436062224 0 0.0023276239797878425 -0.0053508765674028505 0 0.0024167167997666793 -0.0053326613353783152 0 0.0024172747625413851 -0.0051744676436062224 0 0.0024167167997666793 -0.0053326613353783152 0 0.0025574624238718954 -0.0053179081151213219 0 0.002390291910585336 -0.005169239055014087 0 0.0023139263521087259 -0.005326726328707402 0 0.0023348716819055456 -0.005361650807577595 0 0.0023942966476945158 -0.0053885922066882874 0 0.0024167167997666793 -0.0053326613353783152 0 0.0023942966476945158 -0.0053885922066882874 0 0.0024668079452896492 -0.0054036275741251695 0 0.0024167167997666793 -0.0053326613353783152 0 0.0023348716819055456 -0.005361650807577595 0 0.0023276239797878425 -0.0053508765674028505 0 0.0024167167997666793 -0.0053326613353783152 0 0.0023348716819055456 -0.005361650807577595 0 0.0023599779258256311 -0.0053846365927589443 0 0.0023942966476945158 -0.0053885922066882874 0 0.0024459024237957422 -0.0056911793310431792 0 0.0023788982842816763 -0.0058281156038576852 0 0.0025047938644068442 -0.0058036962010096756 0 0.0023403626930526356 -0.005739136384664857 0 0.0024459024237957422 -0.0056911793310431792 0 0.0023788982842816763 -0.0058281156038576852 0 0.0023403626930526356 -0.005739136384664857 0 0.0023527185177866718 -0.0056627887143376509 0 0.0024459024237957422 -0.0056911793310431792 0 0.0024459024237957422 -0.0056911793310431792 0 0.0024825658108519125 -0.0055709616027990044 0 0.0024051520989971163 -0.0056021914215056553 0 0.0024825658108519125 -0.0055709616027990044 0 0.0024052861695720838 -0.0055265440430617959 0 0.0024051520989971163 -0.0056021914215056553 0 0.0024052861695720838 -0.0055265440430617959 0 0.0024051520989971163 -0.0056021914215056553 0 0.0023325953375885563 -0.0055736304945437102 0 0.0023420396751560458 -0.00551492131471758 0 0.0024052861695720838 -0.0055265440430617959 0 0.0023325953375885563 -0.0055736304945437102 0 0.0023527185177866718 -0.0056627887143376509 0 0.0024459024237957422 -0.0056911793310431792 0 0.0024051520989971163 -0.0056021914215056553 0 0.0023527185177866718 -0.0056627887143376509 0 0.0024051520989971163 -0.0056021914215056553 0 0.0023325953375885563 -0.0055736304945437102 0 0.0023527185177866718 -0.0056627887143376509 0 0.002267643625603586 -0.005627426917001379 0 0.0023325953375885563 -0.0055736304945437102 0 0.002267643625603586 -0.005627426917001379 0 0.0023325953375885563 -0.0055736304945437102 0 0.0022668061155000827 -0.0055627585700375719 0 0.0022902235089533683 -0.0055202218752627864 0 0.0023325953375885563 -0.0055736304945437102 0 0.0022668061155000827 -0.0055627585700375719 0 0.0023420396751560458 -0.00551492131471758 0 0.0022902235089533683 -0.0055202218752627864 0 0.0023325953375885563 -0.0055736304945437102 0 0.0022182128708742588 -0.0055117654764064343 0 0.0022668061155000827 -0.0055627585700375719 0 0.0022030265618631964 -0.0055804944242797685 0 0.0022182128708742588 -0.0055117654764064343 0 0.0022902235089533683 -0.0055202218752627864 0 0.0022668061155000827 -0.0055627585700375719 0 0.002267643625603586 -0.005627426917001379 0 0.0022030265618631964 -0.0055804944242797685 0 0.0021680548575719999 -0.0056625833114536585 0 0.002267643625603586 -0.005627426917001379 0 0.0022668061155000827 -0.0055627585700375719 0 0.0022030265618631964 -0.0055804944242797685 0 0.0022630023598923252 -0.0057115718992990132 0 0.0021653141751410477 -0.0057673972645029608 0 0.0021680548575719999 -0.0056625833114536585 0 0.002267643625603586 -0.005627426917001379 0 0.0022630023598923252 -0.0057115718992990132 0 0.0021680548575719999 -0.0056625833114536585 0 0.0023527185177866718 -0.0056627887143376509 0 0.002267643625603586 -0.005627426917001379 0 0.0022630023598923252 -0.0057115718992990132 0 0.0023403626930526356 -0.005739136384664857 0 0.0023527185177866718 -0.0056627887143376509 0 0.0022630023598923252 -0.0057115718992990132 0 0.0023403626930526356 -0.005739136384664857 0 0.0022630023598923252 -0.0057115718992990132 0 0.0022641551055236392 -0.0057987913886303928 0 0.0022630023598923252 -0.0057115718992990132 0 0.0021653141751410477 -0.0057673972645029608 0 0.0022641551055236392 -0.0057987913886303928 0 0.0021653141751410477 -0.0057673972645029608 0 0.0020747186332268444 -0.0057229651989363682 0 0.0021680548575719999 -0.0056625833114536585 0 0.0021653141751410477 -0.0057673972645029608 0 0.0020747186332268444 -0.0057229651989363682 0 0.0020689785779486997 -0.0058243400894164299 0 0.0020747186332268444 -0.0057229651989363682 0 0.0020838125339883301 -0.0056466326812100107 0 0.0020000414746787353 -0.0056784481726378242 0 0.0020747186332268444 -0.0057229651989363682 0 0.0021680548575719999 -0.0056625833114536585 0 0.0020838125339883301 -0.0056466326812100107 0 0.0022030265618631964 -0.0055804944242797685 0 0.0021680548575719999 -0.0056625833114536585 0 0.0021125745647366302 -0.0055842954907519369 0 0.0021680548575719999 -0.0056625833114536585 0 0.0020838125339883301 -0.0056466326812100107 0 0.0021125745647366302 -0.0055842954907519369 0 0.0022030265618631964 -0.0055804944242797685 0 0.0021495173230754367 -0.005534228557846895 0 0.0021125745647366302 -0.0055842954907519369 0 0.0022182128708742588 -0.0055117654764064343 0 0.0022030265618631964 -0.0055804944242797685 0 0.0021495173230754367 -0.005534228557846895 0 0.0021495173230754367 -0.005534228557846895 0 0.0020662010434460351 -0.005520344833714305 0 0.0021125745647366302 -0.0055842954907519369 0 0.0020662010434460351 -0.005520344833714305 0 0.0021125745647366302 -0.0055842954907519369 0 0.0020030881194645898 -0.0055919708237281308 0 0.0020838125339883301 -0.0056466326812100107 0 0.0021125745647366302 -0.0055842954907519369 0 0.0020030881194645898 -0.0055919708237281308 0 0.0020838125339883301 -0.0056466326812100107 0 0.0020030881194645898 -0.0055919708237281308 0 0.0020000414746787353 -0.0056784481726378242 0 0.0019620389250130442 -0.0054842754135610901 0 0.0020662010434460351 -0.005520344833714305 0 0.0020030881194645898 -0.0055919708237281308 0 0.0018611845236724182 -0.0054919751514900389 0 0.0019620389250130442 -0.0054842754135610901 0 0.0019044447434554081 -0.0055660345227331208 0 0.0019620389250130442 -0.0054842754135610901 0 0.0020030881194645898 -0.0055919708237281308 0 0.0019044447434554081 -0.0055660345227331208 0 0.0020030881194645898 -0.0055919708237281308 0 0.0019044447434554081 -0.0055660345227331208 0 0.0018937227615304236 -0.0056590116044249999 0 0.0020000414746787353 -0.0056784481726378242 0 0.0019624815326390317 -0.0057530534183674945 0 0.0018937227615304236 -0.0056590116044249999 0 0.0020030881194645898 -0.0055919708237281308 0 0.0020000414746787353 -0.0056784481726378242 0 0.0018937227615304236 -0.0056590116044249999 0 0.0020747186332268444 -0.0057229651989363682 0 0.0019624815326390317 -0.0057530534183674945 0 0.0020689785779486997 -0.0058243400894164299 0 0.0020747186332268444 -0.0057229651989363682 0 0.0020000414746787353 -0.0056784481726378242 0 0.0019624815326390317 -0.0057530534183674945 0 0.0019624815326390317 -0.0057530534183674945 0 0.0018937227615304236 -0.0056590116044249999 0 0.0018504669890548175 -0.0057353388131483286 0 0.0019624815326390317 -0.0057530534183674945 0 0.0019670490556010253 -0.005836280472548588 0 0.0018732722202753889 -0.0058097841463037227 0 0.0019624815326390317 -0.0057530534183674945 0 0.0019670490556010253 -0.005836280472548588 0 0.0020689785779486997 -0.0058243400894164299 0 0.0019670490556010253 -0.005836280472548588 0 0.0020160906651467926 -0.0059010156492155944 0 0.0020689785779486997 -0.0058243400894164299 0 0.0019670490556010253 -0.005836280472548588 0 0.0018732722202753889 -0.0058097841463037227 0 0.0019124907032023384 -0.0058850191651757264 0 0.0019670490556010253 -0.005836280472548588 0 0.0020160906651467926 -0.0059010156492155944 0 0.0019124907032023384 -0.0058850191651757264 0 0.0019590074446879085 -0.0059502844501658127 0 0.0020160906651467926 -0.0059010156492155944 0 0.0019124907032023384 -0.0058850191651757264 0 0.0019590074446879085 -0.0059502844501658127 0 0.0018888472745642565 -0.0059978757083302744 0 0.0019813046973316366 -0.0060173942063104363 0 0.0019590074446879085 -0.0059502844501658127 0 0.0020560606122099253 -0.0059700915740647656 0 0.0019813046973316366 -0.0060173942063104363 0 0.0019590074446879085 -0.0059502844501658127 0 0.0020560606122099253 -0.0059700915740647656 0 0.0020160906651467926 -0.0059010156492155944 0 0.0020560606122099253 -0.0059700915740647656 0 0.0020160906651467926 -0.0059010156492155944 0 0.0021276164410521095 -0.0059254800511750697 0 0.0020560606122099253 -0.0059700915740647656 0 0.0021276164410521095 -0.0059254800511750697 0 0.0021466998428372598 -0.0059927249208861447 0 0.0021276164410521095 -0.0059254800511750697 0 0.0022151035177258248 -0.005948377319716743 0 0.0021466998428372598 -0.0059927249208861447 0 0.0022151035177258248 -0.005948377319716743 0 0.002219254112815624 -0.0060276171094749116 0 0.0021466998428372598 -0.0059927249208861447 0 0.0021276164410521095 -0.0059254800511750697 0 0.0021789156109414316 -0.0058609525263976755 0 0.0022151035177258248 -0.005948377319716743 0 0.0020160906651467926 -0.0059010156492155944 0 0.0021276164410521095 -0.0059254800511750697 0 0.0020689785779486997 -0.0058243400894164299 0 0.0021276164410521095 -0.0059254800511750697 0 0.0021789156109414316 -0.0058609525263976755 0 0.0020689785779486997 -0.0058243400894164299 0 0.0021653141751410477 -0.0057673972645029608 0 0.0021789156109414316 -0.0058609525263976755 0 0.0020689785779486997 -0.0058243400894164299 0 0.0021653141751410477 -0.0057673972645029608 0 0.0021789156109414316 -0.0058609525263976755 0 0.0022641551055236392 -0.0057987913886303928 0 0.0022641551055236392 -0.0057987913886303928 0 0.0022768858440264553 -0.0058867005269756861 0 0.0023788982842816763 -0.0058281156038576852 0 0.0023403626930526356 -0.005739136384664857 0 0.0022641551055236392 -0.0057987913886303928 0 0.0023788982842816763 -0.0058281156038576852 0 0.0021789156109414316 -0.0058609525263976755 0 0.0022641551055236392 -0.0057987913886303928 0 0.0022768858440264553 -0.0058867005269756861 0 0.0021789156109414316 -0.0058609525263976755 0 0.0022768858440264553 -0.0058867005269756861 0 0.0022151035177258248 -0.005948377319716743 0 0.0022680761755880137 -0.0060262543684497551 0 0.0022153077306798939 -0.0060390875188237082 0 0.0022151035177258248 -0.005948377319716743 0 0.0023530731137118631 -0.0059762659414417931 0 0.002219254112815624 -0.0060276171094749116 0 0.0022768858440264553 -0.0058867005269756861 0 0.0022151035177258248 -0.005948377319716743 0 0.0023530731137118631 -0.0059762659414417931 0 0.0021396753898942529 -0.0061127195001073869 0 0.0020642853888144107 -0.0060711796552669704 0 0.0020351872435006814 -0.0061528328448966418 0 0.0022680761755880137 -0.0060262543684497551 0 0.0021830510996246047 -0.0060885473319591482 0 0.0023530731137118631 -0.0059762659414417931 0 0.0023788982842816763 -0.0058281156038576852 0 0.0025279837808011999 -0.0059017566466829079 0 0.0022768858440264553 -0.0058867005269756861 0 0.0023530731137118631 -0.0059762659414417931 0 0.0023788982842816763 -0.0058281156038576852 0 0.0023788982842816763 -0.0058281156038576852 0 0.0025279837808011999 -0.0059017566466829079 0 0.0025047938644068442 -0.0058036962010096756 0 0.001453426449332877 -0.0057252939248983543 0 0.0016102450996996081 -0.0056935572242179039 0 0.0015540618809038369 -0.0058147670313631302 0 0.001453426449332877 -0.0057252939248983543 0 0.0014834685314561856 -0.0056381734408934058 0 0.0016102450996996081 -0.0056935572242179039 0 0.001453426449332877 -0.0057252939248983543 0 0.0013281102633030074 -0.0057364922652086998 0 0.0014104043242296126 -0.0057947968466279861 0 0.001453426449332877 -0.0057252939248983543 0 0.0013281102633030074 -0.0057364922652086998 0 0.0013638270860345178 -0.0056406382952475052 0 0.001453426449332877 -0.0057252939248983543 0 0.0013638270860345178 -0.0056406382952475052 0 0.0014834685314561856 -0.0056381734408934058 0 0.0012663730531691294 -0.0055809315455604813 0 0.0013183840893769337 -0.0054749185118819861 0 0.0014249738388610112 -0.0055513172482201719 0 0.0013638270860345178 -0.0056406382952475052 0 0.0014249738388610112 -0.0055513172482201719 0 0.0014834685314561856 -0.0056381734408934058 0 0.0012663730531691294 -0.0055809315455604813 0 0.0013638270860345178 -0.0056406382952475052 0 0.0014249738388610112 -0.0055513172482201719 0 0.0014834685314561856 -0.0056381734408934058 0 0.0015882305273567257 -0.0055243129539354471 0 0.0016102450996996081 -0.0056935572242179039 0 0.0014249738388610112 -0.0055513172482201719 0 0.0014834685314561856 -0.0056381734408934058 0 0.0015882305273567257 -0.0055243129539354471 0 0.0015882305273567257 -0.0055243129539354471 0 0.0017077810346650484 -0.0056101074171577949 0 0.0016102450996996081 -0.0056935572242179039 0 0.001759600760604093 -0.0055067221133411537 0 0.0015882305273567257 -0.0055243129539354471 0 0.0017077810346650484 -0.0056101074171577949 0 0.0018611845236724182 -0.0054919751514900389 0 0.0019044447434554081 -0.0055660345227331208 0 0.0018136148618703514 -0.0055902754352633085 0 0.001759600760604093 -0.0055067221133411537 0 0.0017077810346650484 -0.0056101074171577949 0 0.0018136148618703514 -0.0055902754352633085 0 0.001759600760604093 -0.0055067221133411537 0 0.0018611845236724182 -0.0054919751514900389 0 0.0018136148618703514 -0.0055902754352633085 0 0.0017077810346650484 -0.0056101074171577949 0 0.0018136148618703514 -0.0055902754352633085 0 0.0017615395259722377 -0.0056864562099677432 0 0.0019044447434554081 -0.0055660345227331208 0 0.0018136148618703514 -0.0055902754352633085 0 0.0018937227615304236 -0.0056590116044249999 0 0.0018937227615304236 -0.0056590116044249999 0 0.0017615395259722377 -0.0056864562099677432 0 0.0018504669890548175 -0.0057353388131483286 0 0.0018136148618703514 -0.0055902754352633085 0 0.0018937227615304236 -0.0056590116044249999 0 0.0017615395259722377 -0.0056864562099677432 0 0.0017615395259722377 -0.0056864562099677432 0 0.0018504669890548175 -0.0057353388131483286 0 0.0017080418868109168 -0.0057744652967354222 0 0.0017077810346650484 -0.0056101074171577949 0 0.0017615395259722377 -0.0056864562099677432 0 0.0016102450996996081 -0.0056935572242179039 0 0.0017615395259722377 -0.0056864562099677432 0 0.0016102450996996081 -0.0056935572242179039 0 0.0017080418868109168 -0.0057744652967354222 0 0.0017080418868109168 -0.0057744652967354222 0 0.0017031045830819796 -0.005853549883157544 0 0.0015540618809038369 -0.0058147670313631302 0 0.0016102450996996081 -0.0056935572242179039 0 0.0017080418868109168 -0.0057744652967354222 0 0.0015540618809038369 -0.0058147670313631302 0 0.0017031045830819796 -0.005853549883157544 0 0.0018060908916434455 -0.0058631621891751659 0 0.0017552622146002452 -0.0059178108152254556 0 0.0017080418868109168 -0.0057744652967354222 0 0.0017031045830819796 -0.005853549883157544 0 0.0018060908916434455 -0.0058631621891751659 0 0.0017031045830819796 -0.005853549883157544 0 0.0016387736175721319 -0.0059077880408000246 0 0.0015540618809038369 -0.0058147670313631302 0 0.0017080418868109168 -0.0057744652967354222 0 0.0018732722202753889 -0.0058097841463037227 0 0.0018060908916434455 -0.0058631621891751659 0 0.0018504669890548175 -0.0057353388131483286 0 0.0017080418868109168 -0.0057744652967354222 0 0.0018732722202753889 -0.0058097841463037227 0 0.0019624815326390317 -0.0057530534183674945 0 0.0018504669890548175 -0.0057353388131483286 0 0.0018732722202753889 -0.0058097841463037227 0 0.0018732722202753889 -0.0058097841463037227 0 0.0018060908916434455 -0.0058631621891751659 0 0.0019124907032023384 -0.0058850191651757264 0 0.0018060908916434455 -0.0058631621891751659 0 0.0019124907032023384 -0.0058850191651757264 0 0.0018530409622605584 -0.005936596170744257 0 0.0019590074446879085 -0.0059502844501658127 0 0.0019124907032023384 -0.0058850191651757264 0 0.0018530409622605584 -0.005936596170744257 0 0.0018060908916434455 -0.0058631621891751659 0 0.0018530409622605584 -0.005936596170744257 0 0.0017552622146002452 -0.0059178108152254556 0 0.0018530409622605584 -0.005936596170744257 0 0.0017552622146002452 -0.0059178108152254556 0 0.0017925464240597035 -0.0060084758943683321 0 0.0019590074446879085 -0.0059502844501658127 0 0.0018530409622605584 -0.005936596170744257 0 0.0018888472745642565 -0.0059978757083302744 0 0.0018530409622605584 -0.005936596170744257 0 0.0018888472745642565 -0.0059978757083302744 0 0.0017925464240597035 -0.0060084758943683321 0 0.0017031045830819796 -0.005853549883157544 0 0.0016387736175721319 -0.0059077880408000246 0 0.0017552622146002452 -0.0059178108152254556 0 0.0017552622146002452 -0.0059178108152254556 0 0.0016419398584923005 -0.0060228377576847644 0 0.0017925464240597035 -0.0060084758943683321 0 0.0016387736175721319 -0.0059077880408000246 0 0.0017552622146002452 -0.0059178108152254556 0 0.0016419398584923005 -0.0060228377576847644 0 0.0016387736175721319 -0.0059077880408000246 0 0.0015199124447419904 -0.0059777779890645526 0 0.0016419398584923005 -0.0060228377576847644 0 0.0015199124447419904 -0.0059777779890645526 0 0.001525665278310687 -0.0058966374132580083 0 0.0014197987963892335 -0.0059393342018395036 0 0.001525665278310687 -0.0058966374132580083 0 0.0014189198101469702 -0.0058691759188463401 0 0.0014197987963892335 -0.0059393342018395036 0 0.0016387736175721319 -0.0059077880408000246 0 0.0015199124447419904 -0.0059777779890645526 0 0.001525665278310687 -0.0058966374132580083 0 0.0016387736175721319 -0.0059077880408000246 0 0.001525665278310687 -0.0058966374132580083 0 0.0015540618809038369 -0.0058147670313631302 0 0.001525665278310687 -0.0058966374132580083 0 0.0015540618809038369 -0.0058147670313631302 0 0.0014189198101469702 -0.0058691759188463401 0 0.0015540618809038369 -0.0058147670313631302 0 0.0014104043242296126 -0.0057947968466279861 0 0.0014189198101469702 -0.0058691759188463401 0 0.001453426449332877 -0.0057252939248983543 0 0.0015540618809038369 -0.0058147670313631302 0 0.0014104043242296126 -0.0057947968466279861 0 0.0013281102633030074 -0.0057364922652086998 0 0.0014104043242296126 -0.0057947968466279861 0 0.0013063864160801854 -0.0058287164887845366 0 0.0014104043242296126 -0.0057947968466279861 0 0.0014189198101469702 -0.0058691759188463401 0 0.0013063864160801854 -0.0058287164887845366 0 0.0014189198101469702 -0.0058691759188463401 0 0.0013063864160801854 -0.0058287164887845366 0 0.0013249642477103011 -0.00592725069480151 0 0.0014189198101469702 -0.0058691759188463401 0 0.0013249642477103011 -0.00592725069480151 0 0.0014197987963892335 -0.0059393342018395036 0 0.0015199124447419904 -0.0059777779890645526 0 0.0014197987963892335 -0.0059393342018395036 0 0.0013708199883699305 -0.0060328439434418719 0 0.0013249642477103011 -0.00592725069480151 0 0.0014197987963892335 -0.0059393342018395036 0 0.0013708199883699305 -0.0060328439434418719 0 0.0013249642477103011 -0.00592725069480151 0 0.0012898544432023255 -0.0059897187792266474 0 0.0013708199883699305 -0.0060328439434418719 0 0.0012898544432023255 -0.0059897187792266474 0 0.0013708199883699305 -0.0060328439434418719 0 0.0012591200404887565 -0.0060303812654719305 0 0.0013708199883699305 -0.0060328439434418719 0 0.0012960540772076201 -0.006164868224597499 0 0.0014987371511578542 -0.0060785080801099255 0 0.0013087154034142781 -0.0061042969657777871 0 0.0013798606644723928 -0.0058446210912362394 0 0.0013708199883699305 -0.0060328439434418719 0 0.0012845700794107161 -0.0060940949226057188 0 0.0012591200404887565 -0.0060303812654719305 0 0.0013798606644723928 -0.0058446210912362394 0 0.0016407495207911441 -0.005675984668105389 0 0.0015037286918255851 -0.0051447881019148472 0 0.0017403494720869689 -0.0051813376085053488 0 0.001582561247737045 -0.0053516217798739241 0 0.0015037286918255851 -0.0051447881019148472 0 0.001582561247737045 -0.0053516217798739241 0 0.0013872492726986433 -0.0053339876580991768 0 0.0012960540772076201 -0.006164868224597499 0 0.0015368708612957627 -0.006203331053289976 0 0.0014987371511578542 -0.0060785080801099255 0 0.0015368708612957627 -0.006203331053289976 0 0.0014987371511578542 -0.0060785080801099255 0 0.0016419398584923005 -0.0060228377576847644 0 0.0015199124447419904 -0.0059777779890645526 0 0.0013708199883699305 -0.0060328439434418719 0 0.0014987371511578542 -0.0060785080801099255 0 0.0015199124447419904 -0.0059777779890645526 0 0.0014987371511578542 -0.0060785080801099255 0 0.0016419398584923005 -0.0060228377576847644 0 0.0015368708612957627 -0.006203331053289976 0 0.0016419398584923005 -0.0060228377576847644 0 0.0017394530845300756 -0.0061042653692119858 0 0.0016419398584923005 -0.0060228377576847644 0 0.0017394530845300756 -0.0061042653692119858 0 0.0017925464240597035 -0.0060084758943683321 0 0.0018888472745642565 -0.0059978757083302744 0 0.0018765245911742643 -0.0060821124161497932 0 0.0019813046973316366 -0.0060173942063104363 0 0.0018888472745642565 -0.0059978757083302744 0 0.0017925464240597035 -0.0060084758943683321 0 0.0018765245911742643 -0.0060821124161497932 0 0.0017394530845300756 -0.0061042653692119858 0 0.0017925464240597035 -0.0060084758943683321 0 0.0018765245911742643 -0.0060821124161497932 0 0.0018629859499473614 -0.0057224307989744844 0 0.0021601496918823237 -0.005760704764528341 0 0.0018765245911742643 -0.0060821124161497932 0 0.0017702356445706484 -0.0062269974794474563 0 0.0019405538837355364 -0.0061596900952964866 0 0.0017702356445706484 -0.0062269974794474563 0 0.0019405538837355364 -0.0061596900952964866 0 0.0020027341723928616 -0.006237530889161404 0 0.0017394530845300756 -0.0061042653692119858 0 0.0018765245911742643 -0.0060821124161497932 0 0.0017702356445706484 -0.0062269974794474563 0 0.0015368708612957627 -0.006203331053289976 0 0.0017394530845300756 -0.0061042653692119858 0 0.0017702356445706484 -0.0062269974794474563 0 0.0016407495207911441 -0.005675984668105389 0 0.0018629859499473614 -0.0057224307989744844 0 0.0017403494720869689 -0.0051813376085053488 0 0.0019797635622784185 -0.005220540699901589 0 0.0018122645858190236 -0.005395291697027885 0 0.0019797635622784185 -0.005220540699901589 0 0.0020901034440469922 -0.0054319454689869436 0 0.0018122645858190236 -0.005395291697027885 0 0.0019797635622784185 -0.005220540699901589 0 0.0020901034440469922 -0.0054319454689869436 0 0.0022158054016470723 -0.0052628273613089813 0 0.0037021264670589657 -0.0050217446314066699 0 0.0034842097400402949 -0.0043993462505764105 0 0.004067681827891567 -0.0045029717914280712 0 0.0029052540486959803 -0.0050773985495761913 0 0.0035539303557765001 -0.0046713119111105855 0 0.0020901034440469922 -0.0054319454689869436 0 0.0018122645858190236 -0.005395291697027885 0 0.0018595728741659517 -0.0056190443160338737 0 0.0029094795871094006 -0.0047983900739188255 0 0.0027212348256195444 -0.0050358005304598002 0 0.0026354731660001482 -0.0050068597369312406 0 0.0029052540486959803 -0.0050773985495761913 0 0.0022065688476360507 -0.005338157615298187 0 0.0016221247011111702 -0.0055674500923216562 0 0.0018122645858190236 -0.005395291697027885 0 0.0018595728741659517 -0.0056190443160338737 0 0.0016221247011111702 -0.0055674500923216562 0 0.001582561247737045 -0.0053516217798739241 0 0.0014284326613397806 -0.0054878488400502256 0 0.0016221247011111702 -0.0055674500923216562 0 0.0014871465252241059 -0.0056186105143113726 0 0.0014284326613397806 -0.0054878488400502256 0 0.0016221247011111702 -0.0055674500923216562 0 0.001582561247737045 -0.0053516217798739241 0 0.0018122645858190236 -0.005395291697027885 0 0.0017403494720869689 -0.0051813376085053488 0 0.001582561247737045 -0.0053516217798739241 0 0.0018122645858190236 -0.005395291697027885 0 0.0022723929243109687 -0.0058948541815846975 0 0.0021072728924079265 -0.0059885375201804017 0 0.0019223082133545146 -0.0059239382000038157 0 0.0022723929243109687 -0.0058948541815846975 0 0.0023677918821164838 -0.0054921224944893682 0 0.0019223082133545146 -0.0059239382000038157 0 0.0022723929243109687 -0.0058948541815846975 0 0.0021072728924079265 -0.0059885375201804017 0 0.0021807325506948486 -0.0060211769311919183 0 0.0021396753898942529 -0.0061127195001073869 0 0.0020642853888144107 -0.0060711796552669704 0 0.0021807325506948486 -0.0060211769311919183 0 0.0021072728924079265 -0.0059885375201804017 0 0.0020642853888144107 -0.0060711796552669704 0 0.0019223082133545146 -0.0059239382000038157 0 0.0021072728924079265 -0.0059885375201804017 0 0.0020642853888144107 -0.0060711796552669704 0 0.0021807325506948486 -0.0060211769311919183 0 0.0021807325506948486 -0.0060211769311919183 0 0.002219254112815624 -0.0060276171094749116 0 0.0022333053115348531 -0.005977192389861428 0 0.0021396753898942529 -0.0061127195001073869 0 0.0021807325506948486 -0.0060211769311919183 0 0.002219254112815624 -0.0060276171094749116 0 0.002219254112815624 -0.0060276171094749116 0 0.0022333053115348531 -0.005977192389861428 0 0.0022130465925132795 -0.0060390590134308175 0 0.0022333053115348531 -0.005977192389861428 0 0.0022130465925132795 -0.0060390590134308175 0 0.0022197179309456929 -0.0059838990236131366 0 0.0022723929243109687 -0.0058948541815846975 0 0.0022333053115348531 -0.005977192389861428 0 0.0022197179309456929 -0.0059838990236131366 0 0.0022723929243109687 -0.0058948541815846975 0 0.0021807325506948486 -0.0060211769311919183 0 0.0022333053115348531 -0.005977192389861428 0 0.0022551914237143472 -0.0059208598823784417 0 0.0025366449308708108 -0.0055525791775883279 0 0.0022130465925132795 -0.0060390590134308175 0 0.0022532850495968816 -0.0060067749140433795 0 0.0022197179309456929 -0.0059838990236131366 0 0.0022130465925132795 -0.0060390590134308175 0 0.0021086006438036787 -0.0060700903389101016 0 0.0020486072878193695 -0.0061646400453460991 0 0.0022130465925132795 -0.0060390590134308175 0 0.0020486072878193695 -0.0061646400453460991 0 0.0020747135773933421 -0.0062411089384457547 0 0.0020586283380413803 -0.0061825861343337667 0 0.0025905598676326338 -0.0057479309287638515 0 0.002219254112815624 -0.0060276171094749116 0 0.0022130465925132795 -0.0060390590134308175 0 0.0021599644734462448 -0.0060346070580209283 0 0.002219254112815624 -0.0060276171094749116 0 0.0021466998428372598 -0.0059927249208861447 0 0.0021599644734462448 -0.0060346070580209283 0 0.0021466998428372598 -0.0059927249208861447 0 0.0021599644734462448 -0.0060346070580209283 0 0.0020837805704970523 -0.0060294304176590294 0 0.0020560606122099253 -0.0059700915740647656 0 0.0021466998428372598 -0.0059927249208861447 0 0.0020837805704970523 -0.0060294304176590294 0 0.0021599644734462448 -0.0060346070580209283 0 0.0021086006438036787 -0.0060700903389101016 0 0.0020837805704970523 -0.0060294304176590294 0 0.0022130465925132795 -0.0060390590134308175 0 0.0021599644734462448 -0.0060346070580209283 0 0.0021086006438036787 -0.0060700903389101016 0 0.0021086006438036787 -0.0060700903389101016 0 0.0020837805704970523 -0.0060294304176590294 0 0.0020088223743522002 -0.0060873849744763082 0 0.0020837805704970523 -0.0060294304176590294 0 0.0019813046973316366 -0.0060173942063104363 0 0.0020088223743522002 -0.0060873849744763082 0 0.0020560606122099253 -0.0059700915740647656 0 0.0020837805704970523 -0.0060294304176590294 0 0.0019813046973316366 -0.0060173942063104363 0 0.0018765245911742643 -0.0060821124161497932 0 0.0019813046973316366 -0.0060173942063104363 0 0.0020088223743522002 -0.0060873849744763082 0 0.0018765245911742643 -0.0060821124161497932 0 0.0020088223743522002 -0.0060873849744763082 0 0.0019405538837355364 -0.0061596900952964866 0 0.0020088223743522002 -0.0060873849744763082 0 0.0019405538837355364 -0.0061596900952964866 0 0.0020486072878193695 -0.0061646400453460991 0 0.0021086006438036787 -0.0060700903389101016 0 0.0020088223743522002 -0.0060873849744763082 0 0.0020486072878193695 -0.0061646400453460991 0 0.0019903342778254938 -0.0060915490923491274 0 0.0021601496918823237 -0.005760704764528341 0 0.0020486072878193695 -0.0061646400453460991 0 0.0020747135773933421 -0.0062411089384457547 0 0.0020039540926657384 -0.0062270531946399168 0 0.0025905598676326338 -0.0057479309287638515 0 0.0021601496918823237 -0.005760704764528341 0 0.0019405538837355364 -0.0061596900952964866 0 0.0020486072878193695 -0.0061646400453460991 0 0.0020027341723928616 -0.006237530889161404 0 0.0029052540486959803 -0.0050773985495761913 0 0.0025905598676326338 -0.0057479309287638515 0 0.002892282143907634 -0.0051736195488236115 0 0.0022813765184003733 -0.0056892490965441585 0 0.0024925275104752337 -0.0057248693070661221 0 0.0029052540486959803 -0.0050773985495761913 0 0.0021601496918823237 -0.005760704764528341 0 0.0037021264670589657 -0.0050217446314066699 0 0.0032278515373102361 -0.0054292585986941084 0 0.0032770031767640709 -0.005041073775398368 0 0.0032278515373102361 -0.0054292585986941084 0 0.0032770031767640709 -0.005041073775398368 0 0.0030376257842361465 -0.0051747371706825918 0 0.00353717193943029 -0.0046910933039185105 0 0.0035758006020172655 -0.0044173725727638695 0 0.0038311852309928741 -0.004178598161442614 0 0.0033070920150241085 -0.0047555478218918174 0 0.0036524194038306266 -0.0043043017954490607 0 0.0037021264670589657 -0.0050217446314066699 0 0.0033773397582358834 -0.0048292527108943243 0 0.0034842097400402949 -0.0043993462505764105 0 0.0037021264670589657 -0.0050217446314066699 0 0.0032770031767640709 -0.005041073775398368 0 0.0033773397582358834 -0.0048292527108943243 0 0.0033773397582358834 -0.0048292527108943243 0 0.0030414217613531935 -0.0048547012988234377 0 0.0034842097400402949 -0.0043993462505764105 0 0.0032770031767640709 -0.005041073775398368 0 0.0033773397582358834 -0.0048292527108943243 0 0.0030414217613531935 -0.0048547012988234377 0 0.00353717193943029 -0.0046910933039185105 0 0.0035758006020172655 -0.0044173725727638695 0 0.0031030114780437185 -0.0044845037116781686 0 0.00353717193943029 -0.0046910933039185105 0 0.0031030114780437185 -0.0044845037116781686 0 0.0029658983571043177 -0.0049340020758802151 0 0.0030414217613531935 -0.0048547012988234377 0 0.0030376257842361465 -0.0051747371706825918 0 0.002603518922969607 -0.0053250880083118828 0 0.00353717193943029 -0.0046910933039185105 0 0.0027877484288461899 -0.0055807973254530267 0 0.0029658983571043177 -0.0049340020758802151 0 0.0032278515373102361 -0.0054292585986941084 0 0.0030376257842361465 -0.0051747371706825918 0 0.002603518922969607 -0.0053250880083118828 0 0.0025905598676326338 -0.0057479309287638515 0 0.0025366449308708108 -0.0055525791775883279 0 0.0033070920150241085 -0.0047555478218918174 0 0.0025366449308708108 -0.0055525791775883279 0 0.0032770031767640709 -0.005041073775398368 0 0.0030414217613531935 -0.0048547012988234377 0 0.0030376257842361465 -0.0051747371706825918 0 0.0022723929243109687 -0.0058948541815846975 0 0.0026536195879086595 -0.0055412645209466701 0 0.0023677918821164838 -0.0054921224944893682 0 0.0025366449308708108 -0.0055525791775883279 0 0.0024842560577711592 -0.005528636066118307 0 0.0027877484288461899 -0.0055807973254530267 0 0.0023677918821164838 -0.0054921224944893682 0 0.0026392042974422172 -0.0051699251078881825 0 0.0027877484288461899 -0.0055807973254530267 0 0.0026392042974422172 -0.0051699251078881825 0 0.0029658983571043177 -0.0049340020758802151 0 0.0026392042974422172 -0.0051699251078881825 0 0.0027639085572156189 -0.0047939196002306792 0 0.0020568161422225687 -0.005041195889740422 0 0.0026392042974422172 -0.0051699251078881825 0 0.0027639085572156189 -0.0047939196002306792 0 0.0029658983571043177 -0.0049340020758802151 0 0.0027639085572156189 -0.0047939196002306792 0 0.002629339697771493 -0.0044811327390151048 0 0.0020568161422225687 -0.005041195889740422 0 0.0031030114780437185 -0.0044845037116781686 0 0.0027639085572156189 -0.0047939196002306792 0 0.0029658983571043177 -0.0049340020758802151 0 0.0031030114780437185 -0.0044845037116781686 0 0.0027639085572156189 -0.0047939196002306792 0 0.002629339697771493 -0.0044811327390151048 0 0.002629339697771493 -0.0044811327390151048 0 0.0020568161422225687 -0.005041195889740422 0 0.0024990501345817672 -0.0038661859728976668 0 0.0032752743516573832 -0.0046843196960011041 0 0.0034152320788121077 -0.0040499883947394512 0 0.0023677918821164838 -0.0054921224944893682 0 0.0020568161422225687 -0.005041195889740422 0 0.0019223082133545146 -0.0059239382000038157 0 0.0032752743516573832 -0.0046843196960011041 0 0.0031098261156433148 -0.005331599594874014 0 0.0023677918821164838 -0.0054921224944893682 0 0.0026392042974422172 -0.0051699251078881825 0 0.0020568161422225687 -0.005041195889740422 0 0.0035616999532064667 -0.0038137838202646729 0 0.0035780615856822236 -0.0038461980066281229 0 0.003635936391165807 -0.0037770369320899188 0 0.0034152320788121077 -0.0040499883947394512 0 0.0040805096950125653 -0.003884248890537336 0 0.0035616999532064667 -0.0038137838202646729 0 0.0035310191712252031 -0.0037298352488917687 0 0.003635936391165807 -0.0037770369320899188 0 0.004534724445554153 -0.0040572902396659258 0 0.0043505813047457461 -0.0041501146520596275 0 0.0043165695364675623 -0.0039604704205554253 0 0.0044407043520286425 -0.0043762963712285904 0 0.004534724445554153 -0.0040572902396659258 0 0.0043505813047457461 -0.0041501146520596275 0 0.0033493672222037582 -0.0043460283794636958 0 0.0034152320788121077 -0.0040499883947394512 0 0.0035758006020172655 -0.0044173725727638695 0 0.0031030114780437185 -0.0044845037116781686 0 0.0024990501345817672 -0.0038661859728976668 0 0.0031030114780437185 -0.0044845037116781686 0 0.002629339697771493 -0.0044811327390151048 0 0.0024990501345817672 -0.0038661859728976668 0 0.0034152320788121077 -0.0040499883947394512 0 0.0034786084842748466 -0.0038424929471604472 0 0.0033197848431104526 -0.0041212874021985318 0 0.0034774735812942107 -0.0038739305203628594 0 0.0035968878180962392 -0.0040439687560710653 0 0.0035616999532064667 -0.0038137838202646729 0 0.0035310191712252031 -0.0037298352488917687 0 0.0034774735812942107 -0.0038739305203628594 0 0.0034774735812942107 -0.0038739305203628594 0 0.0035968878180962392 -0.0040439687560710653 0 0.0035892544339052816 -0.0038977467959181262 0 0.0035968878180962392 -0.0040439687560710653 0 0.0036812634247856031 -0.0039268773142255037 0 0.0035892544339052816 -0.0038977467959181262 0 0.0035758006020172655 -0.0044173725727638695 0 0.0033197848431104526 -0.0041212874021985318 0 0.0035968878180962392 -0.0040439687560710653 0 0.0035758006020172655 -0.0044173725727638695 0 0.0035968878180962392 -0.0040439687560710653 0 0.0036924679773245707 -0.00416371936470323 0 0.0035758006020172655 -0.0044173725727638695 0 0.0036924679773245707 -0.00416371936470323 0 0.0038311852309928741 -0.004178598161442614 0 0.0036924679773245707 -0.00416371936470323 0 0.0038311852309928741 -0.004178598161442614 0 0.0037702751985819035 -0.0040312250926325564 0 0.0037702751985819035 -0.0040312250926325564 0 0.0036812634247856031 -0.0039268773142255037 0 0.0038388992811106827 -0.0038878137562745317 0 0.0035968878180962392 -0.0040439687560710653 0 0.0036924679773245707 -0.00416371936470323 0 0.0037702751985819035 -0.0040312250926325564 0 0.0035968878180962392 -0.0040439687560710653 0 0.0037702751985819035 -0.0040312250926325564 0 0.0036812634247856031 -0.0039268773142255037 0 0.0035818714510525694 -0.0038284838081793881 0 0.0036633921791593984 -0.003807832235950423 0 0.0036812634247856031 -0.0039268773142255037 0 0.0035742127976094418 -0.0038237711047148493 0 0.0038388992811106827 -0.0038878137562745317 0 0.0035051408959631825 -0.0038412184730728001 0 0.0035742127976094418 -0.0038237711047148493 0 0.0034811183238326608 -0.0037834478908585776 0 0.0031823055388910532 -0.0036197003542184974 0 0.0033066542817185248 -0.0038581716811408929 0 0.0030354182725487941 -0.0039406341177692572 0 0.0031823055388910532 -0.0036197003542184974 0 0.0033066542817185248 -0.0038581716811408929 0 0.003529513816215741 -0.0038424681216243585 0 0.0033401297770121168 -0.0037362590171066638 0 0.0035112364121562736 -0.0038254821129244583 0 0.0035051408959631825 -0.0038412184730728001 0 0.003529513816215741 -0.0038424681216243585 0 0.0035742127976094418 -0.0038237711047148493 0 0.0033066542817185248 -0.0038581716811408929 0 0.003529513816215741 -0.0038424681216243585 0 0.0034641241199107995 -0.0039264162216078062 0 0.003529513816215741 -0.0038424681216243585 0 0.0035574822297464487 -0.0038357404908409458 0 0.0035742127976094418 -0.0038237711047148493 0 0.003529513816215741 -0.0038424681216243585 0 0.0035921770052572341 -0.00389007878496759 0 0.0034641241199107995 -0.0039264162216078062 0 0.003529513816215741 -0.0038424681216243585 0 0.0035574822297464487 -0.0038357404908409458 0 0.0035921770052572341 -0.00389007878496759 0 0.0035574822297464487 -0.0038357404908409458 0 0.0035506658601852097 -0.0038452886321220089 0 0.0035742127976094418 -0.0038237711047148493 0 0.0035574822297464487 -0.0038357404908409458 0 0.0035506658601852097 -0.0038452886321220089 0 0.0035635762553839537 -0.0038403157752849503 0 0.0034774735812942107 -0.0038739305203628594 0 0.0035506658601852097 -0.0038452886321220089 0 0.0035892544339052816 -0.0038977467959181262 0 0.0035506658601852097 -0.0038452886321220089 0 0.0035742127976094418 -0.0038237711047148493 0 0.0035892544339052816 -0.0038977467959181262 0 0.0036812634247856031 -0.0039268773142255037 0 0.0035742127976094418 -0.0038237711047148493 0 0.0035892544339052816 -0.0038977467959181262 0 0.0034774735812942107 -0.0038739305203628594 0 0.0035506658601852097 -0.0038452886321220089 0 0.0035635762553839537 -0.0038403157752849503 0 0.0034774735812942107 -0.0038739305203628594 0 0.0035635762553839537 -0.0038403157752849503 0 0.0035780615856822236 -0.0038461980066281229 0 0.0035635762553839537 -0.0038403157752849503 0 0.0035907092634711616 -0.0038433815794391294 0 0.0035780615856822236 -0.0038461980066281229 0 0.0035574822297464487 -0.0038357404908409458 0 0.0035635762553839537 -0.0038403157752849503 0 0.0035921770052572341 -0.00389007878496759 0 0.0035635762553839537 -0.0038403157752849503 0 0.0035907092634711616 -0.0038433815794391294 0 0.0036158772055238666 -0.0038466043746536991 0 0.0035635762553839537 -0.0038403157752849503 0 0.0036158772055238666 -0.0038466043746536991 0 0.0035921770052572341 -0.00389007878496759 0 0.0036142660658790762 -0.0038475554070904793 0 0.0036202909392032807 -0.00385446734545516 0 0.0035907092634711616 -0.0038433815794391294 0 0.0036158772055238666 -0.0038466043746536991 0 0.003610064595945389 -0.0038425776070686959 0 0.0036158772055238666 -0.0038466043746536991 0 0.003635176688304733 -0.0038387545742740205 0 0.0036316071002295792 -0.0038109828808100031 0 0.0036158772055238666 -0.0038466043746536991 0 0.0036317283541403012 -0.0038421225560927598 0 0.003635176688304733 -0.0038387545742740205 0 0.0036158772055238666 -0.0038466043746536991 0 0.003610064595945389 -0.0038425776070686959 0 0.0036317283541403012 -0.0038421225560927598 0 0.003610064595945389 -0.0038425776070686959 0 0.0035780615856822236 -0.0038461980066281229 0 0.0036478067446623816 -0.0038285615380787849 0 0.0035780615856822236 -0.0038461980066281229 0 0.003635936391165807 -0.0037770369320899188 0 0.0036478067446623816 -0.0038285615380787849 0 0.0035907092634711616 -0.0038433815794391294 0 0.003610064595945389 -0.0038425776070686959 0 0.0035780615856822236 -0.0038461980066281229 0 0.0035616999532064667 -0.0038137838202646729 0 0.0034774735812942107 -0.0038739305203628594 0 0.0035780615856822236 -0.0038461980066281229 0 0.0017016235711372896 -0.0057122024259033269 0 0.0015505277262679192 -0.0057135230937553003 0 0.0015072448713167033 -0.0056607666674933152 0 0.0028158307877313052 -0.0047952835477969823 0 0.0017842790912366538 -0.0054636412321058085 0 0.0027793379883031349 -0.0042879853022069099 0 0.0032809019477371636 -0.0044583902429854291 0 0.002703871822483626 -0.0047374145764948004 0 0.0036596537770887572 -0.0041591515652858058 0 0.0024952816484347415 -0.004345064107820709 0 0.0027793379883031349 -0.0042879853022069099 0 0.0025104302024942012 -0.0046543782821750739 0 0.002703871822483626 -0.0047374145764948004 0 0.0028158307877313052 -0.0047952835477969823 0 0.0020033473109446385 -0.0048996695536950184 0 0.0017016235711372896 -0.0057122024259033269 0 0.0015505277262679192 -0.0057135230937553003 0 0.0016346276312300459 -0.0057998576046280371 0 0.0012296241218873441 -0.005611002651231412 0 0.0012305068127490806 -0.0056161889089992433 0 0.0012306113160193614 -0.0056257596490251228 0 0.0017842790912366538 -0.0054636412321058085 0 0.001326127515927979 -0.0056889620533746828 0 0.0015505277262679192 -0.0057135230937553003 0 0.0016346276312300459 -0.0057998576046280371 0 0.0014237346474234029 -0.0057173558430425432 0 0.0014237346474234029 -0.0057173558430425432 0 0.0015072448713167033 -0.0056607666674933152 0 0.0012721918371036843 -0.0056210384104091295 0 0.0020033473109446385 -0.0048996695536950184 0 0.0012989564286574023 -0.0056507836955315138 0 0.0012305068127490806 -0.0056161889089992433 0 0.0012326131994705931 -0.0056199325669460806 0 0.0012306113160193614 -0.0056257596490251228 0 0.0012365159924227441 -0.005624904185118333 0 0.0012306113160193614 -0.0056257596490251228 0 0.0012420674067241842 -0.005633601820974117 0 0.0012365159924227441 -0.005624904185118333 0 0.0012326131994705931 -0.0056199325669460806 0 0.0012356828420329274 -0.0056183919972989356 0 0.0012365159924227441 -0.005624904185118333 0 0.0012356828420329274 -0.0056183919972989356 0 0.0012423532439912832 -0.0056236256674134536 0 0.0012365159924227441 -0.005624904185118333 0 0.0012326131994705931 -0.0056199325669460806 0 0.0012306113160193614 -0.0056257596490251228 0 0.0015505277262679192 -0.0057135230937553003 0 0.0014237346474234029 -0.0057173558430425432 0 0.0015072448713167033 -0.0056607666674933152 0 0.0016287038872173502 -0.0058075392932263039 0 0.001543860138709816 -0.0057229201295433858 0 0.0014233154289176478 -0.0057387438660149483 0 0.0016221247011111702 -0.0055674500923216562 0 0.0016287038872173502 -0.0058075392932263039 0 0.001543860138709816 -0.0057229201295433858 0 0.001543860138709816 -0.0057229201295433858 0 0.0014871465252241059 -0.0056186105143113726 0 0.0014564971968635072 -0.0056858221921515135 0 0.0016221247011111702 -0.0055674500923216562 0 0.001543860138709816 -0.0057229201295433858 0 0.0014871465252241059 -0.0056186105143113726 0 0.0016221247011111702 -0.0055674500923216562 0 0.0016287038872173502 -0.0058075392932263039 0 0.0018595728741659517 -0.0056190443160338737 0 0.0017842790912366538 -0.0054636412321058085 0 0.0022065688476360507 -0.005338157615298187 0 0.0025271480436324036 -0.0052954149273229962 0 0.0023487053661411486 -0.0052369397857880079 0 0.0026354731660001482 -0.0050068597369312406 0 0.0028158307877313052 -0.0047952835477969823 0 0.0035539303557765001 -0.0046713119111105855 0 0.004067681827891567 -0.0045029717914280712 0 0.0039466744407731071 -0.0042552382165668926 0 0.0040640737043006669 -0.0040338131958609124 0 0.0025271480436324036 -0.0052954149273229962 0 0.0027212348256195444 -0.0050358005304598002 0 0.0026354731660001482 -0.0050068597369312406 0 0.0034842097400402949 -0.0043993462505764105 0 0.004067681827891567 -0.0045029717914280712 0 0.0039466744407731071 -0.0042552382165668926 0 0.0036524194038306266 -0.0043043017954490607 0 0.0039186091826999263 -0.0040134888903012953 0 0.0034842097400402949 -0.0043993462505764105 0 0.0039466744407731071 -0.0042552382165668926 0 0.0039371664049047302 -0.0039974300804080012 0 0.0038311852309928741 -0.004178598161442614 0 0.0037702751985819035 -0.0040312250926325564 0 0.0039371664049047302 -0.0039974300804080012 0 0.0037702751985819035 -0.0040312250926325564 0 0.0039371664049047302 -0.0039974300804080012 0 0.0038388992811106827 -0.0038878137562745317 0 0.0039371664049047302 -0.0039974300804080012 0 0.0041293847781000374 -0.0039937293969991702 0 0.0038388992811106827 -0.0038878137562745317 0 0.0043573134678421017 -0.0040454823355025385 0 0.004067681827891567 -0.0045029717914280712 0 0.0040640737043006669 -0.0040338131958609124 0 0.0039466744407731071 -0.0042552382165668926 0 0.0039371664049047302 -0.0039974300804080012 0 0.0040640737043006669 -0.0040338131958609124 0 0.0039371664049047302 -0.0039974300804080012 0 0.0040640737043006669 -0.0040338131958609124 0 0.0041293847781000374 -0.0039937293969991702 0 0.0028158307877313052 -0.0047952835477969823 0 0.0036596537770887572 -0.0041591515652858058 0 0.0043573134678421017 -0.0040454823355025385 0 0.0040640737043006669 -0.0040338131958609124 0 0.0041766063572585164 -0.0039806284414899392 0 0.003964620302959374 -0.0040315690437790304 0 0.0036596537770887572 -0.0041591515652858058 0 0.0030929447366342898 -0.0035719882043332694 0 0.0024952816484347415 -0.004345064107820709 0 0.0033434443162815674 -0.0037410544063608817 0 0.0033993934198913145 -0.0038138112058572057 0 0.0032780301004193655 -0.0037737065934812168 0 0.0027680648275392123 -0.0034229570779978524 0 0.0024293177143799535 -0.003418547202353637 0 0.0023414671628777437 -0.0032463954233826241 0 0.0033434443162815674 -0.0037410544063608817 0 0.0033993934198913145 -0.0038138112058572057 0 0.0034811183238326608 -0.0037834478908585776 0 0.0027680648275392123 -0.0034229570779978524 0 0.0026259494116196401 -0.0036803164737722505 0 0.0024455978412488226 -0.0035571888428674648 0 0.0027680648275392123 -0.0034229570779978524 0 0.0024293177143799535 -0.003418547202353637 0 0.0024455978412488226 -0.0035571888428674648 0 0.0033401297770121168 -0.0037362590171066638 0 0.0030929447366342898 -0.0035719882043332694 0 0.0036596537770887572 -0.0041591515652858058 0 0.0036633921791593984 -0.003807832235950423 0 0.0035051408959631825 -0.0038412184730728001 0 0.0033993934198913145 -0.0038138112058572057 0 0.0034811183238326608 -0.0037834478908585776 0 0.0031823055388910532 -0.0036197003542184974 0 0.0027680648275392123 -0.0034229570779978524 0 0.0028442413338667003 -0.0037154450506602672 0 0.0031823055388910532 -0.0036197003542184974 0 0.0028442413338667003 -0.0037154450506602672 0 0.0030354182725487941 -0.0039406341177692572 0 0.0028442413338667003 -0.0037154450506602672 0 0.0028012917857242223 -0.004037736558830763 0 0.0030354182725487941 -0.0039406341177692572 0 0.0026259494116196401 -0.0036803164737722505 0 0.0023860370058452238 -0.0037766174126571492 0 0.0024455978412488226 -0.0035571888428674648 0 0.0027680648275392123 -0.0034229570779978524 0 0.0028442413338667003 -0.0037154450506602672 0 0.0026259494116196401 -0.0036803164737722505 0 0.0028442413338667003 -0.0037154450506602672 0 0.0026259494116196401 -0.0036803164737722505 0 0.0025983535415903133 -0.0038887340648133361 0 0.0028442413338667003 -0.0037154450506602672 0 0.0025983535415903133 -0.0038887340648133361 0 0.0028012917857242223 -0.004037736558830763 0 0.0026259494116196401 -0.0036803164737722505 0 0.0025983535415903133 -0.0038887340648133361 0 0.0023860370058452238 -0.0037766174126571492 0 0.0023860370058452238 -0.0037766174126571492 0 0.0021335574550920234 -0.0038289288150321066 0 0.0023628682493813157 -0.0040419784917184636 0 0.0023860370058452238 -0.0037766174126571492 0 0.0021335574550920234 -0.0038289288150321066 0 0.0022217710478769255 -0.0036467678289016934 0 0.0022217710478769255 -0.0036467678289016934 0 0.0021818017555087681 -0.0035031227482000531 0 0.0019798318392567713 -0.0036532893328992842 0 0.0022217710478769255 -0.0036467678289016934 0 0.0024455978412488226 -0.0035571888428674648 0 0.0021818017555087681 -0.0035031227482000531 0 0.0023860370058452238 -0.0037766174126571492 0 0.0022217710478769255 -0.0036467678289016934 0 0.0024455978412488226 -0.0035571888428674648 0 0.0024293177143799535 -0.003418547202353637 0 0.0024455978412488226 -0.0035571888428674648 0 0.0021818017555087681 -0.0035031227482000531 0 0.0012296241218873441 -0.005611002651231412 0 0.0012305068127490806 -0.0056161889089992433 0 0.0012292686568008853 -0.0056111294996089621 0 0.0021818017555087681 -0.0035031227482000531 0 0.0022177802766365231 -0.0033057955416041771 0 0.0023414671628777437 -0.0032463954233826241 0 0.0020033473109446385 -0.0048996695536950184 0 0.0018856292069543588 -0.0046351618500778263 0 0.0020055506806721871 -0.0044373557165332932 0 0.0019311346163746507 -0.004577798327758351 0 0.0021206422056571687 -0.0044866552574453038 0 0.0018856292069543588 -0.0046351618500778263 0 0.0024952816484347415 -0.004345064107820709 0 0.0020033473109446385 -0.0048996695536950184 0 0.0024952816484347415 -0.004345064107820709 0 0.0024293177143799535 -0.003418547202353637 0 0.0021818017555087681 -0.0035031227482000531 0 0.0023414671628777437 -0.0032463954233826241 0 0.0012292686568008853 -0.0056111294996089621 0 0.0012329098257565926 -0.0056129246051359596 0 0.0012357756414990452 -0.0055991462441172674 0 0.0021818017555087681 -0.0035031227482000531 0 0.0022177802766365231 -0.0033057955416041771 0 0.0017605334535946116 -0.0035590897581747045 0 0.0018856292069543588 -0.0046351618500778263 0 0.0015040690637042385 -0.0045243524333744376 0 0.0012329098257565926 -0.0056129246051359596 0 0.0012357756414990452 -0.0055991462441172674 0 0.0012377455800365257 -0.0056131440383209909 0 0.0012356828420329274 -0.0056183919972989356 0 0.0012329098257565926 -0.0056129246051359596 0 0.0012377455800365257 -0.0056131440383209909 0 0.0012326131994705931 -0.0056199325669460806 0 0.0012356828420329274 -0.0056183919972989356 0 0.0012329098257565926 -0.0056129246051359596 0 0.0012305068127490806 -0.0056161889089992433 0 0.0012326131994705931 -0.0056199325669460806 0 0.0012329098257565926 -0.0056129246051359596 0 0.0012305068127490806 -0.0056161889089992433 0 0.0012292686568008853 -0.0056111294996089621 0 0.0012329098257565926 -0.0056129246051359596 0 0.0021335574550920234 -0.0038289288150321066 0 0.0019798318392567713 -0.0036532893328992842 0 0.0017719936266573917 -0.0037400180749648172 0 0.0021818017555087681 -0.0035031227482000531 0 0.0019798318392567713 -0.0036532893328992842 0 0.0017605334535946116 -0.0035590897581747045 0 0.0019798318392567713 -0.0036532893328992842 0 0.0017719936266573917 -0.0037400180749648172 0 0.0017605334535946116 -0.0035590897581747045 0 0.0021335574550920234 -0.0038289288150321066 0 0.0022217710478769255 -0.0036467678289016934 0 0.0019798318392567713 -0.0036532893328992842 0 0.0016187051927298395 -0.0037431929686860344 0 0.0014688673106539646 -0.0037481478460376192 0 0.0017605334535946116 -0.0035590897581747045 0 0.0017719936266573917 -0.0037400180749648172 0 0.0016187051927298395 -0.0037431929686860344 0 0.00169477710222941 -0.0038153205112849047 0 0.0012831084431194162 -0.0055620629540475827 0 0.0012604561485643289 -0.0055970511055749433 0 0.0012357756414990452 -0.0055991462441172674 0 0.0013249794506449732 -0.004879176178809585 0 0.0015040690637042385 -0.0045243524333744376 0 0.0017719936266573917 -0.0037400180749648172 0 0.0016187051927298395 -0.0037431929686860344 0 0.0017605334535946116 -0.0035590897581747045 0 0.0011678726788665189 -0.0056613314080712837 0 0.0011759515707664707 -0.0056793665808421191 0 0.0011736377740922729 -0.0056589280847984171 0 0.0013249794506449732 -0.004879176178809585 0 0.0012831513499927832 -0.0040377355847879305 0 0.0013281413122064832 -0.0046139904742550876 0 0.0013952330107733924 -0.0045810825288916338 0 0.0013339646209788658 -0.0045187774903908554 0 0.0013249794506449732 -0.004879176178809585 0 0.0011679967955063328 -0.0046861346423548627 0 0.0011679967955063328 -0.0046861346423548627 0 0.0012831513499927832 -0.0040377355847879305 0 0.0014688673106539646 -0.0037481478460376192 0 0.0014934621946722439 -0.0037781295774717539 0 0.0014754772693299726 -0.0037980814320777399 0 0.0014688673106539646 -0.0037481478460376192 0 0.0014934621946722439 -0.0037781295774717539 0 0.0015275003965575266 -0.0037742740611347706 0 0.0016187051927298395 -0.0037431929686860344 0 0.0015275003965575266 -0.0037742740611347706 0 0.0015747640018115151 -0.0037910518563545716 0 0.0016187051927298395 -0.0037431929686860344 0 0.0014688673106539646 -0.0037481478460376192 0 0.0015275003965575266 -0.0037742740611347706 0 0.0013249794506449732 -0.004879176178809585 0 0.0012102799974046086 -0.0058166418271207981 0 0.0011678726788665189 -0.0056613314080712837 0 0.0011756343226518695 -0.0056949653113840554 0 0.0011759515707664707 -0.0056793665808421191 0 0.0012831084431194162 -0.0055620629540475827 0 0.0012604561485643289 -0.0055970511055749433 0 0.0012771907655089124 -0.0056217984994030761 0 0.0012604561485643289 -0.0055970511055749433 0 0.0012771907655089124 -0.0056217984994030761 0 0.0012515485005774045 -0.0056277895883359704 0 0.0012357756414990452 -0.0055991462441172674 0 0.0012444128361813621 -0.005612077876968922 0 0.0012377455800365257 -0.0056131440383209909 0 0.0012604561485643289 -0.0055970511055749433 0 0.0012357756414990452 -0.0055991462441172674 0 0.0012444128361813621 -0.005612077876968922 0 0.0012515485005774045 -0.0056277895883359704 0 0.0012444128361813621 -0.005612077876968922 0 0.0012423532439912832 -0.0056236256674134536 0 0.0012604561485643289 -0.0055970511055749433 0 0.0012515485005774045 -0.0056277895883359704 0 0.0012444128361813621 -0.005612077876968922 0 0.0012444128361813621 -0.005612077876968922 0 0.0012377455800365257 -0.0056131440383209909 0 0.0012423532439912832 -0.0056236256674134536 0 0.0012356828420329274 -0.0056183919972989356 0 0.0012377455800365257 -0.0056131440383209909 0 0.0012423532439912832 -0.0056236256674134536 0 0.0012365159924227441 -0.005624904185118333 0 0.0012423532439912832 -0.0056236256674134536 0 0.0012420674067241842 -0.005633601820974117 0 0.0012423532439912832 -0.0056236256674134536 0 0.0012420674067241842 -0.005633601820974117 0 0.001247611069273081 -0.0056363844043640686 0 0.0014237346474234029 -0.0057173558430425432 0 0.0012523825581376336 -0.00565022372166333 0 0.0012721918371036843 -0.0056210384104091295 0 0.0012306113160193614 -0.0056257596490251228 0 0.0012420674067241842 -0.005633601820974117 0 0.0012523825581376336 -0.00565022372166333 0 0.0012989564286574023 -0.0056507836955315138 0 0.0012728974134003767 -0.0056551677858585406 0 0.0012420674067241842 -0.005633601820974117 0 0.0012523825581376336 -0.00565022372166333 0 0.001247611069273081 -0.0056363844043640686 0 0.0012509672447922613 -0.0056477927554043229 0 0.0012485647041675101 -0.0056453465190936794 0 0.0012413224796369911 -0.0056529433604363541 0 0.0012523825581376336 -0.00565022372166333 0 0.0012509672447922613 -0.0056477927554043229 0 0.0012485647041675101 -0.0056453465190936794 0 0.0012523825581376336 -0.00565022372166333 0 0.0012509672447922613 -0.0056477927554043229 0 0.0012721918371036843 -0.0056210384104091295 0 0.0012523825581376336 -0.00565022372166333 0 0.0012485647041675101 -0.0056453465190936794 0 0.001247611069273081 -0.0056363844043640686 0 0.0012515485005774045 -0.0056277895883359704 0 0.0012485647041675101 -0.0056453465190936794 0 0.001247611069273081 -0.0056363844043640686 0 0.0012515485005774045 -0.0056277895883359704 0 0.0012423532439912832 -0.0056236256674134536 0 0.001247611069273081 -0.0056363844043640686 0 0.0011756343226518695 -0.0056949653113840554 0 0.0012195804207437635 -0.0056697324255366626 0 0.0011805929887698523 -0.0056852565368993423 0 0.0012771907655089124 -0.0056217984994030761 0 0.0012476391931823378 -0.0056459029112028896 0 0.0012195804207437635 -0.0056697324255366626 0 0.0012515485005774045 -0.0056277895883359704 0 0.0012485647041675101 -0.0056453465190936794 0 0.0012476391931823378 -0.0056459029112028896 0 0.0012771907655089124 -0.0056217984994030761 0 0.0012515485005774045 -0.0056277895883359704 0 0.0012476391931823378 -0.0056459029112028896 0 0.0012102799974046086 -0.0058166418271207981 0 0.0012265564000264494 -0.0055976517759521189 0 0.0012476391931823378 -0.0056459029112028896 0 0.0012413224796369911 -0.0056529433604363541 0 0.0012195804207437635 -0.0056697324255366626 0 0.0012485647041675101 -0.0056453465190936794 0 0.0012476391931823378 -0.0056459029112028896 0 0.0012413224796369911 -0.0056529433604363541 0 0.0012413224796369911 -0.0056529433604363541 0 0.0012195804207437635 -0.0056697324255366626 0 0.0012269307689631126 -0.0056524865248892353 0 0.0012413224796369911 -0.0056529433604363541 0 0.0012269307689631126 -0.0056524865248892353 0 0.0012721918371036843 -0.0056210384104091295 0 0.0012453760705822894 -0.0056128111934283043 0 0.0011805929887698523 -0.0056852565368993423 0 0.0012681892488710267 -0.0055284755017484975 0 0.0011851564622115949 -0.0056780982231233734 0 0.0012118175450305687 -0.0056492767529270991 0 0.0011805929887698523 -0.0056852565368993423 0 0.001155392128736893 -0.0057519731738639134 0 0.0011693264885910134 -0.0057294171305606852 0 0.0012195804207437635 -0.0056697324255366626 0 0.0012269307689631126 -0.0056524865248892353 0 0.0011805929887698523 -0.0056852565368993423 0 0.0012269307689631126 -0.0056524865248892353 0 0.0012453760705822894 -0.0056128111934283043 0 0.0011805929887698523 -0.0056852565368993423 0 0.0012269307689631126 -0.0056524865248892353 0 0.0013120484283151768 -0.0056402851376458774 0 0.001370188892628433 -0.005670883440653 0 0.0012269307689631126 -0.0056524865248892353 0 0.0013120484283151768 -0.0056402851376458774 0 0.0012790623196920242 -0.0056285141527707989 0 0.0012269307689631126 -0.0056524865248892353 0 0.0012790623196920242 -0.0056285141527707989 0 0.0012453760705822894 -0.0056128111934283043 0 0.0012790623196920242 -0.0056285141527707989 0 0.0012453760705822894 -0.0056128111934283043 0 0.0012777915491043108 -0.0056055381705947087 0 0.0012453760705822894 -0.0056128111934283043 0 0.0012777915491043108 -0.0056055381705947087 0 0.0012759561793405593 -0.0055759707720922768 0 0.0012777915491043108 -0.0056055381705947087 0 0.001312141181515656 -0.0056120108124282538 0 0.0013025795095207842 -0.0055785889922777034 0 0.0012790623196920242 -0.0056285141527707989 0 0.0012777915491043108 -0.0056055381705947087 0 0.001312141181515656 -0.0056120108124282538 0 0.0013120484283151768 -0.0056402851376458774 0 0.0012790623196920242 -0.0056285141527707989 0 0.001312141181515656 -0.0056120108124282538 0 0.001312141181515656 -0.0056120108124282538 0 0.0013500609974096288 -0.0056235754703560506 0 0.0013439901611540287 -0.0055865211147627337 0 0.0012269307689631126 -0.0056524865248892353 0 0.001370188892628433 -0.005670883440653 0 0.0014233154289176478 -0.0057387438660149483 0 0.0012494859099514575 -0.0056548176143780072 0 0.001326127515927979 -0.0056889620533746828 0 0.0013120484283151768 -0.0056402851376458774 0 0.001312141181515656 -0.0056120108124282538 0 0.0013500609974096288 -0.0056235754703560506 0 0.0013120484283151768 -0.0056402851376458774 0 0.0013500609974096288 -0.0056235754703560506 0 0.001370188892628433 -0.005670883440653 0 0.001370188892628433 -0.005670883440653 0 0.0013874622049687756 -0.0056374248687784782 0 0.0014233804297825192 -0.0056514638869102265 0 0.0013500609974096288 -0.0056235754703560506 0 0.001370188892628433 -0.005670883440653 0 0.0013874622049687756 -0.0056374248687784782 0 0.0013500609974096288 -0.0056235754703560506 0 0.0013874622049687756 -0.0056374248687784782 0 0.0014092485519529884 -0.0055890962876038626 0 0.0013500609974096288 -0.0056235754703560506 0 0.0013439901611540287 -0.0055865211147627337 0 0.0014092485519529884 -0.0055890962876038626 0 0.0013874622049687756 -0.0056374248687784782 0 0.0014233804297825192 -0.0056514638869102265 0 0.0014092485519529884 -0.0055890962876038626 0 0.0014871465252241059 -0.0056186105143113726 0 0.0014233804297825192 -0.0056514638869102265 0 0.0014092485519529884 -0.0055890962876038626 0 0.0014871465252241059 -0.0056186105143113726 0 0.0014233804297825192 -0.0056514638869102265 0 0.0014564971968635072 -0.0056858221921515135 0 0.001370188892628433 -0.005670883440653 0 0.0014233804297825192 -0.0056514638869102265 0 0.0014182928292802823 -0.0056865555240117162 0 0.0014233804297825192 -0.0056514638869102265 0 0.0014182928292802823 -0.0056865555240117162 0 0.0014564971968635072 -0.0056858221921515135 0 0.0014182928292802823 -0.0056865555240117162 0 0.0014564971968635072 -0.0056858221921515135 0 0.0014233154289176478 -0.0057387438660149483 0 0.001370188892628433 -0.005670883440653 0 0.0014182928292802823 -0.0056865555240117162 0 0.0014233154289176478 -0.0057387438660149483 0 0.001543860138709816 -0.0057229201295433858 0 0.0014564971968635072 -0.0056858221921515135 0 0.0014233154289176478 -0.0057387438660149483 0 0.0012509672447922613 -0.0056477927554043229 0 0.0012413224796369911 -0.0056529433604363541 0 0.0012721918371036843 -0.0056210384104091295 0 0.0011780245579608455 -0.0057012581431060182 0 0.0011779732226852315 -0.0057167156246641596 0 0.001182907049501169 -0.0057038690232840347 0 0.0011779732226852315 -0.0057167156246641596 0 0.001182907049501169 -0.0057038690232840347 0 0.0011832283006377707 -0.0057175913706347184 0 0.0011780245579608455 -0.0057012581431060182 0 0.0011779732226852315 -0.0057167156246641596 0 0.0011742034524104704 -0.0057184265863134279 0 0.001176694670166459 -0.0057041445318286475 0 0.0011721700034355777 -0.005721604452410556 0 0.0011742034524104704 -0.0057184265863134279 0 0.0011780245579608455 -0.0057012581431060182 0 0.001176694670166459 -0.0057041445318286475 0 0.0011742034524104704 -0.0057184265863134279 0 0.0011761237148261922 -0.0057088991666691662 0 0.0011805929887698523 -0.0056852565368993423 0 0.0011693264885910134 -0.0057294171305606852 0 0.001176694670166459 -0.0057041445318286475 0 0.0011761237148261922 -0.0057088991666691662 0 0.0011805929887698523 -0.0056852565368993423 0 0.001176694670166459 -0.0057041445318286475 0 0.0011761237148261922 -0.0057088991666691662 0 0.0011721700034355777 -0.005721604452410556 0 0.0011761237148261922 -0.0057088991666691662 0 0.0011693264885910134 -0.0057294171305606852 0 0.0011713222799838946 -0.0057237005858177632 0 0.0011761237148261922 -0.0057088991666691662 0 0.0011713222799838946 -0.0057237005858177632 0 0.0011721700034355777 -0.005721604452410556 0 0.001176694670166459 -0.0057041445318286475 0 0.0011805929887698523 -0.0056852565368993423 0 0.00117644598842568 -0.0056922430817894984 0 0.0011780245579608455 -0.0057012581431060182 0 0.001176694670166459 -0.0057041445318286475 0 0.00117644598842568 -0.0056922430817894984 0 0.0011780245579608455 -0.0057012581431060182 0 0.0011776964614391716 -0.0056910459796239952 0 0.00117644598842568 -0.0056922430817894984 0 0.0011756343226518695 -0.0056949653113840554 0 0.0011805929887698523 -0.0056852565368993423 0 0.00117644598842568 -0.0056922430817894984 0 0.0011756343226518695 -0.0056949653113840554 0 0.0011776964614391716 -0.0056910459796239952 0 0.00117644598842568 -0.0056922430817894984 0 0.0011780245579608455 -0.0057012581431060182 0 0.0011826207162725043 -0.0056902270783576415 0 0.001182907049501169 -0.0057038690232840347 0 0.0011780245579608455 -0.0057012581431060182 0 0.0011776964614391716 -0.0056910459796239952 0 0.0011826207162725043 -0.0056902270783576415 0 0.0011776964614391716 -0.0056910459796239952 0 0.0011826207162725043 -0.0056902270783576415 0 0.001181428471194159 -0.005680444767361909 0 0.00062174167760636022 -0.0050223668836240189 0 0.00058289143634271433 -0.0049686949109065187 0 0.00062612926263602589 -0.0049595861940033136 0 0.00097899321369055033 -0.0053705842058217913 0 0.00086950774708092332 -0.0053767612961529449 0 0.0011776964614391716 -0.0056910459796239952 0 0.001181428471194159 -0.005680444767361909 0 0.0011759515707664707 -0.0056793665808421191 0 0.0011756343226518695 -0.0056949653113840554 0 0.0011776964614391716 -0.0056910459796239952 0 0.0011759515707664707 -0.0056793665808421191 0 0.00058289143634271433 -0.0049686949109065187 0 0.00054654536767721241 -0.0049216064303267927 0 0.00060058595340095632 -0.0048898702003531578 0 0.001181428471194159 -0.005680444767361909 0 0.0011759515707664707 -0.0056793665808421191 0 0.0011736377740922729 -0.0056589280847984171 0 0.00086950774708092332 -0.0053767612961529449 0 0.0011679967955063328 -0.0046861346423548627 0 0.00058289143634271433 -0.0049686949109065187 0 0.00062612926263602589 -0.0049595861940033136 0 0.00060058595340095632 -0.0048898702003531578 0 -0.00024045076784376043 -0.0049144009996527713 0 -0.00023256116612582669 -0.0049615365403611099 0 0.00066200561259164529 -0.0049250426506273872 0 0.00062612926263602589 -0.0049595861940033136 0 0.00060058595340095632 -0.0048898702003531578 0 0.00066200561259164529 -0.0049250426506273872 0 0.00062612926263602589 -0.0049595861940033136 0 0.00066645312328978497 -0.0049985374452129524 0 -0.0010854455227310884 -0.0047934285381635118 0 -0.00086901965883006392 -0.0048364037345387757 0 -0.0010680306932531127 -0.0050879102758899491 0 -0.0010854455227310884 -0.0047934285381635118 0 -0.00086901965883006392 -0.0048364037345387757 0 -0.00089527089845893863 -0.0046263566011826096 0 -0.00086901965883006392 -0.0048364037345387757 0 -0.0010680306932531127 -0.0050879102758899491 0 -0.00069789109633662939 -0.0050238042442463165 0 -0.0010680306932531127 -0.0050879102758899491 0 -0.00069789109633662939 -0.0050238042442463165 0 -0.00083542415370300494 -0.0052353260823115701 0 0.00062174167760636022 -0.0050223668836240189 0 0.00062612926263602589 -0.0049595861940033136 0 0.00066645312328978497 -0.0049985374452129524 0 -0.00038460013545036899 -0.0049428657075092416 0 -0.00069789109633662939 -0.0050238042442463165 0 -0.00059730063151084464 -0.0046467820730532834 0 -0.0011441108164337971 -0.0038725295959245957 0 -0.0014278569794325547 -0.0036571178715162542 0 -0.00086901965883006392 -0.0048364037345387757 0 -0.00069789109633662939 -0.0050238042442463165 0 -0.00059730063151084464 -0.0046467820730532834 0 -0.00038460013545036899 -0.0049428657075092416 0 -0.00069789109633662939 -0.0050238042442463165 0 -0.00050992663853415823 -0.0051177096536116455 0 -0.00069789109633662939 -0.0050238042442463165 0 -0.00050992663853415823 -0.0051177096536116455 0 -0.00059871406069612486 -0.0053138548635857565 0 -0.00032115278176402754 -0.0052839032063836848 0 -0.00061851884592430931 -0.0053207699016448659 0 -0.00038074988019759027 -0.005261520423753269 0 -0.00050992663853415823 -0.0051177096536116455 0 -0.00059871406069612486 -0.0053138548635857565 0 -0.00059871406069612486 -0.0053138548635857565 0 -0.00083542415370300494 -0.0052353260823115701 0 -0.00077160643426555276 -0.0054091958562603468 0 -0.00069789109633662939 -0.0050238042442463165 0 -0.00059871406069612486 -0.0053138548635857565 0 -0.00083542415370300494 -0.0052353260823115701 0 -0.00077160643426555276 -0.0054091958562603468 0 -0.0006003477136023584 -0.0055330740706310182 0 -0.00080563978412873463 -0.0055794709704409858 0 -0.00049404988790457526 -0.0054558969375248824 0 -0.00059871406069612486 -0.0053138548635857565 0 -0.0006003477136023584 -0.0055330740706310182 0 -0.00059871406069612486 -0.0053138548635857565 0 -0.00077160643426555276 -0.0054091958562603468 0 -0.0006003477136023584 -0.0055330740706310182 0 0.0011826207162725043 -0.0056902270783576415 0 0.001190031471816864 -0.0057011528772788972 0 0.001182907049501169 -0.0057038690232840347 0 0.00062174167760636022 -0.0050223668836240189 0 0.00066645312328978497 -0.0049985374452129524 0 0.00066704034288661963 -0.0050805912531196977 0 -0.00023256116612582669 -0.0049615365403611099 0 0.00024406214347455846 -0.0055719416646309817 0 0.00097899321369055033 -0.0053705842058217913 0 0.00024406214347455846 -0.0055719416646309817 0 -0.0010680306932531127 -0.0050879102758899491 0 -0.00083542415370300494 -0.0052353260823115701 0 -0.0010412999109881392 -0.0053718575801552822 0 -0.00083542415370300494 -0.0052353260823115701 0 -0.00077160643426555276 -0.0054091958562603468 0 -0.0010412999109881392 -0.0053718575801552822 0 0.00024406214347455846 -0.0055719416646309817 0 -0.00045278410093879375 -0.0058605659461318533 0 -0.00077160643426555276 -0.0054091958562603468 0 -0.0010412999109881392 -0.0053718575801552822 0 -0.00080563978412873463 -0.0055794709704409858 0 0.00024406214347455846 -0.0055719416646309817 0 0.00072563924490571304 -0.0060159170783864865 0 0.001190031471816864 -0.0057011528772788972 0 0.0011832283006377707 -0.0057175913706347184 0 0.0011926992180318692 -0.0057322812377091324 0 0.001190031471816864 -0.0057011528772788972 0 0.001182907049501169 -0.0057038690232840347 0 0.0011832283006377707 -0.0057175913706347184 0 0.0011832283006377707 -0.0057175913706347184 0 0.0011926992180318692 -0.0057322812377091324 0 0.0011771752226482639 -0.0057313150092389393 0 0.0011926992180318692 -0.0057322812377091324 0 0.001179523590698431 -0.0057457329042082915 0 0.0011771752226482639 -0.0057313150092389393 0 0.00015645241497348883 -0.0061344385423224429 0 0.00012172904321084526 -0.0061096449585464601 0 0.00011620718948237267 -0.006150940345429845 0 0.00015342392356987289 -0.0061721036349601998 0 0.00015645241497348883 -0.0061344385423224429 0 0.00011620718948237267 -0.006150940345429845 0 0.00072563924490571304 -0.0060159170783864865 0 0.00068794134178926114 -0.00589318337795242 0 0.00015645241497348883 -0.0061344385423224429 0 0.00012172904321084526 -0.0061096449585464601 0 0.00016883435441780072 -0.0060651512892970945 0 0.0011926992180318692 -0.0057322812377091324 0 0.001179523590698431 -0.0057457329042082915 0 0.0011903334776589771 -0.005767429058317973 0 -0.00045333394954613849 -0.005600512249104116 0 -0.0006003477136023584 -0.0055330740706310182 0 -0.00059641700492575177 -0.0057351060828484558 0 -0.0006003477136023584 -0.0055330740706310182 0 -0.00080563978412873463 -0.0055794709704409858 0 -0.00059641700492575177 -0.0057351060828484558 0 -0.00045278410093879375 -0.0058605659461318533 0 -0.00025692674717511744 -0.0059327160054331645 0 0.00012172904321084526 -0.0061096449585464601 0 0.00011620718948237267 -0.006150940345429845 0 5.4137286730277779e-05 -0.0061236612504840726 0 0.00012172904321084526 -0.0061096449585464601 0 5.4137286730277779e-05 -0.0061236612504840726 0 0.00010654203658653182 -0.0060583647104765484 0 -0.00024372464260979503 -0.0059502529095470267 0 -0.00025692674717511744 -0.0059327160054331645 0 5.4137286730277779e-05 -0.0061236612504840726 0 4.1719883674329116e-05 -0.006065804595481946 0 0.00010654203658653182 -0.0060583647104765484 0 -5.9391169242804458e-05 -0.0060770441468509743 0 5.4137286730277779e-05 -0.0061236612504840726 0 4.1719883674329116e-05 -0.006065804595481946 0 4.1719883674329116e-05 -0.006065804595481946 0 0.00010654203658653182 -0.0060583647104765484 0 7.0479582333068933e-05 -0.0060026777478081727 0 0.00010654203658653182 -0.0060583647104765484 0 0.00011811356003582048 -0.0059918509389514218 0 7.0479582333068933e-05 -0.0060026777478081727 0 0.00011415874934659779 -0.0060063738935336782 0 0.00010166114076488018 -0.0060000717632693471 0 0.00014628353686275118 -0.005928957993745384 0 0.00021072222559308349 -0.0059956365177679972 0 7.0479582333068933e-05 -0.0060026777478081727 0 -1.5818751034517424e-05 -0.0059939250066409332 0 5.4871630304583033e-05 -0.005905496461728452 0 7.0479582333068933e-05 -0.0060026777478081727 0 -1.5818751034517424e-05 -0.0059939250066409332 0 4.1719883674329116e-05 -0.006065804595481946 0 7.0479582333068933e-05 -0.0060026777478081727 0 0.001179523590698431 -0.0057457329042082915 0 0.0011711717066785442 -0.0057595629422223463 0 0.0011903334776589771 -0.005767429058317973 0 0.0011700718546236641 -0.0057759669566796916 0 0.0011711717066785442 -0.0057595629422223463 0 0.0011903334776589771 -0.005767429058317973 0 0.0011700718546236641 -0.0057759669566796916 0 0.0011903334776589771 -0.005767429058317973 0 0.0011738389850493602 -0.0057948840382490898 0 0.00010654203658653182 -0.0060583647104765484 0 0.00011811356003582048 -0.0059918509389514218 0 0.00016883435441780072 -0.0060651512892970945 0 0.00012172904321084526 -0.0061096449585464601 0 0.00010654203658653182 -0.0060583647104765484 0 0.00016883435441780072 -0.0060651512892970945 0 0.00055113412976139119 -0.0059143745544960255 0 0.00068794134178926114 -0.00589318337795242 0 0.00055113412976139119 -0.0059143745544960255 0 0.00011415874934659779 -0.0060063738935336782 0 0.00017230775007964698 -0.0059757840388649942 0 0.00011811356003582048 -0.0059918509389514218 0 0.00016883435441780072 -0.0060651512892970945 0 0.0011875288504462032 -0.0058083578772966382 0 0.0011903334776589771 -0.005767429058317973 0 0.0011738389850493602 -0.0057948840382490898 0 0.0011700718546236641 -0.0057759669566796916 0 0.0011738389850493602 -0.0057948840382490898 0 0.0011554948323587771 -0.005799594332335364 0 0.0011488054192309223 -0.0058210314916066486 0 0.0011738389850493602 -0.0057948840382490898 0 0.0011554948323587771 -0.005799594332335364 0 0.0011700718546236641 -0.0057759669566796916 0 0.0011554948323587771 -0.005799594332335364 0 0.0011437055206475434 -0.0057808267182886891 0 0.0011229631352780705 -0.0058076983565654508 0 0.0011554948323587771 -0.005799594332335364 0 0.0011437055206475434 -0.0057808267182886891 0 0.0011700718546236641 -0.0057759669566796916 0 0.0011437055206475434 -0.0057808267182886891 0 0.0011581015077643312 -0.0057589794386463476 0 0.0011700718546236641 -0.0057759669566796916 0 0.0011711717066785442 -0.0057595629422223463 0 0.0011581015077643312 -0.0057589794386463476 0 0.0011436986213052018 -0.0057596834647565612 0 0.0011078608720923571 -0.0057969328307558403 0 0.0011358611648675007 -0.0057548381809872807 0 0.0011437055206475434 -0.0057808267182886891 0 0.0011436986213052018 -0.0057596834647565612 0 0.0011078608720923571 -0.0057969328307558403 0 0.0011437055206475434 -0.0057808267182886891 0 0.0011581015077643312 -0.0057589794386463476 0 0.0011436986213052018 -0.0057596834647565612 0 0.0011229631352780705 -0.0058076983565654508 0 0.0011437055206475434 -0.0057808267182886891 0 0.0011078608720923571 -0.0057969328307558403 0 0.0011741188594698775 -0.0059424657419438025 0 0.0011346261778179927 -0.0060188189418547977 0 0.0011797713568498717 -0.0060180642873031093 0 0.0011346261778179927 -0.0060188189418547977 0 0.0011797713568498717 -0.0060180642873031093 0 0.0011816117446197985 -0.006020279704441335 0 0.0012898544432023255 -0.0059897187792266474 0 0.0012261629148491537 -0.0059888341367557657 0 0.0012591200404887565 -0.0060303812654719305 0 0.0012261629148491537 -0.0059888341367557657 0 0.0012084987592020813 -0.0060226009191391375 0 0.0012591200404887565 -0.0060303812654719305 0 0.0011797713568498717 -0.0060180642873031093 0 0.0012261629148491537 -0.0059888341367557657 0 0.0012084987592020813 -0.0060226009191391375 0 0.0011741188594698775 -0.0059424657419438025 0 0.0011797713568498717 -0.0060180642873031093 0 0.0012261629148491537 -0.0059888341367557657 0 0.0011797713568498717 -0.0060180642873031093 0 0.0011835605026835759 -0.0060486139252393621 0 0.0011816117446197985 -0.006020279704441335 0 0.0011797713568498717 -0.0060180642873031093 0 0.0012084987592020813 -0.0060226009191391375 0 0.0011835605026835759 -0.0060486139252393621 0 0.0012845700794107161 -0.0060940949226057188 0 0.0012591200404887565 -0.0060303812654719305 0 0.0011835605026835759 -0.0060486139252393621 0 0.0012084987592020813 -0.0060226009191391375 0 0.0012591200404887565 -0.0060303812654719305 0 0.0011835605026835759 -0.0060486139252393621 0 0.0013798606644723928 -0.0058446210912362394 0 0.0012664184128989785 -0.0055894905986170872 0 0.0011258274568644526 -0.0060389491597458841 0 0.0011651504968830579 -0.0060036790080241782 0 0.0011247708201639437 -0.0059334466554451298 0 0.0011258274568644526 -0.0060389491597458841 0 0.0011835605026835759 -0.0060486139252393621 0 0.0011651504968830579 -0.0060036790080241782 0 0.0013798606644723928 -0.0058446210912362394 0 0.0011948413182749646 -0.0059616239476248892 0 0.0011835605026835759 -0.0060486139252393621 0 0.0011651504968830579 -0.0060036790080241782 0 0.0011816117446197985 -0.006020279704441335 0 0.001121967079884448 -0.005904680361739423 0 0.0011714333349320803 -0.0058657528576594835 0 0.0011651504968830579 -0.0060036790080241782 0 0.0012191107639840438 -0.005984445179309893 0 0.0011247708201639437 -0.0059334466554451298 0 0.0011346261778179927 -0.0060188189418547977 0 0.0011816117446197985 -0.006020279704441335 0 0.0012191107639840438 -0.005984445179309893 0 0.0011651504968830579 -0.0060036790080241782 0 0.0011816117446197985 -0.006020279704441335 0 0.0012191107639840438 -0.005984445179309893 0 0.0011662107861894475 -0.0058558858052695463 0 0.0011247708201639437 -0.0059334466554451298 0 0.001155392128736893 -0.0057519731738639134 0 0.0012191107639840438 -0.005984445179309893 0 0.0011662107861894475 -0.0058558858052695463 0 0.0011664732670474023 -0.0057538259546356697 0 0.0011358611648675007 -0.0057548381809872807 0 0.0011664732670474023 -0.0057538259546356697 0 0.0011535184755901687 -0.0057466075142558982 0 0.0011714333349320803 -0.0058657528576594835 0 0.001167603987573617 -0.0057655707257102803 0 0.0012191107639840438 -0.005984445179309893 0 0.0011662107861894475 -0.0058558858052695463 0 0.0011247708201639437 -0.0059334466554451298 0 0.0012664184128989785 -0.0055894905986170872 0 0.0012118175450305687 -0.0056492767529270991 0 0.001582561247737045 -0.0053516217798739241 0 0.0013872492726986433 -0.0053339876580991768 0 0.0014284326613397806 -0.0054878488400502256 0 0.0013872492726986433 -0.0053339876580991768 0 0.0014284326613397806 -0.0054878488400502256 0 0.0013367801951026065 -0.0055160418451443288 0 0.0013872492726986433 -0.0053339876580991768 0 0.0013367801951026065 -0.0055160418451443288 0 0.0012681892488710267 -0.0055284755017484975 0 0.0014284326613397806 -0.0054878488400502256 0 0.0013367801951026065 -0.0055160418451443288 0 0.0013638361790927296 -0.0055531299783998667 0 0.0014284326613397806 -0.0054878488400502256 0 0.0013638361790927296 -0.0055531299783998667 0 0.0014092485519529884 -0.0055890962876038626 0 0.0013367801951026065 -0.0055160418451443288 0 0.0013367788387089502 -0.0055585305732940432 0 0.0013025795095207842 -0.0055785889922777034 0 0.0013367801951026065 -0.0055160418451443288 0 0.0013367788387089502 -0.0055585305732940432 0 0.0013638361790927296 -0.0055531299783998667 0 0.0013367788387089502 -0.0055585305732940432 0 0.0013439901611540287 -0.0055865211147627337 0 0.0013025795095207842 -0.0055785889922777034 0 0.0013367788387089502 -0.0055585305732940432 0 0.0013439901611540287 -0.0055865211147627337 0 0.0013638361790927296 -0.0055531299783998667 0 0.0013439901611540287 -0.0055865211147627337 0 0.0013638361790927296 -0.0055531299783998667 0 0.0014092485519529884 -0.0055890962876038626 0 0.0014871465252241059 -0.0056186105143113726 0 0.0014284326613397806 -0.0054878488400502256 0 0.0014092485519529884 -0.0055890962876038626 0 0.0011625335282533841 -0.0057438108483771734 0 0.0011664732670474023 -0.0057538259546356697 0 0.0011535184755901687 -0.0057466075142558982 0 0.0011625335282533841 -0.0057438108483771734 0 0.0011664732670474023 -0.0057538259546356697 0 0.0011664659362136786 -0.0057402500691555638 0 0.0011662107861894475 -0.0058558858052695463 0 0.0011664732670474023 -0.0057538259546356697 0 0.001155392128736893 -0.0057519731738639134 0 0.0012681892488710267 -0.0055284755017484975 0 0.001285192268802218 -0.0055538205925216222 0 0.0012759561793405593 -0.0055759707720922768 0 0.0012453760705822894 -0.0056128111934283043 0 0.0012681892488710267 -0.0055284755017484975 0 0.0012759561793405593 -0.0055759707720922768 0 0.0013367801951026065 -0.0055160418451443288 0 0.001285192268802218 -0.0055538205925216222 0 0.0013025795095207842 -0.0055785889922777034 0 0.0013367801951026065 -0.0055160418451443288 0 0.0012681892488710267 -0.0055284755017484975 0 0.001285192268802218 -0.0055538205925216222 0 0.001312141181515656 -0.0056120108124282538 0 0.0013439901611540287 -0.0055865211147627337 0 0.0013025795095207842 -0.0055785889922777034 0 0.001285192268802218 -0.0055538205925216222 0 0.0013025795095207842 -0.0055785889922777034 0 0.0012759561793405593 -0.0055759707720922768 0 0.0012777915491043108 -0.0056055381705947087 0 0.0013025795095207842 -0.0055785889922777034 0 0.0012759561793405593 -0.0055759707720922768 0 0.0011664732670474023 -0.0057538259546356697 0 0.001155392128736893 -0.0057519731738639134 0 0.0011693264885910134 -0.0057294171305606852 0 0.0011664732670474023 -0.0057538259546356697 0 0.0011664659362136786 -0.0057402500691555638 0 0.0011693264885910134 -0.0057294171305606852 0 0.0011625335282533841 -0.0057438108483771734 0 0.0011664659362136786 -0.0057402500691555638 0 0.001167949056160927 -0.0057328803312994021 0 0.0011664659362136786 -0.0057402500691555638 0 0.0011693264885910134 -0.0057294171305606852 0 0.001167949056160927 -0.0057328803312994021 0 0.0011693264885910134 -0.0057294171305606852 0 0.0011713222799838946 -0.0057237005858177632 0 0.001167949056160927 -0.0057328803312994021 0 0.0011721700034355777 -0.005721604452410556 0 0.001167949056160927 -0.0057328803312994021 0 0.0011652701401715709 -0.0057347181980297261 0 0.0011713222799838946 -0.0057237005858177632 0 0.0011721700034355777 -0.005721604452410556 0 0.001167949056160927 -0.0057328803312994021 0 0.0011625335282533841 -0.0057438108483771734 0 0.001167949056160927 -0.0057328803312994021 0 0.0011652701401715709 -0.0057347181980297261 0 0.0011625335282533841 -0.0057438108483771734 0 0.0011652701401715709 -0.0057347181980297261 0 0.0011535184755901687 -0.0057466075142558982 0 0.0011652701401715709 -0.0057347181980297261 0 0.0011705762142298127 -0.0057312753969144163 0 0.0011596133557531853 -0.005745358486138729 0 0.0011721700034355777 -0.005721604452410556 0 0.0011652701401715709 -0.0057347181980297261 0 0.0011742034524104704 -0.0057184265863134279 0 0.0011652701401715709 -0.0057347181980297261 0 0.0011742034524104704 -0.0057184265863134279 0 0.0011705762142298127 -0.0057312753969144163 0 0.0011779732226852315 -0.0057167156246641596 0 0.0011742034524104704 -0.0057184265863134279 0 0.0011705762142298127 -0.0057312753969144163 0 0.0011779732226852315 -0.0057167156246641596 0 0.0011771752226482639 -0.0057313150092389393 0 0.0011705762142298127 -0.0057312753969144163 0 0.0011779732226852315 -0.0057167156246641596 0 0.0011832283006377707 -0.0057175913706347184 0 0.0011771752226482639 -0.0057313150092389393 0 0.0011771752226482639 -0.0057313150092389393 0 0.0011705762142298127 -0.0057312753969144163 0 0.001168918391887963 -0.0057449799121270595 0 0.0011705762142298127 -0.0057312753969144163 0 0.001168918391887963 -0.0057449799121270595 0 0.0011596133557531853 -0.005745358486138729 0 0.001179523590698431 -0.0057457329042082915 0 0.0011771752226482639 -0.0057313150092389393 0 0.001168918391887963 -0.0057449799121270595 0 0.0011711717066785442 -0.0057595629422223463 0 0.0011581015077643312 -0.0057589794386463476 0 0.001168918391887963 -0.0057449799121270595 0 0.001179523590698431 -0.0057457329042082915 0 0.0011711717066785442 -0.0057595629422223463 0 0.001168918391887963 -0.0057449799121270595 0 0.0011581015077643312 -0.0057589794386463476 0 0.001168918391887963 -0.0057449799121270595 0 0.0011596133557531853 -0.005745358486138729 0 0.0011436986213052018 -0.0057596834647565612 0 0.0011535184755901687 -0.0057466075142558982 0 0.0011596133557531853 -0.005745358486138729 0 0.0011436986213052018 -0.0057596834647565612 0 0.0011358611648675007 -0.0057548381809872807 0 0.0011535184755901687 -0.0057466075142558982 0 0.0011581015077643312 -0.0057589794386463476 0 0.0011436986213052018 -0.0057596834647565612 0 0.0011596133557531853 -0.005745358486138729 0 0.0011652701401715709 -0.0057347181980297261 0 0.0011535184755901687 -0.0057466075142558982 0 0.0011596133557531853 -0.005745358486138729 0 0.0049228531264485153 -0.0043647983719891188 0 0.0049682295226741576 -0.0043296475951700329 0 0.0050009392009316301 -0.0043597198310805557 0 0.0049228531264485153 -0.0043647983719891188 0 0.0050009392009316301 -0.0043597198310805557 0 0.0049174942471797928 -0.0044543088286643313 0 0.0049228531264485153 -0.0043647983719891188 0 0.0048294147056891154 -0.0042854295973900839 0 0.0049501532873981128 -0.0041108600058337563 0 0.0049416584330123168 -0.004345793078650211 0 0.0050249999397561562 -0.004228353250591327 0 0.0049228531264485153 -0.0043647983719891188 0 0.0048294147056891154 -0.0042854295973900839 0 0.0048388827257448393 -0.004511262032991287 0 0.0051234262117836526 -0.0039380801463196379 0 0.0049999982245663467 -0.0038920152839122518 0 0.0049999990930641256 -0.0041878908297063163 0 0.0049777843510047581 -0.0041077122496969197 0 0.0050056351763506004 -0.0037499049552933198 0 0.0051234262117836526 -0.0039380801463196379 0 0.0049999982245663467 -0.0038920152839122518 0 0.0051455972653045162 -0.0036707450282038572 0 0.0049228531264485153 -0.0043647983719891188 0 0.0049501532873981128 -0.0041108600058337563 0 0.0050991881737517345 -0.0040877962847953725 0 0.0048294147056891154 -0.0042854295973900839 0 0.0049501532873981128 -0.0041108600058337563 0 0.0048620373878758187 -0.0038247850229443628 0 0.0049501532873981128 -0.0041108600058337563 0 0.0050991881737517345 -0.0040877962847953725 0 0.0050145727946242771 -0.0039527440415739008 0 0.0047219789003068741 -0.0048834698868672199 0 0.0046823887440872805 -0.0048998661541543309 0 0.0049682295226741576 -0.0043296475951700329 0 0.0049802587892862765 -0.004329194240259699 0 0.0050009392009316301 -0.0043597198310805557 0 0.0049802587892862765 -0.004329194240259699 0 0.0050009392009316301 -0.0043597198310805557 0 0.0049815281185939964 -0.0043286633938665773 0 0.0044209337652293228 -0.0053936764610265486 0 0.0044129648031621246 -0.0054431284890844017 0 0.0044670499344054721 -0.0053786846269572039 0 0.0044209337652293228 -0.0053936764610265486 0 0.0044319372339894506 -0.005441602483757536 0 0.0043962870518873326 -0.0053496563008408387 0 0.0044209337652293228 -0.0053936764610265486 0 0.0044380144198346381 -0.0053486297794970022 0 0.0043962870518873326 -0.0053496563008408387 0 0.0044129648031621246 -0.0054431284890844017 0 0.0043469711270129781 -0.0053871244900548908 0 0.0042424583678376312 -0.0054421558283856853 0 0.0044209337652293228 -0.0053936764610265486 0 0.0044129648031621246 -0.0054431284890844017 0 0.0044319372339894506 -0.005441602483757536 0 0.0044129648031621246 -0.0054431284890844017 0 0.0044319372339894506 -0.005441602483757536 0 0.0044330535610117294 -0.0053862567199223612 0 0.0044319372339894506 -0.005441602483757536 0 0.0045523570731287729 -0.0053150969229906172 0 0.0044330535610117294 -0.0053862567199223612 0 0.0047219789003068741 -0.0048834698868672199 0 0.0047553138367736857 -0.0049151301636337187 0 0.0045523570731287729 -0.0053150969229906172 0 0.0044330535610117294 -0.0053862567199223612 0 0.0044079609605092822 -0.0053070298431865627 0 0.0043469711270129781 -0.0053871244900548908 0 0.0044079609605092822 -0.0053070298431865627 0 0.0042345042314664138 -0.0053215184779437505 0 0.0044129648031621246 -0.0054431284890844017 0 0.0043469711270129781 -0.0053871244900548908 0 0.0044330535610117294 -0.0053862567199223612 0 0.0043469711270129781 -0.0053871244900548908 0 0.0044330535610117294 -0.0053862567199223612 0 0.0044079609605092822 -0.0053070298431865627 0 0.0044079609605092822 -0.0053070298431865627 0 0.0044754294589561252 -0.005187505045481774 0 0.0043319811586180479 -0.0052283361859874443 0 0.0045523570731287729 -0.0053150969229906172 0 0.0044079609605092822 -0.0053070298431865627 0 0.0044754294589561252 -0.005187505045481774 0 0.0045523570731287729 -0.0053150969229906172 0 0.0046192856000499749 -0.0051663423788368534 0 0.0044754294589561252 -0.005187505045481774 0 0.0049757718051746253 -0.0045055060913936048 0 0.004905660699552227 -0.0045459042395454034 0 0.0049176497486194621 -0.0046704525900733672 0 0.004905660699552227 -0.0045459042395454034 0 0.0048725876576984246 -0.0046007026028896747 0 0.0049176497486194621 -0.0046704525900733672 0 0.0047553138367736857 -0.0049151301636337187 0 0.0047999450010596618 -0.004905568867618634 0 0.0050009392009316301 -0.0043597198310805557 0 0.0049757718051746253 -0.0045055060913936048 0 0.0049174942471797928 -0.0044543088286643313 0 0.0049757718051746253 -0.0045055060913936048 0 0.004905660699552227 -0.0045459042395454034 0 0.0049174942471797928 -0.0044543088286643313 0 0.0049228531264485153 -0.0043647983719891188 0 0.0049174942471797928 -0.0044543088286643313 0 0.0048388827257448393 -0.004511262032991287 0 0.004905660699552227 -0.0045459042395454034 0 0.0049174942471797928 -0.0044543088286643313 0 0.0048388827257448393 -0.004511262032991287 0 0.0049777843510047581 -0.0041077122496969197 0 0.0049673617290639282 -0.0043560399133359693 0 0.0051234262117836526 -0.0039380801463196379 0 0.0049999990930641256 -0.0041878908297063163 0 0.0051008849421787829 -0.0042048208375935481 0 0.0049999990930641256 -0.0041878908297063163 0 0.0051008849421787829 -0.0042048208375935481 0 0.0050782801882633078 -0.0044714675953492307 0 0.0049673617290639282 -0.0043560399133359693 0 0.004964106725856488 -0.0045824564541041115 0 0.0048388827257448393 -0.004511262032991287 0 0.0048725876576984246 -0.0046007026028896747 0 0.0048269500664281442 -0.0046822760686710272 0 0.004905660699552227 -0.0045459042395454034 0 0.0048388827257448393 -0.004511262032991287 0 0.0048725876576984246 -0.0046007026028896747 0 0.0049819528842102983 -0.004623451244701802 0 0.0049996006474561901 -0.0044851171687824475 0 0.0049998183465240261 -0.0049996349727888688 0 0.0049999990930641256 -0.0041878908297063163 0 0.0050782801882633078 -0.0044714675953492307 0 0.0049999985010683364 -0.0044837633239360377 0 0.0048725876576984246 -0.0046007026028896747 0 0.0048269500664281442 -0.0046822760686710272 0 0.0049176497486194621 -0.0046704525900733672 0 0.0049579976789300897 -0.0047327471982895912 0 0.0049190078974228968 -0.0047361029328150291 0 0.0048970522596664973 -0.0047554861534387875 0 0.0049190078974228968 -0.0047361029328150291 0 0.0049819528842102983 -0.004623451244701802 0 0.0048912420879409918 -0.0048033547521838596 0 0.004964106725856488 -0.0045824564541041115 0 0.0047999450010596618 -0.004905568867618634 0 0.0049579976789300897 -0.0047327471982895912 0 0.0049190078974228968 -0.0047361029328150291 0 0.0049819528842102983 -0.004623451244701802 0 0.0049945712123492126 -0.0045764808769366422 0 0.0049819528842102983 -0.004623451244701802 0 0.0049996006474561901 -0.0044851171687824475 0 0.004964106725856488 -0.0045824564541041115 0 0.0049659380829857862 -0.0046070508666378488 0 0.004964106725856488 -0.0045824564541041115 0 0.0050000041935865684 -0.0044838661650918382 0 0.0048313923931775134 -0.0050383136525434767 0 0.0048912420879409918 -0.0048033547521838596 0 0.0046422551681364801 -0.0049886906545236961 0 0.0049190078974228968 -0.0047361029328150291 0 0.0048970522596664973 -0.0047554861534387875 0 0.0048912420879409918 -0.0048033547521838596 0 0.0047999450010596618 -0.004905568867618634 0 0.0048666334654416084 -0.0048225500706996398 0 0.0048912420879409918 -0.0048033547521838596 0 0.0048176139545573586 -0.0049000696318826521 0 0.0046422551681364801 -0.0049886906545236961 0 0.0049819528842102983 -0.004623451244701802 0 0.0048912420879409918 -0.0048033547521838596 0 0.0048176139545573586 -0.0049000696318826521 0 0.0049819528842102983 -0.004623451244701802 0 0.0049998183465240261 -0.0049996349727888688 0 0.0048176139545573586 -0.0049000696318826521 0 0.0049998183465240261 -0.0049996349727888688 0 0.0048176139545573586 -0.0049000696318826521 0 0.0046177207839723077 -0.0049997348785059169 0 0.0046177207839723077 -0.0049997348785059169 0 0.0045338536216788621 -0.0049853655567652401 0 0.0043074588769229675 -0.005023026117494625 0 0.0048176139545573586 -0.0049000696318826521 0 0.0046177207839723077 -0.0049997348785059169 0 0.0045338536216788621 -0.0049853655567652401 0 0.0045338536216788621 -0.0049853655567652401 0 0.0043617769830660829 -0.0050803734455283286 0 0.0043074588769229675 -0.005023026117494625 0 0.0045338536216788621 -0.0049853655567652401 0 0.0046422551681364801 -0.0049886906545236961 0 0.0043617769830660829 -0.0050803734455283286 0 0.0048176139545573586 -0.0049000696318826521 0 0.0045338536216788621 -0.0049853655567652401 0 0.0046422551681364801 -0.0049886906545236961 0 0.0048313923931775134 -0.0050383136525434767 0 0.0046422551681364801 -0.0049886906545236961 0 0.0044754294589561252 -0.005187505045481774 0 0.0047999450010596618 -0.004905568867618634 0 0.0044439521079795508 -0.005228446063163519 0 0.0044754294589561252 -0.005187505045481774 0 0.0043617769830660829 -0.0050803734455283286 0 0.0043319811586180479 -0.0052283361859874443 0 0.0046422551681364801 -0.0049886906545236961 0 0.0044754294589561252 -0.005187505045481774 0 0.0043617769830660829 -0.0050803734455283286 0 0.0042005943876294921 -0.0051661692059079443 0 0.0043617769830660829 -0.0050803734455283286 0 0.0043319811586180479 -0.0052283361859874443 0 0.0042005943876294921 -0.0051661692059079443 0 0.0040357302693265458 -0.005114788344470704 0 0.0040833113069871389 -0.0052601551088217588 0 0.0042005943876294921 -0.0051661692059079443 0 0.0041919458427064262 -0.0050766951561655622 0 0.0040357302693265458 -0.005114788344470704 0 0.0041919458427064262 -0.0050766951561655622 0 0.0043617769830660829 -0.0050803734455283286 0 0.0043074588769229675 -0.005023026117494625 0 0.0042005943876294921 -0.0051661692059079443 0 0.0041919458427064262 -0.0050766951561655622 0 0.0043617769830660829 -0.0050803734455283286 0 0.0046177207839723077 -0.0049997348785059169 0 0.0043074588769229675 -0.005023026117494625 0 0.0040796642420829598 -0.0049997933131252417 0 0.0041919458427064262 -0.0050766951561655622 0 0.0043074588769229675 -0.005023026117494625 0 0.0041162281257891105 -0.0050301457806387869 0 0.0043074588769229675 -0.005023026117494625 0 0.0040796642420829598 -0.0049997933131252417 0 0.0041162281257891105 -0.0050301457806387869 0 0.0040794138635168896 -0.0049999981183128277 0 0.0040380951855730294 -0.0050942027724039888 0 0.0040792916087824876 -0.005000009776842348 0 0.0039666671851990706 -0.0051702914078589702 0 0.0038230159448394726 -0.0051582852342292257 0 0.0040792916087824876 -0.005000009776842348 0 0.0038132594319760273 -0.0049999531670856705 0 0.0038230159448394726 -0.0051582852342292257 0 0.0039666671851990706 -0.0051702914078589702 0 0.0038230159448394726 -0.0051582852342292257 0 0.0038827074618583523 -0.0052819803153432814 0 0.0038230159448394726 -0.0051582852342292257 0 0.0037624759684739056 -0.0052818677232087056 0 0.0038827074618583523 -0.0052819803153432814 0 0.0040380951855730294 -0.0050942027724039888 0 0.0039580688257188348 -0.0052039237314735771 0 0.0041919458427064262 -0.0050766951561655622 0 0.0041162281257891105 -0.0050301457806387869 0 0.0040357302693265458 -0.005114788344470704 0 0.0040357302693265458 -0.005114788344470704 0 0.0038824019423583816 -0.0053006608957438996 0 0.0040833113069871389 -0.0052601551088217588 0 0.0039580688257188348 -0.0052039237314735771 0 0.0038936122363910971 -0.0053021285240672207 0 0.0037624759684739056 -0.0052818677232087056 0 0.0038827074618583523 -0.0052819803153432814 0 0.0038824019423583816 -0.0053006608957438996 0 0.0037624759684739056 -0.0052818677232087056 0 0.0038824019423583816 -0.0053006608957438996 0 0.0036704493063632964 -0.0053401595115925337 0 0.0038824019423583816 -0.0053006608957438996 0 0.0037092007416722993 -0.0053612798205028541 0 0.0036704493063632964 -0.0053401595115925337 0 0.0038844221491362765 -0.0053770327090835396 0 0.0037515594357552802 -0.0054126907371324414 0 0.0037092007416722993 -0.0053612798205028541 0 0.0038844221491362765 -0.0053770327090835396 0 0.0038824019423583816 -0.0053006608957438996 0 0.0037092007416722993 -0.0053612798205028541 0 0.0038844221491362765 -0.0053770327090835396 0 0.0040833113069871389 -0.0052601551088217588 0 0.0040713732354417291 -0.0054265282629785009 0 0.0038844221491362765 -0.0053770327090835396 0 0.0038824019423583816 -0.0053006608957438996 0 0.0040833113069871389 -0.0052601551088217588 0 0.0042005943876294921 -0.0051661692059079443 0 0.0040833113069871389 -0.0052601551088217588 0 0.0042345042314664138 -0.0053215184779437505 0 0.0044079609605092822 -0.0053070298431865627 0 0.0043319811586180479 -0.0052283361859874443 0 0.0042345042314664138 -0.0053215184779437505 0 0.0042005943876294921 -0.0051661692059079443 0 0.0043319811586180479 -0.0052283361859874443 0 0.0042345042314664138 -0.0053215184779437505 0 0.0043469711270129781 -0.0053871244900548908 0 0.0042345042314664138 -0.0053215184779437505 0 0.0042424583678376312 -0.0054421558283856853 0 0.0042345042314664138 -0.0053215184779437505 0 0.0040713732354417291 -0.0054265282629785009 0 0.0042424583678376312 -0.0054421558283856853 0 0.0040833113069871389 -0.0052601551088217588 0 0.0042345042314664138 -0.0053215184779437505 0 0.0040713732354417291 -0.0054265282629785009 0 0.0040713732354417291 -0.0054265282629785009 0 0.0042424583678376312 -0.0054421558283856853 0 0.0041942678706986319 -0.0056082186521999441 0 0.0040713732354417291 -0.0054265282629785009 0 0.0041942678706986319 -0.0056082186521999441 0 0.0039306303756829943 -0.0055401402526118627 0 0.0044129648031621246 -0.0054431284890844017 0 0.0042424583678376312 -0.0054421558283856853 0 0.0041942678706986319 -0.0056082186521999441 0 0.0044085656787902806 -0.0054498374035922455 0 0.0043230372851925146 -0.0054815992948755244 0 0.0044209337652293228 -0.0053936764610265486 0 0.0044670499344054721 -0.0053786846269572039 0 0.0044380144198346381 -0.0053486297794970022 0 0.0044670499344054721 -0.0053786846269572039 0 0.0044380144198346381 -0.0053486297794970022 0 0.0044583953238408426 -0.0053246829509540749 0 0.0041942678706986319 -0.0056082186521999441 0 0.0039306303756829943 -0.0055401402526118627 0 0.0039571063034789878 -0.0057445131031453409 0 0.0043230372851925146 -0.0054815992948755244 0 0.0042857964612807017 -0.0056120316504048584 0 0.0037357525955319269 -0.0056641868467400235 0 0.0039306303756829943 -0.0055401402526118627 0 0.0039571063034789878 -0.0057445131031453409 0 0.0037357525955319269 -0.0056641868467400235 0 0.0037515594357552802 -0.0054126907371324414 0 0.0039306303756829943 -0.0055401402526118627 0 0.0037143850108720573 -0.0056187273772546672 0 0.0037494925023438424 -0.0053666030237246847 0 0.0038844221491362765 -0.0053770327090835396 0 0.0037515594357552802 -0.0054126907371324414 0 0.0039306303756829943 -0.0055401402526118627 0 0.0038844221491362765 -0.0053770327090835396 0 0.0040713732354417291 -0.0054265282629785009 0 0.0039306303756829943 -0.0055401402526118627 0 0.0036609033426795844 -0.0053240777031504771 0 0.0036303430945473277 -0.0052818953044406914 0 0.003637028846209821 -0.0053408352823247577 0 0.0037515594357552802 -0.0054126907371324414 0 0.0036609033426795844 -0.0053240777031504771 0 0.0037092007416722993 -0.0053612798205028541 0 0.0036907575165172147 -0.0053433340203334154 0 0.0036609033426795844 -0.0053240777031504771 0 0.0036717722185834224 -0.0053336209146885765 0 0.0036609033426795844 -0.0053240777031504771 0 0.0036566092630131294 -0.0053208187725266344 0 0.0036717722185834224 -0.0053336209146885765 0 0.0036907575165172147 -0.0053433340203334154 0 0.0037515594357552802 -0.0054126907371324414 0 0.0036609033426795844 -0.0053240777031504771 0 0.0036609033426795844 -0.0053240777031504771 0 0.0035993862222049255 -0.0051726159283468345 0 0.0036566092630131294 -0.0053208187725266344 0 0.0035993862222049255 -0.0051726159283468345 0 0.0037973041946433154 -0.0052537146856919221 0 0.0037793894060512766 -0.0049997930725018038 0 0.0035993862222049255 -0.0051726159283468345 0 0.0036303430945473277 -0.0052818953044406914 0 0.0037973041946433154 -0.0052537146856919221 0 0.0036303430945473277 -0.0052818953044406914 0 0.0036668360807427074 -0.0053317575501831381 0 0.0037973041946433154 -0.0052537146856919221 0 0.0036609033426795844 -0.0053240777031504771 0 0.0035993862222049255 -0.0051726159283468345 0 0.0036303430945473277 -0.0052818953044406914 0 0.0036668360807427074 -0.0053317575501831381 0 0.0036127357600014803 -0.0053649866067909564 0 0.003637028846209821 -0.0053408352823247577 0 0.0036303430945473277 -0.0052818953044406914 0 0.0036668360807427074 -0.0053317575501831381 0 0.003637028846209821 -0.0053408352823247577 0 0.0036668360807427074 -0.0053317575501831381 0 0.0036908736984807462 -0.0054067188265490371 0 0.0037609485730213336 -0.0053321504641045871 0 0.0036668360807427074 -0.0053317575501831381 0 0.0037609485730213336 -0.0053321504641045871 0 0.0037973041946433154 -0.0052537146856919221 0 0.0036668360807427074 -0.0053317575501831381 0 0.0036908736984807462 -0.0054067188265490371 0 0.0036127357600014803 -0.0053649866067909564 0 0.0036127357600014803 -0.0053649866067909564 0 0.003637028846209821 -0.0053408352823247577 0 0.0036704493063632964 -0.0053401595115925337 0 0.0036609033426795844 -0.0053240777031504771 0 0.003637028846209821 -0.0053408352823247577 0 0.0037092007416722993 -0.0053612798205028541 0 0.003637028846209821 -0.0053408352823247577 0 0.0037092007416722993 -0.0053612798205028541 0 0.0036704493063632964 -0.0053401595115925337 0 0.0037624759684739056 -0.0052818677232087056 0 0.0036704493063632964 -0.0053401595115925337 0 0.0036320954396588789 -0.0053001629998823008 0 0.0036127357600014803 -0.0053649866067909564 0 0.0036704493063632964 -0.0053401595115925337 0 0.0035355978036386406 -0.0053821118276132368 0 0.0036704493063632964 -0.0053401595115925337 0 0.0036320954396588789 -0.0053001629998823008 0 0.0035355978036386406 -0.0053821118276132368 0 0.0036320954396588789 -0.0053001629998823008 0 0.0034970253559413831 -0.0051795216488892647 0 0.0035355978036386406 -0.0053821118276132368 0 0.0036320954396588789 -0.0053001629998823008 0 0.0036627408907352905 -0.0051986615625377796 0 0.0034970253559413831 -0.0051795216488892647 0 0.0037624759684739056 -0.0052818677232087056 0 0.0036320954396588789 -0.0053001629998823008 0 0.0036627408907352905 -0.0051986615625377796 0 0.0038230159448394726 -0.0051582852342292257 0 0.0037624759684739056 -0.0052818677232087056 0 0.0036627408907352905 -0.0051986615625377796 0 0.0038230159448394726 -0.0051582852342292257 0 0.0036627408907352905 -0.0051986615625377796 0 0.0035471709823642495 -0.0049999951631468139 0 0.0036627408907352905 -0.0051986615625377796 0 0.0034970253559413831 -0.0051795216488892647 0 0.0035471709823642495 -0.0049999951631468139 0 0.0038132594319760273 -0.0049999531670856705 0 0.0038230159448394726 -0.0051582852342292257 0 0.0035471709823642495 -0.0049999951631468139 0 0.0034970253559413831 -0.0051795216488892647 0 0.0035471709823642495 -0.0049999951631468139 0 0.0032810197658353314 -0.0049999515372943903 0 0.0034970253559413831 -0.0051795216488892647 0 0.0032810197658353314 -0.0049999515372943903 0 0.0033009400029097814 -0.0052020925915502369 0 0.0033009400029097814 -0.0052020925915502369 0 0.0031318148535536836 -0.0053476407224369495 0 0.0030724205687560156 -0.0051541659693864136 0 0.0032810197658353314 -0.0049999515372943903 0 0.0033009400029097814 -0.0052020925915502369 0 0.0030724205687560156 -0.0051541659693864136 0 0.0033009400029097814 -0.0052020925915502369 0 0.0035355978036386406 -0.0053821118276132368 0 0.0031318148535536836 -0.0053476407224369495 0 0.0034970253559413831 -0.0051795216488892647 0 0.0033009400029097814 -0.0052020925915502369 0 0.0035355978036386406 -0.0053821118276132368 0 0.0036908736984807462 -0.0054067188265490371 0 0.0036127357600014803 -0.0053649866067909564 0 0.0035355978036386406 -0.0053821118276132368 0 0.0034419242051154258 -0.005503528081113044 0 0.0035478268653893934 -0.0053880855321545738 0 0.0032272282536097907 -0.0055947649278935982 0 0.0035355978036386406 -0.0053821118276132368 0 0.0031318148535536836 -0.0053476407224369495 0 0.0032272282536097907 -0.0055947649278935982 0 0.0029771857177698421 -0.0055031227069245407 0 0.0031318148535536836 -0.0053476407224369495 0 0.0029771857177698421 -0.0055031227069245407 0 0.0029233409186799502 -0.0053112197493680449 0 0.0028050835803357268 -0.0054300030955148505 0 0.0029771857177698421 -0.0055031227069245407 0 0.0028050835803357268 -0.0054300030955148505 0 0.002828295844014088 -0.0056207234016823751 0 0.0029233409186799502 -0.0053112197493680449 0 0.0028587827938868389 -0.0051542450672429838 0 0.0027258541875689601 -0.0053089349051499094 0 0.0029233409186799502 -0.0053112197493680449 0 0.0027258541875689601 -0.0053089349051499094 0 0.0028050835803357268 -0.0054300030955148505 0 0.0029233409186799502 -0.0053112197493680449 0 0.0031318148535536836 -0.0053476407224369495 0 0.0030724205687560156 -0.0051541659693864136 0 0.0029771857177698421 -0.0055031227069245407 0 0.0029233409186799502 -0.0053112197493680449 0 0.0031318148535536836 -0.0053476407224369495 0 0.0029233409186799502 -0.0053112197493680449 0 0.0030724205687560156 -0.0051541659693864136 0 0.0028587827938868389 -0.0051542450672429838 0 0.0028587827938868389 -0.0051542450672429838 0 0.0030148341631900982 -0.0049999691099766935 0 0.0027486549381994115 -0.0049999771736796922 0 0.0032810197658353314 -0.0049999515372943903 0 0.0030724205687560156 -0.0051541659693864136 0 0.0030148341631900982 -0.0049999691099766935 0 0.0030724205687560156 -0.0051541659693864136 0 0.0028587827938868389 -0.0051542450672429838 0 0.0030148341631900982 -0.0049999691099766935 0 0.002482564109601266 -0.0050009196021973575 0 0.002544805236748277 -0.0051210282678315396 0 0.0027486549381994115 -0.0049999771736796922 0 0.002544805236748277 -0.0051210282678315396 0 0.0027486549381994115 -0.0049999771736796922 0 0.0026801896726248325 -0.0051802517443638634 0 0.0028587827938868389 -0.0051542450672429838 0 0.0027486549381994115 -0.0049999771736796922 0 0.0026801896726248325 -0.0051802517443638634 0 0.0028587827938868389 -0.0051542450672429838 0 0.0026801896726248325 -0.0051802517443638634 0 0.0027258541875689601 -0.0053089349051499094 0 0.002544805236748277 -0.0051210282678315396 0 0.0026801896726248325 -0.0051802517443638634 0 0.0025574624238718954 -0.0053179081151213219 0 0.0025574624238718954 -0.0053179081151213219 0 0.0027258541875689601 -0.0053089349051499094 0 0.0026052441332634238 -0.0054314060867444074 0 0.0026801896726248325 -0.0051802517443638634 0 0.0025574624238718954 -0.0053179081151213219 0 0.0027258541875689601 -0.0053089349051499094 0 0.0024668079452896492 -0.0054036275741251695 0 0.0025574624238718954 -0.0053179081151213219 0 0.0026052441332634238 -0.0054314060867444074 0 0.0027258541875689601 -0.0053089349051499094 0 0.0028050835803357268 -0.0054300030955148505 0 0.0026052441332634238 -0.0054314060867444074 0 0.0028050835803357268 -0.0054300030955148505 0 0.0027010526842145659 -0.0055229355054755612 0 0.002828295844014088 -0.0056207234016823751 0 0.0028050835803357268 -0.0054300030955148505 0 0.0027010526842145659 -0.0055229355054755612 0 0.0026052441332634238 -0.0054314060867444074 0 0.002494488331964825 -0.0054860370410855144 0 0.0024668079452896492 -0.0054036275741251695 0 0.0026052441332634238 -0.0054314060867444074 0 0.0027010526842145659 -0.0055229355054755612 0 0.0026052441332634238 -0.0054314060867444074 0 0.0025807153017181929 -0.0055486581366000452 0 0.002494488331964825 -0.0054860370410855144 0 0.0026052441332634238 -0.0054314060867444074 0 0.0025807153017181929 -0.0055486581366000452 0 0.002494488331964825 -0.0054860370410855144 0 0.0024825658108519125 -0.0055709616027990044 0 0.0025807153017181929 -0.0055486581366000452 0 0.0024825658108519125 -0.0055709616027990044 0 0.0025807153017181929 -0.0055486581366000452 0 0.0025485847482063315 -0.005637243899979414 0 0.0025807153017181929 -0.0055486581366000452 0 0.0025485847482063315 -0.005637243899979414 0 0.0026558411019575326 -0.0056416499476291447 0 0.0025485847482063315 -0.005637243899979414 0 0.0025586708616302275 -0.0057206084989382512 0 0.0026558411019575326 -0.0056416499476291447 0 0.0024459024237957422 -0.0056911793310431792 0 0.0024825658108519125 -0.0055709616027990044 0 0.0025485847482063315 -0.005637243899979414 0 0.0025586708616302275 -0.0057206084989382512 0 0.0025047938644068442 -0.0058036962010096756 0 0.0027094406768524942 -0.0058109789687974915 0 0.0024459024237957422 -0.0056911793310431792 0 0.0025485847482063315 -0.005637243899979414 0 0.0025586708616302275 -0.0057206084989382512 0 0.0024459024237957422 -0.0056911793310431792 0 0.0025586708616302275 -0.0057206084989382512 0 0.0025047938644068442 -0.0058036962010096756 0 0.0026558411019575326 -0.0056416499476291447 0 0.002828295844014088 -0.0056207234016823751 0 0.0027094406768524942 -0.0058109789687974915 0 0.0027695498525503064 -0.0056920714621777222 0 0.0028899414426366891 -0.0057218630159761837 0 0.0025586708616302275 -0.0057206084989382512 0 0.0026558411019575326 -0.0056416499476291447 0 0.0027094406768524942 -0.0058109789687974915 0 0.0027010526842145659 -0.0055229355054755612 0 0.0026558411019575326 -0.0056416499476291447 0 0.002828295844014088 -0.0056207234016823751 0 0.0027010526842145659 -0.0055229355054755612 0 0.0025807153017181929 -0.0055486581366000452 0 0.0026558411019575326 -0.0056416499476291447 0 0.0029771857177698421 -0.0055031227069245407 0 0.002828295844014088 -0.0056207234016823751 0 0.0029711840602139983 -0.0057348143411146274 0 0.0036908736984807462 -0.0054067188265490371 0 0.0037609485730213336 -0.0053321504641045871 0 0.0038385223357524805 -0.0053772995557519083 0 0.0032272282536097907 -0.0055947649278935982 0 0.0029771857177698421 -0.0055031227069245407 0 0.0029711840602139983 -0.0057348143411146274 0 0.0034419242051154258 -0.005503528081113044 0 0.0035030788944998533 -0.005513932849087585 0 0.0037609485730213336 -0.0053321504641045871 0 0.0038385223357524805 -0.0053772995557519083 0 0.0038810164952596407 -0.0052884211835996725 0 0.0038385223357524805 -0.0053772995557519083 0 0.0038810164952596407 -0.0052884211835996725 0 0.0040026483816098446 -0.005311877232749538 0 0.0035030788944998533 -0.005513932849087585 0 0.0028899414426366891 -0.0057218630159761837 0 0.002828295844014088 -0.0056207234016823751 0 0.0029711840602139983 -0.0057348143411146274 0 0.0027266649236860926 -0.0058938242076177916 0 0.0038810164952596407 -0.0052884211835996725 0 0.0039605144535484705 -0.0051632764082547647 0 0.0040026483816098446 -0.005311877232749538 0 0.0037609485730213336 -0.0053321504641045871 0 0.0038810164952596407 -0.0052884211835996725 0 0.0037973041946433154 -0.0052537146856919221 0 0.0038810164952596407 -0.0052884211835996725 0 0.0037973041946433154 -0.0052537146856919221 0 0.0038217529066670516 -0.0050762415521444322 0 0.0038111024671737114 -0.0052338962038584536 0 0.0039064443511912864 -0.0050422610151312827 0 0.0037973041946433154 -0.0052537146856919221 0 0.0039996350978100288 -0.0050212961511260836 0 0.0037793894060512766 -0.0049997930725018038 0 0.0038810164952596407 -0.0052884211835996725 0 0.0038217529066670516 -0.0050762415521444322 0 0.0039605144535484705 -0.0051632764082547647 0 0.0038217529066670516 -0.0050762415521444322 0 0.0039605144535484705 -0.0051632764082547647 0 0.003975362135930376 -0.0050139562820857532 0 0.0039605144535484705 -0.0051632764082547647 0 0.0041354405667360017 -0.0050922786018651337 0 0.003975362135930376 -0.0050139562820857532 0 0.0020642853888144107 -0.0060711796552669704 0 0.0020033605839016528 -0.0061102233833136947 0 0.0020351872435006814 -0.0061528328448966418 0 0.0025279837808011999 -0.0059017566466829079 0 0.0025047938644068442 -0.0058036962010096756 0 0.0027094406768524942 -0.0058109789687974915 0 0.0021830510996246047 -0.0060885473319591482 0 0.0028899414426366891 -0.0057218630159761837 0 0.0020033605839016528 -0.0061102233833136947 0 0.0020351872435006814 -0.0061528328448966418 0 0.0020125090743574859 -0.0061694384821874065 0 0.0039605144535484705 -0.0051632764082547647 0 0.0041354405667360017 -0.0050922786018651337 0 0.0040026483816098446 -0.005311877232749538 0 0.00308525945829582 -0.0055927806437645706 0 0.0028899414426366891 -0.0057218630159761837 0 0.0041259474837496909 -0.0046876901938307384 0 0.004089054353678432 -0.0048830480192228526 0 0.0038855676134394767 -0.0048193575160484607 0 0.0041259474837496909 -0.0046876901938307384 0 0.0038855676134394767 -0.0048193575160484607 0 0.0040030737281480117 -0.004516586265112494 0 0.0041259474837496909 -0.0046876901938307384 0 0.0043044334127116408 -0.0047637242418529123 0 0.004089054353678432 -0.0048830480192228526 0 0.0041259474837496909 -0.0046876901938307384 0 0.0043044334127116408 -0.0047637242418529123 0 0.0042230056425324753 -0.0045101726853362875 0 0.00308525945829582 -0.0055927806437645706 0 0.0031098261156433148 -0.005331599594874014 0 0.0041354405667360017 -0.0050922786018651337 0 0.0043044334127116408 -0.0047637242418529123 0 0.004089054353678432 -0.0048830480192228526 0 0.0020642853888144107 -0.0060711796552669704 0 0.0020033605839016528 -0.0061102233833136947 0 0.0019223082133545146 -0.0059239382000038157 0 0.0041354405667360017 -0.0050922786018651337 0 0.004089054353678432 -0.0048830480192228526 0 0.003975362135930376 -0.0050139562820857532 0 0.004089054353678432 -0.0048830480192228526 0 0.003975362135930376 -0.0050139562820857532 0 0.0038855676134394767 -0.0048193575160484607 0 0.0039064443511912864 -0.0050422610151312827 0 0.0040031551657561896 -0.0047497103114487477 0 0.0038217529066670516 -0.0050762415521444322 0 0.003975362135930376 -0.0050139562820857532 0 0.0038855676134394767 -0.0048193575160484607 0 0.0039996350978100288 -0.0050212961511260836 0 0.0037897244661548651 -0.0046761987922952428 0 0.0037793894060512766 -0.0049997930725018038 0 0.0039996350978100288 -0.0050212961511260836 0 0.0041247955575987698 -0.0046764465648782994 0 0.0037897244661548651 -0.0046761987922952428 0 0.0041247955575987698 -0.0046764465648782994 0 0.0039469702941541005 -0.0043731803159529079 0 0.0037897244661548651 -0.0046761987922952428 0 0.0040031551657561896 -0.0047497103114487477 0 0.0040869925790612913 -0.0044541048770341844 0 0.0041247955575987698 -0.0046764465648782994 0 0.0039469702941541005 -0.0043731803159529079 0 0.0041661712265556169 -0.0043850301800392403 0 0.0039469702941541005 -0.0043731803159529079 0 0.0039760608853660027 -0.0041496066357995321 0 0.0041661712265556169 -0.0043850301800392403 0 0.0039469702941541005 -0.0043731803159529079 0 0.0037730621110767604 -0.0043763451857829145 0 0.0037897244661548651 -0.0046761987922952428 0 0.0039469702941541005 -0.0043731803159529079 0 0.0038016070477907295 -0.0041372071415490255 0 0.0037730621110767604 -0.0043763451857829145 0 0.0039469702941541005 -0.0043731803159529079 0 0.0039760608853660027 -0.0041496066357995321 0 0.0038016070477907295 -0.0041372071415490255 0 0.0039760608853660027 -0.0041496066357995321 0 0.0041784495267229611 -0.0042054176799026892 0 0.0041661712265556169 -0.0043850301800392403 0 0.0041724631923939839 -0.0042280419838567375 0 0.0040869925790612913 -0.0044541048770341844 0 0.0041784495267229611 -0.0042054176799026892 0 0.0040030737281480117 -0.004516586265112494 0 0.0042230056425324753 -0.0045101726853362875 0 0.0041259474837496909 -0.0046876901938307384 0 0.0040030737281480117 -0.004516586265112494 0 0.0042230056425324753 -0.0045101726853362875 0 0.0044407043520286425 -0.0043762963712285904 0 0.0043044334127116408 -0.0047637242418529123 0 0.0042230056425324753 -0.0045101726853362875 0 0.0044407043520286425 -0.0043762963712285904 0 0.0041784495267229611 -0.0042054176799026892 0 0.0043505813047457461 -0.0041501146520596275 0 0.0044407043520286425 -0.0043762963712285904 0 0.0041784495267229611 -0.0042054176799026892 0 0.0042230056425324753 -0.0045101726853362875 0 0.0043505813047457461 -0.0041501146520596275 0 0.0041019663860418299 -0.0040433371169755969 0 0.0043165695364675623 -0.0039604704205554253 0 0.0041784495267229611 -0.0042054176799026892 0 0.0043505813047457461 -0.0041501146520596275 0 0.0041019663860418299 -0.0040433371169755969 0 0.0039760608853660027 -0.0041496066357995321 0 0.0041784495267229611 -0.0042054176799026892 0 0.0041019663860418299 -0.0040433371169755969 0 0.0041019663860418299 -0.0040433371169755969 0 0.0041010650618028303 -0.00387389413424559 0 0.0039347168059196309 -0.0039700339645150481 0 0.0041019663860418299 -0.0040433371169755969 0 0.0041010650618028303 -0.00387389413424559 0 0.0043165695364675623 -0.0039604704205554253 0 0.0038909854566275175 -0.0038206535468790553 0 0.0040805096950125653 -0.003884248890537336 0 0.0037155186747453183 -0.0037706043529049035 0 0.003635936391165807 -0.0037770369320899188 0 0.0036478067446623816 -0.0038285615380787849 0 0.0037155186747453183 -0.0037706043529049035 0 0.0036478067446623816 -0.0038285615380787849 0 0.0037398695607994666 -0.0038301032947683487 0 0.0037155186747453183 -0.0037706043529049035 0 0.0037398695607994666 -0.0038301032947683487 0 0.0038593086736386437 -0.003817494533922453 0 0.0037398695607994666 -0.0038301032947683487 0 0.0036693610812784509 -0.0038429356257028533 0 0.0037753505993492376 -0.0038636255957566505 0 0.0036317283541403012 -0.0038421225560927598 0 0.0036693610812784509 -0.0038429356257028533 0 0.003635176688304733 -0.0038387545742740205 0 0.0036478067446623816 -0.0038285615380787849 0 0.0037398695607994666 -0.0038301032947683487 0 0.0036693610812784509 -0.0038429356257028533 0 0.0036317283541403012 -0.0038421225560927598 0 0.0036478067446623816 -0.0038285615380787849 0 0.0036693610812784509 -0.0038429356257028533 0 0.003610064595945389 -0.0038425776070686959 0 0.0036317283541403012 -0.0038421225560927598 0 0.0036478067446623816 -0.0038285615380787849 0 0.0035948237662429519 -0.0037908554570951335 0 0.003645116451682352 -0.0037662860902009619 0 0.003819734851343549 -0.0038177832289576622 0 0.0038593086736386437 -0.003817494533922453 0 0.0037753505993492376 -0.0038636255957566505 0 0.0037398695607994666 -0.0038301032947683487 0 0.0038593086736386437 -0.003817494533922453 0 0.0037753505993492376 -0.0038636255957566505 0 0.0038909854566275175 -0.0038206535468790553 0 0.0038755275564187749 -0.0038198580406160298 0 0.003819734851343549 -0.0038177832289576622 0 0.0038593086736386437 -0.003817494533922453 0 0.0037938334699191526 -0.0038612891871187397 0 0.0038593086736386437 -0.003817494533922453 0 0.0039347168059196309 -0.0039700339645150481 0 0.0037938334699191526 -0.0038612891871187397 0 0.0039347168059196309 -0.0039700339645150481 0 0.0038064379430792295 -0.0039807328554564963 0 0.0037938334699191526 -0.0038612891871187397 0 0.0041010650618028303 -0.00387389413424559 0 0.0038593086736386437 -0.003817494533922453 0 0.0039347168059196309 -0.0039700339645150481 0 0.0039760608853660027 -0.0041496066357995321 0 0.0041019663860418299 -0.0040433371169755969 0 0.0039347168059196309 -0.0039700339645150481 0 0.0039760608853660027 -0.0041496066357995321 0 0.0039347168059196309 -0.0039700339645150481 0 0.0038064379430792295 -0.0039807328554564963 0 0.0039760608853660027 -0.0041496066357995321 0 0.0038064379430792295 -0.0039807328554564963 0 0.0038016070477907295 -0.0041372071415490255 0 0.0036967727485986038 -0.0040021851899542937 0 0.0038064379430792295 -0.0039807328554564963 0 0.0038016070477907295 -0.0041372071415490255 0 0.0036967727485986038 -0.0040021851899542937 0 0.0036856956269272424 -0.0039275020464410535 0 0.0036672558040661447 -0.0039539902902921064 0 0.0036967727485986038 -0.0040021851899542937 0 0.0037361717938077209 -0.0039188520657973229 0 0.0036856956269272424 -0.0039275020464410535 0 0.0037361717938077209 -0.0039188520657973229 0 0.0037293054152752144 -0.003843095494145824 0 0.0036856956269272424 -0.0039275020464410535 0 0.0036967727485986038 -0.0040021851899542937 0 0.0037361717938077209 -0.0039188520657973229 0 0.0038064379430792295 -0.0039807328554564963 0 0.0037361717938077209 -0.0039188520657973229 0 0.0038064379430792295 -0.0039807328554564963 0 0.0037938334699191526 -0.0038612891871187397 0 0.0037361717938077209 -0.0039188520657973229 0 0.0037938334699191526 -0.0038612891871187397 0 0.0037293054152752144 -0.003843095494145824 0 0.003819734851343549 -0.0038177832289576622 0 0.0037938334699191526 -0.0038612891871187397 0 0.0037293054152752144 -0.003843095494145824 0 0.0037722709440142373 -0.0035203497879769262 0 0.0036577438618777738 -0.0040408807599993275 0 0.0040269790713164909 -0.0027911972591485902 0 0.004065564190597306 -0.0028171672953120983 0 0.0040680777452592326 -0.0028255897543742838 0 0.0037676735510921858 -0.0038162002767524314 0 0.0036800919307783848 -0.0038636039040188092 0 0.0036856956269272424 -0.0039275020464410535 0 0.0037722709440142373 -0.0035203497879769262 0 0.0038771399632366067 -0.0035070289718142412 0 0.0040269790713164909 -0.0027911972591485902 0 0.0040921391313317153 -0.0028328568050950565 0 0.0040062916850242929 -0.0028797879952837235 0 0.0040269790713164909 -0.0027911972591485902 0 0.0040921391313317153 -0.0028328568050950565 0 0.004065564190597306 -0.0028171672953120983 0 0.0035948237662429519 -0.0037908554570951335 0 0.0037722709440142373 -0.0035203497879769262 0 0.0034612894786711771 -0.0036843983379983331 0 0.0034701562832068701 -0.0036768438568314556 0 0.0034580010337687682 -0.0036800025362101006 0 0.0040269790713164909 -0.0027911972591485902 0 0.0039077188884450243 -0.0028725318963138346 0 0.0040062916850242929 -0.0028797879952837235 0 0.0037722709440142373 -0.0035203497879769262 0 0.003690996121740077 -0.0032241268338210182 0 0.0040253700216321903 -0.0028013126676570614 0 0.0040598281977374572 -0.0028255029818451067 0 0.0040256150730563958 -0.0028415311386532369 0 0.0040253700216321903 -0.0028013126676570614 0 0.0040921391313317153 -0.0028328568050950565 0 0.0040598281977374572 -0.0028255029818451067 0 0.0040921391313317153 -0.0028328568050950565 0 0.004065564190597306 -0.0028171672953120983 0 0.0040598281977374572 -0.0028255029818451067 0 0.0040598281977374572 -0.0028255029818451067 0 0.0040680777452592326 -0.0028255897543742838 0 0.0040256150730563958 -0.0028415311386532369 0 0.0036868841858674955 -0.0038673358883784558 0 0.0036789123958469723 -0.003869349032404744 0 0.0036727618864226233 -0.00381530473040766 0 0.004065564190597306 -0.0028171672953120983 0 0.0040598281977374572 -0.0028255029818451067 0 0.0040680777452592326 -0.0028255897543742838 0 0.0036800919307783848 -0.0038636039040188092 0 0.0036798193886545157 -0.0038734869754178574 0 0.0036789123958469723 -0.003869349032404744 0 0.0038771399632366067 -0.0035070289718142412 0 0.0036744934307556417 -0.0036938255123185998 0 0.0036727618864226233 -0.00381530473040766 0 0.0036712112583128348 -0.0038667587865626198 0 0.0036703739703908959 -0.0038479084263619047 0 0.0036789123958469723 -0.003869349032404744 0 0.0036727618864226233 -0.00381530473040766 0 0.0036712112583128348 -0.0038667587865626198 0 0.0038771399632366067 -0.0035070289718142412 0 0.0038403741374680241 -0.0033108044222135823 0 0.0036712112583128348 -0.0038667587865626198 0 0.0036656213907009698 -0.0039046744016838966 0 0.0036703739703908959 -0.0038479084263619047 0 0.0036712112583128348 -0.0038667587865626198 0 0.0036656213907009698 -0.0039046744016838966 0 0.0036727724113379315 -0.0039056900321679188 0 0.0036656213907009698 -0.0039046744016838966 0 0.0036702066396734393 -0.0038815776646706052 0 0.0036703739703908959 -0.0038479084263619047 0 0.0036800919307783848 -0.0038636039040188092 0 0.0036799917803059449 -0.0038947815624515172 0 0.0036856956269272424 -0.0039275020464410535 0 0.0036800919307783848 -0.0038636039040188092 0 0.0036798193886545157 -0.0038734869754178574 0 0.0036799917803059449 -0.0038947815624515172 0 0.0036789123958469723 -0.003869349032404744 0 0.0036712112583128348 -0.0038667587865626198 0 0.0036727724113379315 -0.0039056900321679188 0 0.0036789123958469723 -0.003869349032404744 0 0.0036799917803059449 -0.0038947815624515172 0 0.0036727724113379315 -0.0039056900321679188 0 0.0036798193886545157 -0.0038734869754178574 0 0.0036789123958469723 -0.003869349032404744 0 0.0036799917803059449 -0.0038947815624515172 0 0.0036656213907009698 -0.0039046744016838966 0 0.0036727724113379315 -0.0039056900321679188 0 0.0036672558040661447 -0.0039539902902921064 0 0.0036727724113379315 -0.0039056900321679188 0 0.0036856956269272424 -0.0039275020464410535 0 0.0036672558040661447 -0.0039539902902921064 0 0.0036799917803059449 -0.0038947815624515172 0 0.0036727724113379315 -0.0039056900321679188 0 0.0036856956269272424 -0.0039275020464410535 0 0.0036967727485986038 -0.0040021851899542937 0 0.0036672558040661447 -0.0039539902902921064 0 0.0036638842430810905 -0.0040191039704964788 0 0.0036672558040661447 -0.0039539902902921064 0 0.0036532201668282257 -0.0039473139245266419 0 0.0036638842430810905 -0.0040191039704964788 0 0.0036656213907009698 -0.0039046744016838966 0 0.0036532201668282257 -0.0039473139245266419 0 0.0036702066396734393 -0.0038815776646706052 0 0.0036656213907009698 -0.0039046744016838966 0 0.0036672558040661447 -0.0039539902902921064 0 0.0036532201668282257 -0.0039473139245266419 0 0.0036456959293488383 -0.0039986297364618681 0 0.0036627380398082765 -0.0038564937040271433 0 0.0036532201668282257 -0.0039473139245266419 0 0.0036237889817269078 -0.0040430656000720972 0 0.0036630459216950824 -0.0040291195261473187 0 0.0036237889817269078 -0.0040430656000720972 0 0.0036640898398984127 -0.004051494991191223 0 0.0036630459216950824 -0.0040291195261473187 0 0.0036237889817269078 -0.0040430656000720972 0 0.0036640898398984127 -0.004051494991191223 0 0.0036156965204650273 -0.0040933350779442049 0 0.0036627380398082765 -0.0038564937040271433 0 0.0036171356890870462 -0.0046532621768305259 0 0.0036640898398984127 -0.004051494991191223 0 0.0036630459216950824 -0.0040291195261473187 0 0.003652785779402696 -0.0041482978658381525 0 0.0036630459216950824 -0.0040291195261473187 0 0.0036638842430810905 -0.0040191039704964788 0 0.003652785779402696 -0.0041482978658381525 0 0.0036532201668282257 -0.0039473139245266419 0 0.0036630459216950824 -0.0040291195261473187 0 0.0036638842430810905 -0.0040191039704964788 0 0.0036967727485986038 -0.0040021851899542937 0 0.0036638842430810905 -0.0040191039704964788 0 0.003652785779402696 -0.0041482978658381525 0 0.0036967727485986038 -0.0040021851899542937 0 0.003652785779402696 -0.0041482978658381525 0 0.0038016070477907295 -0.0041372071415490255 0 0.003652785779402696 -0.0041482978658381525 0 0.0038016070477907295 -0.0041372071415490255 0 0.0037730621110767604 -0.0043763451857829145 0 0.003652785779402696 -0.0041482978658381525 0 0.0037730621110767604 -0.0043763451857829145 0 0.0035166313661089961 -0.0046761254357934948 0 0.0032297167605447462 -0.004412671356450292 0 0.003652785779402696 -0.0041482978658381525 0 0.0035166313661089961 -0.0046761254357934948 0 0.0033886639957182575 -0.0042115776580391919 0 0.0036635533305892161 -0.0041469032941062597 0 0.0037730621110767604 -0.0043763451857829145 0 0.0035166313661089961 -0.0046761254357934948 0 0.0037897244661548651 -0.0046761987922952428 0 0.0035166313661089961 -0.0046761254357934948 0 0.0037897244661548651 -0.0046761987922952428 0 0.0037793894060512766 -0.0049997930725018038 0 0.0035993862222049255 -0.0051726159283468345 0 0.0035166313661089961 -0.0046761254357934948 0 0.0037793894060512766 -0.0049997930725018038 0 0.0035993862222049255 -0.0051726159283468345 0 0.0035166313661089961 -0.0046761254357934948 0 0.0032024081103311044 -0.0049288766654461543 0 0.0036156933016898659 -0.0051901390568017689 0 0.0033711249101167746 -0.0051031023701381788 0 0.0033711249101167746 -0.0051031023701381788 0 0.0035938508200313878 -0.0050398816785484539 0 0.0036566092630131294 -0.0053208187725266344 0 0.0036717722185834224 -0.0053336209146885765 0 0.003678508074574613 -0.0053469879534886657 0 0.0032024081103311044 -0.0049288766654461543 0 0.0031205684165017582 -0.0046790592357023545 0 0.0028477262409644 -0.0047057942582268229 0 0.0036907575165172147 -0.0053433340203334154 0 0.0036717722185834224 -0.0053336209146885765 0 0.003678508074574613 -0.0053469879534886657 0 0.0031205684165017582 -0.0046790592357023545 0 0.0028528997447704822 -0.0046683064424063534 0 0.0028477262409644 -0.0047057942582268229 0 0.0033886639957182575 -0.0042115776580391919 0 0.0036171356890870462 -0.0046532621768305259 0 0.0032297167605447462 -0.004412671356450292 0 0.0031205684165017582 -0.0046790592357023545 0 0.0028528997447704822 -0.0046683064424063534 0 0.0032297167605447462 -0.004412671356450292 0 0.0035166313661089961 -0.0046761254357934948 0 0.0031205684165017582 -0.0046790592357023545 0 0.0035166313661089961 -0.0046761254357934948 0 0.0032024081103311044 -0.0049288766654461543 0 0.0031205684165017582 -0.0046790592357023545 0 0.0044985421198335731 -0.0052862413496392244 0 0.0044819643469634161 -0.0052554416051388267 0 0.0045192553576323688 -0.0052488987614094885 0 0.0045209367622695736 -0.0052831753343311524 0 0.0044985421198335731 -0.0052862413496392244 0 0.0045192553576323688 -0.0052488987614094885 0 0.0045209367622695736 -0.0052831753343311524 0 0.0045515807975601875 -0.0052750941561984198 0 0.0045192553576323688 -0.0052488987614094885 0 0.0036777388285710467 -0.0039356999867261452 0 0.0036727814589661715 -0.0039270409581675285 0 0.0036751739405855815 -0.0039255661630820558 0 0.0037516678940518857 -0.0049661651989108737 0 0.0041795624020327573 -0.0046135188371378465 0 0.0036789715775062716 -0.0039345603010094146 0 0.0036777388285710467 -0.0039356999867261452 0 0.0036751739405855815 -0.0039255661630820558 0 0.0037261025305029651 -0.005876411023080853 0 0.0037117699632106113 -0.0058675149736087152 0 0.00378236603120775 -0.0057882586508968209 0 0.0036171356890870462 -0.0046532621768305259 0 0.0035938508200313878 -0.0050398816785484539 0 0.0034334532355735701 -0.0049609825772743785 0 0.003537227933378555 -0.0048945116993950218 0 0.0034501177609948556 -0.0048425278099436227 0 0.0037516678940518857 -0.0049661651989108737 0 0.0035938508200313878 -0.0050398816785484539 0 0.0036171356890870462 -0.0046532621768305259 0 0.0037516678940518857 -0.0049661651989108737 0 0.0037357525955319269 -0.0056641868467400235 0 0.0037117699632106113 -0.0058675149736087152 0 0.00378236603120775 -0.0057882586508968209 0 0.0037143850108720573 -0.0056187273772546672 0 0.0035938508200313878 -0.0050398816785484539 0 0.0037516678940518857 -0.0049661651989108737 0 0.0042857964612807017 -0.0056120316504048584 0 0.0037357525955319269 -0.0056641868467400235 0 0.00378236603120775 -0.0057882586508968209 0 0.0039571063034789878 -0.0057445131031453409 0 0.0037261025305029651 -0.005876411023080853 0 0.00378236603120775 -0.0057882586508968209 0 0.0039571063034789878 -0.0057445131031453409 0 0.0045209367622695736 -0.0052831753343311524 0 0.0045515807975601875 -0.0052750941561984198 0 0.0045140217238587481 -0.0053178128430116014 0 0.0045209367622695736 -0.0052831753343311524 0 0.0045140217238587481 -0.0053178128430116014 0 0.0044985421198335731 -0.0052862413496392244 0 0.0044670499344054721 -0.0053786846269572039 0 0.0045140217238587481 -0.0053178128430116014 0 0.0044817796103273737 -0.005319373500284952 0 0.0044817796103273737 -0.005319373500284952 0 0.0044583953238408426 -0.0053246829509540749 0 0.0044676967652906704 -0.0052929753630151745 0 0.0044817796103273737 -0.005319373500284952 0 0.0044676967652906704 -0.0052929753630151745 0 0.0044985421198335731 -0.0052862413496392244 0 0.0045140217238587481 -0.0053178128430116014 0 0.0044817796103273737 -0.005319373500284952 0 0.0044985421198335731 -0.0052862413496392244 0 0.0044670499344054721 -0.0053786846269572039 0 0.0044817796103273737 -0.005319373500284952 0 0.0044583953238408426 -0.0053246829509540749 0 0.0044583953238408426 -0.0053246829509540749 0 0.0044431803543796607 -0.0052939281840856849 0 0.0044676967652906704 -0.0052929753630151745 0 0.0044380144198346381 -0.0053486297794970022 0 0.0044583953238408426 -0.0053246829509540749 0 0.0044431803543796607 -0.0052939281840856849 0 0.0044431803543796607 -0.0052939281840856849 0 0.0044676967652906704 -0.0052929753630151745 0 0.0044568672573635851 -0.0052153295721712118 0 0.0044431803543796607 -0.0052939281840856849 0 0.0044191413196129816 -0.0052435435883455327 0 0.0044568672573635851 -0.0052153295721712118 0 0.0045328614047635092 -0.0055335703391447893 0 0.0042078186299804535 -0.0045825222347076529 0 0.0045263630524556763 -0.0053719021876403802 0 0.0044872948303788344 -0.0047229307540288066 0 0.0044431803543796607 -0.0052939281840856849 0 0.0044267047987740183 -0.0052456673599532528 0 0.0044141714250423379 -0.0052555717170512497 0 0.0044676967652906704 -0.0052929753630151745 0 0.0044819643469634161 -0.0052554416051388267 0 0.0044422919967067416 -0.005229972140946052 0 0.0044676967652906704 -0.0052929753630151745 0 0.0044985421198335731 -0.0052862413496392244 0 0.0044819643469634161 -0.0052554416051388267 0 0.0044819643469634161 -0.0052554416051388267 0 0.0044706405399063467 -0.0052081151274404446 0 0.0045192553576323688 -0.0052488987614094885 0 0.0039217337672046194 -0.0042066289355224863 0 0.0041795624020327573 -0.0046135188371378465 0 0.0044819643469634161 -0.0052554416051388267 0 0.0044706405399063467 -0.0052081151274404446 0 0.0044422919967067416 -0.005229972140946052 0 0.0036598017423033124 -0.003933071204531245 0 0.0036196249300361771 -0.0039625072363087136 0 0.003632716716595253 -0.0039167476658449963 0 0.0039217337672046194 -0.0042066289355224863 0 0.0042078186299804535 -0.0045825222347076529 0 0.0039217337672046194 -0.0042066289355224863 0 0.003654359138840262 -0.0040025502754521452 0 0.0042078186299804535 -0.0045825222347076529 0 0.0040547511341571382 -0.0036991138032125156 0 0.0036196249300361771 -0.0039625072363087136 0 0.0036045358056780142 -0.0038991592019189105 0 0.003632716716595253 -0.0039167476658449963 0 0.0046296879438786093 -0.0040602945630471565 0 0.0043492764860456829 -0.0039554650177195342 0 0.0045115873397547721 -0.0035521260666375593 0 0.0044872948303788344 -0.0047229307540288066 0 0.0042078186299804535 -0.0045825222347076529 0 0.0042969183593598703 -0.0043030542617112843 0 0.0046296879438786093 -0.0040602945630471565 0 0.0042532961286855485 -0.0042059261410208769 0 0.0046296879438786093 -0.0040602945630471565 0 0.0043492764860456829 -0.0039554650177195342 0 0.0042532961286855485 -0.0042059261410208769 0 0.0044384711514238234 -0.0040877423467879101 0 0.0044987206790673816 -0.004269599150811312 0 0.0043492764860456829 -0.0039554650177195342 0 0.0045115873397547721 -0.0035521260666375593 0 0.0040556840806513905 -0.0037567249803079077 0 0.0045115873397547721 -0.0035521260666375593 0 0.0043939140875371282 -0.0030468031063048801 0 0.0040556840806513905 -0.0037567249803079077 0 0.0036045358056780142 -0.0038991592019189105 0 0.0036254560164861497 -0.0038846407393324524 0 0.0035886330127169941 -0.003842986089176392 0 0.0040547511341571382 -0.0036991138032125156 0 0.0041300038286451674 -0.0029951439137050162 0 0.0036045358056780142 -0.0038991592019189105 0 0.003632716716595253 -0.0039167476658449963 0 0.0036254560164861497 -0.0038846407393324524 0 0.0039217337672046194 -0.0042066289355224863 0 0.0036293382503040849 -0.0038774811383840845 0 0.0036484504740310723 -0.003897959281156437 0 0.0036711502945314372 -0.0038993201857287045 0 0.0036477752038821401 -0.0038623067768078028 0 0.0036458751742269881 -0.0039199439071011186 0 0.0036484504740310723 -0.003897959281156437 0 0.0036711502945314372 -0.0038993201857287045 0 0.003632716716595253 -0.0039167476658449963 0 0.0036254560164861497 -0.0038846407393324524 0 0.0036484504740310723 -0.003897959281156437 0 0.0036458751742269881 -0.0039199439071011186 0 0.003632716716595253 -0.0039167476658449963 0 0.0036484504740310723 -0.003897959281156437 0 0.0036254560164861497 -0.0038846407393324524 0 0.0036484504740310723 -0.003897959281156437 0 0.0036477752038821401 -0.0038623067768078028 0 0.0036571192991636469 -0.0039187055815419324 0 0.0036711502945314372 -0.0038993201857287045 0 0.0036696158735465452 -0.0039157300454639322 0 0.0036711502945314372 -0.0038993201857287045 0 0.0036765361908869866 -0.0039151894627982766 0 0.003671047166718071 -0.0039068519231149866 0 0.0036711502945314372 -0.0038993201857287045 0 0.0036696158735465452 -0.0039157300454639322 0 0.0036765361908869866 -0.0039151894627982766 0 0.0036571192991636469 -0.0039187055815419324 0 0.0036696158735465452 -0.0039157300454639322 0 0.0036727814589661715 -0.0039270409581675285 0 0.0036696158735465452 -0.0039157300454639322 0 0.0036727814589661715 -0.0039270409581675285 0 0.0036765361908869866 -0.0039151894627982766 0 0.0036698844052493623 -0.0039192077368328648 0 0.0036789715775062716 -0.0039345603010094146 0 0.0036751739405855815 -0.0039255661630820558 0 0.0036727814589661715 -0.0039270409581675285 0 0.0036751739405855815 -0.0039255661630820558 0 0.0036765361908869866 -0.0039151894627982766 0 0.0036698844052493623 -0.0039192077368328648 0 0.0036751739405855815 -0.0039255661630820558 0 0.0036765361908869866 -0.0039151894627982766 0 0.0036532201668282257 -0.0039473139245266419 0 0.0036765361908869866 -0.0039151894627982766 0 0.003671047166718071 -0.0039068519231149866 0 0.0036532201668282257 -0.0039473139245266419 0 0.0036698844052493623 -0.0039192077368328648 0 0.0036765361908869866 -0.0039151894627982766 0 0.0036702066396734393 -0.0038815776646706052 0 0.0036739360042263424 -0.0038625405414052108 0 0.0036799363873330896 -0.003819002438468362 0 0.0036532201668282257 -0.0039473139245266419 0 0.003671047166718071 -0.0039068519231149866 0 0.0036702066396734393 -0.0038815776646706052 0 0.003671047166718071 -0.0039068519231149866 0 0.0036702066396734393 -0.0038815776646706052 0 0.0036739360042263424 -0.0038625405414052108 0 0.0036711502945314372 -0.0038993201857287045 0 0.0036739360042263424 -0.0038625405414052108 0 0.0036477752038821401 -0.0038623067768078028 0 0.0036711502945314372 -0.0038993201857287045 0 0.003671047166718071 -0.0039068519231149866 0 0.0036739360042263424 -0.0038625405414052108 0 0.0036799363873330896 -0.003819002438468362 0 0.0037017639854457374 -0.0037368139912033705 0 0.0036694724665017253 -0.0037918653477490519 0 0.0036799363873330896 -0.003819002438468362 0 0.0037017639854457374 -0.0037368139912033705 0 0.0036701989762174731 -0.0038120270087229338 0 0.0036739360042263424 -0.0038625405414052108 0 0.0036799363873330896 -0.003819002438468362 0 0.0036701989762174731 -0.0038120270087229338 0 0.0036799363873330896 -0.003819002438468362 0 0.0036703739703908959 -0.0038479084263619047 0 0.0036694724665017253 -0.0037918653477490519 0 0.0036702066396734393 -0.0038815776646706052 0 0.0036799363873330896 -0.003819002438468362 0 0.0036703739703908959 -0.0038479084263619047 0 0.0036727618864226233 -0.00381530473040766 0 0.0036694724665017253 -0.0037918653477490519 0 0.003658804323157577 -0.0037724714834254532 0 0.0036727618864226233 -0.00381530473040766 0 0.0036703739703908959 -0.0038479084263619047 0 0.0036694724665017253 -0.0037918653477490519 0 0.0036694724665017253 -0.0037918653477490519 0 0.0036919784555031676 -0.0037249429142453675 0 0.003658804323157577 -0.0037724714834254532 0 0.0037017639854457374 -0.0037368139912033705 0 0.0036694724665017253 -0.0037918653477490519 0 0.0036919784555031676 -0.0037249429142453675 0 0.0036919784555031676 -0.0037249429142453675 0 0.003658804323157577 -0.0037724714834254532 0 0.0037462538074288401 -0.003821908726796404 0 0.0038098740384419003 -0.0032751782351144398 0 0.0038062044303328771 -0.0035851766639466163 0 0.0039651749720187564 -0.0028205065255146461 0 0.0039208719979929134 -0.0027950608956036735 0 0.003980905510439634 -0.0027673575563146829 0 0.0040253700216321903 -0.0028013126676570614 0 0.0040256150730563958 -0.0028415311386532369 0 0.0039651749720187564 -0.0028205065255146461 0 0.0040253700216321903 -0.0028013126676570614 0 0.0039651749720187564 -0.0028205065255146461 0 0.003980905510439634 -0.0027673575563146829 0 0.0038403741374680241 -0.0033108044222135823 0 0.0038098740384419003 -0.0032751782351144398 0 0.003987382871344103 -0.0038425752342201498 0 0.0038234817110818576 -0.0037219699786675341 0 0.0040963929550740571 -0.0035716096322512218 0 0.003987382871344103 -0.0038425752342201498 0 0.0040963929550740571 -0.0035716096322512218 0 0.0043859854090685813 -0.0038026965017455066 0 0.003987382871344103 -0.0038425752342201498 0 0.0043859854090685813 -0.0038026965017455066 0 0.0041154244465657084 -0.0041001058978511595 0 0.003987382871344103 -0.0038425752342201498 0 0.0037717595482457495 -0.0039518814392664695 0 0.0041154244465657084 -0.0041001058978511595 0 0.003658804323157577 -0.0037724714834254532 0 0.0037516465497024728 -0.0038485929259292522 0 0.0037462538074288401 -0.003821908726796404 0 0.0039651749720187564 -0.0028205065255146461 0 0.0039128761102428435 -0.0027946525991484486 0 0.0039208719979929134 -0.0027950608956036735 0 0.003987382871344103 -0.0038425752342201498 0 0.0037717595482457495 -0.0039518814392664695 0 0.0037462538074288401 -0.003821908726796404 0 0.0038062044303328771 -0.0035851766639466163 0 0.003816110221934059 -0.0037519485809259312 0 0.0036919784555031676 -0.0037249429142453675 0 0.0037462538074288401 -0.003821908726796404 0 0.0038234817110818576 -0.0037219699786675341 0 0.003987382871344103 -0.0038425752342201498 0 0.0037462538074288401 -0.003821908726796404 0 0.0038234817110818576 -0.0037219699786675341 0 0.0037017639854457374 -0.0037368139912033705 0 0.0037380390091172663 -0.0036123007290044971 0 0.0036208628050296262 -0.0037721757675167104 0 0.0036919784555031676 -0.0037249429142453675 0 0.0038234817110818576 -0.0037219699786675341 0 0.0037380390091172663 -0.0036123007290044971 0 0.0037478363946809303 -0.0035686127313208377 0 0.0037766315490358219 -0.0034577138770760397 0 0.0037017639854457374 -0.0037368139912033705 0 0.0036919784555031676 -0.0037249429142453675 0 0.0037380390091172663 -0.0036123007290044971 0 0.0037380390091172663 -0.0036123007290044971 0 0.0040963929550740571 -0.0035716096322512218 0 0.0039851396660718682 -0.0030254031596848151 0 0.0040963929550740571 -0.0035716096322512218 0 0.0039851396660718682 -0.0030254031596848151 0 0.0043725576025352682 -0.0032593876097015547 0 0.0040963929550740571 -0.0035716096322512218 0 0.0043725576025352682 -0.0032593876097015547 0 0.0043859854090685813 -0.0038026965017455066 0 0.0038234817110818576 -0.0037219699786675341 0 0.0037380390091172663 -0.0036123007290044971 0 0.0040963929550740571 -0.0035716096322512218 0 0.0041300038286451674 -0.0029951439137050162 0 0.0043727384316177625 -0.0030501195676473588 0 0.0039851396660718682 -0.0030254031596848151 0 0.0041906283661776161 -0.0026011165726572767 0 0.0043725576025352682 -0.0032593876097015547 0 0.0037017639854457374 -0.0037368139912033705 0 0.0036208628050296262 -0.0037721757675167104 0 0.0036701989762174731 -0.0038120270087229338 0 0.0036739360042263424 -0.0038625405414052108 0 0.0036701989762174731 -0.0038120270087229338 0 0.0036477752038821401 -0.0038623067768078028 0 0.0036208628050296262 -0.0037721757675167104 0 0.0036701989762174731 -0.0038120270087229338 0 0.0036477752038821401 -0.0038623067768078028 0 0.0036254560164861497 -0.0038846407393324524 0 0.0036477752038821401 -0.0038623067768078028 0 0.0035886330127169941 -0.003842986089176392 0 0.0037766315490358219 -0.0034577138770760397 0 0.0041300038286451674 -0.0029951439137050162 0 0.0036208628050296262 -0.0037721757675167104 0 0.0036477752038821401 -0.0038623067768078028 0 0.0035886330127169941 -0.003842986089176392 0 0.0042390335340161452 -0.0025162473740050597 0 0.0047809340430687245 -0.0025336384445657054 0 0.0047013401442643444 -0.0029248565345775545 0 0.0052534424129060259 -0.0030025557624220873 0 0.0051535547997598481 -0.0029794807614574449 0 0.0051420432068079855 -0.0030128471419452805 0 0.0047809340430687245 -0.0025336384445657054 0 0.0051151283314364304 -0.0030747760334400537 0 0.0047013401442643444 -0.0029248565345775545 0 0.0052534424129060259 -0.0030025557624220873 0 0.0051649820431682912 -0.0030020189145491725 0 0.0051151283314364304 -0.0030747760334400537 0 0.0052534424129060259 -0.0030025557624220873 0 0.0051649820431682912 -0.0030020189145491725 0 0.0051535547997598481 -0.0029794807614574449 0 0.0050306860412497505 -0.0026843047417447379 0 0.0051238792305919193 -0.0031023885236489746 0 0.0051151283314364304 -0.0030747760334400537 0 0.0047013401442643444 -0.0029248565345775545 0 0.004765602635264544 -0.0032336237970302965 0 0.0042390335340161452 -0.0025162473740050597 0 0.0047013401442643444 -0.0029248565345775545 0 0.0043725576025352682 -0.0032593876097015547 0 0.0047013401442643444 -0.0029248565345775545 0 0.0043725576025352682 -0.0032593876097015547 0 0.004765602635264544 -0.0032336237970302965 0 0.0043725576025352682 -0.0032593876097015547 0 0.0047702768782622619 -0.0035715382538973198 0 0.0043859854090685813 -0.0038026965017455066 0 0.0043725576025352682 -0.0032593876097015547 0 0.004765602635264544 -0.0032336237970302965 0 0.0047702768782622619 -0.0035715382538973198 0 0.0049610589201076636 -0.0034005064612644101 0 0.0047702768782622619 -0.0035715382538973198 0 0.0051872592223362749 -0.0037104466217587643 0 0.0051151283314364304 -0.0030747760334400537 0 0.0049610589201076636 -0.0034005064612644101 0 0.0051872592223362749 -0.0037104466217587643 0 0.0051151283314364304 -0.0030747760334400537 0 0.004765602635264544 -0.0032336237970302965 0 0.0049610589201076636 -0.0034005064612644101 0 0.004765602635264544 -0.0032336237970302965 0 0.0049610589201076636 -0.0034005064612644101 0 0.0047702768782622619 -0.0035715382538973198 0 0.0047702768782622619 -0.0035715382538973198 0 0.0051872592223362749 -0.0037104466217587643 0 0.0048340509036875366 -0.003999744058066689 0 0.0047702768782622619 -0.0035715382538973198 0 0.0043859854090685813 -0.0038026965017455066 0 0.0048340509036875366 -0.003999744058066689 0 0.0050929031943466084 -0.0025722279937959325 0 0.0049999512705937773 -0.0027086277019931896 0 0.004999985079846057 -0.0024126541709365763 0 0.0050929031943466084 -0.0025722279937959325 0 0.005245028251161357 -0.0026319106996584504 0 0.0051340380460643343 -0.0027712133705861293 0 0.0051649820431682912 -0.0030020189145491725 0 0.0051151283314364304 -0.0030747760334400537 0 0.0051872592223362749 -0.0037104466217587643 0 0.0051693922579522013 -0.0030053842080930639 0 0.0052031580389869051 -0.0031382665048450211 0 0.0051649820431682912 -0.0030020189145491725 0 0.005245028251161357 -0.0026319106996584504 0 0.0051340380460643343 -0.0027712133705861293 0 0.0051340380460643343 -0.0027712133705861293 0 0.0049999512705937773 -0.0027086277019931896 0 0.005146150315290335 -0.0029300046985979659 0 0.0050929031943466084 -0.0025722279937959325 0 0.0051340380460643343 -0.0027712133705861293 0 0.0049999512705937773 -0.0027086277019931896 0 0.0049999512705937773 -0.0027086277019931896 0 0.005146150315290335 -0.0029300046985979659 0 0.0049999916009331423 -0.0030044086483247382 0 0.0051649820431682912 -0.0030020189145491725 0 0.0051340380460643343 -0.0027712133705861293 0 0.005146150315290335 -0.0029300046985979659 0 0.0051649820431682912 -0.0030020189145491725 0 0.005146150315290335 -0.0029300046985979659 0 0.0051535547997598481 -0.0029794807614574449 0 0.005146150315290335 -0.0029300046985979659 0 0.0051535547997598481 -0.0029794807614574449 0 0.0051420432068079855 -0.0030128471419452805 0 0.005146150315290335 -0.0029300046985979659 0 0.0051420432068079855 -0.0030128471419452805 0 0.0050381700076072983 -0.0030995244277091482 0 0.0051399920209607066 -0.0029452724233564554 0 0.0051036378014811153 -0.0031211770404349637 0 0.0052534424129060259 -0.0030025557624220873 0 0.0051420432068079855 -0.0030128471419452805 0 0.0050381700076072983 -0.0030995244277091482 0 0.005146150315290335 -0.0029300046985979659 0 0.0049999916009331423 -0.0030044086483247382 0 0.0051685252071435898 -0.0031312687471821694 0 0.004999986499050391 -0.0033002469795530044 0 0.0051645966777159854 -0.0034019351730084951 0 0.0051685252071435898 -0.0031312687471821694 0 0.0049999916009331423 -0.0030044086483247382 0 0.004999986499050391 -0.0033002469795530044 0 0.0051685252071435898 -0.0031312687471821694 0 0.004999986499050391 -0.0033002469795530044 0 0.0051645966777159854 -0.0034019351730084951 0 0.0049999994622670707 -0.0035961426267721486 0 0.004942953068253193 -0.0034121608197396499 0 0.0051553295714117748 -0.0034653372754716656 0 0.0051727324076797452 -0.0032845627604735218 0 0.0050534179078351241 -0.0034111591794820572 0 0.0051036378014811153 -0.0031211770404349637 0 0.004942953068253193 -0.0034121608197396499 0 0.0050381700076072983 -0.0030995244277091482 0 0.0051727324076797452 -0.0032845627604735218 0 0.0052534424129060259 -0.0030025557624220873 0 0.0050381700076072983 -0.0030995244277091482 0 0.0051727324076797452 -0.0032845627604735218 0 0.0052534424129060259 -0.0030025557624220873 0 0.0054124389987153573 -0.0032759869830473608 0 0.0051727324076797452 -0.0032845627604735218 0 0.0042390335340161452 -0.0025162473740050597 0 0.0047809340430687245 -0.0025336384445657054 0 0.0045171829170380243 -0.0019804455251645602 0 0.0041300038286451674 -0.0029951439137050162 0 0.0047150054168490245 -0.0031563828638153783 0 0.0050306860412497505 -0.0026843047417447379 0 0.0047150054168490245 -0.0031563828638153783 0 0.0048630500180118236 -0.0037422180536949719 0 0.0049031115810286375 -0.0038348732026083367 0 0.0048146708572327467 -0.0038554326580370283 0 0.0047150054168490245 -0.0031563828638153783 0 0.0050783368892303874 -0.0037060574124237735 0 0.0043492764860456829 -0.0039554650177195342 0 0.0040556840806513905 -0.0037567249803079077 0 0.0042558457411986592 -0.0042003126293572984 0 0.0047150054168490245 -0.0031563828638153783 0 0.0044987206790673816 -0.004269599150811312 0 0.0051553295714117748 -0.0034653372754716656 0 0.0051727324076797452 -0.0032845627604735218 0 0.0053295872310336742 -0.0035064288407317418 0 0.0054124389987153573 -0.0032759869830473608 0 0.0051727324076797452 -0.0032845627604735218 0 0.0053295872310336742 -0.0035064288407317418 0 0.0051553295714117748 -0.0034653372754716656 0 0.0052286517385291094 -0.0037718804794308115 0 0.0050384046033362662 -0.0036253489072150835 0 0.0051553295714117748 -0.0034653372754716656 0 0.0053295872310336742 -0.0035064288407317418 0 0.0052286517385291094 -0.0037718804794308115 0 0.0050783368892303874 -0.0037060574124237735 0 0.0050571672887298399 -0.0039367791548037137 0 0.0048146708572327467 -0.0038554326580370283 0 0.0048895866242885458 -0.0038702133558907504 0 0.0047681537780413785 -0.0039604357275602456 0 0.0046844492156620336 -0.0045070365043474126 0 0.0050571672887298399 -0.0039367791548037137 0 0.0049031115810286375 -0.0038348732026083367 0 0.0048146708572327467 -0.0038554326580370283 0 0.0048895866242885458 -0.0038702133558907504 0 0.0044872948303788344 -0.0047229307540288066 0 0.0046844492156620336 -0.0045070365043474126 0 0.0045400921839075688 -0.0045620014826349697 0 0.004553088249185819 -0.0045909980192684677 0 0.0045750843247925593 -0.0045373710916540751 0 0.0044987206790673816 -0.004269599150811312 0 0.0046844492156620336 -0.0045070365043474126 0 0.0044872948303788344 -0.0047229307540288066 0 0.0044987206790673816 -0.004269599150811312 0 0.0046844492156620336 -0.0045070365043474126 0 0.0046823887440872805 -0.0048998661541543309 0 0.0049686390715973526 -0.0043427694107972606 0 0.0049815281185939964 -0.0043286633938665773 0 0.0049838614575461911 -0.004328473760141744 0 0.0044380144198346381 -0.0053486297794970022 0 0.0044431803543796607 -0.0052939281840856849 0 0.0043962870518873326 -0.0053496563008408387 0 0.0044431803543796607 -0.0052939281840856849 0 0.0044141714250423379 -0.0052555717170512497 0 0.0043962870518873326 -0.0053496563008408387 0 0.0049682295226741576 -0.0043296475951700329 0 0.0049802587892862765 -0.004329194240259699 0 0.0049838614575461911 -0.004328473760141744 0 0.0050249999397561562 -0.004228353250591327 0 0.0050571672887298399 -0.0039367791548037137 0 0.0049802587892862765 -0.004329194240259699 0 0.0049815281185939964 -0.0043286633938665773 0 0.0049838614575461911 -0.004328473760141744 0 0.0050571672887298399 -0.0039367791548037137 0 0.0050998031293097911 -0.00388697640793241 0 0.0049501532873981128 -0.0041108600058337563 0 0.0050145727946242771 -0.0039527440415739008 0 0.0048620373878758187 -0.0038247850229443628 0 0.0052286517385291094 -0.0037718804794308115 0 0.0050145727946242771 -0.0039527440415739008 0 0.0050206363542044672 -0.0037827934535888752 0 0.0050991881737517345 -0.0040877962847953725 0 0.0052421090044172929 -0.0037889020780145495 0 0.0050145727946242771 -0.0039527440415739008 0 0.0052286517385291094 -0.0037718804794308115 0 0.0050206363542044672 -0.0037827934535888752 0 0.0050384046033362662 -0.0036253489072150835 0 0.0050206363542044672 -0.0037827934535888752 0 0.0048620373878758187 -0.0038247850229443628 0 0.0050384046033362662 -0.0036253489072150835 0 0.0050145727946242771 -0.0039527440415739008 0 0.0050206363542044672 -0.0037827934535888752 0 0.0048620373878758187 -0.0038247850229443628 0 0.0049999982245663467 -0.0038920152839122518 0 0.0049999994622670707 -0.0035961426267721486 0 0.0051455972653045162 -0.0036707450282038572 0 0.0051645966777159854 -0.0034019351730084951 0 0.0049999994622670707 -0.0035961426267721486 0 0.0051455972653045162 -0.0036707450282038572 0 0.004942953068253193 -0.0034121608197396499 0 0.0051553295714117748 -0.0034653372754716656 0 0.0050384046033362662 -0.0036253489072150835 0 0.0050534179078351241 -0.0034111591794820572 0 0.0050056351763506004 -0.0037499049552933198 0 0.004942953068253193 -0.0034121608197396499 0 0.0048620373878758187 -0.0038247850229443628 0 0.0050384046033362662 -0.0036253489072150835 0 0.0051751814406072001 -0.0014529916898362832 0 0.0051145457952799598 -0.0014767036159703336 0 0.0051162428762660328 -0.0014025049007493082 0 0.0051751814406072001 -0.0014529916898362832 0 0.0052493264838334597 -0.0014821517916113844 0 0.0051671692301482747 -0.0015295570950203165 0 0.0051751814406072001 -0.0014529916898362832 0 0.0051145457952799598 -0.0014767036159703336 0 0.0051671692301482747 -0.0015295570950203165 0 0.0051145457952799598 -0.0014767036159703336 0 0.0051671692301482747 -0.0015295570950203165 0 0.0050873551684000543 -0.0015423864259501076 0 0.0049999976448437764 -0.001548228953144946 0 0.0050105680932961858 -0.0014549210321444985 0 0.0049999659800042196 -0.0012639807246145451 0 0.0051145457952799598 -0.0014767036159703336 0 0.0050105680932961858 -0.0014549210321444985 0 0.0050873551684000543 -0.0015423864259501076 0 0.0051145457952799598 -0.0014767036159703336 0 0.0050105680932961858 -0.0014549210321444985 0 0.0051162428762660328 -0.0014025049007493082 0 0.0050105680932961858 -0.0014549210321444985 0 0.0051162428762660328 -0.0014025049007493082 0 0.0049999659800042196 -0.0012639807246145451 0 0.0051162428762660328 -0.0014025049007493082 0 0.0049999659800042196 -0.0012639807246145451 0 0.0051246145784154123 -0.001268497671225108 0 0.0050885713399015688 -0.0014138242334807605 0 0.0053450176810851038 -0.0012967489584752663 0 0.0051751814406072001 -0.0014529916898362832 0 0.0051162428762660328 -0.0014025049007493082 0 0.0052192458262227291 -0.0013775625631950689 0 0.0051162428762660328 -0.0014025049007493082 0 0.0051246145784154123 -0.001268497671225108 0 0.0052913284196507097 -0.0012907628854770226 0 0.0053450176810851038 -0.0012967489584752663 0 0.0049228060915283266 -0.0014196471829124925 0 0.0037253854591280081 -0.0021591674934860719 0 0.0037770264054683392 -0.0020427558675946878 0 0.0036285120790434016 -0.0019426752328497345 0 0.0052192458262227291 -0.0013775625631950689 0 0.0053596680100165776 -0.0014638481267323555 0 0.0053251409093769408 -0.0013306924349137787 0 0.0045012273639535166 -0.0018500750387201073 0 0.0049228060915283266 -0.0014196471829124925 0 0.0053596680100165776 -0.0014638481267323555 0 0.0052493264838334597 -0.0014821517916113844 0 0.005264370845127278 -0.0016132545666044118 0 0.0051751814406072001 -0.0014529916898362832 0 0.0052192458262227291 -0.0013775625631950689 0 0.0052493264838334597 -0.0014821517916113844 0 0.0052192458262227291 -0.0013775625631950689 0 0.0053596680100165776 -0.0014638481267323555 0 0.0052493264838334597 -0.0014821517916113844 0 0.0052493264838334597 -0.0014821517916113844 0 0.005264370845127278 -0.0016132545666044118 0 0.0051671692301482747 -0.0015295570950203165 0 0.0053596680100165776 -0.0014638481267323555 0 0.005264370845127278 -0.0016132545666044118 0 0.0053939260280609974 -0.0016122117281205993 0 0.0045012273639535166 -0.0018500750387201073 0 0.0045896983153290898 -0.0019217597121449783 0 0.005264370845127278 -0.0016132545666044118 0 0.0053279453407886097 -0.0017075063137975068 0 0.0053939260280609974 -0.0016122117281205993 0 0.005264370845127278 -0.0016132545666044118 0 0.0053279453407886097 -0.0017075063137975068 0 0.0052263170011791248 -0.0017609925088387492 0 0.005264370845127278 -0.0016132545666044118 0 0.0051730258951451155 -0.0016941681243961928 0 0.0052263170011791248 -0.0017609925088387492 0 0.0051730258951451155 -0.0016941681243961928 0 0.0051181402329057227 -0.0017020378376932685 0 0.0051488460874522827 -0.0017598665677078728 0 0.005264370845127278 -0.0016132545666044118 0 0.0051730258951451155 -0.0016941681243961928 0 0.0051399269673515343 -0.0016175723624914139 0 0.0051730258951451155 -0.0016941681243961928 0 0.0051181402329057227 -0.0017020378376932685 0 0.0051399269673515343 -0.0016175723624914139 0 0.0051181402329057227 -0.0017020378376932685 0 0.0051399269673515343 -0.0016175723624914139 0 0.005047429994310423 -0.0016322025201199418 0 0.005264370845127278 -0.0016132545666044118 0 0.0051399269673515343 -0.0016175723624914139 0 0.0051671692301482747 -0.0015295570950203165 0 0.0051399269673515343 -0.0016175723624914139 0 0.0051671692301482747 -0.0015295570950203165 0 0.0050873551684000543 -0.0015423864259501076 0 0.0050118541085285399 -0.0014864239489288187 0 0.0050708559106467065 -0.0016281207735951201 0 0.0050105680932961858 -0.0014549210321444985 0 0.0050873551684000543 -0.0015423864259501076 0 0.005047429994310423 -0.0016322025201199418 0 0.0049999976448437764 -0.001548228953144946 0 0.0050105680932961858 -0.0014549210321444985 0 0.0050720894817196573 -0.0017244400819477949 0 0.0049999976448437764 -0.001548228953144946 0 0.0050000001552870091 -0.0018325117691360892 0 0.0050720894817196573 -0.0017244400819477949 0 0.0051399269673515343 -0.0016175723624914139 0 0.0050873551684000543 -0.0015423864259501076 0 0.005047429994310423 -0.0016322025201199418 0 0.0050000001552870091 -0.0018325117691360892 0 0.0050720894817196573 -0.0017244400819477949 0 0.005110010119011397 -0.0019881875320497855 0 0.0051181402329057227 -0.0017020378376932685 0 0.005047429994310423 -0.0016322025201199418 0 0.0050810562116891389 -0.0018060373111962241 0 0.0050708559106467065 -0.0016281207735951201 0 0.0049816557976326706 -0.0021195559789304089 0 0.0050720894817196573 -0.0017244400819477949 0 0.005110010119011397 -0.0019881875320497855 0 0.00513035718575988 -0.0019949156319262122 0 0.0050000001552870091 -0.0018325117691360892 0 0.005110010119011397 -0.0019881875320497855 0 0.0049999962081790882 -0.0021167724800395999 0 0.005110010119011397 -0.0019881875320497855 0 0.0051301697128559977 -0.0019953463697651077 0 0.0051480121792515238 -0.0020782380357648165 0 0.0049978163759609867 -0.0021170249163106531 0 0.0049816557976326706 -0.0021195559789304089 0 0.0051181402329057227 -0.0017020378376932685 0 0.0050810562116891389 -0.0018060373111962241 0 0.0051488460874522827 -0.0017598665677078728 0 0.0051730258951451155 -0.0016941681243961928 0 0.0051488460874522827 -0.0017598665677078728 0 0.0052263170011791248 -0.0017609925088387492 0 0.0050810562116891389 -0.0018060373111962241 0 0.0051488460874522827 -0.0017598665677078728 0 0.0051711644752938648 -0.0018355179218993178 0 0.0049816557976326706 -0.0021195559789304089 0 0.0050978015921763877 -0.0030330299182557965 0 0.0051488460874522827 -0.0017598665677078728 0 0.0051711644752938648 -0.0018355179218993178 0 0.0052263170011791248 -0.0017609925088387492 0 0.0050262251429923337 -0.0045957131827336437 0 0.0050921063630904482 -0.0048534377011758695 0 0.0053338866526417873 -0.0047800108353922184 0 0.0050166844105973725 -0.0026810396309136695 0 0.0051518958823378877 -0.0027280032804923946 0 0.0050339308313128144 -0.002759461823147936 0 0.0050978015921763877 -0.0030330299182557965 0 0.005045070454176453 -0.0030285544273444954 0 0.005045070454176453 -0.0030285544273444954 0 0.005000318688238135 -0.0021167952375526849 0 0.005110010119011397 -0.0019881875320497855 0 0.0051480121792515238 -0.0020782380357648165 0 0.0049999962081790882 -0.0021167724800395999 0 0.0049816557976326706 -0.0021195559789304089 0 0.005045070454176453 -0.0030285544273444954 0 0.0051471793834067378 -0.0020857655101989563 0 0.0050000019018828102 -0.0021167986206412116 0 0.0051022933444198441 -0.0022312386361408427 0 0.0050000019018828102 -0.0021167986206412116 0 0.0051022933444198441 -0.0022312386361408427 0 0.004999985079846057 -0.0024126541709365763 0 0.0051471793834067378 -0.0020857655101989563 0 0.0051022933444198441 -0.0022312386361408427 0 0.0052020519762366315 -0.0023474719747391451 0 0.0051022933444198441 -0.0022312386361408427 0 0.0052020519762366315 -0.0023474719747391451 0 0.004999985079846057 -0.0024126541709365763 0 0.005045070454176453 -0.0030285544273444954 0 0.0052574745556994143 -0.0034053647194818059 0 0.0050262251429923337 -0.0045957131827336437 0 0.0053338866526417873 -0.0047800108353922184 0 0.0052424476809404229 -0.0042817240258025578 0 0.0050262251429923337 -0.0045957131827336437 0 0.0052424476809404229 -0.0042817240258025578 0 0.0048490073657589602 -0.0043540063305504122 0 0.0052031580389869051 -0.0031382665048450211 0 0.0052574745556994143 -0.0034053647194818059 0 0.0051872592223362749 -0.0037104466217587643 0 0.0052424476809404229 -0.0042817240258025578 0 0.0048340509036875366 -0.003999744058066689 0 0.0050929031943466084 -0.0025722279937959325 0 0.005245028251161357 -0.0026319106996584504 0 0.0052020519762366315 -0.0023474719747391451 0 0.0050929031943466084 -0.0025722279937959325 0 0.0052020519762366315 -0.0023474719747391451 0 0.004999985079846057 -0.0024126541709365763 0 0.0043859854090685813 -0.0038026965017455066 0 0.0045110846020350193 -0.0042019849061431689 0 0.0048340509036875366 -0.003999744058066689 0 0.0043859854090685813 -0.0038026965017455066 0 0.0045110846020350193 -0.0042019849061431689 0 0.0041154244465657084 -0.0041001058978511595 0 0.0045110846020350193 -0.0042019849061431689 0 0.0048340509036875366 -0.003999744058066689 0 0.0048490073657589602 -0.0043540063305504122 0 0.0052424476809404229 -0.0042817240258025578 0 0.0048340509036875366 -0.003999744058066689 0 0.0048490073657589602 -0.0043540063305504122 0 0.0050262251429923337 -0.0045957131827336437 0 0.0048490073657589602 -0.0043540063305504122 0 0.0045860167229965264 -0.0047087016761497413 0 0.0045110846020350193 -0.0042019849061431689 0 0.0045860167229965264 -0.0047087016761497413 0 0.0042865458791866142 -0.0043552515331161954 0 0.0045110846020350193 -0.0042019849061431689 0 0.0048490073657589602 -0.0043540063305504122 0 0.0045860167229965264 -0.0047087016761497413 0 0.0048487348032206406 -0.0028944022646123385 0 0.0047896967880964722 -0.0029437366099094803 0 0.0048706058730440425 -0.0029778599711054753 0 0.0050978015921763877 -0.0030330299182557965 0 0.0047750367805547474 -0.0039783818509529743 0 0.0050262251429923337 -0.0045957131827336437 0 0.0050921063630904482 -0.0048534377011758695 0 0.0045860167229965264 -0.0047087016761497413 0 0.0050065219891568787 -0.0029440535017906159 0 0.0048487348032206406 -0.0028944022646123385 0 0.0048706058730440425 -0.0029778599711054753 0 0.0051711644752938648 -0.0018355179218993178 0 0.0052263170011791248 -0.0017609925088387492 0 0.0052994214416198842 -0.0017944985023415497 0 0.0050978015921763877 -0.0030330299182557965 0 0.0051948528824838991 -0.0023228080845790126 0 0.0053279453407886097 -0.0017075063137975068 0 0.0052263170011791248 -0.0017609925088387492 0 0.0052994214416198842 -0.0017944985023415497 0 0.0053279453407886097 -0.0017075063137975068 0 0.0052994214416198842 -0.0017944985023415497 0 0.0054231785176136896 -0.0017592457351791667 0 0.0047896967880964722 -0.0029437366099094803 0 0.0048706058730440425 -0.0029778599711054753 0 0.0047381440101952567 -0.003008922029672993 0 0.0051948528824838991 -0.0023228080845790126 0 0.0045843521735213283 -0.002303502401076212 0 0.0038693750852895979 -0.0024554065721282357 0 0.0038379399590192228 -0.0024646398101870817 0 0.0038814824885926706 -0.002484188922888356 0 0.0039941751128560457 -0.0024516109567765815 0 0.0045843521735213283 -0.002303502401076212 0 0.0038379399590192228 -0.0024646398101870817 0 0.0038814824885926706 -0.002484188922888356 0 0.003892234397936649 -0.0025366744609768522 0 0.0039286721214413182 -0.0024799008994104564 0 0.0039704262489230948 -0.002411645775995314 0 0.0039154937898041838 -0.0024281397204773849 0 0.0038693750852895979 -0.0024554065721282357 0 0.0039286721214413182 -0.0024799008994104564 0 0.0039154937898041838 -0.0024281397204773849 0 0.0038693750852895979 -0.0024554065721282357 0 0.0039286721214413182 -0.0024799008994104564 0 0.0038814824885926706 -0.002484188922888356 0 0.0039286721214413182 -0.0024799008994104564 0 0.0038814824885926706 -0.002484188922888356 0 0.003892234397936649 -0.0025366744609768522 0 0.0039286721214413182 -0.0024799008994104564 0 0.003892234397936649 -0.0025366744609768522 0 0.003970219663210723 -0.0025285669282279458 0 0.003892234397936649 -0.0025366744609768522 0 0.0039382364283201314 -0.0025785132481934768 0 0.003970219663210723 -0.0025285669282279458 0 0.003892234397936649 -0.0025366744609768522 0 0.0039382364283201314 -0.0025785132481934768 0 0.0038743103800180901 -0.0026197823129395351 0 0.0039382364283201314 -0.0025785132481934768 0 0.0039434359478757253 -0.0026421896050355057 0 0.0039945962865418913 -0.0025893705964810517 0 0.0045843521735213283 -0.002303502401076212 0 0.0042523454377646165 -0.003155874920062226 0 0.0048487348032206406 -0.0028944022646123385 0 0.0047896967880964722 -0.0029437366099094803 0 0.0046945577985481567 -0.0028477842342184536 0 0.0047750367805547474 -0.0039783818509529743 0 0.0042523454377646165 -0.003155874920062226 0 0.0038379399590192228 -0.0024646398101870817 0 0.003892234397936649 -0.0025366744609768522 0 0.0038743103800180901 -0.0026197823129395351 0 0.0047896967880964722 -0.0029437366099094803 0 0.0047381440101952567 -0.003008922029672993 0 0.0046945577985481567 -0.0028477842342184536 0 0.0045860167229965264 -0.0047087016761497413 0 0.0042865458791866142 -0.0043552515331161954 0 0.0040880464356134434 -0.0045463927353418887 0 0.0042865458791866142 -0.0043552515331161954 0 0.0040880464356134434 -0.0045463927353418887 0 0.0040156737966471978 -0.0042494468841342368 0 0.0042523454377646165 -0.003155874920062226 0 0.0037846232405856456 -0.0026517677285061102 0 0.0039382364283201314 -0.0025785132481934768 0 0.0038743103800180901 -0.0026197823129395351 0 0.0039434359478757253 -0.0026421896050355057 0 0.0039434359478757253 -0.0026421896050355057 0 0.0038891738788404814 -0.0027073340414037529 0 0.0039614495240158122 -0.0027123020544424178 0 0.0038733305327975191 -0.0026250375281960379 0 0.0039434359478757253 -0.0026421896050355057 0 0.0038891738788404814 -0.0027073340414037529 0 0.0042523454377646165 -0.003155874920062226 0 0.0039651097101913915 -0.0035027508805538241 0 0.0038891738788404814 -0.0027073340414037529 0 0.0039208228795061953 -0.0027530477163337204 0 0.0039614495240158122 -0.0027123020544424178 0 0.0039208719979929134 -0.0027950608956036735 0 0.0039208228795061953 -0.0027530477163337204 0 0.0039614495240158122 -0.0027123020544424178 0 0.0039128761102428435 -0.0027946525991484486 0 0.0039208719979929134 -0.0027950608956036735 0 0.0039208228795061953 -0.0027530477163337204 0 0.0039128761102428435 -0.0027946525991484486 0 0.0038891738788404814 -0.0027073340414037529 0 0.0039208228795061953 -0.0027530477163337204 0 0.0039419034876671628 -0.0039482898298881389 0 0.0040156737966471978 -0.0042494468841342368 0 0.0042320878853081374 -0.0040731872251657392 0 0.0038062044303328771 -0.0035851766639466163 0 0.0039651097101913915 -0.0035027508805538241 0 0.0038062044303328771 -0.0035851766639466163 0 0.0042118302995957247 -0.0040877387254687376 0 0.0044495735345506486 -0.0041845400854623504 0 0.0042118302995957247 -0.0040877387254687376 0 0.0045110846020350193 -0.0042019849061431689 0 0.0042865458791866142 -0.0043552515331161954 0 0.0042320878853081374 -0.0040731872251657392 0 0.0042865458791866142 -0.0043552515331161954 0 0.0040156737966471978 -0.0042494468841342368 0 0.0042320878853081374 -0.0040731872251657392 0 0.0039208719979929134 -0.0027950608956036735 0 0.0040707252816038399 -0.0027136745896414586 0 0.0039614495240158122 -0.0027123020544424178 0 0.0039252162973954143 -0.0027921000870154335 0 0.0040230306551566532 -0.002740420986635992 0 0.0040707252816038399 -0.0027136745896414586 0 0.0039614495240158122 -0.0027123020544424178 0 0.0040104264530182506 -0.0026565220820426098 0 0.0039434359478757253 -0.0026421896050355057 0 0.0039614495240158122 -0.0027123020544424178 0 0.0040104264530182506 -0.0026565220820426098 0 0.0039434359478757253 -0.0026421896050355057 0 0.0040104264530182506 -0.0026565220820426098 0 0.0039945962865418913 -0.0025893705964810517 0 0.0040104264530182506 -0.0026565220820426098 0 0.0040600370138260755 -0.0026030342580206163 0 0.0039945962865418913 -0.0025893705964810517 0 0.0040707252816038399 -0.0027136745896414586 0 0.0040104264530182506 -0.0026565220820426098 0 0.0040600370138260755 -0.0026030342580206163 0 0.0040707252816038399 -0.0027136745896414586 0 0.0040600370138260755 -0.0026030342580206163 0 0.0041227507037016027 -0.0026070930453166658 0 0.0040600370138260755 -0.0026030342580206163 0 0.0041055716107581764 -0.0025375665709157697 0 0.0041227507037016027 -0.0026070930453166658 0 0.0040600370138260755 -0.0026030342580206163 0 0.0041055716107581764 -0.0025375665709157697 0 0.0040417074368925736 -0.0025289936374905632 0 0.0040600370138260755 -0.0026030342580206163 0 0.0039945962865418913 -0.0025893705964810517 0 0.0040417074368925736 -0.0025289936374905632 0 0.0039945962865418913 -0.0025893705964810517 0 0.0040417074368925736 -0.0025289936374905632 0 0.003970219663210723 -0.0025285669282279458 0 0.0039382364283201314 -0.0025785132481934768 0 0.0039945962865418913 -0.0025893705964810517 0 0.003970219663210723 -0.0025285669282279458 0 0.0039286721214413182 -0.0024799008994104564 0 0.003970219663210723 -0.0025285669282279458 0 0.0040141729067083246 -0.0024674496581725894 0 0.0040417074368925736 -0.0025289936374905632 0 0.003970219663210723 -0.0025285669282279458 0 0.0040141729067083246 -0.0024674496581725894 0 0.0039286721214413182 -0.0024799008994104564 0 0.0040141729067083246 -0.0024674496581725894 0 0.0039704262489230948 -0.002411645775995314 0 0.0040417074368925736 -0.0025289936374905632 0 0.0040141729067083246 -0.0024674496581725894 0 0.0040963042696723394 -0.0024629662414177426 0 0.0040141729067083246 -0.0024674496581725894 0 0.0040963042696723394 -0.0024629662414177426 0 0.0040587654265175788 -0.0023880317413200063 0 0.0041055716107581764 -0.0025375665709157697 0 0.0040417074368925736 -0.0025289936374905632 0 0.0040963042696723394 -0.0024629662414177426 0 0.0040963042696723394 -0.0024629662414177426 0 0.0040587654265175788 -0.0023880317413200063 0 0.0041416363149798649 -0.002379655109280458 0 0.0040587654265175788 -0.0023880317413200063 0 0.0040975730430198726 -0.0023129870032985314 0 0.0041416363149798649 -0.002379655109280458 0 0.0040587654265175788 -0.0023880317413200063 0 0.0040975730430198726 -0.0023129870032985314 0 0.0040075164827724167 -0.0022960225143101153 0 0.0040975730430198726 -0.0023129870032985314 0 0.0040075164827724167 -0.0022960225143101153 0 0.0040953011565432271 -0.002214531859214732 0 0.0040975730430198726 -0.0023129870032985314 0 0.0040953011565432271 -0.002214531859214732 0 0.0041751815556679769 -0.0022775232040955526 0 0.0040587654265175788 -0.0023880317413200063 0 0.0040075164827724167 -0.0022960225143101153 0 0.0039704262489230948 -0.002411645775995314 0 0.0040141729067083246 -0.0024674496581725894 0 0.0040587654265175788 -0.0023880317413200063 0 0.0039704262489230948 -0.002411645775995314 0 0.0040075164827724167 -0.0022960225143101153 0 0.0039704262489230948 -0.002411645775995314 0 0.0038928424008304232 -0.0023633847861284033 0 0.0039704262489230948 -0.002411645775995314 0 0.0039154937898041838 -0.0024281397204773849 0 0.0038928424008304232 -0.0023633847861284033 0 0.0038693750852895979 -0.0024554065721282357 0 0.0039154937898041838 -0.0024281397204773849 0 0.0038928424008304232 -0.0023633847861284033 0 0.0045843521735213283 -0.002303502401076212 0 0.0045896983153290898 -0.0019217597121449783 0 0.0038300406011339649 -0.0024669916350298338 0 0.0038928424008304232 -0.0023633847861284033 0 0.0037812835374394652 -0.0023211578545687204 0 0.0053279453407886097 -0.0017075063137975068 0 0.0054231785176136896 -0.0017592457351791667 0 0.0053939260280609974 -0.0016122117281205993 0 0.0038693750852895979 -0.0024554065721282357 0 0.0038300406011339649 -0.0024669916350298338 0 0.0038928424008304232 -0.0023633847861284033 0 0.0037253854591280081 -0.0021591674934860719 0 0.0037812835374394652 -0.0023211578545687204 0 0.0039163516627526221 -0.0022474580526985286 0 0.0038928424008304232 -0.0023633847861284033 0 0.0037812835374394652 -0.0023211578545687204 0 0.0039163516627526221 -0.0022474580526985286 0 0.0040075164827724167 -0.0022960225143101153 0 0.0038928424008304232 -0.0023633847861284033 0 0.0039163516627526221 -0.0022474580526985286 0 0.0039163516627526221 -0.0022474580526985286 0 0.0038886781902953281 -0.0021090162151706322 0 0.0040124851494159671 -0.002128298834012078 0 0.0037253854591280081 -0.0021591674934860719 0 0.0039163516627526221 -0.0022474580526985286 0 0.0038886781902953281 -0.0021090162151706322 0 0.0037253854591280081 -0.0021591674934860719 0 0.0037770264054683392 -0.0020427558675946878 0 0.0038886781902953281 -0.0021090162151706322 0 0.0038579958158630979 -0.0020082956772449431 0 0.0037770264054683392 -0.0020427558675946878 0 0.0038886781902953281 -0.0021090162151706322 0 0.0038579958158630979 -0.0020082956772449431 0 0.0037770264054683392 -0.0020427558675946878 0 0.0038574730681462601 -0.001895719010641057 0 0.0038886781902953281 -0.0021090162151706322 0 0.0039272656002838817 -0.0020096648526929006 0 0.0040124851494159671 -0.002128298834012078 0 0.0038579958158630979 -0.0020082956772449431 0 0.0038886781902953281 -0.0021090162151706322 0 0.0039272656002838817 -0.0020096648526929006 0 0.0040124851494159671 -0.002128298834012078 0 0.0041435996277474126 -0.0021046030595318036 0 0.0040480236134455257 -0.0020190717119348456 0 0.0039272656002838817 -0.0020096648526929006 0 0.0040124851494159671 -0.002128298834012078 0 0.0040480236134455257 -0.0020190717119348456 0 0.0042317240751997796 -0.0020590002379527062 0 0.0041557153376724438 -0.0019349440714292337 0 0.0040833159963349457 -0.0019816767718290494 0 0.004211822320103328 -0.0020747662121226315 0 0.0040576764291599138 -0.001995297834002957 0 0.0040124851494159671 -0.002128298834012078 0 0.0041435996277474126 -0.0021046030595318036 0 0.0040953011565432271 -0.002214531859214732 0 0.0041435996277474126 -0.0021046030595318036 0 0.0040953011565432271 -0.002214531859214732 0 0.0041665503091012175 -0.0021930054709575959 0 0.0040953011565432271 -0.002214531859214732 0 0.0041665503091012175 -0.0021930054709575959 0 0.0041751815556679769 -0.0022775232040955526 0 0.0040075164827724167 -0.0022960225143101153 0 0.0039163516627526221 -0.0022474580526985286 0 0.0040124851494159671 -0.002128298834012078 0 0.0040075164827724167 -0.0022960225143101153 0 0.0040124851494159671 -0.002128298834012078 0 0.0040953011565432271 -0.002214531859214732 0 0.0039514772550852855 -0.0024865766190004177 0 0.0038517897313721304 -0.0028127462900993491 0 0.0042121707251347408 -0.0022562082776250566 0 0.0042971371136556842 -0.0023119124870861966 0 0.0042319614362917131 -0.0023163023626588332 0 0.004204500926510338 -0.0022513284728871074 0 0.0042319614362917131 -0.0023163023626588332 0 0.0041751815556679769 -0.0022775232040955526 0 0.0042121707251347408 -0.0022562082776250566 0 0.004204500926510338 -0.0022513284728871074 0 0.0042319614362917131 -0.0023163023626588332 0 0.0032467413419671955 -0.0032439476977969357 0 0.0032425285093655269 -0.003225749594961799 0 0.0033234446934599757 -0.0032155501595085862 0 0.0039514772550852855 -0.0024865766190004177 0 0.0041143960001494952 -0.0023628851028161791 0 0.0039514772550852855 -0.0024865766190004177 0 0.0039093886985645194 -0.0025105060819402098 0 0.0039602814930525939 -0.0025232381807121147 0 0.0038199752913905113 -0.0024545954543728041 0 0.0039149430404628082 -0.0023358801793085396 0 0.0041143960001494952 -0.0023628851028161791 0 0.0039093886985645194 -0.0025105060819402098 0 0.0041143960001494952 -0.0023628851028161791 0 0.0042223382380700749 -0.002221704501032225 0 0.0041435996277474126 -0.0021046030595318036 0 0.004264505435290538 -0.0021735651879370341 0 0.0041665503091012175 -0.0021930054709575959 0 0.004264505435290538 -0.0021735651879370341 0 0.0041665503091012175 -0.0021930054709575959 0 0.0041751815556679769 -0.0022775232040955526 0 0.0042317240751997796 -0.0020590002379527062 0 0.0043921788183413114 -0.0021198892874929069 0 0.0043364549392958807 -0.0019083220145869823 0 0.004211822320103328 -0.0020747662121226315 0 0.0041143960001494952 -0.0023628851028161791 0 0.0042317240751997796 -0.0020590002379527062 0 0.0043793540218736906 -0.0021358286166193751 0 0.0043921788183413114 -0.0021198892874929069 0 0.0039093886985645194 -0.0025105060819402098 0 0.0040642220221462711 -0.0020670844533929667 0 0.0032425285093655269 -0.003225749594961799 0 0.0033234446934599757 -0.0032155501595085862 0 0.0033123786000267162 -0.0031161602765805364 0 0.0038718514728258153 -0.0023715873809418849 0 0.0039850227605507183 -0.0022264827362905482 0 0.003815633398924967 -0.0021606173464586613 0 0.0039093886985645194 -0.0025105060819402098 0 0.0035849603409825407 -0.0027364706254240307 0 0.0033234446934599757 -0.0032155501595085862 0 0.0034092312889060805 -0.0031680051229795677 0 0.0033123786000267162 -0.0031161602765805364 0 0.0034092312889060805 -0.0031680051229795677 0 0.0035170967570895169 -0.0032338117440236058 0 0.0035072464794784564 -0.0030743252376491718 0 0.0034092312889060805 -0.0031680051229795677 0 0.0033983015177009423 -0.0033211321167721216 0 0.0035170967570895169 -0.0032338117440236058 0 0.0033983015177009423 -0.0033211321167721216 0 0.0035048532835623186 -0.0033038444660440456 0 0.0035170967570895169 -0.0032338117440236058 0 0.0032467413419671955 -0.0032439476977969357 0 0.0033234446934599757 -0.0032155501595085862 0 0.0033983015177009423 -0.0033211321167721216 0 0.0033234446934599757 -0.0032155501595085862 0 0.0034092312889060805 -0.0031680051229795677 0 0.0033983015177009423 -0.0033211321167721216 0 0.0042971371136556842 -0.0023119124870861966 0 0.0042720727567855431 -0.0023671506718371902 0 0.0042319614362917131 -0.0023163023626588332 0 0.0042971371136556842 -0.0023119124870861966 0 0.0042720727567855431 -0.0023671506718371902 0 0.004324895830951624 -0.0023893985824418157 0 0.0033983015177009423 -0.0033211321167721216 0 0.0035279296289591768 -0.0033655377670679786 0 0.0035048532835623186 -0.0033038444660440456 0 0.0042971371136556842 -0.0023119124870861966 0 0.004324895830951624 -0.0023893985824418157 0 0.0043997481579675811 -0.0023764375176251822 0 0.0038517897313721304 -0.0028127462900993491 0 0.003748484806244672 -0.0031040536879750062 0 0.004324895830951624 -0.0023893985824418157 0 0.0043651290174445603 -0.0024583119985499861 0 0.0043997481579675811 -0.0023764375176251822 0 0.004324895830951624 -0.0023893985824418157 0 0.0042893174616701847 -0.0024349660279283764 0 0.0043651290174445603 -0.0024583119985499861 0 0.0042720727567855431 -0.0023671506718371902 0 0.0042893174616701847 -0.0024349660279283764 0 0.0042155522425969486 -0.0023868105218666051 0 0.0042720727567855431 -0.0023671506718371902 0 0.004324895830951624 -0.0023893985824418157 0 0.0042893174616701847 -0.0024349660279283764 0 0.0042155522425969486 -0.0023868105218666051 0 0.0041676694720753438 -0.0024702717187473806 0 0.0042280823698811901 -0.002463385713845368 0 0.0042893174616701847 -0.0024349660279283764 0 0.0042155522425969486 -0.0023868105218666051 0 0.0042280823698811901 -0.002463385713845368 0 0.0042720727567855431 -0.0023671506718371902 0 0.0042155522425969486 -0.0023868105218666051 0 0.0042319614362917131 -0.0023163023626588332 0 0.0042155522425969486 -0.0023868105218666051 0 0.0042319614362917131 -0.0023163023626588332 0 0.0041751815556679769 -0.0022775232040955526 0 0.0040975730430198726 -0.0023129870032985314 0 0.0041751815556679769 -0.0022775232040955526 0 0.0041416363149798649 -0.002379655109280458 0 0.0042155522425969486 -0.0023868105218666051 0 0.0041751815556679769 -0.0022775232040955526 0 0.0041416363149798649 -0.002379655109280458 0 0.0040963042696723394 -0.0024629662414177426 0 0.0041416363149798649 -0.002379655109280458 0 0.0041676694720753438 -0.0024702717187473806 0 0.0042155522425969486 -0.0023868105218666051 0 0.0041416363149798649 -0.002379655109280458 0 0.0041676694720753438 -0.0024702717187473806 0 0.0041055716107581764 -0.0025375665709157697 0 0.0040963042696723394 -0.0024629662414177426 0 0.0041676694720753438 -0.0024702717187473806 0 0.0041676694720753438 -0.0024702717187473806 0 0.0042095000943197505 -0.0025109830612733632 0 0.0041665859236593317 -0.0025490408295602107 0 0.0041055716107581764 -0.0025375665709157697 0 0.0041676694720753438 -0.0024702717187473806 0 0.0041665859236593317 -0.0025490408295602107 0 0.0041676694720753438 -0.0024702717187473806 0 0.0042280823698811901 -0.002463385713845368 0 0.0042095000943197505 -0.0025109830612733632 0 0.0042280823698811901 -0.002463385713845368 0 0.0042095000943197505 -0.0025109830612733632 0 0.0042570628834852093 -0.0025072434280065023 0 0.0042095000943197505 -0.0025109830612733632 0 0.0042279432980387556 -0.0025629833434485968 0 0.0041665859236593317 -0.0025490408295602107 0 0.0042279432980387556 -0.0025629833434485968 0 0.0041913032472589542 -0.0026341014852541513 0 0.0042676349861412721 -0.0025971556383657434 0 0.0042279432980387556 -0.0025629833434485968 0 0.0041665859236593317 -0.0025490408295602107 0 0.0041913032472589542 -0.0026341014852541513 0 0.0042095000943197505 -0.0025109830612733632 0 0.0042279432980387556 -0.0025629833434485968 0 0.0042570628834852093 -0.0025072434280065023 0 0.0041055716107581764 -0.0025375665709157697 0 0.0041665859236593317 -0.0025490408295602107 0 0.0041227507037016027 -0.0026070930453166658 0 0.0040230306551566532 -0.002740420986635992 0 0.0041240486552890547 -0.0026723732725726567 0 0.0040707252816038399 -0.0027136745896414586 0 0.0041227507037016027 -0.0026070930453166658 0 0.0041913032472589542 -0.0026341014852541513 0 0.0041665859236593317 -0.0025490408295602107 0 0.0041227507037016027 -0.0026070930453166658 0 0.0041913032472589542 -0.0026341014852541513 0 0.0041240486552890547 -0.0026723732725726567 0 0.0042612833510097797 -0.0026015265228638328 0 0.0040921391313317153 -0.0028328568050950565 0 0.0040492172458599972 -0.0027118649631168584 0 0.0042218241769852501 -0.0027090726215066884 0 0.0040253700216321903 -0.0028013126676570614 0 0.0040921391313317153 -0.0028328568050950565 0 0.0040492172458599972 -0.0027118649631168584 0 0.0040253700216321903 -0.0028013126676570614 0 0.003980905510439634 -0.0027673575563146829 0 0.0040492172458599972 -0.0027118649631168584 0 0.0039077188884450243 -0.0028725318963138346 0 0.0040062916850242929 -0.0028797879952837235 0 0.0039055870297927697 -0.003009504733808436 0 0.0040921391313317153 -0.0028328568050950565 0 0.0040062916850242929 -0.0028797879952837235 0 0.0040257639243673907 -0.0029803017739604815 0 0.0041005545274180929 -0.0028340794180428627 0 0.0041233290711449287 -0.0028381522258149423 0 0.0041233290711449287 -0.0028381522258149423 0 0.0041228194766124732 -0.0028578003666399265 0 0.0040062916850242929 -0.0028797879952837235 0 0.0040257639243673907 -0.0029803017739604815 0 0.0039055870297927697 -0.003009504733808436 0 0.0040492172458599972 -0.0027118649631168584 0 0.0042218241769852501 -0.0027090726215066884 0 0.0042676349861412721 -0.0025971556383657434 0 0.0042218241769852501 -0.0027090726215066884 0 0.0043254769706645565 -0.0025517689005307648 0 0.0042676349861412721 -0.0025971556383657434 0 0.0040257639243673907 -0.0029803017739604815 0 0.0039055870297927697 -0.003009504733808436 0 0.0039378527364984147 -0.0031429370231342898 0 0.0039077188884450243 -0.0028725318963138346 0 0.0039055870297927697 -0.003009504733808436 0 0.0037581492405929758 -0.0030344114116165576 0 0.0039055870297927697 -0.003009504733808436 0 0.0039378527364984147 -0.0031429370231342898 0 0.0037817034113997502 -0.0031789252126670988 0 0.0042279432980387556 -0.0025629833434485968 0 0.0042676349861412721 -0.0025971556383657434 0 0.0042756111717006584 -0.0025402809448194768 0 0.0043254769706645565 -0.0025517689005307648 0 0.0042676349861412721 -0.0025971556383657434 0 0.0042756111717006584 -0.0025402809448194768 0 0.0043254769706645565 -0.0025517689005307648 0 0.0042756111717006584 -0.0025402809448194768 0 0.0043163052807398414 -0.0024896894182750463 0 0.0042279432980387556 -0.0025629833434485968 0 0.0042756111717006584 -0.0025402809448194768 0 0.0042570628834852093 -0.0025072434280065023 0 0.0042756111717006584 -0.0025402809448194768 0 0.0042570628834852093 -0.0025072434280065023 0 0.0043163052807398414 -0.0024896894182750463 0 0.0042893174616701847 -0.0024349660279283764 0 0.0042570628834852093 -0.0025072434280065023 0 0.0043163052807398414 -0.0024896894182750463 0 0.0042893174616701847 -0.0024349660279283764 0 0.0042280823698811901 -0.002463385713845368 0 0.0042570628834852093 -0.0025072434280065023 0 0.0043254769706645565 -0.0025517689005307648 0 0.0043651290174445603 -0.0024583119985499861 0 0.0043163052807398414 -0.0024896894182750463 0 0.0039378527364984147 -0.0031429370231342898 0 0.0038386518998130858 -0.0033066923416433256 0 0.0037817034113997502 -0.0031789252126670988 0 0.0041228194766124732 -0.0028578003666399265 0 0.0041453948155079521 -0.0028340631907642884 0 0.0042893174616701847 -0.0024349660279283764 0 0.0043651290174445603 -0.0024583119985499861 0 0.0043163052807398414 -0.0024896894182750463 0 0.0038386518998130858 -0.0033066923416433256 0 0.0037817034113997502 -0.0031789252126670988 0 0.0037149410197360312 -0.0033461764416736232 0 0.003616671133025464 -0.0032264229340519717 0 0.0037817034113997502 -0.0031789252126670988 0 0.0037149410197360312 -0.0033461764416736232 0 0.003616671133025464 -0.0032264229340519717 0 0.0035883225469688206 -0.0033988507198530003 0 0.0037149410197360312 -0.0033461764416736232 0 0.0035502400345020788 -0.0033836279389671143 0 0.0035418015922106948 -0.0034015684741473219 0 0.0034732877804262612 -0.0035473560993138876 0 0.0035111104675170767 -0.0036332319993774538 0 0.0035305967365087025 -0.0035775301077884277 0 0.0034732877804262612 -0.0035473560993138876 0 0.0034559210690452893 -0.0036358759922387272 0 0.0035111104675170767 -0.0036332319993774538 0 0.0035502400345020788 -0.0033836279389671143 0 0.0036034381577197349 -0.0033463261405284736 0 0.0039055870297927697 -0.003009504733808436 0 0.0037817034113997502 -0.0031789252126670988 0 0.0037581492405929758 -0.0030344114116165576 0 0.003616671133025464 -0.0032264229340519717 0 0.0037817034113997502 -0.0031789252126670988 0 0.0037581492405929758 -0.0030344114116165576 0 0.0034559210690452893 -0.0036358759922387272 0 0.0035111104675170767 -0.0036332319993774538 0 0.0034954879343789031 -0.0036929192495049811 0 0.0034559210690452893 -0.0036358759922387272 0 0.0034954879343789031 -0.0036929192495049811 0 0.0034686207566731872 -0.0036782847771918287 0 0.0034580010337687682 -0.0036800025362101006 0 0.0034559210690452893 -0.0036358759922387272 0 0.0034686207566731872 -0.0036782847771918287 0 0.0034612894786711771 -0.0036843983379983331 0 0.0034954879343789031 -0.0036929192495049811 0 0.0034686207566731872 -0.0036782847771918287 0 0.003690996121740077 -0.0032241268338210182 0 0.0036034381577197349 -0.0033463261405284736 0 0.0034612894786711771 -0.0036843983379983331 0 0.0034580010337687682 -0.0036800025362101006 0 0.0034686207566731872 -0.0036782847771918287 0 0.0036693610812784509 -0.0038429356257028533 0 0.0036504330561000597 -0.0038357498901369232 0 0.003635176688304733 -0.0038387545742740205 0 0.0036504330561000597 -0.0038357498901369232 0 0.0036575478809411652 -0.0036904998705863967 0 0.003635176688304733 -0.0038387545742740205 0 0.0036693610812784509 -0.0038429356257028533 0 0.0037753505993492376 -0.0038636255957566505 0 0.0036504330561000597 -0.0038357498901369232 0 0.003645116451682352 -0.0037662860902009619 0 0.0036148150231113435 -0.0037559768561204738 0 0.0035111104675170767 -0.0036332319993774538 0 0.0034954879343789031 -0.0036929192495049811 0 0.003564046466723383 -0.0036873585852764202 0 0.0035111104675170767 -0.0036332319993774538 0 0.003564046466723383 -0.0036873585852764202 0 0.0035801583680221578 -0.0036075259524540868 0 0.003564046466723383 -0.0036873585852764202 0 0.0035801583680221578 -0.0036075259524540868 0 0.0036575478809411652 -0.0036904998705863967 0 0.0036148150231113435 -0.0037559768561204738 0 0.0036650642735766253 -0.0036964319778772492 0 0.0035801583680221578 -0.0036075259524540868 0 0.0036292127455169001 -0.0035229763965355038 0 0.0036629781015793733 -0.0035931729895486526 0 0.0035111104675170767 -0.0036332319993774538 0 0.0035801583680221578 -0.0036075259524540868 0 0.0035305967365087025 -0.0035775301077884277 0 0.0035801583680221578 -0.0036075259524540868 0 0.0035305967365087025 -0.0035775301077884277 0 0.0035607644368719294 -0.0035134706319602835 0 0.0034732877804262612 -0.0035473560993138876 0 0.0035305967365087025 -0.0035775301077884277 0 0.0035607644368719294 -0.0035134706319602835 0 0.0034732877804262612 -0.0035473560993138876 0 0.0035607644368719294 -0.0035134706319602835 0 0.0035426131001918427 -0.0034038004674375654 0 0.0035801583680221578 -0.0036075259524540868 0 0.0035607644368719294 -0.0035134706319602835 0 0.0036292127455169001 -0.0035229763965355038 0 0.0035607644368719294 -0.0035134706319602835 0 0.0036292127455169001 -0.0035229763965355038 0 0.0036077564521063343 -0.0034399764487825992 0 0.0036077564521063343 -0.0034399764487825992 0 0.0035858421061634241 -0.0033770502061475044 0 0.0036430516730518994 -0.0033803808385105289 0 0.0035858421061634241 -0.0033770502061475044 0 0.0036228366898219712 -0.0033252052955241389 0 0.003582705931319471 -0.0033069780785498384 0 0.0035858421061634241 -0.0033770502061475044 0 0.0036228366898219712 -0.0033252052955241389 0 0.0036430516730518994 -0.0033803808385105289 0 0.0035858421061634241 -0.0033770502061475044 0 0.0035648306199556274 -0.0033641493422329554 0 0.0035426131001918427 -0.0034038004674375654 0 0.0035858421061634241 -0.0033770502061475044 0 0.0035648306199556274 -0.0033641493422329554 0 0.003582705931319471 -0.0033069780785498384 0 0.0035607644368719294 -0.0035134706319602835 0 0.0036077564521063343 -0.0034399764487825992 0 0.0035426131001918427 -0.0034038004674375654 0 0.0036077564521063343 -0.0034399764487825992 0 0.0035858421061634241 -0.0033770502061475044 0 0.0035426131001918427 -0.0034038004674375654 0 0.003616671133025464 -0.0032264229340519717 0 0.0035426131001918427 -0.0034038004674375654 0 0.0035883225469688206 -0.0033988507198530003 0 0.0035938836534201062 -0.0034207035334921474 0 0.003748484806244672 -0.0031040536879750062 0 0.0035648306199556274 -0.0033641493422329554 0 0.0035426131001918427 -0.0034038004674375654 0 0.0035883225469688206 -0.0033988507198530003 0 0.0041453948155079521 -0.0028340631907642884 0 0.003748484806244672 -0.0031040536879750062 0 0.0035883225469688206 -0.0033988507198530003 0 0.0037149410197360312 -0.0033461764416736232 0 0.0037452318610924815 -0.0034801645314325664 0 0.0038386518998130858 -0.0033066923416433256 0 0.0037149410197360312 -0.0033461764416736232 0 0.0037452318610924815 -0.0034801645314325664 0 0.0035056787852188998 -0.0033721433714092911 0 0.0035523071743120416 -0.0033582620531365666 0 0.0035450231764390613 -0.003289011457521732 0 0.003748484806244672 -0.0031040536879750062 0 0.0034668314721703229 -0.0034129958517095708 0 0.0035279296289591768 -0.0033655377670679786 0 0.0035450231764390613 -0.003289011457521732 0 0.0035048532835623186 -0.0033038444660440456 0 0.0035883225469688206 -0.0033988507198530003 0 0.0035056787852188998 -0.0033721433714092911 0 0.0035523071743120416 -0.0033582620531365666 0 0.0035648306199556274 -0.0033641493422329554 0 0.0035523071743120416 -0.0033582620531365666 0 0.0035450231764390613 -0.003289011457521732 0 0.0035648306199556274 -0.0033641493422329554 0 0.0035883225469688206 -0.0033988507198530003 0 0.0035523071743120416 -0.0033582620531365666 0 0.0035450231764390613 -0.003289011457521732 0 0.0035638179747591058 -0.0032701623388922242 0 0.003582705931319471 -0.0033069780785498384 0 0.0035648306199556274 -0.0033641493422329554 0 0.0035450231764390613 -0.003289011457521732 0 0.003582705931319471 -0.0033069780785498384 0 0.0035450231764390613 -0.003289011457521732 0 0.0035048532835623186 -0.0033038444660440456 0 0.0035170967570895169 -0.0032338117440236058 0 0.0035170967570895169 -0.0032338117440236058 0 0.0035404095359437868 -0.0032425736755789941 0 0.0035359176377685567 -0.0032148210163074741 0 0.0035450231764390613 -0.003289011457521732 0 0.0035170967570895169 -0.0032338117440236058 0 0.0035404095359437868 -0.0032425736755789941 0 0.0035404095359437868 -0.0032425736755789941 0 0.0035638179747591058 -0.0032701623388922242 0 0.003580449767324669 -0.0032451497318611009 0 0.0035450231764390613 -0.003289011457521732 0 0.0035404095359437868 -0.0032425736755789941 0 0.0035638179747591058 -0.0032701623388922242 0 0.0035638179747591058 -0.0032701623388922242 0 0.003580449767324669 -0.0032451497318611009 0 0.003582705931319471 -0.0033069780785498384 0 0.003580449767324669 -0.0032451497318611009 0 0.0036280899211794102 -0.003281944045913145 0 0.003582705931319471 -0.0033069780785498384 0 0.0031969391105102266 -0.0030087443947738337 0 0.003421014689658029 -0.003146107927215354 0 0.0033739639617830983 -0.0029299666377014437 0 0.0033709369535845036 -0.0031339172177758385 0 0.0035315907108269687 -0.0032129619415724106 0 0.0036280899211794102 -0.003281944045913145 0 0.0036228366898219712 -0.0033252052955241389 0 0.003582705931319471 -0.0033069780785498384 0 0.0033214318377049975 -0.0027218189719501436 0 0.0031388856288558056 -0.0028562872806593641 0 0.0031002008357525566 -0.0025925212410540812 0 0.0033214318377049975 -0.0027218189719501436 0 0.0033739639617830983 -0.0029299666377014437 0 0.0035530762590998922 -0.0028093228681431493 0 0.0033214318377049975 -0.0027218189719501436 0 0.0033739639617830983 -0.0029299666377014437 0 0.0031388856288558056 -0.0028562872806593641 0 0.0031969391105102266 -0.0030087443947738337 0 0.0033739639617830983 -0.0029299666377014437 0 0.0031388856288558056 -0.0028562872806593641 0 0.0035404095359437868 -0.0032425736755789941 0 0.003580449767324669 -0.0032451497318611009 0 0.0035395950679485578 -0.0032166326488763898 0 0.0031388856288558056 -0.0028562872806593641 0 0.0029819669378809265 -0.0028809712236869266 0 0.0029849736699215572 -0.0028143466387908866 0 0.0033709369535845036 -0.0031339172177758385 0 0.003370509488818165 -0.0029636551821604433 0 0.0035404095359437868 -0.0032425736755789941 0 0.0035395950679485578 -0.0032166326488763898 0 0.0035359176377685567 -0.0032148210163074741 0 0.0031969391105102266 -0.0030087443947738337 0 0.0031388856288558056 -0.0028562872806593641 0 0.0029819669378809265 -0.0028809712236869266 0 0.0034049961064096376 -0.0030303216099227944 0 0.0033594447505838213 -0.0030041888418261115 0 0.0034116343750909637 -0.0029068854121496704 0 0.003370509488818165 -0.0029636551821604433 0 0.0033812108738664332 -0.0028907467420353074 0 0.0035381587770349321 -0.0032616720793469394 0 0.0035160498096942958 -0.0030160031038431235 0 0.0036606616154157595 -0.0030301418105856161 0 0.0035538883475061669 -0.0029589709627774142 0 0.0035072464794784564 -0.0030743252376491718 0 0.0035170967570895169 -0.0032338117440236058 0 0.0036606616154157595 -0.0030301418105856161 0 0.0035072464794784564 -0.0030743252376491718 0 0.003370509488818165 -0.0029636551821604433 0 0.0035160498096942958 -0.0030160031038431235 0 0.0035160498096942958 -0.0030160031038431235 0 0.0033812108738664332 -0.0028907467420353074 0 0.0035160498096942958 -0.0030160031038431235 0 0.0036102688507077948 -0.0030022616773224963 0 0.0036677278344891566 -0.0028336851795012683 0 0.0037630452467289203 -0.0029907939811839273 0 0.0037930250049249734 -0.0026881950508649724 0 0.0035538883475061669 -0.0029589709627774142 0 0.0036677278344891566 -0.0028336851795012683 0 0.0037630452467289203 -0.0029907939811839273 0 0.0037244529610250582 -0.0030612540968314242 0 0.0035538883475061669 -0.0029589709627774142 0 0.0037630452467289203 -0.0029907939811839273 0 0.0036677278344891566 -0.0028336851795012683 0 0.0035211557902318029 -0.0027256835446306626 0 0.0035268364879200119 -0.002871124849648491 0 0.0035538883475061669 -0.0029589709627774142 0 0.0036677278344891566 -0.0028336851795012683 0 0.0035268364879200119 -0.002871124849648491 0 0.0033812108738664332 -0.0028907467420353074 0 0.0035591953109869656 -0.0026689579140337081 0 0.0031388856288558056 -0.0028562872806593641 0 0.0029849736699215572 -0.0028143466387908866 0 0.0031002008357525566 -0.0025925212410540812 0 0.0033812108738664332 -0.0028907467420353074 0 0.0032639950187143005 -0.002584110313591148 0 0.0032937680136697475 -0.0028566567909271471 0 0.003478657076424696 -0.0025065541635809143 0 0.0033117612303746866 -0.0024992374171627836 0 0.0038973886709971904 -0.0021046122996641174 0 0.0038753216290779461 -0.0023342958744581497 0 0.0037141092175069224 -0.0026723970094854558 0 0.0037104551504129799 -0.0024675288370189733 0 0.0035211557902318029 -0.0027256835446306626 0 0.0036677278344891566 -0.0028336851795012683 0 0.0037141092175069224 -0.0026723970094854558 0 0.0035211557902318029 -0.0027256835446306626 0 0.0036677278344891566 -0.0028336851795012683 0 0.0037930250049249734 -0.0026881950508649724 0 0.0037141092175069224 -0.0026723970094854558 0 0.0037930250049249734 -0.0026881950508649724 0 0.0037141092175069224 -0.0026723970094854558 0 0.0037031264622032975 -0.0024189730060533514 0 0.0043080677173471839 -0.0017463695033861182 0 0.0041867068388723051 -0.0017369987373612263 0 0.0042015280341281607 -0.0018211269336853 0 0.004309335402110686 -0.0018032279734020761 0 0.0042015280341281607 -0.0018211269336853 0 0.004203032619830239 -0.0019419522066771375 0 0.0037384652027838911 -0.0027288450830318545 0 0.0038973886709971904 -0.0021046122996641174 0 0.0039286991006342717 -0.0017841436038795551 0 0.0039399670693477497 -0.001770101374400402 0 0.0039282748025191222 -0.0017693377268084183 0 0.0038973886709971904 -0.0021046122996641174 0 0.0041616449079980517 -0.0014087752154140502 0 0.004309335402110686 -0.0018032279734020761 0 0.0043080677173471839 -0.0017463695033861182 0 0.0042015280341281607 -0.0018211269336853 0 0.0037930250049249734 -0.0026881950508649724 0 0.0037031264622032975 -0.0024189730060533514 0 0.0038191842746002347 -0.0022960428176285776 0 0.003478657076424696 -0.0025065541635809143 0 0.0033117612303746866 -0.0024992374171627836 0 0.003331220690965574 -0.0021429653728972922 0 0.0036030385895915234 -0.0018579987061190567 0 0.0033450978608817118 -0.002055187629948425 0 0.003478657076424696 -0.0025065541635809143 0 0.003331220690965574 -0.0021429653728972922 0 0.0036623322969060032 -0.0021585365880509096 0 0.0035591953109869656 -0.0026689579140337081 0 0.0036030385895915234 -0.0018579987061190567 0 0.0036030385895915234 -0.0018579987061190567 0 0.0041616449079980517 -0.0014087752154140502 0 0.0038973886709971904 -0.0021046122996641174 0 0.0036030385895915234 -0.0018579987061190567 0 0.0032170871498415667 -0.002368553146903742 0 0.0032698987070950173 -0.002541627863190437 0 0.0033195421439732044 -0.0024376659444523326 0 0.0031002008357525566 -0.0025925212410540812 0 0.0032170871498415667 -0.002368553146903742 0 0.0032698987070950173 -0.002541627863190437 0 0.0032639950187143005 -0.002584110313591148 0 0.0033450978608817118 -0.002055187629948425 0 0.0033214318377049975 -0.0027218189719501436 0 0.0031002008357525566 -0.0025925212410540812 0 0.0032698987070950173 -0.002541627863190437 0 0.0033214318377049975 -0.0027218189719501436 0 0.0032698987070950173 -0.002541627863190437 0 0.0034635928979217761 -0.0025959262743391596 0 0.0032698987070950173 -0.002541627863190437 0 0.0033642399448759411 -0.0025027627593421677 0 0.0034635928979217761 -0.0025959262743391596 0 0.0033642399448759411 -0.0025027627593421677 0 0.0033782866948693494 -0.0024001471698554934 0 0.0034635928979217761 -0.0025959262743391596 0 0.0032521557365713899 -0.0022310939975853255 0 0.0034646917697493214 -0.0026129206689540461 0 0.0032698987070950173 -0.002541627863190437 0 0.0033642399448759411 -0.0025027627593421677 0 0.0033195421439732044 -0.0024376659444523326 0 0.0033642399448759411 -0.0025027627593421677 0 0.0033195421439732044 -0.0024376659444523326 0 0.0033782866948693494 -0.0024001471698554934 0 0.0033450978608817118 -0.002055187629948425 0 0.0030872549010661087 -0.0019117318763677805 0 0.0032170871498415667 -0.002368553146903742 0 0.0033195421439732044 -0.0024376659444523326 0 0.0033672168560893953 -0.0023756333801811169 0 0.0033195421439732044 -0.0024376659444523326 0 0.0033782866948693494 -0.0024001471698554934 0 0.0033672168560893953 -0.0023756333801811169 0 0.0032521557365713899 -0.0022310939975853255 0 0.0030872549010661087 -0.0019117318763677805 0 0.0026277703879431895 -0.0014876306692771396 0 0.0026633002790203918 -0.001553680879090912 0 0.0025942689974150003 -0.0015712845904399205 0 0.0033072300861411125 -0.0017090608114937067 0 0.0033066865978935286 -0.0017038691012258261 0 0.003305728382230973 -0.0017064437104948641 0 0.0030872549010661087 -0.0019117318763677805 0 0.0030068567883048312 -0.0015815163729601194 0 0.0033072040307843735 -0.0017052381668118436 0 0.003305728382230973 -0.0017064437104948641 0 0.0033061189316228429 -0.0017042394587381906 0 0.0033061455862706205 -0.0017058014042852748 0 0.0033072040307843735 -0.0017052381668118436 0 0.003305728382230973 -0.0017064437104948641 0 0.0033048860592634699 -0.0017087568376411241 0 0.0033072300861411125 -0.0017090608114937067 0 0.003305728382230973 -0.0017064437104948641 0 0.0033450978608817118 -0.002055187629948425 0 0.0033937395904031476 -0.0018477800578074655 0 0.0033066865978935286 -0.0017038691012258261 0 0.003305728382230973 -0.0017064437104948641 0 0.0033061189316228429 -0.0017042394587381906 0 0.0033072040307843735 -0.0017052381668118436 0 0.0033061189316228429 -0.0017042394587381906 0 0.0033062761069569059 -0.0017040793985936642 0 0.0030068567883048312 -0.0015815163729601194 0 0.0030172567349140756 -0.0014530697952520066 0 0.0030735218519389539 -0.0015634268233674698 0 0.0030312299285911093 -0.0014388877612023234 0 0.0030189434253328909 -0.0014542629882128831 0 0.0033061189316228429 -0.0017042394587381906 0 0.0033057575444458763 -0.0016993146475585785 0 0.0033062761069569059 -0.0017040793985936642 0 0.0032190371738170342 -0.0014209789041469186 0 0.0033748320101960804 -0.0015401205127358608 0 0.0030068567883048312 -0.0015815163729601194 0 0.0032190371738170342 -0.0014209789041469186 0 0.0033066865978935286 -0.0017038691012258261 0 0.0033061189316228429 -0.0017042394587381906 0 0.0033057575444458763 -0.0016993146475585785 0 0.0030172567349140756 -0.0014530697952520066 0 0.0032190371738170342 -0.0014209789041469186 0 0.0035522253803276119 -0.0012356518950430288 0 0.0034390507854474058 -0.0012129554694505734 0 0.0034448381933218845 -0.0013736237806056539 0 0.0026633002790203918 -0.001553680879090912 0 0.0026933663723949582 -0.0016328444013758029 0 0.0026432378987097274 -0.0016132283617255553 0 0.0026633002790203918 -0.001553680879090912 0 0.0025942689974150003 -0.0015712845904399205 0 0.0026432378987097274 -0.0016132283617255553 0 0.0026933663723949582 -0.0016328444013758029 0 0.0026432378987097274 -0.0016132283617255553 0 0.0026721063034230185 -0.0016594531004846481 0 0.0026432378987097274 -0.0016132283617255553 0 0.0025970790663192179 -0.0016328701759102688 0 0.0026721063034230185 -0.0016594531004846481 0 0.0025942689974150003 -0.0015712845904399205 0 0.0026432378987097274 -0.0016132283617255553 0 0.0025970790663192179 -0.0016328701759102688 0 0.0025417200957371625 -0.0016109242889358365 0 0.0025437826758541301 -0.0016315915387266557 0 0.0025680744446027783 -0.0016181005050058773 0 0.0025437826758541301 -0.0016315915387266557 0 0.0025680744446027783 -0.0016181005050058773 0 0.002547945648523395 -0.0016401852817767776 0 0.0026670464326380896 -0.0014761061166988195 0 0.0025801150034003161 -0.00099073741635562424 0 0.0030082820358822968 -0.00097864917684512128 0 0.0030013132537477132 -0.00080565657924603891 0 0.0031795832150499428 -0.00076323328343535699 0 0.002838750900338818 -0.0013857928613523873 0 0.0025801150034003161 -0.00099073741635562424 0 0.0025539705224859668 -0.0016068308468571945 0 0.002838750900338818 -0.0013857928613523873 0 0.0032204868077365082 -0.0013430224364954291 0 0.0031732375744830794 -0.0014022265075395405 0 0.0031151512285101097 -0.0010992099139919209 0 0.0030172567349140756 -0.0014530697952520066 0 0.002838750900338818 -0.0013857928613523873 0 0.002838750900338818 -0.0013857928613523873 0 0.0029402584583586859 -0.0010686704137420034 0 0.0030172567349140756 -0.0014530697952520066 0 0.0029402584583586859 -0.0010686704137420034 0 0.0029611372366012065 -0.0013388702517887466 0 0.0030087374268710967 -0.0012789094899040697 0 0.0029202693796955893 -0.0012442382866521267 0 0.0030082820358822968 -0.00097864917684512128 0 0.0028808382339835588 -0.0009285375860797905 0 0.0029440449644441819 -0.00086428104892646612 0 0.0032190371738170342 -0.0014209789041469186 0 0.0031436095980055222 -0.0010105856888440398 0 0.0035522253803276119 -0.0012356518950430288 0 0.0034872650344928667 -0.0011064406487959267 0 0.0034390507854474058 -0.0012129554694505734 0 0.0031732375744830794 -0.0014022265075395405 0 0.0031151512285101097 -0.0010992099139919209 0 0.0029955241310261576 -0.0010529540469605444 0 0.0029402584583586859 -0.0010686704137420034 0 0.0031436095980055222 -0.0010105856888440398 0 0.0028808382339835588 -0.0009285375860797905 0 0.0029440449644441819 -0.00086428104892646612 0 0.0028859758573256196 -0.00074452352950691583 0 0.0030082820358822968 -0.00097864917684512128 0 0.0029440449644441819 -0.00086428104892646612 0 0.0030013132537477132 -0.00080565657924603891 0 0.0029440449644441819 -0.00086428104892646612 0 0.0030013132537477132 -0.00080565657924603891 0 0.0028859758573256196 -0.00074452352950691583 0 0.0028859758573256196 -0.00074452352950691583 0 0.0029264084419708776 -0.00064486607375266035 0 0.0026981903973587449 -0.00049432047375880912 0 0.0029402584583586859 -0.0010686704137420034 0 0.0026907140641738484 -0.00046949251243355095 0 0.0030013132537477132 -0.00080565657924603891 0 0.0028859758573256196 -0.00074452352950691583 0 0.0029264084419708776 -0.00064486607375266035 0 0.0029310192980026473 -0.0010035933958965695 0 0.0028507877215283497 -0.00097334038069454073 0 0.0026981903973587449 -0.00049432047375880912 0 0.0028808382339835588 -0.0009285375860797905 0 0.0028859758573256196 -0.00074452352950691583 0 0.0026981903973587449 -0.00049432047375880912 0 0.0025801150034003161 -0.00099073741635562424 0 0.0026849292110260391 -0.0002424909650686772 0 0.00240210183082404 -0.00029796899239418865 0 0.0023769403924671735 -0.00037184597686031523 0 0.0023038667281509691 -0.00019183609560167122 0 0.0029264084419708776 -0.00064486607375266035 0 0.0031795832150499428 -0.00076323328343535699 0 0.0030512483733371623 -0.00040958624470184687 0 0.0030013132537477132 -0.00080565657924603891 0 0.0029264084419708776 -0.00064486607375266035 0 0.0031795832150499428 -0.00076323328343535699 0 0.00240210183082404 -0.00029796899239418865 0 0.0024234076522504141 -0.00031005312639056123 0 0.0024130557381685908 -0.00018960557643219757 0 0.0022875131144483012 -0.00062166729129594419 0 0.0022951133924481526 -0.00066324786914900163 0 0.0025437826758541301 -0.0016315915387266557 0 0.0025469830593083521 -0.001639727825222863 0 0.0025374295230107761 -0.0016509603878648964 0 0.00240210183082404 -0.00029796899239418865 0 0.0023769403924671735 -0.00037184597686031523 0 0.002423113226882758 -0.00031201200275542292 0 0.0025801150034003161 -0.00099073741635562424 0 0.0022951133924481526 -0.00066324786914900163 0 0.0034893105686965632 -0.00071669615678563337 0 0.0036438116031470625 -0.00052529494607157768 0 0.0034803389461763642 -0.00044228062440653204 0 0.0040978465249394275 -0.00069369922425772154 0 0.0039886355971008322 -0.00057343635292372733 0 0.0045011166442873356 -0.00065885209499181175 0 0.0045038926616528911 -0.00062743082168676832 0 0.0044886799355830752 -0.00063573744455950112 0 0.0040978465249394275 -0.00069369922425772154 0 0.0045664593066949196 -0.00071309961889506163 0 0.0045011166442873356 -0.00065885209499181175 0 0.0044856699323131948 -0.00065140271670903612 0 0.0044886799355830752 -0.00063573744455950112 0 0.0034893105686965632 -0.00071669615678563337 0 0.003632198658827958 -0.0007720697075325612 0 0.0036438116031470625 -0.00052529494607157768 0 0.0028507877215283497 -0.00097334038069454073 0 0.0026981903973587449 -0.00049432047375880912 0 0.002629428690465843 -0.00055072911895201763 0 0.0031436095980055222 -0.0010105856888440398 0 0.0032855034387863969 -0.00050765704334144437 0 0.0035267539725062766 -0.00087059534259436048 0 0.0032855034387863969 -0.00050765704334144437 0 0.0033855597889552412 -0.00090312808434103329 0 0.0032393815522207274 -0.00084590646396852007 0 0.0032510989708896326 -0.00063486318113898006 0 0.0040978465249394275 -0.00069369922425772154 0 0.0035267539725062766 -0.00087059534259436048 0 0.0035267539725062766 -0.00087059534259436048 0 0.0036549948953319999 -0.0011630953610512944 0 0.0033583635852508999 -0.0010554551390944467 0 0.0034390507854474058 -0.0012129554694505734 0 0.0033469741328302745 -0.0012836525233452995 0 0.0031436095980055222 -0.0010105856888440398 0 0.0035267539725062766 -0.00087059534259436048 0 0.0034872650344928667 -0.0011064406487959267 0 0.0033583635852508999 -0.0010554551390944467 0 0.0034390507854474058 -0.0012129554694505734 0 0.0037922694871921473 -0.00070671133171699508 0 0.003949937769894509 -0.00076799880189500232 0 0.003799884997721931 -0.0010787741738647672 0 0.0040978465249394275 -0.00069369922425772154 0 0.0041621137635321909 -0.00083327866304930688 0 0.0045111753867351796 -0.00066147107690633445 0 0.0045152844807537507 -0.0007105335087921967 0 0.0044891996853900296 -0.00068744946973269504 0 0.0045111753867351796 -0.00066147107690633445 0 0.0044891996853900296 -0.00068744946973269504 0 0.0044856699323131948 -0.00065140271670903612 0 0.0045152844807537507 -0.0007105335087921967 0 0.0044950793182786412 -0.0007249650020248016 0 0.0044891996853900296 -0.00068744946973269504 0 0.0045152844807537507 -0.0007105335087921967 0 0.0044950793182786412 -0.0007249650020248016 0 0.0045089563609642539 -0.00075153498875283318 0 0.003949937769894509 -0.00076799880189500232 0 0.003799884997721931 -0.0010787741738647672 0 0.0039332002791025184 -0.0011012451889379263 0 0.003799884997721931 -0.0010787741738647672 0 0.0039332002791025184 -0.0011012451889379263 0 0.0039152781881850842 -0.0014419484486008374 0 0.0034390507854474058 -0.0012129554694505734 0 0.0033469741328302745 -0.0012836525233452995 0 0.0034448381933218845 -0.0013736237806056539 0 0.0036549948953319999 -0.0011630953610512944 0 0.003558745999926104 -0.0016627488151465897 0 0.0033102578580781264 -0.0017048131661521011 0 0.0033061455862706205 -0.0017058014042852748 0 0.0033072040307843735 -0.0017052381668118436 0 0.0033469741328302745 -0.0012836525233452995 0 0.0034448381933218845 -0.0013736237806056539 0 0.0033371867839319565 -0.001512870458913005 0 0.0033748320101960804 -0.0015401205127358608 0 0.003558745999926104 -0.0016627488151465897 0 0.0039139632988631629 -0.0014653873882635776 0 0.0039152781881850842 -0.0014419484486008374 0 0.0038078387686527972 -0.0014600207172313551 0 0.0036030385895915234 -0.0018579987061190567 0 0.003558745999926104 -0.0016627488151465897 0 0.0033072040307843735 -0.0017052381668118436 0 0.0033062761069569059 -0.0017040793985936642 0 0.0033101571588344306 -0.0017049834091698521 0 0.0033102578580781264 -0.0017048131661521011 0 0.0033072040307843735 -0.0017052381668118436 0 0.0033101571588344306 -0.0017049834091698521 0 0.0041616449079980517 -0.0014087752154140502 0 0.0043902972878715543 -0.0010496859056683728 0 0.0045089563609642539 -0.00075153498875283318 0 0.0045166206299975531 -0.00077344782925377418 0 0.0044671284519390746 -0.00077567256044256576 0 0.003799884997721931 -0.0010787741738647672 0 0.0039152781881850842 -0.0014419484486008374 0 0.0038078387686527972 -0.0014600207172313551 0 0.0041621137635321909 -0.00083327866304930688 0 0.0041616449079980517 -0.0014087752154140502 0 0.0045152844807537507 -0.0007105335087921967 0 0.0045089563609642539 -0.00075153498875283318 0 0.0045166206299975531 -0.00077344782925377418 0 0.0044950793182786412 -0.0007249650020248016 0 0.0045089563609642539 -0.00075153498875283318 0 0.0044831088826754496 -0.00074122475881503724 0 0.0045669817206385787 -0.00074727591131802521 0 0.0043902972878715543 -0.0010496859056683728 0 0.0045089563609642539 -0.00075153498875283318 0 0.0044868666175523746 -0.00075791907054746134 0 0.0044831088826754496 -0.00074122475881503724 0 0.0044868666175523746 -0.00075791907054746134 0 0.0044831088826754496 -0.00074122475881503724 0 0.0044718650137616778 -0.00076767546273995583 0 0.0044677636602830405 -0.0007428936804281226 0 0.0044831088826754496 -0.00074122475881503724 0 0.0044718650137616778 -0.00076767546273995583 0 0.0044677636602830405 -0.0007428936804281226 0 0.0044831088826754496 -0.00074122475881503724 0 0.0044741422976793833 -0.0007197560639318069 0 0.0044677636602830405 -0.0007428936804281226 0 0.0044472284084961667 -0.00073802362322738894 0 0.0044741422976793833 -0.0007197560639318069 0 0.0044677636602830405 -0.0007428936804281226 0 0.0044472284084961667 -0.00073802362322738894 0 0.0044718650137616778 -0.00076767546273995583 0 0.0044472284084961667 -0.00073802362322738894 0 0.0044599001378063333 -0.00069503748178064578 0 0.0044207990620482706 -0.00070837481475826206 0 0.0044472284084961667 -0.00073802362322738894 0 0.0044599001378063333 -0.00069503748178064578 0 0.0044741422976793833 -0.0007197560639318069 0 0.0044599001378063333 -0.00069503748178064578 0 0.0044741422976793833 -0.0007197560639318069 0 0.0044891996853900296 -0.00068744946973269504 0 0.0044950793182786412 -0.0007249650020248016 0 0.0044741422976793833 -0.0007197560639318069 0 0.0044891996853900296 -0.00068744946973269504 0 0.0044950793182786412 -0.0007249650020248016 0 0.0044831088826754496 -0.00074122475881503724 0 0.0044741422976793833 -0.0007197560639318069 0 0.0044891996853900296 -0.00068744946973269504 0 0.0044683725016276795 -0.00067038505581202841 0 0.0044856699323131948 -0.00065140271670903612 0 0.0044599001378063333 -0.00069503748178064578 0 0.0044891996853900296 -0.00068744946973269504 0 0.0044683725016276795 -0.00067038505581202841 0 0.0044599001378063333 -0.00069503748178064578 0 0.0044456113573363648 -0.00066722630436643173 0 0.0044207990620482706 -0.00070837481475826206 0 0.0044599001378063333 -0.00069503748178064578 0 0.0044683725016276795 -0.00067038505581202841 0 0.0044456113573363648 -0.00066722630436643173 0 0.0044683725016276795 -0.00067038505581202841 0 0.0044456113573363648 -0.00066722630436643173 0 0.0044632083679694212 -0.00065184967657503344 0 0.0044632083679694212 -0.00065184967657503344 0 0.0044453437274489353 -0.00064265741936519701 0 0.0044692826600586013 -0.00063309528014616448 0 0.0044456113573363648 -0.00066722630436643173 0 0.0044632083679694212 -0.00065184967657503344 0 0.0044453437274489353 -0.00064265741936519701 0 0.0044632083679694212 -0.00065184967657503344 0 0.0044856699323131948 -0.00065140271670903612 0 0.0044692826600586013 -0.00063309528014616448 0 0.0044856699323131948 -0.00065140271670903612 0 0.0044692826600586013 -0.00063309528014616448 0 0.0044886799355830752 -0.00063573744455950112 0 0.0044683725016276795 -0.00067038505581202841 0 0.0044632083679694212 -0.00065184967657503344 0 0.0044856699323131948 -0.00065140271670903612 0 0.0044205678239292098 -0.00066289075143269598 0 0.0044063444874791 -0.00064043980619954215 0 0.0044273239215399333 -0.00062887023958612006 0 0.0044205678239292098 -0.00066289075143269598 0 0.0044000689824045839 -0.00066128152172567351 0 0.0044063444874791 -0.00064043980619954215 0 0.0044456113573363648 -0.00066722630436643173 0 0.0044453437274489353 -0.00064265741936519701 0 0.0044205678239292098 -0.00066289075143269598 0 0.0044453437274489353 -0.00064265741936519701 0 0.0044205678239292098 -0.00066289075143269598 0 0.0044273239215399333 -0.00062887023958612006 0 0.0044456113573363648 -0.00066722630436643173 0 0.0044205678239292098 -0.00066289075143269598 0 0.0044207990620482706 -0.00070837481475826206 0 0.0044205678239292098 -0.00066289075143269598 0 0.0044064955659283362 -0.00068979247468504209 0 0.0044000689824045839 -0.00066128152172567351 0 0.0044205678239292098 -0.00066289075143269598 0 0.0044064955659283362 -0.00068979247468504209 0 0.0044207990620482706 -0.00070837481475826206 0 0.0044064955659283362 -0.00068979247468504209 0 0.0044207990620482706 -0.00070837481475826206 0 0.0044005037409440336 -0.00070703484769350843 0 0.0041970177893161835 -0.00074295802678923744 0 0.0049075087149143218 -0.00068559293956515458 0 0.0044472284084961667 -0.00073802362322738894 0 0.0044207990620482706 -0.00070837481475826206 0 0.0044090998442580902 -0.00075766713510022491 0 0.0044090998442580902 -0.00075766713510022491 0 0.0043684490414205093 -0.00077970935788230101 0 0.0043573399703249246 -0.00073084785037427443 0 0.0044207990620482706 -0.00070837481475826206 0 0.0044090998442580902 -0.00075766713510022491 0 0.0043573399703249246 -0.00073084785037427443 0 0.0044090998442580902 -0.00075766713510022491 0 0.0044299482827984526 -0.00079783746798797392 0 0.0043684490414205093 -0.00077970935788230101 0 0.0043792698513926073 -0.00083067817254644746 0 0.0044299482827984526 -0.00079783746798797392 0 0.0043684490414205093 -0.00077970935788230101 0 0.0043737179672826655 -0.0013843232050971615 0 0.0047950294495252618 -0.00077630572230421593 0 0.0043737179672826655 -0.0013843232050971615 0 0.0041264028922786255 -0.0013467751396811754 0 0.0037636454738555875 -0.0019519231311694561 0 0.0039402229775647212 -0.0018631911389153325 0 0.0039391785726280975 -0.0020344649179929778 0 0.0044472284084961667 -0.00073802362322738894 0 0.0044090998442580902 -0.00075766713510022491 0 0.0044299482827984526 -0.00079783746798797392 0 0.0044472284084961667 -0.00073802362322738894 0 0.0044299482827984526 -0.00079783746798797392 0 0.0044718650137616778 -0.00076767546273995583 0 0.0039402229775647212 -0.0018631911389153325 0 0.0041142934716545494 -0.0017743863902511591 0 0.0040843358747677007 -0.0019222002337878879 0 0.0041264028922786255 -0.0013467751396811754 0 0.0042916272548650831 -0.0012478960806530709 0 0.0041142934716545494 -0.0017743863902511591 0 0.0042015280341281607 -0.0018211269336853 0 0.0040843358747677007 -0.0019222002337878879 0 0.0041867068388723051 -0.0017369987373612263 0 0.0041142934716545494 -0.0017743863902511591 0 0.0042015280341281607 -0.0018211269336853 0 0.0043902972878715543 -0.0010496859056683728 0 0.0042916272548650831 -0.0012478960806530709 0 0.004203032619830239 -0.0019419522066771375 0 0.0040843358747677007 -0.0019222002337878879 0 0.0040950191587564031 -0.0020830013225330846 0 0.0042015280341281607 -0.0018211269336853 0 0.004203032619830239 -0.0019419522066771375 0 0.0040843358747677007 -0.0019222002337878879 0 0.0039402229775647212 -0.0018631911389153325 0 0.0040843358747677007 -0.0019222002337878879 0 0.0039391785726280975 -0.0020344649179929778 0 0.0040843358747677007 -0.0019222002337878879 0 0.0040950191587564031 -0.0020830013225330846 0 0.0039391785726280975 -0.0020344649179929778 0 0.0038753216290779461 -0.0023342958744581497 0 0.003755255059010395 -0.0025054635316834428 0 0.0035211557902318029 -0.0027256835446306626 0 0.0033903890696124549 -0.0029613822413657506 0 0.0035268364879200119 -0.002871124849648491 0 0.0035538883475061669 -0.0029589709627774142 0 0.0033903890696124549 -0.0029613822413657506 0 0.0035268364879200119 -0.002871124849648491 0 0.0034092312889060805 -0.0031680051229795677 0 0.0033903890696124549 -0.0029613822413657506 0 0.0035072464794784564 -0.0030743252376491718 0 0.0035538883475061669 -0.0029589709627774142 0 0.0033903890696124549 -0.0029613822413657506 0 0.0035072464794784564 -0.0030743252376491718 0 0.0034092312889060805 -0.0031680051229795677 0 0.0033903890696124549 -0.0029613822413657506 0 0.0033123786000267162 -0.0031161602765805364 0 0.003755255059010395 -0.0025054635316834428 0 0.0035849603409825407 -0.0027364706254240307 0 0.0040950191587564031 -0.0020830013225330846 0 0.0039850227605507183 -0.0022264827362905482 0 0.0039391785726280975 -0.0020344649179929778 0 0.0039850227605507183 -0.0022264827362905482 0 0.003815633398924967 -0.0021606173464586613 0 0.0039391785726280975 -0.0020344649179929778 0 0.0042317240751997796 -0.0020590002379527062 0 0.0043364549392958807 -0.0019083220145869823 0 0.0042192982042028237 -0.0019023049884181772 0 0.0043364549392958807 -0.0019083220145869823 0 0.0042243822018538111 -0.0018101450893769665 0 0.0042192982042028237 -0.0019023049884181772 0 0.0037636454738555875 -0.0019519231311694561 0 0.003815633398924967 -0.0021606173464586613 0 0.0039391785726280975 -0.0020344649179929778 0 0.0043737179672826655 -0.0013843232050971615 0 0.0040642220221462711 -0.0020670844533929667 0 0.0042809000255663301 -0.0016944783976980821 0 0.0043364549392958807 -0.0019083220145869823 0 0.0042243822018538111 -0.0018101450893769665 0 0.0046903279660406175 -0.0013984508946826679 0 0.0042316745075432578 -0.0016839251061988275 0 0.0051335244334941516 -0.00097028499785027547 0 0.0048924838509638389 -0.001085251861783057 0 0.0051733857875751925 -0.0009022462052650221 0 0.0051551176070388826 -0.00096410636576137762 0 0.0051834256120531601 -0.00086063463060524509 0 0.004090499435734596 -0.0018407994297540585 0 0.0041319104634552229 -0.0017736028599120391 0 0.0039842858302131289 -0.0018566630572535679 0 0.0051318489749544493 -0.0010620262507764916 0 0.0051551176070388826 -0.00096410636576137762 0 0.0045486022554133915 -0.0013146965144567196 0 0.0051318489749544493 -0.0010620262507764916 0 0.0045334341693994374 -0.0014989448096539735 0 0.0045486022554133915 -0.0013146965144567196 0 0.004090499435734596 -0.0018407994297540585 0 0.0041319104634552229 -0.0017736028599120391 0 0.0041519856585520544 -0.0018469193024986282 0 0.004090499435734596 -0.0018407994297540585 0 0.0041519856585520544 -0.0018469193024986282 0 0.0040941580261619022 -0.0018861574718110909 0 0.0051733857875751925 -0.0009022462052650221 0 0.0051834256120531601 -0.00086063463060524509 0 0.005182971862805346 -0.0008844845611602945 0 0.0051733857875751925 -0.0009022462052650221 0 0.0051780103484995489 -0.00089896567336860854 0 0.005182971862805346 -0.0008844845611602945 0 0.0051780103484995489 -0.00089896567336860854 0 0.005182971862805346 -0.0008844845611602945 0 0.0051862598226603673 -0.00088926470530624501 0 0.0051780103484995489 -0.00089896567336860854 0 0.0051862598226603673 -0.00088926470530624501 0 0.0051810272274883176 -0.00090018893773590521 0 0.0051733857875751925 -0.0009022462052650221 0 0.0051714013853965714 -0.00091191829390734243 0 0.0051652730406599404 -0.00092861389101039991 0 0.0051733857875751925 -0.0009022462052650221 0 0.0051780103484995489 -0.00089896567336860854 0 0.0051714013853965714 -0.00091191829390734243 0 0.0051780103484995489 -0.00089896567336860854 0 0.0051714013853965714 -0.00091191829390734243 0 0.005173733935587968 -0.00090957673641599496 0 0.0051714013853965714 -0.00091191829390734243 0 0.0051652730406599404 -0.00092861389101039991 0 0.0051677519808445791 -0.0009211096130345111 0 0.0051733857875751925 -0.0009022462052650221 0 0.0051652730406599404 -0.00092861389101039991 0 0.0051551176070388826 -0.00096410636576137762 0 0.0051652730406599404 -0.00092861389101039991 0 0.0051551176070388826 -0.00096410636576137762 0 0.0051610854375069033 -0.0009396814368852226 0 0.0042809000255663301 -0.0016944783976980821 0 0.0041319104634552229 -0.0017736028599120391 0 0.0042243822018538111 -0.0018101450893769665 0 0.0043737179672826655 -0.0013843232050971615 0 0.0046903279660406175 -0.0013984508946826679 0 0.0052653952351885058 -0.00091236643398813521 0 0.0051318489749544493 -0.0010620262507764916 0 0.0051551176070388826 -0.00096410636576137762 0 0.0042243822018538111 -0.0018101450893769665 0 0.0041519856585520544 -0.0018469193024986282 0 0.0042192982042028237 -0.0019023049884181772 0 0.0041319104634552229 -0.0017736028599120391 0 0.0042243822018538111 -0.0018101450893769665 0 0.0041519856585520544 -0.0018469193024986282 0 0.0042317240751997796 -0.0020590002379527062 0 0.0042192982042028237 -0.0019023049884181772 0 0.0041557153376724438 -0.0019349440714292337 0 0.0041519856585520544 -0.0018469193024986282 0 0.0041557153376724438 -0.0019349440714292337 0 0.0040941580261619022 -0.0018861574718110909 0 0.0041519856585520544 -0.0018469193024986282 0 0.0042192982042028237 -0.0019023049884181772 0 0.0041557153376724438 -0.0019349440714292337 0 0.0040833159963349457 -0.0019816767718290494 0 0.0040941580261619022 -0.0018861574718110909 0 0.0039842858302131289 -0.0018566630572535679 0 0.0041557153376724438 -0.0019349440714292337 0 0.0040833159963349457 -0.0019816767718290494 0 0.0040941580261619022 -0.0018861574718110909 0 0.0040576764291599138 -0.001995297834002957 0 0.0039487933081165166 -0.0019175739428336758 0 0.0040833159963349457 -0.0019816767718290494 0 0.0039417836469905774 -0.0019049408538774528 0 0.0039842858302131289 -0.0018566630572535679 0 0.004090499435734596 -0.0018407994297540585 0 0.0040941580261619022 -0.0018861574718110909 0 0.0039842858302131289 -0.0018566630572535679 0 0.0039272656002838817 -0.0020096648526929006 0 0.0040480236134455257 -0.0020190717119348456 0 0.0039417836469905774 -0.0019049408538774528 0 0.0038574730681462601 -0.001895719010641057 0 0.0038521027015633188 -0.0017512279356247345 0 0.0045334341693994374 -0.0014989448096539735 0 0.0039417836469905774 -0.0019049408538774528 0 0.0038574730681462601 -0.001895719010641057 0 0.0039842858302131289 -0.0018566630572535679 0 0.0038935622452863769 -0.0018749792463504877 0 0.0042316745075432578 -0.0016839251061988275 0 0.0039272656002838817 -0.0020096648526929006 0 0.0039417836469905774 -0.0019049408538774528 0 0.0038574730681462601 -0.001895719010641057 0 0.0044702751900231744 -0.0013114698285189297 0 0.0049228060915283266 -0.0014196471829124925 0 0.0038574730681462601 -0.001895719010641057 0 0.0038521027015633188 -0.0017512279356247345 0 0.0036285120790434016 -0.0019426752328497345 0 0.0052279385320889741 -0.00084132154935011695 0 0.0052483391852197634 -0.00083935992871836786 0 0.0052433898626360817 -0.00084468121469198317 0 0.0037770264054683392 -0.0020427558675946878 0 0.0038574730681462601 -0.001895719010641057 0 0.0036285120790434016 -0.0019426752328497345 0 0.0038579958158630979 -0.0020082956772449431 0 0.0039272656002838817 -0.0020096648526929006 0 0.0038574730681462601 -0.001895719010641057 0 0.0052279385320889741 -0.00084132154935011695 0 0.0052357480572776229 -0.00084775469971256289 0 0.0052433898626360817 -0.00084468121469198317 0 0.0052357480572776229 -0.00084775469971256289 0 0.0052395847950480181 -0.00085370711565872597 0 0.0052433898626360817 -0.00084468121469198317 0 0.0052357480572776229 -0.00084775469971256289 0 0.0052293379257339874 -0.00085215118332004252 0 0.0052395847950480181 -0.00085370711565872597 0 0.0052279385320889741 -0.00084132154935011695 0 0.0052293379257339874 -0.00085215118332004252 0 0.0052165680925728005 -0.00085809255415951512 0 0.0052293379257339874 -0.00085215118332004252 0 0.0052266176399514272 -0.00085878912762092565 0 0.0052395847950480181 -0.00085370711565872597 0 0.0052279385320889741 -0.00084132154935011695 0 0.0052357480572776229 -0.00084775469971256289 0 0.0052293379257339874 -0.00085215118332004252 0 0.0052293379257339874 -0.00085215118332004252 0 0.0052266176399514272 -0.00085878912762092565 0 0.0052165680925728005 -0.00085809255415951512 0 0.0052296642891014756 -0.00086254078897528806 0 0.0052266176399514272 -0.00085878912762092565 0 0.0052157104742361947 -0.00086787367562619639 0 0.0052266176399514272 -0.00085878912762092565 0 0.0052165680925728005 -0.00085809255415951512 0 0.0052157104742361947 -0.00086787367562619639 0 0.0052296642891014756 -0.00086254078897528806 0 0.0052157104742361947 -0.00086787367562619639 0 0.0052215585139130391 -0.00087097195419373759 0 0.0052296642891014756 -0.00086254078897528806 0 0.0052266176399514272 -0.00085878912762092565 0 0.0052395847950480181 -0.00085370711565872597 0 0.0052296642891014756 -0.00086254078897528806 0 0.0052395847950480181 -0.00085370711565872597 0 0.0052380314644402803 -0.00086230372310747421 0 0.0052395847950480181 -0.00085370711565872597 0 0.0052380314644402803 -0.00086230372310747421 0 0.0052513472505843076 -0.00085543763310747076 0 0.0038521027015633188 -0.0017512279356247345 0 0.0045334341693994374 -0.0014989448096539735 0 0.0045486022554133915 -0.0013146965144567196 0 0.0052279385320889741 -0.00084132154935011695 0 0.0051834256120531601 -0.00086063463060524509 0 0.00520543422844689 -0.00085873211410196341 0 0.0044702751900231744 -0.0013114698285189297 0 0.0048924838509638389 -0.001085251861783057 0 0.0051834256120531601 -0.00086063463060524509 0 0.00520543422844689 -0.00085873211410196341 0 0.0051945412614363799 -0.00087361685986056179 0 0.0052279385320889741 -0.00084132154935011695 0 0.0052165680925728005 -0.00085809255415951512 0 0.00520543422844689 -0.00085873211410196341 0 0.0052165680925728005 -0.00085809255415951512 0 0.00520543422844689 -0.00085873211410196341 0 0.0052073391119195735 -0.00086653625774556165 0 0.00520543422844689 -0.00085873211410196341 0 0.0052073391119195735 -0.00086653625774556165 0 0.0051945412614363799 -0.00087361685986056179 0 0.0052073391119195735 -0.00086653625774556165 0 0.0052036795067845077 -0.00087435344233986355 0 0.0051945412614363799 -0.00087361685986056179 0 0.0052165680925728005 -0.00085809255415951512 0 0.0052073391119195735 -0.00086653625774556165 0 0.0052157104742361947 -0.00086787367562619639 0 0.0052073391119195735 -0.00086653625774556165 0 0.0052157104742361947 -0.00086787367562619639 0 0.0052036795067845077 -0.00087435344233986355 0 0.0052157104742361947 -0.00086787367562619639 0 0.0052070272854076779 -0.00087865956491410427 0 0.0052215585139130391 -0.00087097195419373759 0 0.0052157104742361947 -0.00086787367562619639 0 0.0052036795067845077 -0.00087435344233986355 0 0.0052070272854076779 -0.00087865956491410427 0 0.0052036795067845077 -0.00087435344233986355 0 0.0051951318665812273 -0.00088363551649195383 0 0.0052070272854076779 -0.00087865956491410427 0 0.0051951318665812273 -0.00088363551649195383 0 0.0051945412614363799 -0.00087361685986056179 0 0.0051862598226603673 -0.00088926470530624501 0 0.0052036795067845077 -0.00087435344233986355 0 0.0051951318665812273 -0.00088363551649195383 0 0.0051945412614363799 -0.00087361685986056179 0 0.0051834256120531601 -0.00086063463060524509 0 0.0051945412614363799 -0.00087361685986056179 0 0.005182971862805346 -0.0008844845611602945 0 0.0051945412614363799 -0.00087361685986056179 0 0.005182971862805346 -0.0008844845611602945 0 0.0051862598226603673 -0.00088926470530624501 0 0.0051951318665812273 -0.00088363551649195383 0 0.0051862598226603673 -0.00088926470530624501 0 0.0051892846975624147 -0.00089287487911374121 0 0.0051892846975624147 -0.00089287487911374121 0 0.0051846519633259166 -0.00089853276458584034 0 0.0051810272274883176 -0.00090018893773590521 0 0.0051862598226603673 -0.00088926470530624501 0 0.0051892846975624147 -0.00089287487911374121 0 0.0051810272274883176 -0.00090018893773590521 0 0.0051846519633259166 -0.00089853276458584034 0 0.0051926725005319039 -0.00089250945691700877 0 0.0051882247361547803 -0.00089658590692784281 0 0.0051892846975624147 -0.00089287487911374121 0 0.0051846519633259166 -0.00089853276458584034 0 0.0051926725005319039 -0.00089250945691700877 0 0.0051926725005319039 -0.00089250945691700877 0 0.0052026923655831784 -0.00088681280998652008 0 0.005195402879934404 -0.00089216779428432822 0 0.0051926725005319039 -0.00089250945691700877 0 0.0051972194778549495 -0.00088703867139502469 0 0.0052026923655831784 -0.00088681280998652008 0 0.0051951318665812273 -0.00088363551649195383 0 0.0051892846975624147 -0.00089287487911374121 0 0.0051972194778549495 -0.00088703867139502469 0 0.0051892846975624147 -0.00089287487911374121 0 0.0051926725005319039 -0.00089250945691700877 0 0.0051972194778549495 -0.00088703867139502469 0 0.0051972194778549495 -0.00088703867139502469 0 0.0052070272854076779 -0.00087865956491410427 0 0.0052026923655831784 -0.00088681280998652008 0 0.0051951318665812273 -0.00088363551649195383 0 0.0051972194778549495 -0.00088703867139502469 0 0.0052070272854076779 -0.00087865956491410427 0 0.0052070272854076779 -0.00087865956491410427 0 0.0052140785094698765 -0.00087831733913852877 0 0.0052215585139130391 -0.00087097195419373759 0 0.0052140785094698765 -0.00087831733913852877 0 0.0052026923655831784 -0.00088681280998652008 0 0.0052139315295524928 -0.00088217210563206101 0 0.0052070272854076779 -0.00087865956491410427 0 0.0052140785094698765 -0.00087831733913852877 0 0.0052026923655831784 -0.00088681280998652008 0 0.0052026923655831784 -0.00088681280998652008 0 0.0051996442584364344 -0.00089090566474448005 0 0.005195402879934404 -0.00089216779428432822 0 0.0052026923655831784 -0.00088681280998652008 0 0.0051996442584364344 -0.00089090566474448005 0 0.005206323755549489 -0.00088827268816763058 0 0.0052026923655831784 -0.00088681280998652008 0 0.0052139315295524928 -0.00088217210563206101 0 0.005206323755549489 -0.00088827268816763058 0 0.0052143586334464998 -0.00088601547014461105 0 0.005206323755549489 -0.00088827268816763058 0 0.0052057907809284296 -0.00089198265119307693 0 0.0052139315295524928 -0.00088217210563206101 0 0.0052143586334464998 -0.00088601547014461105 0 0.005206323755549489 -0.00088827268816763058 0 0.005206323755549489 -0.00088827268816763058 0 0.0052005782146181314 -0.00089220277165303144 0 0.0052057907809284296 -0.00089198265119307693 0 0.0051996442584364344 -0.00089090566474448005 0 0.005206323755549489 -0.00088827268816763058 0 0.0052005782146181314 -0.00089220277165303144 0 0.0052005782146181314 -0.00089220277165303144 0 0.0051940890502501242 -0.00089435259189126403 0 0.0051968117187433964 -0.00089484271546209915 0 0.0051996442584364344 -0.00089090566474448005 0 0.0052005782146181314 -0.00089220277165303144 0 0.0051940890502501242 -0.00089435259189126403 0 0.0051940890502501242 -0.00089435259189126403 0 0.0051867346003447098 -0.00089793535082090226 0 0.0051901136501655036 -0.00089657430077779332 0 0.0051940890502501242 -0.00089435259189126403 0 0.0051867346003447098 -0.00089793535082090226 0 0.0051882247361547803 -0.00089658590692784281 0 0.0051867346003447098 -0.00089793535082090226 0 0.0051882247361547803 -0.00089658590692784281 0 0.0051817685914316691 -0.00090117751830650033 0 0.0051846519633259166 -0.00089853276458584034 0 0.0051882247361547803 -0.00089658590692784281 0 0.0051817685914316691 -0.00090117751830650033 0 0.0051926725005319039 -0.00089250945691700877 0 0.0051882247361547803 -0.00089658590692784281 0 0.005195402879934404 -0.00089216779428432822 0 0.0051996442584364344 -0.00089090566474448005 0 0.0051940890502501242 -0.00089435259189126403 0 0.005195402879934404 -0.00089216779428432822 0 0.0051940890502501242 -0.00089435259189126403 0 0.0051882247361547803 -0.00089658590692784281 0 0.005195402879934404 -0.00089216779428432822 0 0.0052483781940914692 -0.00086209155875467311 0 0.0052380314644402803 -0.00086230372310747421 0 0.0052513472505843076 -0.00085543763310747076 0 0.0052380314644402803 -0.00086230372310747421 0 0.0052256418160865972 -0.00087378264155601711 0 0.0052373284161253593 -0.00086885016263990697 0 0.0052483781940914692 -0.00086209155875467311 0 0.0052380314644402803 -0.00086230372310747421 0 0.0052373284161253593 -0.00086885016263990697 0 0.0052380314644402803 -0.00086230372310747421 0 0.0052256418160865972 -0.00087378264155601711 0 0.0052215585139130391 -0.00087097195419373759 0 0.0052296642891014756 -0.00086254078897528806 0 0.0052380314644402803 -0.00086230372310747421 0 0.0052215585139130391 -0.00087097195419373759 0 0.0052140785094698765 -0.00087831733913852877 0 0.0052139315295524928 -0.00088217210563206101 0 0.0052256418160865972 -0.00087378264155601711 0 0.0052140785094698765 -0.00087831733913852877 0 0.0052256418160865972 -0.00087378264155601711 0 0.0052215585139130391 -0.00087097195419373759 0 0.0052139315295524928 -0.00088217210563206101 0 0.0052143586334464998 -0.00088601547014461105 0 0.0052215845159157802 -0.0008799970531370683 0 0.0052139315295524928 -0.00088217210563206101 0 0.0052256418160865972 -0.00087378264155601711 0 0.0052215845159157802 -0.0008799970531370683 0 0.0052143586334464998 -0.00088601547014461105 0 0.0052215845159157802 -0.0008799970531370683 0 0.0052253522446533696 -0.00088474129449468317 0 0.0052215845159157802 -0.0008799970531370683 0 0.0052308631068480049 -0.00087616705579029737 0 0.0052253522446533696 -0.00088474129449468317 0 0.0052256418160865972 -0.00087378264155601711 0 0.0052308631068480049 -0.00087616705579029737 0 0.0052373284161253593 -0.00086885016263990697 0 0.0052256418160865972 -0.00087378264155601711 0 0.0052215845159157802 -0.0008799970531370683 0 0.0052308631068480049 -0.00087616705579029737 0 0.0052308631068480049 -0.00087616705579029737 0 0.0052373284161253593 -0.00086885016263990697 0 0.0052434434470620727 -0.00087251083966895953 0 0.0052308631068480049 -0.00087616705579029737 0 0.0052434434470620727 -0.00087251083966895953 0 0.0052253522446533696 -0.00088474129449468317 0 0.0052483781940914692 -0.00086209155875467311 0 0.0052373284161253593 -0.00086885016263990697 0 0.0052434434470620727 -0.00087251083966895953 0 0.0052483781940914692 -0.00086209155875467311 0 0.0052434434470620727 -0.00087251083966895953 0 0.0052554139491421655 -0.00086303651643833336 0 0.0052189421845796067 -0.0008982343841172992 0 0.0052457391953706391 -0.00090680339949128367 0 0.0052089991786004762 -0.00090137087663241962 0 0.0052378924284650422 -0.0008865813287810897 0 0.0052457391953706391 -0.00090680339949128367 0 0.0052522658242433115 -0.00087779965247415995 0 0.0052434434470620727 -0.00087251083966895953 0 0.0052378924284650422 -0.0008865813287810897 0 0.0052522658242433115 -0.00087779965247415995 0 0.0052434434470620727 -0.00087251083966895953 0 0.0052378924284650422 -0.0008865813287810897 0 0.0052253522446533696 -0.00088474129449468317 0 0.0052253522446533696 -0.00088474129449468317 0 0.0052184867372184812 -0.00089357929765693494 0 0.0052278319790078701 -0.00089530417905167527 0 0.0052378924284650422 -0.0008865813287810897 0 0.0052253522446533696 -0.00088474129449468317 0 0.0052278319790078701 -0.00089530417905167527 0 0.0052143586334464998 -0.00088601547014461105 0 0.0052253522446533696 -0.00088474129449468317 0 0.0052151862729981633 -0.00088952596290282481 0 0.0052253522446533696 -0.00088474129449468317 0 0.0052151862729981633 -0.00088952596290282481 0 0.0052184867372184812 -0.00089357929765693494 0 0.0052189421845796067 -0.0008982343841172992 0 0.0052278319790078701 -0.00089530417905167527 0 0.0052457391953706391 -0.00090680339949128367 0 0.0052184867372184812 -0.00089357929765693494 0 0.0052189421845796067 -0.0008982343841172992 0 0.0052092219910176716 -0.00089592123231218646 0 0.0052184867372184812 -0.00089357929765693494 0 0.0052189421845796067 -0.0008982343841172992 0 0.0052278319790078701 -0.00089530417905167527 0 0.0052378924284650422 -0.0008865813287810897 0 0.0052278319790078701 -0.00089530417905167527 0 0.0052457391953706391 -0.00090680339949128367 0 0.0052457391953706391 -0.00090680339949128367 0 0.0052089991786004762 -0.00090137087663241962 0 0.005189140729660046 -0.00090390849698427451 0 0.0051932808777186033 -0.00089666274161072335 0 0.0052007978762743457 -0.00089526959822841914 0 0.0051987783769303136 -0.00089725262449959621 0 0.0051932808777186033 -0.00089666274161072335 0 0.0051968117187433964 -0.00089484271546209915 0 0.0052007978762743457 -0.00089526959822841914 0 0.0051932808777186033 -0.00089666274161072335 0 0.005194286805132212 -0.00089757825929850672 0 0.0051987783769303136 -0.00089725262449959621 0 0.0051895771697819523 -0.00089732805971837269 0 0.0051932808777186033 -0.00089666274161072335 0 0.0051906840389289999 -0.00089778389967569503 0 0.0051932808777186033 -0.00089666274161072335 0 0.005194286805132212 -0.00089757825929850672 0 0.0051906840389289999 -0.00089778389967569503 0 0.0051895771697819523 -0.00089732805971837269 0 0.0051932808777186033 -0.00089666274161072335 0 0.0051882488176752404 -0.00089757327127147168 0 0.0051932808777186033 -0.00089666274161072335 0 0.0051901136501655036 -0.00089657430077779332 0 0.0051882488176752404 -0.00089757327127147168 0 0.0051940890502501242 -0.00089435259189126403 0 0.0051901136501655036 -0.00089657430077779332 0 0.0051968117187433964 -0.00089484271546209915 0 0.0051932808777186033 -0.00089666274161072335 0 0.0051901136501655036 -0.00089657430077779332 0 0.0051968117187433964 -0.00089484271546209915 0 0.0052005782146181314 -0.00089220277165303144 0 0.0051968117187433964 -0.00089484271546209915 0 0.0052057907809284296 -0.00089198265119307693 0 0.0051968117187433964 -0.00089484271546209915 0 0.0052057907809284296 -0.00089198265119307693 0 0.0052007978762743457 -0.00089526959822841914 0 0.0052143586334464998 -0.00088601547014461105 0 0.0052151862729981633 -0.00088952596290282481 0 0.0052057907809284296 -0.00089198265119307693 0 0.0052151862729981633 -0.00088952596290282481 0 0.0052184867372184812 -0.00089357929765693494 0 0.0052092219910176716 -0.00089592123231218646 0 0.0052151862729981633 -0.00088952596290282481 0 0.0052057907809284296 -0.00089198265119307693 0 0.0052092219910176716 -0.00089592123231218646 0 0.0052092219910176716 -0.00089592123231218646 0 0.0052007978762743457 -0.00089526959822841914 0 0.0051987783769303136 -0.00089725262449959621 0 0.0052057907809284296 -0.00089198265119307693 0 0.0052092219910176716 -0.00089592123231218646 0 0.0052007978762743457 -0.00089526959822841914 0 0.0052065457380563928 -0.00089917308381184664 0 0.0051994715297371038 -0.00089991524034377358 0 0.0051987783769303136 -0.00089725262449959621 0 0.0052092219910176716 -0.00089592123231218646 0 0.0052065457380563928 -0.00089917308381184664 0 0.0051987783769303136 -0.00089725262449959621 0 0.0052189421845796067 -0.0008982343841172992 0 0.0052092219910176716 -0.00089592123231218646 0 0.0052065457380563928 -0.00089917308381184664 0 0.0052189421845796067 -0.0008982343841172992 0 0.0052065457380563928 -0.00089917308381184664 0 0.0052089991786004762 -0.00090137087663241962 0 0.0052065457380563928 -0.00089917308381184664 0 0.0052089991786004762 -0.00090137087663241962 0 0.0051994715297371038 -0.00089991524034377358 0 0.0052089991786004762 -0.00090137087663241962 0 0.0051994715297371038 -0.00089991524034377358 0 0.0051962834773863426 -0.00090150522094582677 0 0.0051938636746519376 -0.00089998071242148464 0 0.0051994715297371038 -0.00089991524034377358 0 0.0051962834773863426 -0.00090150522094582677 0 0.0051938636746519376 -0.00089998071242148464 0 0.0051962834773863426 -0.00090150522094582677 0 0.005190735584437986 -0.00090119337270279159 0 0.0051938636746519376 -0.00089998071242148464 0 0.0051994715297371038 -0.00089991524034377358 0 0.0051947354030092699 -0.00089876057262925279 0 0.0051994715297371038 -0.00089991524034377358 0 0.0051947354030092699 -0.00089876057262925279 0 0.0051987783769303136 -0.00089725262449959621 0 0.0051947354030092699 -0.00089876057262925279 0 0.005194286805132212 -0.00089757825929850672 0 0.0051987783769303136 -0.00089725262449959621 0 0.0051947354030092699 -0.00089876057262925279 0 0.005194286805132212 -0.00089757825929850672 0 0.0051906840389289999 -0.00089778389967569503 0 0.0051947354030092699 -0.00089876057262925279 0 0.0051906840389289999 -0.00089778389967569503 0 0.0051911639380500902 -0.00089858695268187267 0 0.0051906840389289999 -0.00089778389967569503 0 0.0051911639380500902 -0.00089858695268187267 0 0.0051886136680855052 -0.00089790865870822707 0 0.0051901911650219148 -0.00089962630095946107 0 0.0051882487367846007 -0.00089865076102364186 0 0.005190735584437986 -0.00090119337270279159 0 0.0051911639380500902 -0.00089858695268187267 0 0.0051901911650219148 -0.00089962630095946107 0 0.0051886136680855052 -0.00089790865870822707 0 0.0051938636746519376 -0.00089998071242148464 0 0.0051947354030092699 -0.00089876057262925279 0 0.0051911639380500902 -0.00089858695268187267 0 0.0051938636746519376 -0.00089998071242148464 0 0.0051911639380500902 -0.00089858695268187267 0 0.0051901911650219148 -0.00089962630095946107 0 0.0051938636746519376 -0.00089998071242148464 0 0.0051901911650219148 -0.00089962630095946107 0 0.005190735584437986 -0.00090119337270279159 0 0.0051882487367846007 -0.00089865076102364186 0 0.0051864180235159053 -0.00089603136709710883 0 0.0051886136680855052 -0.00089790865870822707 0 0.0051882487367846007 -0.00089865076102364186 0 0.0051864180235159053 -0.00089603136709710883 0 0.0051878363217967302 -0.0008917615931108337 0 0.0051901911650219148 -0.00089962630095946107 0 0.0051882487367846007 -0.00089865076102364186 0 0.0051886136680855052 -0.00089790865870822707 0 0.0051906840389289999 -0.00089778389967569503 0 0.0051886136680855052 -0.00089790865870822707 0 0.0051868239084603895 -0.00089742044040650153 0 0.0051864180235159053 -0.00089603136709710883 0 0.0051886136680855052 -0.00089790865870822707 0 0.0051868239084603895 -0.00089742044040650153 0 0.0051864180235159053 -0.00089603136709710883 0 0.0051860111497212345 -0.00089474466519372773 0 0.0051878363217967302 -0.0008917615931108337 0 0.0051860111497212345 -0.00089474466519372773 0 0.0051803960997325853 -0.00090087277662796457 0 0.005176908320101971 -0.00090653998656543941 0 0.0051864180235159053 -0.00089603136709710883 0 0.0051860111497212345 -0.00089474466519372773 0 0.0051838033867198418 -0.00089748130761863108 0 0.0051860111497212345 -0.00089474466519372773 0 0.0051838033867198418 -0.00089748130761863108 0 0.0051803960997325853 -0.00090087277662796457 0 0.0051895771697819523 -0.00089732805971837269 0 0.0051882488176752404 -0.00089757327127147168 0 0.0051868239084603895 -0.00089742044040650153 0 0.0051895771697819523 -0.00089732805971837269 0 0.0051906840389289999 -0.00089778389967569503 0 0.0051868239084603895 -0.00089742044040650153 0 0.0051864180235159053 -0.00089603136709710883 0 0.0051868239084603895 -0.00089742044040650153 0 0.0051838033867198418 -0.00089748130761863108 0 0.0051868239084603895 -0.00089742044040650153 0 0.0051838033867198418 -0.00089748130761863108 0 0.0051834250759548138 -0.00089931125760020687 0 0.0051838033867198418 -0.00089748130761863108 0 0.0051834250759548138 -0.00089931125760020687 0 0.0051803960997325853 -0.00090087277662796457 0 0.0051901136501655036 -0.00089657430077779332 0 0.0051882488176752404 -0.00089757327127147168 0 0.0051834250759548138 -0.00089931125760020687 0 0.0051882488176752404 -0.00089757327127147168 0 0.0051868239084603895 -0.00089742044040650153 0 0.0051834250759548138 -0.00089931125760020687 0 0.0051867346003447098 -0.00089793535082090226 0 0.0051901136501655036 -0.00089657430077779332 0 0.0051834250759548138 -0.00089931125760020687 0 0.0051867346003447098 -0.00089793535082090226 0 0.0051834250759548138 -0.00089931125760020687 0 0.0051817685914316691 -0.00090117751830650033 0 0.0051834250759548138 -0.00089931125760020687 0 0.0051817685914316691 -0.00090117751830650033 0 0.0051769138109105479 -0.00090490737319453922 0 0.0051817685914316691 -0.00090117751830650033 0 0.0051769138109105479 -0.00090490737319453922 0 0.0051772454353109475 -0.00090572823340942369 0 0.0051834250759548138 -0.00089931125760020687 0 0.0051769138109105479 -0.00090490737319453922 0 0.0051803960997325853 -0.00090087277662796457 0 0.0051769138109105479 -0.00090490737319453922 0 0.0051803960997325853 -0.00090087277662796457 0 0.005176908320101971 -0.00090653998656543941 0 0.0051769138109105479 -0.00090490737319453922 0 0.005176908320101971 -0.00090653998656543941 0 0.0051715106992689108 -0.00091332445300520396 0 0.0051715106992689108 -0.00091332445300520396 0 0.005168458321609155 -0.00092093934538143424 0 0.0051677519808445791 -0.0009211096130345111 0 0.005176908320101971 -0.00090653998656543941 0 0.0051715106992689108 -0.00091332445300520396 0 0.005168458321609155 -0.00092093934538143424 0 0.005176908320101971 -0.00090653998656543941 0 0.005168458321609155 -0.00092093934538143424 0 0.0051837170539651162 -0.00091808056323696276 0 0.005168458321609155 -0.00092093934538143424 0 0.0051610854375069033 -0.0009396814368852226 0 0.0051677519808445791 -0.0009211096130345111 0 0.0051652730406599404 -0.00092861389101039991 0 0.0051610854375069033 -0.0009396814368852226 0 0.0051677519808445791 -0.0009211096130345111 0 0.0051715106992689108 -0.00091332445300520396 0 0.0051677519808445791 -0.0009211096130345111 0 0.005173733935587968 -0.00090957673641599496 0 0.0051714013853965714 -0.00091191829390734243 0 0.0051677519808445791 -0.0009211096130345111 0 0.005173733935587968 -0.00090957673641599496 0 0.0051780103484995489 -0.00089896567336860854 0 0.005173733935587968 -0.00090957673641599496 0 0.0051810272274883176 -0.00090018893773590521 0 0.005173733935587968 -0.00090957673641599496 0 0.0051810272274883176 -0.00090018893773590521 0 0.0051772454353109475 -0.00090572823340942369 0 0.0051846519633259166 -0.00089853276458584034 0 0.0051817685914316691 -0.00090117751830650033 0 0.0051772454353109475 -0.00090572823340942369 0 0.0051846519633259166 -0.00089853276458584034 0 0.0051810272274883176 -0.00090018893773590521 0 0.0051772454353109475 -0.00090572823340942369 0 0.0051715106992689108 -0.00091332445300520396 0 0.005173733935587968 -0.00090957673641599496 0 0.0051772454353109475 -0.00090572823340942369 0 0.0051769138109105479 -0.00090490737319453922 0 0.0051715106992689108 -0.00091332445300520396 0 0.0051772454353109475 -0.00090572823340942369 0 0.0052653952351885058 -0.00091236643398813521 0 0.0051928043724181376 -0.00089586820694457624 0 0.0052012448091852967 -0.00088460961669382466 0 0.0052653952351885058 -0.00091236643398813521 0 0.0051551176070388826 -0.00096410636576137762 0 0.0051837170539651162 -0.00091808056323696276 0 0.0051551176070388826 -0.00096410636576137762 0 0.0051610854375069033 -0.0009396814368852226 0 0.0051837170539651162 -0.00091808056323696276 0 0.005168458321609155 -0.00092093934538143424 0 0.0051610854375069033 -0.0009396814368852226 0 0.0051837170539651162 -0.00091808056323696276 0 0.005176908320101971 -0.00090653998656543941 0 0.0051837170539651162 -0.00091808056323696276 0 0.0051928043724181376 -0.00089586820694457624 0 0.0051860111497212345 -0.00089474466519372773 0 0.005176908320101971 -0.00090653998656543941 0 0.0051928043724181376 -0.00089586820694457624 0 0.0052653952351885058 -0.00091236643398813521 0 0.0051837170539651162 -0.00091808056323696276 0 0.0051928043724181376 -0.00089586820694457624 0 0.0051860111497212345 -0.00089474466519372773 0 0.0052012448091852967 -0.00088460961669382466 0 0.0051878363217967302 -0.0008917615931108337 0 0.0051860111497212345 -0.00089474466519372773 0 0.0051928043724181376 -0.00089586820694457624 0 0.0052012448091852967 -0.00088460961669382466 0 0.0047950294495252618 -0.00077630572230421593 0 0.0049075087149143218 -0.00068559293956515458 0 0.0052012448091852967 -0.00088460961669382466 0 0.0051892919223427867 -0.00088454368833077162 0 0.0051878363217967302 -0.0008917615931108337 0 0.0056271101670487969 -0.0005425413337766965 0 0.0055711339687918322 -0.0005468998795323314 0 0.0055554934541448631 -0.00057852856868066454 0 0.0056271101670487969 -0.0005425413337766965 0 0.0055711339687918322 -0.0005468998795323314 0 0.0055833971975590363 -0.00051524589154794019 0 0.0051892919223427867 -0.00088454368833077162 0 0.0051878363217967302 -0.0008917615931108337 0 0.005189140729660046 -0.00090390849698427451 0 0.0049075087149143218 -0.00068559293956515458 0 0.0054797916559178568 -0.00073534604248599628 0 0.0051882487367846007 -0.00089865076102364186 0 0.0051878363217967302 -0.0008917615931108337 0 0.005189140729660046 -0.00090390849698427451 0 0.0055833971975590363 -0.00051524589154794019 0 0.0055558594303949712 -0.00047447521359675094 0 0.0055579344331148743 -0.00053058611542011053 0 0.0055833971975590363 -0.00051524589154794019 0 0.005608940452500686 -0.00047435868556033948 0 0.0055558594303949712 -0.00047447521359675094 0 0.0055711339687918322 -0.0005468998795323314 0 0.0055833971975590363 -0.00051524589154794019 0 0.0055579344331148743 -0.00053058611542011053 0 0.0056271101670487969 -0.0005425413337766965 0 0.0055833971975590363 -0.00051524589154794019 0 0.005608940452500686 -0.00047435868556033948 0 0.0049075087149143218 -0.00068559293956515458 0 0.0050032439253871134 -0.00064334654054172709 0 0.0044064955659283362 -0.00068979247468504209 0 0.0044005037409440336 -0.00070703484769350843 0 0.0043919923287724866 -0.0006818003229433796 0 0.0043919923287724866 -0.0006818003229433796 0 0.0043876962182378488 -0.00064810411271226556 0 0.0044000689824045839 -0.00066128152172567351 0 0.0044064955659283362 -0.00068979247468504209 0 0.0043919923287724866 -0.0006818003229433796 0 0.0044000689824045839 -0.00066128152172567351 0 0.0050032439253871134 -0.00064334654054172709 0 0.0051918551536826252 -0.00010512533068065748 0 0.005608940452500686 -0.00047435868556033948 0 0.005588154358851862 -0.00040402640427113538 0 0.0055558594303949712 -0.00047447521359675094 0 0.0051918551536826252 -0.00010512533068065748 0 0.0045452722103101074 3.1964937188264156e-05 0 0.0043876962182378488 -0.00064810411271226556 0 0.0044000689824045839 -0.00066128152172567351 0 0.0044063444874791 -0.00064043980619954215 0 0.0056922754976669408 -6.0372445977286843e-05 0 0.0055270443417873693 2.3856425751460118e-05 0 0.0056843540929330362 0.00010084690256857399 0 0.0056922754976669408 -6.0372445977286843e-05 0 0.005501780117812145 -0.0001319770273900194 0 0.0055270443417873693 2.3856425751460118e-05 0 0.0058784573028462152 9.0600829862877902e-06 0 0.0056922754976669408 -6.0372445977286843e-05 0 0.0056843540929330362 0.00010084690256857399 0 0.0051918551536826252 -0.00010512533068065748 0 0.0057133866664912528 -0.00023600612437426615 0 0.005588154358851862 -0.00040402640427113538 0 0.0055195856208258322 -0.00042977963581430375 0 0.0055558594303949712 -0.00047447521359675094 0 0.0055195856208258322 -0.00042977963581430375 0 0.0055558594303949712 -0.00047447521359675094 0 0.0055010189829611065 -0.00049195079217747911 0 0.0055195856208258322 -0.00042977963581430375 0 0.0055010189829611065 -0.00049195079217747911 0 0.005447528864252804 -0.00045418034015482596 0 0.0057133866664912528 -0.00023600612437426615 0 0.0054532790489765287 -0.00030759500626818749 0 0.0054929851697022277 -0.00048300702553006182 0 0.0054532790489765287 -0.00030759500626818749 0 0.005482011984608781 -0.00045403563691369023 0 0.0054361390400622317 -0.00048560822288573369 0 0.0053900721325106996 -0.00037882046360650202 0 0.005482011984608781 -0.00045403563691369023 0 0.0054361390400622317 -0.00048560822288573369 0 0.0055077797166040981 -0.0005275692986876796 0 0.0054361390400622317 -0.00048560822288573369 0 0.0055077797166040981 -0.0005275692986876796 0 0.0054572449044820379 -0.00054355420816308586 0 0.0055558594303949712 -0.00047447521359675094 0 0.0055010189829611065 -0.00049195079217747911 0 0.0055579344331148743 -0.00053058611542011053 0 0.005482011984608781 -0.00045403563691369023 0 0.0055579344331148743 -0.00053058611542011053 0 0.0055077797166040981 -0.0005275692986876796 0 0.0054929851697022277 -0.00048300702553006182 0 0.0055507715857820959 -0.00052135879356018607 0 0.0053118180362861011 -0.00081033539766642651 0 0.0054797916559178568 -0.00073534604248599628 0 0.0054415005574919937 -0.00071356663268985884 0 0.0055423685415274719 -0.00058313046566112951 0 0.0055554934541448631 -0.00057852856868066454 0 0.0055711339687918322 -0.0005468998795323314 0 0.0055579344331148743 -0.00053058611542011053 0 0.0055418952690677288 -0.00055022665763395349 0 0.0055579344331148743 -0.00053058611542011053 0 0.0055418952690677288 -0.00055022665763395349 0 0.0055077797166040981 -0.0005275692986876796 0 0.0055711339687918322 -0.0005468998795323314 0 0.0055514820727341607 -0.00056407738686960294 0 0.0055418952690677288 -0.00055022665763395349 0 0.0055711339687918322 -0.0005468998795323314 0 0.0055514820727341607 -0.00056407738686960294 0 0.0055554934541448631 -0.00057852856868066454 0 0.0055514820727341607 -0.00056407738686960294 0 0.0055418952690677288 -0.00055022665763395349 0 0.0055423685415274719 -0.00058313046566112951 0 0.0055418952690677288 -0.00055022665763395349 0 0.0055423685415274719 -0.00058313046566112951 0 0.0054898206246128053 -0.00055924767552653545 0 0.0055418952690677288 -0.00055022665763395349 0 0.0055077797166040981 -0.0005275692986876796 0 0.0054898206246128053 -0.00055924767552653545 0 0.0052089991786004762 -0.00090137087663241962 0 0.0051962834773863426 -0.00090150522094582677 0 0.005189140729660046 -0.00090390849698427451 0 0.0051962834773863426 -0.00090150522094582677 0 0.005190735584437986 -0.00090119337270279159 0 0.005189140729660046 -0.00090390849698427451 0 0.0051882487367846007 -0.00089865076102364186 0 0.005190735584437986 -0.00090119337270279159 0 0.005189140729660046 -0.00090390849698427451 0 0.0055514820727341607 -0.00056407738686960294 0 0.0055423685415274719 -0.00058313046566112951 0 0.0055554934541448631 -0.00057852856868066454 0 0.0054898206246128053 -0.00055924767552653545 0 0.0054572449044820379 -0.00054355420816308586 0 0.0053988656318113776 -0.00059086737456607761 0 0.0055422637042144632 -0.00059033231076561273 0 0.0054080759511682371 -0.00064320159218371356 0 0.0055423685415274719 -0.00058313046566112951 0 0.0054898206246128053 -0.00055924767552653545 0 0.0053988656318113776 -0.00059086737456607761 0 0.0054415005574919937 -0.00071356663268985884 0 0.0055423685415274719 -0.00058313046566112951 0 0.0054094174176121269 -0.00070200371575314792 0 0.0054361390400622317 -0.00048560822288573369 0 0.0054572449044820379 -0.00054355420816308586 0 0.0054060491963288078 -0.00053102936429836255 0 0.0054572449044820379 -0.00054355420816308586 0 0.0053988656318113776 -0.00059086737456607761 0 0.0054060491963288078 -0.00053102936429836255 0 0.0055077797166040981 -0.0005275692986876796 0 0.0054898206246128053 -0.00055924767552653545 0 0.0054572449044820379 -0.00054355420816308586 0 0.0053988656318113776 -0.00059086737456607761 0 0.0053587673894420831 -0.00052668415533327253 0 0.0053104499570607476 -0.00055461126875912833 0 0.0053988656318113776 -0.00059086737456607761 0 0.0053587673894420831 -0.00052668415533327253 0 0.0054060491963288078 -0.00053102936429836255 0 0.0053988656318113776 -0.00059086737456607761 0 0.0053104499570607476 -0.00055461126875912833 0 0.0052341201750606683 -0.00062809144914327639 0 0.0053104499570607476 -0.00055461126875912833 0 0.0052242650914051782 -0.00052772539517098236 0 0.0052341201750606683 -0.00062809144914327639 0 0.0053587673894420831 -0.00052668415533327253 0 0.0053104499570607476 -0.00055461126875912833 0 0.0052929709640514317 -0.0004831556623310345 0 0.0053104499570607476 -0.00055461126875912833 0 0.0052929709640514317 -0.0004831556623310345 0 0.0052242650914051782 -0.00052772539517098236 0 0.0052929709640514317 -0.0004831556623310345 0 0.0052823128728514985 -0.00040424399100558281 0 0.0051598656273804961 -0.0004203643900126539 0 0.0052929709640514317 -0.0004831556623310345 0 0.0053670955937853218 -0.00047412375954779148 0 0.0052823128728514985 -0.00040424399100558281 0 0.0054361390400622317 -0.00048560822288573369 0 0.0053670955937853218 -0.00047412375954779148 0 0.0053900721325106996 -0.00037882046360650202 0 0.0053587673894420831 -0.00052668415533327253 0 0.0054060491963288078 -0.00053102936429836255 0 0.0053670955937853218 -0.00047412375954779148 0 0.0054361390400622317 -0.00048560822288573369 0 0.0054060491963288078 -0.00053102936429836255 0 0.0053670955937853218 -0.00047412375954779148 0 0.0053587673894420831 -0.00052668415533327253 0 0.0052929709640514317 -0.0004831556623310345 0 0.0053670955937853218 -0.00047412375954779148 0 0.0054532790489765287 -0.00030759500626818749 0 0.0053321706574109362 -0.00034806148128186325 0 0.0054532790489765287 -0.00030759500626818749 0 0.0053657088631782002 -5.6615844929376606e-05 0 0.0053670955937853218 -0.00047412375954779148 0 0.0053900721325106996 -0.00037882046360650202 0 0.0052823128728514985 -0.00040424399100558281 0 0.005376585883153949 -0.00029490718281910243 0 0.0053768084636451798 -0.0001040059372635709 0 0.0051976583834044835 -0.00016922769032894614 0 0.005561514405279893 -0.00022974418830932214 0 0.005376585883153949 -0.00029490718281910243 0 0.0053768084636451798 -0.0001040059372635709 0 0.005343710340084522 -3.1663605128152202e-05 0 0.0051785337148525712 6.2870322526223989e-05 0 0.0053940271793627833 0.00011118997658050229 0 0.005501780117812145 -0.0001319770273900194 0 0.005343710340084522 -3.1663605128152202e-05 0 0.0055270443417873693 2.3856425751460118e-05 0 0.005343710340084522 -3.1663605128152202e-05 0 0.0055270443417873693 2.3856425751460118e-05 0 0.0053940271793627833 0.00011118997658050229 0 0.0049999993375248464 -0.00013862123282637928 0 0.0051976583834044835 -0.00016922769032894614 0 0.0051897356541057383 2.4431761363685497e-05 0 0.0053657088631782002 -5.6615844929376606e-05 0 0.005182014523080136 4.3098902655080693e-05 0 0.0053768084636451798 -0.0001040059372635709 0 0.0051976583834044835 -0.00016922769032894614 0 0.0051897356541057383 2.4431761363685497e-05 0 0.005376585883153949 -0.00029490718281910243 0 0.0051976583834044835 -0.00016922769032894614 0 0.0051895095549979722 -0.00036252333230994352 0 0.0049999993375248464 -0.00013862123282637928 0 0.0049999981536578003 -0.00043124922499516267 0 0.0051895095549979722 -0.00036252333230994352 0 0.0049999993375248464 -0.00013862123282637928 0 0.0051976583834044835 -0.00016922769032894614 0 0.0051895095549979722 -0.00036252333230994352 0 0.0049999954331110706 -0.00043138346430175988 0 0.0051598656273804961 -0.0004203643900126539 0 0.0051308120025570251 -0.00053754367828563439 0 0.0050000385326831494 -0.00043125208912197897 0 0.0051701858447478818 -0.0003918548605151662 0 0.0052929709640514317 -0.0004831556623310345 0 0.0051598656273804961 -0.0004203643900126539 0 0.0052242650914051782 -0.00052772539517098236 0 0.0053321706574109362 -0.00034806148128186325 0 0.0051701858447478818 -0.0003918548605151662 0 0.0051598656273804961 -0.0004203643900126539 0 0.0052242650914051782 -0.00052772539517098236 0 0.0051308120025570251 -0.00053754367828563439 0 0.0052242650914051782 -0.00052772539517098236 0 0.0051308120025570251 -0.00053754367828563439 0 0.0052341201750606683 -0.00062809144914327639 0 0.0049999954331110706 -0.00043138346430175988 0 0.0051308120025570251 -0.00053754367828563439 0 0.0049999954868827695 -0.00069535080883890976 0 0.0050000211981090694 -0.00069546098802813659 0 0.005227405489838164 -0.00068468593596472172 0 0.0051308120025570251 -0.00053754367828563439 0 0.0049999954868827695 -0.00069535080883890976 0 0.0052341201750606683 -0.00062809144914327639 0 0.0051526247590820244 -0.00081560128117948139 0 0.0049999844462459506 -0.00097970562271893565 0 0.0051731731557555487 -0.00095309151062216693 0 0.0049999950385481032 -0.0006955830170219142 0 0.0051526247590820244 -0.00081560128117948139 0 0.0049999844462459506 -0.00097970562271893565 0 0.0052561262727455526 -0.00087637379102893165 0 0.0052882578362332226 -0.00097895342722986744 0 0.0051731731557555487 -0.00095309151062216693 0 0.0051526247590820244 -0.00081560128117948139 0 0.0052353330863986825 -0.00081278821151477612 0 0.0052561262727455526 -0.00087637379102893165 0 0.0051526247590820244 -0.00081560128117948139 0 0.0052561262727455526 -0.00087637379102893165 0 0.0051731731557555487 -0.00095309151062216693 0 0.0049999950385481032 -0.0006955830170219142 0 0.0051526247590820244 -0.00081560128117948139 0 0.0052322666152093177 -0.00074466067710848014 0 0.0051526247590820244 -0.00081560128117948139 0 0.0052353330863986825 -0.00081278821151477612 0 0.0052322666152093177 -0.00074466067710848014 0 0.0054080759511682371 -0.00064320159218371356 0 0.005227405489838164 -0.00068468593596472172 0 0.0054094174176121269 -0.00070200371575314792 0 0.0052322666152093177 -0.00074466067710848014 0 0.0052967092213458498 -0.00081609667027235692 0 0.0052967092213458498 -0.00081609667027235692 0 0.0052743433566785842 -0.00085857204182405262 0 0.0053020421239861485 -0.00084055771017505594 0 0.0052353330863986825 -0.00081278821151477612 0 0.0052967092213458498 -0.00081609667027235692 0 0.0052561262727455526 -0.00087637379102893165 0 0.0052353330863986825 -0.00081278821151477612 0 0.0052322666152093177 -0.00074466067710848014 0 0.0052967092213458498 -0.00081609667027235692 0 0.0052457391953706391 -0.00090680339949128367 0 0.0052967092213458498 -0.00081609667027235692 0 0.0052743433566785842 -0.00085857204182405262 0 0.0053118180362861011 -0.00081033539766642651 0 0.0053043630139784151 -0.00081755074404834291 0 0.0054415005574919937 -0.00071356663268985884 0 0.0054094174176121269 -0.00070200371575314792 0 0.0052967092213458498 -0.00081609667027235692 0 0.0052457391953706391 -0.00090680339949128367 0 0.0052743433566785842 -0.00085857204182405262 0 0.0052522658242433115 -0.00087779965247415995 0 0.0052743433566785842 -0.00085857204182405262 0 0.0052522658242433115 -0.00087779965247415995 0 0.0052593638777932473 -0.00086573449161335533 0 0.0052434434470620727 -0.00087251083966895953 0 0.0052522658242433115 -0.00087779965247415995 0 0.0052593638777932473 -0.00086573449161335533 0 0.0052756048326402551 -0.00084900814930099014 0 0.0053020421239861485 -0.00084055771017505594 0 0.0052599870970445528 -0.00085052089563086874 0 0.0052483781940914692 -0.00086209155875467311 0 0.0052554139491421655 -0.00086303651643833336 0 0.0052605209355565891 -0.00085559559748571358 0 0.0052434434470620727 -0.00087251083966895953 0 0.0052554139491421655 -0.00086303651643833336 0 0.0052593638777932473 -0.00086573449161335533 0 0.0052743433566785842 -0.00085857204182405262 0 0.0052593638777932473 -0.00086573449161335533 0 0.005268235796146296 -0.00085682091486536651 0 0.0052554139491421655 -0.00086303651643833336 0 0.0052593638777932473 -0.00086573449161335533 0 0.005268235796146296 -0.00085682091486536651 0 0.0052554139491421655 -0.00086303651643833336 0 0.005268235796146296 -0.00085682091486536651 0 0.0052605209355565891 -0.00085559559748571358 0 0.0052743433566785842 -0.00085857204182405262 0 0.0052802931193423608 -0.00085082177429889137 0 0.0053020421239861485 -0.00084055771017505594 0 0.005268235796146296 -0.00085682091486536651 0 0.0052756048326402551 -0.00084900814930099014 0 0.0052802931193423608 -0.00085082177429889137 0 0.005268235796146296 -0.00085682091486536651 0 0.0052756048326402551 -0.00084900814930099014 0 0.0052605209355565891 -0.00085559559748571358 0 0.0052743433566785842 -0.00085857204182405262 0 0.005268235796146296 -0.00085682091486536651 0 0.0052802931193423608 -0.00085082177429889137 0 0.0052756048326402551 -0.00084900814930099014 0 0.0052802931193423608 -0.00085082177429889137 0 0.0053020421239861485 -0.00084055771017505594 0 0.0052756048326402551 -0.00084900814930099014 0 0.0052621589022594159 -0.00085203887969105205 0 0.0052599870970445528 -0.00085052089563086874 0 0.0052756048326402551 -0.00084900814930099014 0 0.0052621589022594159 -0.00085203887969105205 0 0.0052605209355565891 -0.00085559559748571358 0 0.0052621589022594159 -0.00085203887969105205 0 0.0052605209355565891 -0.00085559559748571358 0 0.0052513472505843076 -0.00085543763310747076 0 0.0052483781940914692 -0.00086209155875467311 0 0.0052605209355565891 -0.00085559559748571358 0 0.0052513472505843076 -0.00085543763310747076 0 0.0053020421239861485 -0.00084055771017505594 0 0.0052882578362332226 -0.00097895342722986744 0 0.0053961223332478544 -0.0010087048206832627 0 0.0053064707801447975 -0.00087803881327032731 0 0.0053504164713112376 -0.0008632311622377045 0 0.0052561262727455526 -0.00087637379102893165 0 0.0053020421239861485 -0.00084055771017505594 0 0.0052882578362332226 -0.00097895342722986744 0 0.0052967092213458498 -0.00081609667027235692 0 0.0052561262727455526 -0.00087637379102893165 0 0.0053020421239861485 -0.00084055771017505594 0 0.0052882578362332226 -0.00097895342722986744 0 0.0053961223332478544 -0.0010087048206832627 0 0.0053026782256121972 -0.0011282349077267762 0 0.0052395847950480181 -0.00085370711565872597 0 0.0052513472505843076 -0.00085543763310747076 0 0.0052599870970445528 -0.00085052089563086874 0 0.0052395847950480181 -0.00085370711565872597 0 0.0052599870970445528 -0.00085052089563086874 0 0.0052433898626360817 -0.00084468121469198317 0 0.0052621589022594159 -0.00085203887969105205 0 0.0052513472505843076 -0.00085543763310747076 0 0.0052599870970445528 -0.00085052089563086874 0 0.0053504164713112376 -0.0008632311622377045 0 0.0049228060915283266 -0.0014196471829124925 0 0.0052599870970445528 -0.00085052089563086874 0 0.0052483391852197634 -0.00083935992871836786 0 0.0052433898626360817 -0.00084468121469198317 0 0.0052913284196507097 -0.0012907628854770226 0 0.0054510597621133484 -0.0012047680528328663 0 0.0053026782256121972 -0.0011282349077267762 0 0.0053961223332478544 -0.0010087048206832627 0 0.0054510597621133484 -0.0012047680528328663 0 0.0053026782256121972 -0.0011282349077267762 0 0.0051246145784154123 -0.001268497671225108 0 0.0052913284196507097 -0.0012907628854770226 0 0.005158263479314449 -0.0011414449127034759 0 0.0052913284196507097 -0.0012907628854770226 0 0.0053026782256121972 -0.0011282349077267762 0 0.005158263479314449 -0.0011414449127034759 0 0.0049999659800042196 -0.0012639807246145451 0 0.0051246145784154123 -0.001268497671225108 0 0.005158263479314449 -0.0011414449127034759 0 0.0049999659800042196 -0.0012639807246145451 0 0.005158263479314449 -0.0011414449127034759 0 0.0049999844462459506 -0.00097970562271893565 0 0.005158263479314449 -0.0011414449127034759 0 0.0049999844462459506 -0.00097970562271893565 0 0.0051731731557555487 -0.00095309151062216693 0 0.0052882578362332226 -0.00097895342722986744 0 0.0053026782256121972 -0.0011282349077267762 0 0.005158263479314449 -0.0011414449127034759 0 0.0052882578362332226 -0.00097895342722986744 0 0.005158263479314449 -0.0011414449127034759 0 0.0051731731557555487 -0.00095309151062216693 0 0.001556927983121175 -0.002785470220025032 0 0.0015141252824332073 -0.0028250901728559832 0 0.0014849845823536232 -0.0027711588008231193 0 0.001556927983121175 -0.002785470220025032 0 0.0015141252824332073 -0.0028250901728559832 0 0.0015633338221915643 -0.0028474630886809247 0 0.001556927983121175 -0.002785470220025032 0 0.0016334682068090474 -0.0028172986859346578 0 0.0015633338221915643 -0.0028474630886809247 0 0.0015141252824332073 -0.0028250901728559832 0 0.0015234013182048012 -0.0028577688977097929 0 0.0015633338221915643 -0.0028474630886809247 0 0.0015141252824332073 -0.0028250901728559832 0 0.0015234013182048012 -0.0028577688977097929 0 0.0014876192593606 -0.0028511618990712689 0 0.0014655296502634077 -0.0028252970113716884 0 0.0014284294392658461 -0.0028477764522842159 0 0.0014876192593606 -0.0028511618990712689 0 0.0015141252824332073 -0.0028250901728559832 0 0.0014655296502634077 -0.0028252970113716884 0 0.0014849845823536232 -0.0027711588008231193 0 0.0014168822385297367 -0.0027672003635466546 0 0.001405760500261556 -0.0028775167097555418 0 0.0013283628042272449 -0.002727866303855598 0 0.0015141252824332073 -0.0028250901728559832 0 0.0014655296502634077 -0.0028252970113716884 0 0.0014876192593606 -0.0028511618990712689 0 0.0014655296502634077 -0.0028252970113716884 0 0.0014168822385297367 -0.0027672003635466546 0 0.001405760500261556 -0.0028775167097555418 0 0.0012857091533729189 -0.0026149331796447967 0 0.0010303837694715255 -0.0024087593279602431 0 0.0014655296502634077 -0.0028252970113716884 0 0.0014168822385297367 -0.0027672003635466546 0 0.0014849845823536232 -0.0027711588008231193 0 0.0014254151566903319 -0.0027111760898748385 0 0.001525133278966449 -0.0027205511401276424 0 0.0015200085018251337 -0.0026238526823877933 0 0.0014849845823536232 -0.0027711588008231193 0 0.0014254151566903319 -0.0027111760898748385 0 0.001525133278966449 -0.0027205511401276424 0 0.0014168822385297367 -0.0027672003635466546 0 0.0014849845823536232 -0.0027711588008231193 0 0.0014254151566903319 -0.0027111760898748385 0 0.0014168822385297367 -0.0027672003635466546 0 0.0014254151566903319 -0.0027111760898748385 0 0.0013597641365390844 -0.0026975498365992409 0 0.001556927983121175 -0.002785470220025032 0 0.001525133278966449 -0.0027205511401276424 0 0.0016247580896942358 -0.0027180014147465347 0 0.001525133278966449 -0.0027205511401276424 0 0.0016247580896942358 -0.0027180014147465347 0 0.0015200085018251337 -0.0026238526823877933 0 0.001556927983121175 -0.002785470220025032 0 0.0014849845823536232 -0.0027711588008231193 0 0.001525133278966449 -0.0027205511401276424 0 0.0016247580896942358 -0.0027180014147465347 0 0.0017348494429086131 -0.0027029395200436953 0 0.0017315815093781398 -0.0027862397681188496 0 0.0017315815093781398 -0.0027862397681188496 0 0.0017056044642871965 -0.0028581544651282739 0 0.0018088043272812917 -0.002831955665694337 0 0.0017315815093781398 -0.0027862397681188496 0 0.0016334682068090474 -0.0028172986859346578 0 0.0017056044642871965 -0.0028581544651282739 0 0.001556927983121175 -0.002785470220025032 0 0.0016247580896942358 -0.0027180014147465347 0 0.0016334682068090474 -0.0028172986859346578 0 0.0016247580896942358 -0.0027180014147465347 0 0.0017315815093781398 -0.0027862397681188496 0 0.0016334682068090474 -0.0028172986859346578 0 0.0016334682068090474 -0.0028172986859346578 0 0.0016136881706751516 -0.0029066081702282484 0 0.0015633338221915643 -0.0028474630886809247 0 0.0016334682068090474 -0.0028172986859346578 0 0.0016136881706751516 -0.0029066081702282484 0 0.0017056044642871965 -0.0028581544651282739 0 0.0017056044642871965 -0.0028581544651282739 0 0.0017410277736527025 -0.0029477612444472139 0 0.0018088043272812917 -0.002831955665694337 0 0.0016136881706751516 -0.0029066081702282484 0 0.0017056044642871965 -0.0028581544651282739 0 0.0017410277736527025 -0.0029477612444472139 0 0.0017410277736527025 -0.0029477612444472139 0 0.0016139611722579604 -0.0029932788954255586 0 0.0017134370888165816 -0.0030750058736925298 0 0.0016136881706751516 -0.0029066081702282484 0 0.0017410277736527025 -0.0029477612444472139 0 0.0016139611722579604 -0.0029932788954255586 0 0.0014432078316602859 -0.0020492114763581526 0 0.0012691480672615007 -0.0018322813716502094 0 0.0012419941502941321 -0.0010755786320221646 0 0.0012083814784297981 -0.0010552233953295075 0 0.0012121305041205344 -0.0010993058740948437 0 0.0016136881706751516 -0.0029066081702282484 0 0.0016139611722579604 -0.0029932788954255586 0 0.0015156270601167194 -0.0029157728557548048 0 0.0016136881706751516 -0.0029066081702282484 0 0.0015156270601167194 -0.0029157728557548048 0 0.0015423732586467729 -0.0028795079660601892 0 0.0015156270601167194 -0.0029157728557548048 0 0.0015101344330986208 -0.0028853141266374344 0 0.0015423732586467729 -0.0028795079660601892 0 0.0015101344330986208 -0.0028853141266374344 0 0.0015234013182048012 -0.0028577688977097929 0 0.0015423732586467729 -0.0028795079660601892 0 0.0015101344330986208 -0.0028853141266374344 0 0.0015234013182048012 -0.0028577688977097929 0 0.0014876192593606 -0.0028511618990712689 0 0.0015234013182048012 -0.0028577688977097929 0 0.0015633338221915643 -0.0028474630886809247 0 0.0015423732586467729 -0.0028795079660601892 0 0.0016136881706751516 -0.0029066081702282484 0 0.0015633338221915643 -0.0028474630886809247 0 0.0015423732586467729 -0.0028795079660601892 0 0.0015156270601167194 -0.0029157728557548048 0 0.0015101344330986208 -0.0028853141266374344 0 0.0014284294392658461 -0.0028477764522842159 0 0.0012691480672615007 -0.0018322813716502094 0 0.0010303837694715255 -0.0024087593279602431 0 0.00071115714984266738 -0.0015863340884930991 0 0.00080129770404984346 -0.0016679585781960587 0 0.00082155327573144054 -0.001549530950853114 0 0.0015101344330986208 -0.0028853141266374344 0 0.0014284294392658461 -0.0028477764522842159 0 0.0014876192593606 -0.0028511618990712689 0 0.0012691480672615007 -0.0018322813716502094 0 0.00096107347401372671 -0.0011700180744184984 0 0.00071115714984266738 -0.0015863340884930991 0 0.00082155327573144054 -0.001549530950853114 0 0.00080206458597192973 -0.001434826461494851 0 0.00082155327573144054 -0.001549530950853114 0 0.00089717963084350776 -0.0015878496059569898 0 0.00089579552892648259 -0.0014706055015674916 0 0.00082155327573144054 -0.001549530950853114 0 0.00080206458597192973 -0.001434826461494851 0 0.00089579552892648259 -0.0014706055015674916 0 0.00041961989564563506 -0.0018644363657122941 0 0.00071911657857119259 -0.0018004654327968218 0 4.3849600609521969e-05 -0.0021584274647976757 0 0.00010612934319449084 -0.0021551921041987609 0 2.1055129475873864e-05 -0.0022027970356729896 0 0.00089717963084350776 -0.0015878496059569898 0 0.00099154795723884587 -0.0015075654701100134 0 0.00089579552892648259 -0.0014706055015674916 0 4.3849600609521969e-05 -0.0021584274647976757 0 4.8724169888933674e-05 -0.0021091472379538602 0 0.00010612934319449084 -0.0021551921041987609 0 4.3849600609521969e-05 -0.0021584274647976757 0 4.8724169888933674e-05 -0.0021091472379538602 0 -7.0740964089644057e-06 -0.0021805372166732893 0 4.8724169888933674e-05 -0.0021091472379538602 0 0.00010612934319449084 -0.0021551921041987609 0 0.00011333721905257934 -0.0020976335874405543 0 0.0010303837694715255 -0.0024087593279602431 0 0.00041961989564563506 -0.0018644363657122941 0 0.00080129770404984346 -0.0016679585781960587 0 0.00082155327573144054 -0.001549530950853114 0 0.00089717963084350776 -0.0015878496059569898 0 0.00019253800718210549 -0.0021016797045460413 0 0.00010612934319449084 -0.0021551921041987609 0 0.00011333721905257934 -0.0020976335874405543 0 -0.001875946321687793 -0.0016391893451285361 0 -0.0018407555170206469 -0.0015776128701934483 0 -0.0019034637621319593 -0.0015203226160604359 0 -0.0017199208936806549 -0.001982186639320409 0 -0.00088085234990210913 -0.0015674019872571705 0 -0.001461740524040422 -0.0022586757296512135 0 -0.001419948669759532 -0.0022660027802936036 0 -0.0014408655952661772 -0.002289301248534591 0 -0.0017922102153389969 -0.0016428269356800246 0 -0.001875946321687793 -0.0016391893451285361 0 -0.0018407555170206469 -0.0015776128701934483 0 -0.00074091514566589252 -0.0023426677431649481 0 -0.00088085234990210913 -0.0015674019872571705 0 -0.001461740524040422 -0.0022586757296512135 0 -0.001419948669759532 -0.0022660027802936036 0 -0.0014425596236094834 -0.0022359354962838739 0 2.1055129475873864e-05 -0.0022027970356729896 0 -7.0740964089644057e-06 -0.0021805372166732893 0 -7.521950209916647e-05 -0.0022486299516764076 0 4.3849600609521969e-05 -0.0021584274647976757 0 2.1055129475873864e-05 -0.0022027970356729896 0 -7.0740964089644057e-06 -0.0021805372166732893 0 -0.00067233622614984087 -0.0021017726659075431 0 -0.00074091514566589252 -0.0023426677431649481 0 -0.0013694172087373045 -0.0022258526250209664 0 -0.0014425596236094834 -0.0022359354962838739 0 -0.0014622731749067668 -0.0021957337374276398 0 -0.0013694172087373045 -0.0022258526250209664 0 -0.001419948669759532 -0.0022660027802936036 0 -0.0014425596236094834 -0.0022359354962838739 0 -0.001461740524040422 -0.0022586757296512135 0 -0.0014425596236094834 -0.0022359354962838739 0 -0.0014884790374666374 -0.0022083533334559821 0 -0.0017922102153389969 -0.0016428269356800246 0 -0.001875946321687793 -0.0016391893451285361 0 -0.0018446735926869328 -0.0017551649544248343 0 -0.0017199208936806549 -0.001982186639320409 0 -0.0016679573100040245 -0.0019992522094217893 0 -0.0014425596236094834 -0.0022359354962838739 0 -0.0014884790374666374 -0.0022083533334559821 0 -0.0014622731749067668 -0.0021957337374276398 0 -0.0015425836324575776 -0.0022257692252796992 0 -0.0014622731749067668 -0.0021957337374276398 0 -0.0014902260676828883 -0.0021289086647833869 0 -0.001583774454949541 -0.0021220017211759042 0 -0.0015425836324575776 -0.0022257692252796992 0 -0.0014902260676828883 -0.0021289086647833869 0 -0.0016679573100040245 -0.0019992522094217893 0 -0.0014690617406546908 -0.0021547549364082067 0 -0.0014622731749067668 -0.0021957337374276398 0 -0.0014016275630911856 -0.0021564814548545087 0 -0.0014902260676828883 -0.0021289086647833869 0 -0.0013694172087373045 -0.0022258526250209664 0 -0.0014622731749067668 -0.0021957337374276398 0 -0.0014016275630911856 -0.0021564814548545087 0 -0.0014016275630911856 -0.0021564814548545087 0 -0.0014902260676828883 -0.0021289086647833869 0 -0.0014126572361195639 -0.0020552006505248194 0 -0.0014902260676828883 -0.0021289086647833869 0 -0.0015363145681737298 -0.0020516361571063365 0 -0.0014126572361195639 -0.0020552006505248194 0 -0.001583774454949541 -0.0021220017211759042 0 -0.0014902260676828883 -0.0021289086647833869 0 -0.0015363145681737298 -0.0020516361571063365 0 0.001405760500261556 -0.0028775167097555418 0 0.001236443510296894 -0.0027505901335979554 0 0.0013283628042272449 -0.002727866303855598 0 0.00019253800718210549 -0.0021016797045460413 0 0.00010275232575798728 -0.0020306942283066214 0 0.00011333721905257934 -0.0020976335874405543 0 0.0010303837694715255 -0.0024087593279602431 0 -0.00010169783273328401 -0.0025579198252707967 0 -0.0013694172087373045 -0.0022258526250209664 0 -0.0014016275630911856 -0.0021564814548545087 0 -0.0013017760722810281 -0.0021537297684147876 0 4.8724169888933674e-05 -0.0021091472379538602 0 0.00010275232575798728 -0.0020306942283066214 0 0.00011333721905257934 -0.0020976335874405543 0 -0.00067233622614984087 -0.0021017726659075431 0 -0.00010169783273328401 -0.0025579198252707967 0 -0.00022721284412882139 -0.0035081981691295547 0 -0.0002173036506652279 -0.0032062452801780855 0 -0.00040482365272836963 -0.0030820036848396301 0 -0.00022721284412882139 -0.0035081981691295547 0 -0.00040482365272836963 -0.0030820036848396301 0 -0.00073498579419174574 -0.0030844152492296088 0 -0.0014016275630911856 -0.0021564814548545087 0 -0.0013017760722810281 -0.0021537297684147876 0 -0.0014126572361195639 -0.0020552006505248194 0 -0.00010169783273328401 -0.0025579198252707967 0 -0.0011237402219914754 -0.0026010878640838325 0 -0.00022721284412882139 -0.0035081981691295547 0 -0.0002173036506652279 -0.0032062452801780855 0 -4.6888146648329997e-05 -0.0032261434395074572 0 -0.0002173036506652279 -0.0032062452801780855 0 -9.8044705874761662e-05 -0.0031641645113249222 0 -0.00040482365272836963 -0.0030820036848396301 0 -0.0002173036506652279 -0.0032062452801780855 0 -9.6977885538159325e-05 -0.0031616591596566293 0 -4.6888146648329997e-05 -0.0032261434395074572 0 0.00013322294142551578 -0.0034828114651498966 0 0.00053762746944415157 -0.0034694376905847063 0 0.00053762746944415157 -0.0034694376905847063 0 0.00086992117531481275 -0.0031385415733489411 0 -0.00010169783273328401 -0.0025579198252707967 0 0.00086992117531481275 -0.0031385415733489411 0 0.001236443510296894 -0.0027505901335979554 0 0.0013283628042272449 -0.002727866303855598 0 0.0013072782181075715 -0.0026376641933678873 0 0.0014168822385297367 -0.0027672003635466546 0 0.0013283628042272449 -0.002727866303855598 0 0.0013072782181075715 -0.0026376641933678873 0 0.0014035935086791436 -0.002722365789097144 0 0.00086992117531481275 -0.0031385415733489411 0 0.0014254151566903319 -0.0027111760898748385 0 0.0013597641365390844 -0.0026975498365992409 0 0.0013748861111216445 -0.002671675096894996 0 0.00087420487214137925 -0.0035552734016111504 0 0.00087181989404089104 -0.0035515758158814266 0 0.00086860585790001486 -0.0035582448378469623 0 0.00086992117531481275 -0.0031385415733489411 0 0.0009330475725568343 -0.0036985941113052458 0 0.00060147899623725482 -0.0045939783806080497 0 0.00068950590856574887 -0.0045622615646664401 0 0.00064680836782874383 -0.0043355162836854711 0 0.00068950590856574887 -0.0045622615646664401 0 0.00064680836782874383 -0.0043355162836854711 0 0.00089502513475665953 -0.0042568623194076298 0 0.00060147899623725482 -0.0045939783806080497 0 0.00064680836782874383 -0.0043355162836854711 0 0.00036983073351072533 -0.004311463550880669 0 0.00053762746944415157 -0.0034694376905847063 0 0.0009330475725568343 -0.0036985941113052458 0 0.00053762746944415157 -0.0034694376905847063 0 4.2499406355457659e-05 -0.0036132946660327563 0 -9.8044705874761662e-05 -0.0031641645113249222 0 -0.00040482365272836963 -0.0030820036848396301 0 -0.00040207442209130845 -0.0027843185928715826 0 -0.00040482365272836963 -0.0030820036848396301 0 -0.00040207442209130845 -0.0027843185928715826 0 -0.00075101260794133054 -0.0027408983855674043 0 4.2499406355457659e-05 -0.0036132946660327563 0 -0.00093201010105955183 -0.0033139728526726015 0 0.00036983073351072533 -0.004311463550880669 0 0.00012895962569799011 -0.00401426385751454 0 0.0004228746456738654 -0.004046952373477416 0 0.00036983073351072533 -0.004311463550880669 0 0.00056300725418258863 -0.00415160622935885 0 0.0004228746456738654 -0.004046952373477416 0 0.00056300725418258863 -0.00415160622935885 0 0.0005455901620009594 -0.0040259328264434773 0 0.0004228746456738654 -0.004046952373477416 0 0.00056300725418258863 -0.00415160622935885 0 0.00065610141574556045 -0.0040119175169016441 0 0.0005455901620009594 -0.0040259328264434773 0 0.00056300725418258863 -0.00415160622935885 0 0.00071659714030584997 -0.0041493620985779541 0 0.00065610141574556045 -0.0040119175169016441 0 0.00064680836782874383 -0.0043355162836854711 0 0.00071659714030584997 -0.0041493620985779541 0 0.00089502513475665953 -0.0042568623194076298 0 0.00064680836782874383 -0.0043355162836854711 0 0.00056300725418258863 -0.00415160622935885 0 0.00071659714030584997 -0.0041493620985779541 0 0.00064680836782874383 -0.0043355162836854711 0 0.00036983073351072533 -0.004311463550880669 0 0.00056300725418258863 -0.00415160622935885 0 -0.0011237402219914754 -0.0026010878640838325 0 -0.0017349565948731106 -0.0023066484911847887 0 -0.0015363145681737298 -0.0020516361571063365 0 -0.0014126572361195639 -0.0020552006505248194 0 -0.0015592024745049531 -0.0019434498784639911 0 -0.0016356142432131353 -0.0020107173876035308 0 -0.0015363145681737298 -0.0020516361571063365 0 -0.0015592024745049531 -0.0019434498784639911 0 -0.00073498579419174574 -0.0030844152492296088 0 -0.00075101260794133054 -0.0027408983855674043 0 -0.0012437552765262932 -0.0026520382462982823 0 -0.00040482365272836963 -0.0030820036848396301 0 -0.00073498579419174574 -0.0030844152492296088 0 -0.00075101260794133054 -0.0027408983855674043 0 -0.0017349565948731106 -0.0023066484911847887 0 -0.00093201010105955183 -0.0033139728526726015 0 -0.00040207442209130845 -0.0027843185928715826 0 -0.00075101260794133054 -0.0027408983855674043 0 -0.0007063283204419348 -0.0024005894780227371 0 -0.00075101260794133054 -0.0027408983855674043 0 -0.0012437552765262932 -0.0026520382462982823 0 -0.0007063283204419348 -0.0024005894780227371 0 -0.002003251288918712 -0.0024981620468361838 0 -0.002209679578339967 -0.0024533516039937941 0 -0.0020805193721496478 -0.0026582346732824005 0 -0.0020194347676654361 -0.0023505433803246143 0 -0.002003251288918712 -0.0024981620468361838 0 -0.002209679578339967 -0.0024533516039937941 0 -0.00093201010105955183 -0.0033139728526726015 0 -0.0014278569794325547 -0.0036571178715162542 0 -0.00086901965883006392 -0.0048364037345387757 0 -0.00059730063151084464 -0.0046467820730532834 0 -0.00089527089845893863 -0.0046263566011826096 0 -0.00081059729056183678 -0.0043542806891580929 0 -0.00059730063151084464 -0.0046467820730532834 0 -0.00089527089845893863 -0.0046263566011826096 0 0.0005403862052561927 -0.0038928091726215344 0 0.00053734406816657377 -0.0038317315332611021 0 0.00065610141574556045 -0.0040119175169016441 0 0.00025284366126593322 -0.0042522074031669747 0 0.00022259064158848456 -0.004470626437611468 0 0.00053734406816657377 -0.0038317315332611021 0 0.00065610141574556045 -0.0040119175169016441 0 0.00082191669203179603 -0.003987170062830038 0 0.00071659714030584997 -0.0041493620985779541 0 0.00065610141574556045 -0.0040119175169016441 0 0.00082191669203179603 -0.003987170062830038 0 0.0005403862052561927 -0.0038928091726215344 0 0.0005455901620009594 -0.0040259328264434773 0 0.0004228746456738654 -0.004046952373477416 0 0.0005403862052561927 -0.0038928091726215344 0 0.00053757676944596712 -0.0038311964348849837 0 0.0004228746456738654 -0.004046952373477416 0 0.0005403862052561927 -0.0038928091726215344 0 0.00065610141574556045 -0.0040119175169016441 0 0.0005455901620009594 -0.0040259328264434773 0 -0.00093201010105955183 -0.0033139728526726015 0 0.00022259064158848456 -0.004470626437611468 0 0.00012895962569799011 -0.00401426385751454 0 0.00053757676944596712 -0.0038311964348849837 0 0.0004228746456738654 -0.004046952373477416 0 -0.00081059729056183678 -0.0043542806891580929 0 -0.0010934742290129311 -0.0045009688519311256 0 -0.00089527089845893863 -0.0046263566011826096 0 -0.0010854455227310884 -0.0047934285381635118 0 -0.0010934742290129311 -0.0045009688519311256 0 -0.00089527089845893863 -0.0046263566011826096 0 0.00066200561259164529 -0.0049250426506273872 0 0.00065785679962067389 -0.0048561016645975721 0 0.00060058595340095632 -0.0048898702003531578 0 0.00022259064158848456 -0.004470626437611468 0 0.00082474220870083336 -0.0041919424864864515 0 -0.00024045076784376043 -0.0049144009996527713 0 0.00022259064158848456 -0.004470626437611468 0 0.00053734406816657377 -0.0038317315332611021 0 0.00093701040556091596 -0.0036485650144586945 0 0.0009493355740786255 -0.0038427898337102758 0 0.00093701040556091596 -0.0036485650144586945 0 0.0011459398557091991 -0.0037052312350850593 0 0.0009493355740786255 -0.0038427898337102758 0 0.0013486477033115274 -0.0036493888962477725 0 0.0012041870361912299 -0.003884433796316407 0 0.0013650818989202342 -0.0036194470522915435 0 0.0011459398557091991 -0.0037052312350850593 0 0.0011170889373971413 -0.0039448207326212041 0 0.0013627694509664352 -0.0034709284806577075 0 0.00093701040556091596 -0.0036485650144586945 0 0.0011459398557091991 -0.0037052312350850593 0 0.0011679967955063328 -0.0046861346423548627 0 0.00082474220870083336 -0.0041919424864864515 0 0.0013627694509664352 -0.0034709284806577075 0 0.0013650818989202342 -0.0036194470522915435 0 0.0011459398557091991 -0.0037052312350850593 0 0.0013650818989202342 -0.0036194470522915435 0 0.0012535619838434265 -0.0038939644210962752 0 0.0014285242735228073 -0.0038619037851229106 0 0.0011459398557091991 -0.0037052312350850593 0 0.0011170889373971413 -0.0039448207326212041 0 0.0009493355740786255 -0.0038427898337102758 0 0.0012535619838434265 -0.0038939644210962752 0 0.0012845119622890511 -0.00405539854321819 0 0.0014285242735228073 -0.0038619037851229106 0 0.00053734406816657377 -0.0038317315332611021 0 0.0009493355740786255 -0.0038427898337102758 0 0.00082191669203179603 -0.003987170062830038 0 0.0011170889373971413 -0.0039448207326212041 0 0.0009493355740786255 -0.0038427898337102758 0 0.00082191669203179603 -0.003987170062830038 0 0.0011170889373971413 -0.0039448207326212041 0 0.00082191669203179603 -0.003987170062830038 0 0.00089502513475665953 -0.0042568623194076298 0 0.00071659714030584997 -0.0041493620985779541 0 0.00082191669203179603 -0.003987170062830038 0 0.00089502513475665953 -0.0042568623194076298 0 0.0012041870361912299 -0.003884433796316407 0 0.0009621633054993625 -0.0043150495134863867 0 0.0012845119622890511 -0.00405539854321819 0 0.0014307200573881089 -0.004130807351526709 0 0.0014285242735228073 -0.0038619037851229106 0 0.0012535619838434265 -0.0038939644210962752 0 0.001137163786991075 -0.0041194277231364233 0 0.0012845119622890511 -0.00405539854321819 0 0.0012845119622890511 -0.00405539854321819 0 0.0012825103278498861 -0.0042302092758584086 0 0.0014307200573881089 -0.004130807351526709 0 0.001137163786991075 -0.0041194277231364233 0 0.0012845119622890511 -0.00405539854321819 0 0.0012825103278498861 -0.0042302092758584086 0 0.0010086279385808723 -0.004318275391085531 0 0.001137163786991075 -0.0041194277231364233 0 0.0012825103278498861 -0.0042302092758584086 0 0.0009330475725568343 -0.0036985941113052458 0 0.0014600643486857379 -0.003393438786475458 0 0.0009330475725568343 -0.0036985941113052458 0 0.0009621633054993625 -0.0043150495134863867 0 0.0014254151566903319 -0.0027111760898748385 0 0.0013748861111216445 -0.002671675096894996 0 0.0015200085018251337 -0.0026238526823877933 0 0.0017348494429086131 -0.0027029395200436953 0 0.0016629672511108363 -0.002585811326013163 0 0.0018140767420284493 -0.0026442923319993754 0 0.0014600643486857379 -0.003393438786475458 0 0.0016148653320590947 -0.0033732043418559688 0 0.0016247580896942358 -0.0027180014147465347 0 0.0015200085018251337 -0.0026238526823877933 0 0.0016629672511108363 -0.002585811326013163 0 0.0016247580896942358 -0.0027180014147465347 0 0.0017348494429086131 -0.0027029395200436953 0 0.0016629672511108363 -0.002585811326013163 0 0.0012825103278498861 -0.0042302092758584086 0 0.0015696914882731062 -0.0041437868092384861 0 0.0014307200573881089 -0.004130807351526709 0 0.0014307200573881089 -0.004130807351526709 0 0.0015176390949393809 -0.0040590765206778463 0 0.0014796297733814991 -0.0039597371588815412 0 0.0014315997050225353 -0.0041452096754590398 0 0.0014640081439810939 -0.0038399488819737823 0 0.0015696914882731062 -0.0041437868092384861 0 0.0014307200573881089 -0.004130807351526709 0 0.0015176390949393809 -0.0040590765206778463 0 0.0015696914882731062 -0.0041437868092384861 0 0.0015176390949393809 -0.0040590765206778463 0 0.0015935832634384436 -0.0040123116992347501 0 0.0016148653320590947 -0.0033732043418559688 0 0.0017197304391513145 -0.0032702337601491398 0 0.0015696914882731062 -0.0041437868092384861 0 0.0015935832634384436 -0.0040123116992347501 0 0.0017870543089257111 -0.0040687156746070452 0 0.0016629672511108363 -0.002585811326013163 0 0.0018140767420284493 -0.0026442923319993754 0 0.0017942186034471358 -0.0025526727918444175 0 0.001666942456142303 -0.003915967195789535 0 0.0015935832634384436 -0.0040123116992347501 0 0.0017870543089257111 -0.0040687156746070452 0 0.001666942456142303 -0.003915967195789535 0 0.0017641777391546544 -0.0038750551111474108 0 0.0017870543089257111 -0.0040687156746070452 0 0.001666942456142303 -0.003915967195789535 0 0.0015935832634384436 -0.0040123116992347501 0 0.0015485484716605111 -0.0039042537063891524 0 0.0015176390949393809 -0.0040590765206778463 0 0.0015935832634384436 -0.0040123116992347501 0 0.0014796297733814991 -0.0039597371588815412 0 0.0015935832634384436 -0.0040123116992347501 0 0.0014796297733814991 -0.0039597371588815412 0 0.0015485484716605111 -0.0039042537063891524 0 0.0014796297733814991 -0.0039597371588815412 0 0.0015116150960135454 -0.0038234237896329851 0 0.0014876376237494388 -0.0038002102628460813 0 0.0013650818989202342 -0.0036194470522915435 0 0.0014285242735228073 -0.0038619037851229106 0 0.0014228090152949714 -0.0035460185798255185 0 0.0014640081439810939 -0.0038399488819737823 0 0.0012831513499927832 -0.0040377355847879305 0 0.0014796297733814991 -0.0039597371588815412 0 0.0015485484716605111 -0.0039042537063891524 0 0.0015116150960135454 -0.0038234237896329851 0 0.0015485484716605111 -0.0039042537063891524 0 0.001600782533529803 -0.0038325477992077277 0 0.0015530284657988343 -0.0038435391148649968 0 0.0015485484716605111 -0.0039042537063891524 0 0.0015530284657988343 -0.0038435391148649968 0 0.0015116150960135454 -0.0038234237896329851 0 0.0016187051927298395 -0.0037431929686860344 0 0.001600782533529803 -0.0038325477992077277 0 0.0015747640018115151 -0.0037910518563545716 0 0.001600782533529803 -0.0038325477992077277 0 0.001552447911469362 -0.0038131972798901284 0 0.0015530284657988343 -0.0038435391148649968 0 0.001600782533529803 -0.0038325477992077277 0 0.0015747640018115151 -0.0037910518563545716 0 0.001552447911469362 -0.0038131972798901284 0 0.0015275003965575266 -0.0037742740611347706 0 0.0015747640018115151 -0.0037910518563545716 0 0.001552447911469362 -0.0038131972798901284 0 0.0015275003965575266 -0.0037742740611347706 0 0.001552447911469362 -0.0038131972798901284 0 0.0015116150960135454 -0.0038234237896329851 0 0.001552447911469362 -0.0038131972798901284 0 0.0015530284657988343 -0.0038435391148649968 0 0.0015116150960135454 -0.0038234237896329851 0 0.0013627694509664352 -0.0034709284806577075 0 0.0013650818989202342 -0.0036194470522915435 0 0.0014228090152949714 -0.0035460185798255185 0 0.0014934621946722439 -0.0037781295774717539 0 0.0015116150960135454 -0.0038234237896329851 0 0.0014754772693299726 -0.0037980814320777399 0 0.0014934621946722439 -0.0037781295774717539 0 0.0015275003965575266 -0.0037742740611347706 0 0.0015116150960135454 -0.0038234237896329851 0 0.0013181514638003116 -0.0039995483841008227 0 0.0012831513499927832 -0.0040377355847879305 0 0.0017719936266573917 -0.0037400180749648172 0 0.00169477710222941 -0.0038153205112849047 0 0.0017641777391546544 -0.0038750551111474108 0 0.001666942456142303 -0.003915967195789535 0 0.00169477710222941 -0.0038153205112849047 0 0.0017641777391546544 -0.0038750551111474108 0 0.001666942456142303 -0.003915967195789535 0 0.0015485484716605111 -0.0039042537063891524 0 0.001600782533529803 -0.0038325477992077277 0 0.001666942456142303 -0.003915967195789535 0 0.001600782533529803 -0.0038325477992077277 0 0.00169477710222941 -0.0038153205112849047 0 0.0016187051927298395 -0.0037431929686860344 0 0.001600782533529803 -0.0038325477992077277 0 0.00169477710222941 -0.0038153205112849047 0 0.0017719936266573917 -0.0037400180749648172 0 0.0018678316737749338 -0.0038651297099109132 0 0.0017641777391546544 -0.0038750551111474108 0 0.0017753772676780528 -0.0037444916250063956 0 0.0019911727886789046 -0.0040495190629775439 0 0.0021335574550920234 -0.0038289288150321066 0 0.0017719936266573917 -0.0037400180749648172 0 0.0020894986962740267 -0.0041192789425563009 0 0.0018678316737749338 -0.0038651297099109132 0 0.0017641777391546544 -0.0038750551111474108 0 0.0017870543089257111 -0.0040687156746070452 0 0.0019911727886789046 -0.0040495190629775439 0 0.002388763895473078 -0.0037013595501113042 0 0.002388763895473078 -0.0037013595501113042 0 0.0017197304391513145 -0.0032702337601491398 0 0.0018678316737749338 -0.0038651297099109132 0 0.0019922827973603979 -0.0039942249932605443 0 0.0017870543089257111 -0.0040687156746070452 0 0.0024158288454453345 -0.0044673728340831678 0 0.0023628682493813157 -0.0040419784917184636 0 0.0026151722249820385 -0.004145747217518321 0 0.0020894986962740267 -0.0041192789425563009 0 0.0024158288454453345 -0.0044673728340831678 0 0.0023628682493813157 -0.0040419784917184636 0 0.0021335574550920234 -0.0038289288150321066 0 0.0020894986962740267 -0.0041192789425563009 0 0.0023628682493813157 -0.0040419784917184636 0 0.0025983535415903133 -0.0038887340648133361 0 0.0023860370058452238 -0.0037766174126571492 0 0.0023628682493813157 -0.0040419784917184636 0 0.0025983535415903133 -0.0038887340648133361 0 0.0023628682493813157 -0.0040419784917184636 0 0.0026151722249820385 -0.004145747217518321 0 0.0025983535415903133 -0.0038887340648133361 0 0.0028012917857242223 -0.004037736558830763 0 0.0026151722249820385 -0.004145747217518321 0 0.0028012917857242223 -0.004037736558830763 0 0.0026151722249820385 -0.004145747217518321 0 0.0028982614817530429 -0.0042889049257692968 0 0.0028012917857242223 -0.004037736558830763 0 0.0030354182725487941 -0.0039406341177692572 0 0.0028982614817530429 -0.0042889049257692968 0 0.0036656274406925184 -0.0037548533777583197 0 0.003614047600032113 -0.0037510397794267539 0 0.0037035294101683907 -0.0037576464355901797 0 0.0031547278033449535 -0.0040361165687235181 0 0.0030354182725487941 -0.0039406341177692572 0 0.0028982614817530429 -0.0042889049257692968 0 0.003346742878705193 -0.0040390054108138014 0 0.0035035458328585606 -0.0039224486860002933 0 0.0031547278033449535 -0.0040361165687235181 0 0.0028982614817530429 -0.0042889049257692968 0 0.0033631061773177142 -0.0040841280106199756 0 0.0036656274406925184 -0.0037548533777583197 0 0.0036744109438844011 -0.0037603289695472553 0 0.0036742789861404098 -0.0037608100042553229 0 0.0036656274406925184 -0.0037548533777583197 0 0.0035732983690423097 -0.00381833767935791 0 0.0035746342684969254 -0.003830670311137198 0 0.0038047901754375557 -0.0038366668485064247 0 0.003133335510619892 -0.0034837951065753198 0 0.0036656274406925184 -0.0037548533777583197 0 0.003614047600032113 -0.0037510397794267539 0 0.0035732983690423097 -0.00381833767935791 0 0.0024158288454453345 -0.0044673728340831678 0 0.0026151722249820385 -0.004145747217518321 0 0.0028982614817530429 -0.0042889049257692968 0 0.0034911964606911721 -0.0037744906315216719 0 0.003614047600032113 -0.0037510397794267539 0 0.0035732983690423097 -0.00381833767935791 0 0.002388763895473078 -0.0037013595501113042 0 0.003346742878705193 -0.0040390054108138014 0 0.002388763895473078 -0.0037013595501113042 0 0.0027873270683142549 -0.0030638589491499084 0 0.0019208387906427433 -0.0025194275560886875 0 0.0019910796300491901 -0.00259361631002672 0 0.0018916303418183295 -0.0025979687808675473 0 0.0034911964606911721 -0.0037744906315216719 0 0.0035732983690423097 -0.00381833767935791 0 0.0035663410963704119 -0.0038473352076915678 0 0.0035732983690423097 -0.00381833767935791 0 0.0035760031908698151 -0.0038348508681457119 0 0.0035663410963704119 -0.0038473352076915678 0 0.0032132344679047208 -0.0036376838988447968 0 0.003133335510619892 -0.0034837951065753198 0 0.0030487525552581338 -0.0032387645558648566 0 0.0030854096809535495 -0.0031874373031233298 0 0.0030199824025131257 -0.0031154303912031057 0 0.0036742789861404098 -0.0037608100042553229 0 0.0036746340742223669 -0.0037569996463776589 0 0.0036739859768359895 -0.0037592136790108488 0 0.003133335510619892 -0.0034837951065753198 0 0.0029350908370509186 -0.0031453936146008969 0 0.003133335510619892 -0.0034837951065753198 0 0.0027873270683142549 -0.0030638589491499084 0 0.0027873270683142549 -0.0030638589491499084 0 0.0029350908370509186 -0.0031453936146008969 0 0.0036744109438844011 -0.0037603289695472553 0 0.0036738777616955451 -0.0037606598073761663 0 0.0036745176955850683 -0.0037636467757955062 0 0.0036744109438844011 -0.0037603289695472553 0 0.0036742789861404098 -0.0037608100042553229 0 0.0036738777616955451 -0.0037606598073761663 0 0.0036742789861404098 -0.0037608100042553229 0 0.0036738777616955451 -0.0037606598073761663 0 0.0036739859768359895 -0.0037592136790108488 0 0.0036746340742223669 -0.0037569996463776589 0 0.0036739859768359895 -0.0037592136790108488 0 0.0036733780327434799 -0.0037581272096378132 0 0.0036738777616955451 -0.0037606598073761663 0 0.0036739859768359895 -0.0037592136790108488 0 0.0036733780327434799 -0.0037581272096378132 0 0.0036738777616955451 -0.0037606598073761663 0 0.0036733780327434799 -0.0037581272096378132 0 0.0036745176955850683 -0.0037636467757955062 0 0.0036733780327434799 -0.0037581272096378132 0 0.0036745176955850683 -0.0037636467757955062 0 0.0036713335465625814 -0.0037517692915684585 0 0.0029350908370509186 -0.0031453936146008969 0 0.0026859851445537441 -0.0029795855402858689 0 0.0029975630537846291 -0.0032408988964558604 0 0.002966142421637221 -0.0032057426895159388 0 0.0029808598544197214 -0.0031692304607273368 0 0.0037254989299767513 -0.0037185118056340298 0 0.0035686402707924419 -0.0034722546819333788 0 0.0037969241378130059 -0.0036553196175886852 0 0.0038074129618908344 -0.0035583450334365435 0 0.0038396099542835497 -0.0035378203942493316 0 0.0036746340742223669 -0.0037569996463776589 0 0.0036733780327434799 -0.0037581272096378132 0 0.0036713335465625814 -0.0037517692915684585 0 0.0029350908370509186 -0.0031453936146008969 0 0.0035686402707924419 -0.0034722546819333788 0 0.0035686402707924419 -0.0034722546819333788 0 0.0026859851445537441 -0.0029795855402858689 0 0.0035686402707924419 -0.0034722546819333788 0 0.0038447514064157461 -0.0035582198652153287 0 0.0038074129618908344 -0.0035583450334365435 0 0.0038396099542835497 -0.0035378203942493316 0 0.0037964280262873604 -0.0035335140949174491 0 0.0038062913882368735 -0.0035109128217683809 0 0.0037973598000583895 -0.0035036024562377756 0 0.0038115118819117594 -0.003502205167371519 0 0.0027873270683142549 -0.0030638589491499084 0 0.0018982509554357756 -0.0026426256631107608 0 0.0020438250081982945 -0.0025824846867642005 0 0.0020587864752742778 -0.002599052917764189 0 0.0019753905422053041 -0.0026571311670595334 0 0.0019910796300491901 -0.00259361631002672 0 0.0019254019150445813 -0.002671301800440094 0 0.0018916303418183295 -0.0025979687808675473 0 0.0020587864752742778 -0.002599052917764189 0 0.0019753905422053041 -0.0026571311670595334 0 0.0020779285466718525 -0.002688882599576909 0 0.0019254019150445813 -0.002671301800440094 0 0.0018140767420284493 -0.0026442923319993754 0 0.0018916303418183295 -0.0025979687808675473 0 0.0018140767420284493 -0.0026442923319993754 0 0.0017942186034471358 -0.0025526727918444175 0 0.0018916303418183295 -0.0025979687808675473 0 0.0019208387906427433 -0.0025194275560886875 0 0.0017942186034471358 -0.0025526727918444175 0 0.0018916303418183295 -0.0025979687808675473 0 0.003635176688304733 -0.0038387545742740205 0 0.0036316071002295792 -0.0038109828808100031 0 0.0036315384883805345 -0.0037752627988195419 0 0.0036365548186390534 -0.0038288226575793997 0 0.0036850818846280477 -0.0037477242751689623 0 0.0036575478809411652 -0.0036904998705863967 0 0.003635176688304733 -0.0038387545742740205 0 0.0037408479428868791 -0.003717330526980255 0 0.0036158772055238666 -0.0038466043746536991 0 0.0036316071002295792 -0.0038109828808100031 0 0.0036547749758000202 -0.0038074957724489526 0 0.0036316071002295792 -0.0038109828808100031 0 0.003656323495092369 -0.003777437982239533 0 0.0036547749758000202 -0.0038074957724489526 0 0.0036316071002295792 -0.0038109828808100031 0 0.0036315384883805345 -0.0037752627988195419 0 0.003656323495092369 -0.003777437982239533 0 0.0037408479428868791 -0.003717330526980255 0 0.003798588552513458 -0.0036041601997237362 0 0.0037303818119383578 -0.0035993146306073165 0 0.0036575478809411652 -0.0036904998705863967 0 0.0037408479428868791 -0.003717330526980255 0 0.0037303818119383578 -0.0035993146306073165 0 0.0036315384883805345 -0.0037752627988195419 0 0.0036737598521941668 -0.0037554677470815808 0 0.003656323495092369 -0.003777437982239533 0 0.0036315384883805345 -0.0037752627988195419 0 0.0036737598521941668 -0.0037554677470815808 0 0.0036626968517611764 -0.0037053935293330344 0 0.0036850818846280477 -0.0037477242751689623 0 0.0037326415474003847 -0.0036543571882831417 0 0.0035921770052572341 -0.00389007878496759 0 0.0034641241199107995 -0.0039264162216078062 0 0.0033631061773177142 -0.0040841280106199756 0 0.003656323495092369 -0.003777437982239533 0 0.0036547749758000202 -0.0038074957724489526 0 0.0037035294101683907 -0.0037576464355901797 0 0.0036737598521941668 -0.0037554677470815808 0 0.003656323495092369 -0.003777437982239533 0 0.0037035294101683907 -0.0037576464355901797 0 0.0036202909392032807 -0.00385446734545516 0 0.0035035458328585606 -0.0039224486860002933 0 0.0033066542817185248 -0.0038581716811408929 0 0.0034641241199107995 -0.0039264162216078062 0 0.0033631061773177142 -0.0040841280106199756 0 0.0033066542817185248 -0.0038581716811408929 0 0.0031547278033449535 -0.0040361165687235181 0 0.0033631061773177142 -0.0040841280106199756 0 0.0033066542817185248 -0.0038581716811408929 0 0.0031547278033449535 -0.0040361165687235181 0 0.0030354182725487941 -0.0039406341177692572 0 0.0036656274406925184 -0.0037548533777583197 0 0.0037035294101683907 -0.0037576464355901797 0 0.0037022707401357536 -0.0037566262808434647 0 0.0036656274406925184 -0.0037548533777583197 0 0.0036744109438844011 -0.0037603289695472553 0 0.0037022707401357536 -0.0037566262808434647 0 0.0036737598521941668 -0.0037554677470815808 0 0.0037035294101683907 -0.0037576464355901797 0 0.0037022707401357536 -0.0037566262808434647 0 0.0036737598521941668 -0.0037554677470815808 0 0.0037022707401357536 -0.0037566262808434647 0 0.0036626968517611764 -0.0037053935293330344 0 0.0038042598030416964 -0.0035662610780835256 0 0.0037326415474003847 -0.0036543571882831417 0 0.0038074129618908344 -0.0035583450334365435 0 0.0037861572955702133 -0.0035488837093655269 0 0.003798588552513458 -0.0036041601997237362 0 0.0038074129618908344 -0.0035583450334365435 0 0.0037373834460483826 -0.0036790113315082447 0 0.0036626968517611764 -0.0037053935293330344 0 0.0036744109438844011 -0.0037603289695472553 0 0.0036745176955850683 -0.0037636467757955062 0 0.0037022707401357536 -0.0037566262808434647 0 0.0037254989299767513 -0.0037185118056340298 0 0.0037128859178091672 -0.0037422458719161503 0 0.0037969241378130059 -0.0036553196175886852 0 0.0037022707401357536 -0.0037566262808434647 0 0.0037373834460483826 -0.0036790113315082447 0 0.0037022707401357536 -0.0037566262808434647 0 0.0037373834460483826 -0.0036790113315082447 0 0.0036626968517611764 -0.0037053935293330344 0 0.0037969241378130059 -0.0036553196175886852 0 0.0038074129618908344 -0.0035583450334365435 0 0.0037373834460483826 -0.0036790113315082447 0 0.0038074129618908344 -0.0035583450334365435 0 0.0037964280262873604 -0.0035335140949174491 0 0.0037861572955702133 -0.0035488837093655269 0 0.0038396099542835497 -0.0035378203942493316 0 0.0037964280262873604 -0.0035335140949174491 0 0.0037973598000583895 -0.0035036024562377756 0 0.0037964280262873604 -0.0035335140949174491 0 0.0037861572955702133 -0.0035488837093655269 0 0.0037806297380241854 -0.0035086649192813571 0 0.0037861572955702133 -0.0035488837093655269 0 0.0037558655691566092 -0.0035140235221829013 0 0.0037806297380241854 -0.0035086649192813571 0 0.0037861572955702133 -0.0035488837093655269 0 0.0037697404880925995 -0.0035658909304558985 0 0.0037558655691566092 -0.0035140235221829013 0 0.0037697404880925995 -0.0035658909304558985 0 0.003798588552513458 -0.0036041601997237362 0 0.0037303818119383578 -0.0035993146306073165 0 0.0037861572955702133 -0.0035488837093655269 0 0.0037697404880925995 -0.0035658909304558985 0 0.003798588552513458 -0.0036041601997237362 0 0.0037303818119383578 -0.0035993146306073165 0 0.0037558655691566092 -0.0035140235221829013 0 0.0036936468255585764 -0.003533407315952359 0 0.0037558655691566092 -0.0035140235221829013 0 0.0036936468255585764 -0.003533407315952359 0 0.0036796347898847902 -0.0034565088391729807 0 0.0037697404880925995 -0.0035658909304558985 0 0.0037303818119383578 -0.0035993146306073165 0 0.0037558655691566092 -0.0035140235221829013 0 0.0036292127455169001 -0.0035229763965355038 0 0.0036936468255585764 -0.003533407315952359 0 0.0036796347898847902 -0.0034565088391729807 0 0.0036292127455169001 -0.0035229763965355038 0 0.0036936468255585764 -0.003533407315952359 0 0.0036629781015793733 -0.0035931729895486526 0 0.0037303818119383578 -0.0035993146306073165 0 0.0036936468255585764 -0.003533407315952359 0 0.0036629781015793733 -0.0035931729895486526 0 0.0036575478809411652 -0.0036904998705863967 0 0.0037303818119383578 -0.0035993146306073165 0 0.0036629781015793733 -0.0035931729895486526 0 0.0035801583680221578 -0.0036075259524540868 0 0.0036575478809411652 -0.0036904998705863967 0 0.0036629781015793733 -0.0035931729895486526 0 0.0036228366898219712 -0.0033252052955241389 0 0.0036430516730518994 -0.0033803808385105289 0 0.0036833139560684602 -0.0032854401811957933 0 0.0036077564521063343 -0.0034399764487825992 0 0.0036430516730518994 -0.0033803808385105289 0 0.0036796347898847902 -0.0034565088391729807 0 0.0036430516730518994 -0.0033803808385105289 0 0.0036796347898847902 -0.0034565088391729807 0 0.0037228653453301275 -0.0033878099986281531 0 0.0036292127455169001 -0.0035229763965355038 0 0.0036077564521063343 -0.0034399764487825992 0 0.0036796347898847902 -0.0034565088391729807 0 0.0037558655691566092 -0.0035140235221829013 0 0.0036796347898847902 -0.0034565088391729807 0 0.0037228653453301275 -0.0033878099986281531 0 0.0037558655691566092 -0.0035140235221829013 0 0.0037228653453301275 -0.0033878099986281531 0 0.0038381224668185697 -0.0034057602310699525 0 0.0036430516730518994 -0.0033803808385105289 0 0.0037228653453301275 -0.0033878099986281531 0 0.0036833139560684602 -0.0032854401811957933 0 0.0037228653453301275 -0.0033878099986281531 0 0.0038083453630028763 -0.0032305621035522906 0 0.0036833139560684602 -0.0032854401811957933 0 0.0037228653453301275 -0.0033878099986281531 0 0.0038381224668185697 -0.0034057602310699525 0 0.0038083453630028763 -0.0032305621035522906 0 0.0037921728965297032 -0.0034532290020629222 0 0.0039376756215808301 -0.003331009935966453 0 0.0038381224668185697 -0.0034057602310699525 0 0.0039391297648687556 -0.0032664728015254726 0 0.0038083453630028763 -0.0032305621035522906 0 0.0037558655691566092 -0.0035140235221829013 0 0.003765228709289178 -0.0034853201598709816 0 0.0037806297380241854 -0.0035086649192813571 0 0.0037636935365659 -0.0035042576685047574 0 0.0037921728965297032 -0.0034532290020629222 0 0.003765228709289178 -0.0034853201598709816 0 0.0037806297380241854 -0.0035086649192813571 0 0.0037877499586411417 -0.0034760775753174189 0 0.0037806297380241854 -0.0035086649192813571 0 0.0037973598000583895 -0.0035036024562377756 0 0.0037877499586411417 -0.0034760775753174189 0 0.0037964280262873604 -0.0035335140949174491 0 0.0037806297380241854 -0.0035086649192813571 0 0.0037973598000583895 -0.0035036024562377756 0 0.0037973598000583895 -0.0035036024562377756 0 0.0037877499586411417 -0.0034760775753174189 0 0.0038065134618604371 -0.0034591662619002064 0 0.0037877499586411417 -0.0034760775753174189 0 0.0037750778404314167 -0.0034445073402034373 0 0.0038065134618604371 -0.0034591662619002064 0 0.003765228709289178 -0.0034853201598709816 0 0.0037877499586411417 -0.0034760775753174189 0 0.0037750778404314167 -0.0034445073402034373 0 0.0037750778404314167 -0.0034445073402034373 0 0.0037886073712587345 -0.003400550044027539 0 0.0038065134618604371 -0.0034591662619002064 0 0.0039376756215808301 -0.003331009935966453 0 0.0030454156482509855 -0.0030708928512780472 0 0.0039391297648687556 -0.0032664728015254726 0 0.0040524241654842164 -0.0030833226681165468 0 0.0039140658314525695 -0.0030857674401820446 0 0.0030454156482509855 -0.0030708928512780472 0 0.0031546765650484043 -0.0030405169501242064 0 0.0040524241654842164 -0.0030833226681165468 0 0.0039140658314525695 -0.0030857674401820446 0 0.0040211799403213058 -0.0029304205777857047 0 0.0039140658314525695 -0.0030857674401820446 0 0.0037891544033379077 -0.0030512350650806408 0 0.0038083453630028763 -0.0032305621035522906 0 0.0039140658314525695 -0.0030857674401820446 0 0.0037891544033379077 -0.0030512350650806408 0 0.003874058010642693 -0.0029361579903543281 0 0.0039391297648687556 -0.0032664728015254726 0 0.0039140658314525695 -0.0030857674401820446 0 0.0038083453630028763 -0.0032305621035522906 0 0.0038083453630028763 -0.0032305621035522906 0 0.0036833139560684602 -0.0032854401811957933 0 0.0036294881174640551 -0.0030550370739475126 0 0.0037891544033379077 -0.0030512350650806408 0 0.0038083453630028763 -0.0032305621035522906 0 0.0036294881174640551 -0.0030550370739475126 0 0.0037891544033379077 -0.0030512350650806408 0 0.0036294881174640551 -0.0030550370739475126 0 0.0037230616552401457 -0.0029317337740524378 0 0.003421014689658029 -0.003146107927215354 0 0.0033739639617830983 -0.0029299666377014437 0 0.0036294881174640551 -0.0030550370739475126 0 0.0036280899211794102 -0.003281944045913145 0 0.0036228366898219712 -0.0033252052955241389 0 0.0036833139560684602 -0.0032854401811957933 0 0.003421014689658029 -0.003146107927215354 0 0.0036833139560684602 -0.0032854401811957933 0 0.0036294881174640551 -0.0030550370739475126 0 0.0035315907108269687 -0.0032129619415724106 0 0.0036719233417165206 -0.0032836943858954759 0 0.0019238959547125099 -0.0028272976188490504 0 0.0018088043272812917 -0.002831955665694337 0 0.0018990738813806109 -0.002736299070410694 0 0.0019238959547125099 -0.0028272976188490504 0 0.0018990738813806109 -0.002736299070410694 0 0.0019803491124361925 -0.0027423912593371991 0 0.0017315815093781398 -0.0027862397681188496 0 0.0018088043272812917 -0.002831955665694337 0 0.0018636100182260252 -0.0027509670006141003 0 0.0018142965798537769 -0.0028267115125503784 0 0.0018838518695965644 -0.0027462176150651525 0 0.0017348494429086131 -0.0027029395200436953 0 0.0018140767420284493 -0.0026442923319993754 0 0.0018636100182260252 -0.0027509670006141003 0 0.0017348494429086131 -0.0027029395200436953 0 0.0017315815093781398 -0.0027862397681188496 0 0.0018636100182260252 -0.0027509670006141003 0 0.0019753905422053041 -0.0026571311670595334 0 0.0018990738813806109 -0.002736299070410694 0 0.0019803491124361925 -0.0027423912593371991 0 0.0018982509554357756 -0.0026426256631107608 0 0.0018838518695965644 -0.0027462176150651525 0 0.0019254019150445813 -0.002671301800440094 0 0.0018140767420284493 -0.0026442923319993754 0 0.0018636100182260252 -0.0027509670006141003 0 0.0019803491124361925 -0.0027423912593371991 0 0.0020779285466718525 -0.002688882599576909 0 0.0020194128260510335 -0.0028105878310592191 0 0.0019753905422053041 -0.0026571311670595334 0 0.0019803491124361925 -0.0027423912593371991 0 0.0020779285466718525 -0.002688882599576909 0 0.0026859851445537441 -0.0029795855402858689 0 0.0019645947138123522 -0.002770969477310726 0 0.0026859851445537441 -0.0029795855402858689 0 0.0030087755141163302 -0.0031871381923589005 0 0.0037973598000583895 -0.0035036024562377756 0 0.0038115118819117594 -0.003502205167371519 0 0.0038065134618604371 -0.0034591662619002064 0 0.0021217382943155999 -0.0026833786066647581 0 0.0021479355679427051 -0.0028142845396773642 0 0.00205367927290909 -0.0028049438651559775 0 0.0019238959547125099 -0.0028272976188490504 0 0.0019803491124361925 -0.0027423912593371991 0 0.0020194128260510335 -0.0028105878310592191 0 0.0019645947138123522 -0.002770969477310726 0 0.0019876704492232358 -0.00294880090595995 0 0.00205367927290909 -0.0028049438651559775 0 0.0020904269631196407 -0.0029011042305745124 0 0.0019670934291270746 -0.0029437200929032722 0 0.0021832540557676855 -0.0029586906172351561 0 0.0021479355679427051 -0.0028142845396773642 0 0.0020904269631196407 -0.0029011042305745124 0 0.0021479355679427051 -0.0028142845396773642 0 0.00205367927290909 -0.0028049438651559775 0 0.0020904269631196407 -0.0029011042305745124 0 0.0030454156482509855 -0.0030708928512780472 0 0.0030087755141163302 -0.0031871381923589005 0 0.0021832540557676855 -0.0029586906172351561 0 0.0020904269631196407 -0.0029011042305745124 0 0.0020724606430893144 -0.0029849010162759128 0 0.0021832540557676855 -0.0029586906172351561 0 0.0020724606430893144 -0.0029849010162759128 0 0.002117697650649719 -0.0030731202526183884 0 0.0020904269631196407 -0.0029011042305745124 0 0.0020724606430893144 -0.0029849010162759128 0 0.0019670934291270746 -0.0029437200929032722 0 0.0020724606430893144 -0.0029849010162759128 0 0.0019670934291270746 -0.0029437200929032722 0 0.0019963484668542079 -0.0030498540118633418 0 0.0019670934291270746 -0.0029437200929032722 0 0.0018539231999641311 -0.0029223060347881445 0 0.0018605147340915831 -0.0030362289465634415 0 0.0019670934291270746 -0.0029437200929032722 0 0.0018605147340915831 -0.0030362289465634415 0 0.0019963484668542079 -0.0030498540118633418 0 0.0019238959547125099 -0.0028272976188490504 0 0.0019670934291270746 -0.0029437200929032722 0 0.0018539231999641311 -0.0029223060347881445 0 0.0019238959547125099 -0.0028272976188490504 0 0.0020194128260510335 -0.0028105878310592191 0 0.0019670934291270746 -0.0029437200929032722 0 0.0019238959547125099 -0.0028272976188490504 0 0.0018088043272812917 -0.002831955665694337 0 0.0018539231999641311 -0.0029223060347881445 0 0.0017410277736527025 -0.0029477612444472139 0 0.0018088043272812917 -0.002831955665694337 0 0.0018539231999641311 -0.0029223060347881445 0 0.0017410277736527025 -0.0029477612444472139 0 0.0018539231999641311 -0.0029223060347881445 0 0.0018605147340915831 -0.0030362289465634415 0 0.0018605147340915831 -0.0030362289465634415 0 0.0018157054068083159 -0.0031607644318493041 0 0.0017134370888165816 -0.0030750058736925298 0 0.001595329699926395 -0.001564725029650343 0 0.0013242136145266337 -0.0012768381969080764 0 0.0014134665092979904 -0.0010502456627222792 0 0.0013379313670268105 -0.0011886237944518014 0 0.0013076354057546373 -0.0011031992722800219 0 0.0018605147340915831 -0.0030362289465634415 0 0.0018157054068083159 -0.0031607644318493041 0 0.0019513594989097772 -0.0031570702025535973 0 0.001595329699926395 -0.001564725029650343 0 0.0018842635037938187 -0.0021183594588364803 0 0.0014655822073676493 -0.0010407747196928992 0 0.0017609372560183467 -0.0010092134445963778 0 0.0016762908424444451 -0.0012238281434124782 0 0.0018605147340915831 -0.0030362289465634415 0 0.0019513594989097772 -0.0031570702025535973 0 0.0019963484668542079 -0.0030498540118633418 0 0.0020724606430893144 -0.0029849010162759128 0 0.0019963484668542079 -0.0030498540118633418 0 0.002117697650649719 -0.0030731202526183884 0 0.0019513594989097772 -0.0031570702025535973 0 0.0019963484668542079 -0.0030498540118633418 0 0.0020420053857653671 -0.0031013207793854801 0 0.0019963484668542079 -0.0030498540118633418 0 0.0020420053857653671 -0.0031013207793854801 0 0.002117697650649719 -0.0030731202526183884 0 0.0030454156482509855 -0.0030708928512780472 0 0.0019412717011156517 -0.0030906867117616822 0 0.0022422042520805372 -0.0028722417190377479 0 0.002117697650649719 -0.0030731202526183884 0 0.0022706193434062585 -0.0030154060347087662 0 0.002117697650649719 -0.0030731202526183884 0 0.0021953789130085628 -0.0031010129308370795 0 0.0022706193434062585 -0.0030154060347087662 0 0.001962686596704196 -0.0020598000191463643 0 0.0029919918877941193 -0.002438705926283341 0 0.0020806897829168569 -0.00099781965003279045 0 0.0022157905094978407 -0.0011770687476645137 0 0.0023649490101803955 -0.00099432206975529915 0 0.0021953789130085628 -0.0031010129308370795 0 0.00209996383351292 -0.0031576378147823319 0 0.0022986208882540245 -0.0031498078724234982 0 0.002117697650649719 -0.0030731202526183884 0 0.0021953789130085628 -0.0031010129308370795 0 0.00209996383351292 -0.0031576378147823319 0 0.0017609372560183467 -0.0010092134445963778 0 0.0020806897829168569 -0.00099781965003279045 0 0.0018667070279976073 -0.0011647094580522152 0 0.0019513594989097772 -0.0031570702025535973 0 0.0020420053857653671 -0.0031013207793854801 0 0.00209996383351292 -0.0031576378147823319 0 0.0018842635037938187 -0.0021183594588364803 0 0.001962686596704196 -0.0020598000191463643 0 0.0020420053857653671 -0.0031013207793854801 0 0.002117697650649719 -0.0030731202526183884 0 0.00209996383351292 -0.0031576378147823319 0 0.0020806897829168569 -0.00099781965003279045 0 0.0018667070279976073 -0.0011647094580522152 0 0.0020404708141956284 -0.0012075574851600048 0 0.0020404708141956284 -0.0012075574851600048 0 0.0021361987387612186 -0.0013677058477171132 0 0.0018859079767508463 -0.0013392726295232097 0 0.0018667070279976073 -0.0011647094580522152 0 0.0020404708141956284 -0.0012075574851600048 0 0.0018859079767508463 -0.0013392726295232097 0 0.0020806897829168569 -0.00099781965003279045 0 0.0020404708141956284 -0.0012075574851600048 0 0.0022157905094978407 -0.0011770687476645137 0 0.0020404708141956284 -0.0012075574851600048 0 0.0022157905094978407 -0.0011770687476645137 0 0.0021361987387612186 -0.0013677058477171132 0 0.0022157905094978407 -0.0011770687476645137 0 0.0021361987387612186 -0.0013677058477171132 0 0.002296623311126227 -0.0013349866956206557 0 0.0021361987387612186 -0.0013677058477171132 0 0.002296623311126227 -0.0013349866956206557 0 0.0022708018972877326 -0.0014376573903964619 0 0.0021361987387612186 -0.0013677058477171132 0 0.0021757742164716346 -0.0014726585169654082 0 0.0020646091335125953 -0.0014893598685358736 0 0.0021361987387612186 -0.0013677058477171132 0 0.0021757742164716346 -0.0014726585169654082 0 0.0022708018972877326 -0.0014376573903964619 0 0.0018859079767508463 -0.0013392726295232097 0 0.0016471898434554633 -0.0014110499324575048 0 0.0019535335815931685 -0.0016022604168624765 0 0.0021361987387612186 -0.0013677058477171132 0 0.0018859079767508463 -0.0013392726295232097 0 0.0019535335815931685 -0.0016022604168624765 0 0.0020960882593091456 -0.0014418000715370764 0 0.0019304843577985275 -0.0012558114078904058 0 0.0013681562250523953 -0.0011918266502451114 0 0.0013596219286614519 -0.0012278130994008525 0 0.0014238960360597253 -0.0012184152606924928 0 0.0014725176603957266 -0.0013045372065952276 0 0.0019304843577985275 -0.0012558114078904058 0 0.0013681562250523953 -0.0011918266502451114 0 0.0013344027405044392 -0.0011998100538242642 0 0.0013379313670268105 -0.0011886237944518014 0 0.0013681562250523953 -0.0011918266502451114 0 0.0013344027405044392 -0.0011998100538242642 0 0.0013596219286614519 -0.0012278130994008525 0 0.001595329699926395 -0.001564725029650343 0 0.0015486830815787283 -0.0010729638796946348 0 0.0014134665092979904 -0.0010502456627222792 0 0.0013379313670268105 -0.0011886237944518014 0 0.0016762908424444451 -0.0012238281434124782 0 0.0014725176603957266 -0.0013045372065952276 0 0.0013623664050798549 -0.0012007457714981627 0 0.0016471898434554633 -0.0014110499324575048 0 0.0013379313670268105 -0.0011886237944518014 0 0.0016762908424444451 -0.0012238281434124782 0 0.0017609372560183467 -0.0010092134445963778 0 0.0018667070279976073 -0.0011647094580522152 0 0.0016762908424444451 -0.0012238281434124782 0 0.0018859079767508463 -0.0013392726295232097 0 0.0016471898434554633 -0.0014110499324575048 0 0.0016762908424444451 -0.0012238281434124782 0 0.0018667070279976073 -0.0011647094580522152 0 0.0018859079767508463 -0.0013392726295232097 0 0.0016762908424444451 -0.0012238281434124782 0 0.0035530762590998922 -0.0028093228681431493 0 0.0037306851542638223 -0.0025836499086187921 0 0.0034305838163463183 -0.002564149861769313 0 0.0033214318377049975 -0.0027218189719501436 0 0.0035530762590998922 -0.0028093228681431493 0 0.0034635928979217761 -0.0025959262743391596 0 0.0035385915010853722 -0.0027804704077088334 0 0.0034646917697493214 -0.0026129206689540461 0 0.0033739639617830983 -0.0029299666377014437 0 0.0036294881174640551 -0.0030550370739475126 0 0.0035530762590998922 -0.0028093228681431493 0 0.0035530762590998922 -0.0028093228681431493 0 0.0037230616552401457 -0.0029317337740524378 0 0.0037942625096581556 -0.0027862369137333885 0 0.0036294881174640551 -0.0030550370739475126 0 0.0035530762590998922 -0.0028093228681431493 0 0.0037230616552401457 -0.0029317337740524378 0 0.0035530762590998922 -0.0028093228681431493 0 0.0037942625096581556 -0.0027862369137333885 0 0.0037306851542638223 -0.0025836499086187921 0 0.0038646808785008343 -0.002671620748183359 0 0.0037942625096581556 -0.0027862369137333885 0 0.0037306851542638223 -0.0025836499086187921 0 0.0041587931735791077 -0.002780417511455927 0 0.0029919918877941193 -0.002438705926283341 0 0.0038646808785008343 -0.002671620748183359 0 0.0037942625096581556 -0.0027862369137333885 0 0.0039862803705020449 -0.0027577703620638109 0 0.0037230616552401457 -0.0029317337740524378 0 0.0037942625096581556 -0.0027862369137333885 0 0.003874058010642693 -0.0029361579903543281 0 0.0037942625096581556 -0.0027862369137333885 0 0.003874058010642693 -0.0029361579903543281 0 0.0039853634694641919 -0.0027744461192869981 0 0.0037891544033379077 -0.0030512350650806408 0 0.0037230616552401457 -0.0029317337740524378 0 0.003874058010642693 -0.0029361579903543281 0 0.003874058010642693 -0.0029361579903543281 0 0.0040211799403213058 -0.0029304205777857047 0 0.0039853634694641919 -0.0027744461192869981 0 0.0039140658314525695 -0.0030857674401820446 0 0.003874058010642693 -0.0029361579903543281 0 0.0040211799403213058 -0.0029304205777857047 0 0.0031546765650484043 -0.0030405169501242064 0 0.0029919918877941193 -0.002438705926283341 0 0.0021953789130085628 -0.0031010129308370795 0 0.0022706193434062585 -0.0030154060347087662 0 0.0022986208882540245 -0.0031498078724234982 0 0.0029919918877941193 -0.002438705926283341 0 0.0031828523092652895 -0.0018319517488123709 0 0.0038646808785008343 -0.002671620748183359 0 0.0039862803705020449 -0.0027577703620638109 0 0.0039429594189804079 -0.0025558000426523122 0 0.0022157905094978407 -0.0011770687476645137 0 0.0024123184082279221 -0.0012308378309881006 0 0.002296623311126227 -0.0013349866956206557 0 0.0022157905094978407 -0.0011770687476645137 0 0.0023649490101803955 -0.00099432206975529915 0 0.0024123184082279221 -0.0012308378309881006 0 0.002296623311126227 -0.0013349866956206557 0 0.0022708018972877326 -0.0014376573903964619 0 0.0024593512287947759 -0.0014560634670804367 0 0.0031828523092652895 -0.0018319517488123709 0 0.002881976310439586 -0.0017772019437315772 0 0.0024123184082279221 -0.0012308378309881006 0 0.002296623311126227 -0.0013349866956206557 0 0.0024593512287947759 -0.0014560634670804367 0 0.0021529702470668576 -0.0014638574352088308 0 0.002881976310439586 -0.0017772019437315772 0 0.0022708018972877326 -0.0014376573903964619 0 0.0023735385485214458 -0.001443543460047756 0 0.0023256792466074274 -0.0015092272432640898 0 0.002881976310439586 -0.0017772019437315772 0 0.0030883189950280314 -0.001925979736677109 0 0.0038918716264133824 -0.0023480796303611525 0 0.0037306851542638223 -0.0025836499086187921 0 0.0036103812733746334 -0.0023352774496617546 0 0.0039429594189804079 -0.0025558000426523122 0 0.0038918716264133824 -0.0023480796303611525 0 0.0037306851542638223 -0.0025836499086187921 0 0.0038646808785008343 -0.002671620748183359 0 0.0039429594189804079 -0.0025558000426523122 0 0.0037306851542638223 -0.0025836499086187921 0 0.0037306851542638223 -0.0025836499086187921 0 0.0036103812733746334 -0.0023352774496617546 0 0.0034305838163463183 -0.002564149861769313 0 0.0030872549010661087 -0.0019117318763677805 0 0.0030883189950280314 -0.001925979736677109 0 0.003328658105487763 -0.0023460509932146456 0 0.0033164007708545696 -0.0023188383579856938 0 0.0036103812733746334 -0.0023352774496617546 0 0.003328658105487763 -0.0023460509932146456 0 0.0036103812733746334 -0.0023352774496617546 0 0.0034305838163463183 -0.002564149861769313 0 0.0025539705224859668 -0.0016068308468571945 0 0.0025306427352089792 -0.0016049474926299536 0 0.0025417200957371625 -0.0016109242889358365 0 0.0025184678657834093 -0.001599773931213754 0 0.0025259437667898531 -0.0016289283948793237 0 0.0025942689974150003 -0.0015712845904399205 0 0.0025184678657834093 -0.001599773931213754 0 0.0025254230794005293 -0.0015456679036911351 0 0.0025942689974150003 -0.0015712845904399205 0 0.0025970790663192179 -0.0016328701759102688 0 0.0025184678657834093 -0.001599773931213754 0 0.0026277703879431895 -0.0014876306692771396 0 0.0025041887772971985 -0.0014855466191884081 0 0.0025254230794005293 -0.0015456679036911351 0 0.0026277703879431895 -0.0014876306692771396 0 0.0025942689974150003 -0.0015712845904399205 0 0.0025254230794005293 -0.0015456679036911351 0 0.0025254230794005293 -0.0015456679036911351 0 0.0024580774360030522 -0.0015324389295714681 0 0.0024656214586120011 -0.0015937471869883111 0 0.0025041887772971985 -0.0014855466191884081 0 0.0025254230794005293 -0.0015456679036911351 0 0.0024580774360030522 -0.0015324389295714681 0 0.0025184678657834093 -0.001599773931213754 0 0.0024656214586120011 -0.0015937471869883111 0 0.0024918526286914883 -0.0016458479473791324 0 0.0025184678657834093 -0.001599773931213754 0 0.0025254230794005293 -0.0015456679036911351 0 0.0024656214586120011 -0.0015937471869883111 0 0.0024656214586120011 -0.0015937471869883111 0 0.002400617264721858 -0.0016288821863263449 0 0.0024049591119220709 -0.0015609419978602395 0 0.0023940537785088105 -0.0014833770861519434 0 0.0024580774360030522 -0.0015324389295714681 0 0.0024049591119220709 -0.0015609419978602395 0 0.002881976310439586 -0.0017772019437315772 0 0.0023366951193812911 -0.0014108313460081637 0 0.0023940537785088105 -0.0014833770861519434 0 0.0025041887772971985 -0.0014855466191884081 0 0.0024580774360030522 -0.0015324389295714681 0 0.0024580774360030522 -0.0015324389295714681 0 0.0024656214586120011 -0.0015937471869883111 0 0.0024049591119220709 -0.0015609419978602395 0 0.0023735385485214458 -0.001443543460047756 0 0.0024049591119220709 -0.0015609419978602395 0 0.0023256792466074274 -0.0015092272432640898 0 0.0022708018972877326 -0.0014376573903964619 0 0.0023256792466074274 -0.0015092272432640898 0 0.0022488291878057323 -0.0015796081896320357 0 0.0024049591119220709 -0.0015609419978602395 0 0.0023256792466074274 -0.0015092272432640898 0 0.0022488291878057323 -0.0015796081896320357 0 0.0019497017296114842 -0.00065449887924278307 0 0.0020089650693679165 -0.00061837634474088007 0 0.0020507566833544112 -0.00072355615579706262 0 0.002400617264721858 -0.0016288821863263449 0 0.0024049591119220709 -0.0015609419978602395 0 0.0022488291878057323 -0.0015796081896320357 0 0.0021674333983204173 -0.0011336429499810565 0 0.0021740304636156779 -0.0011413348752866374 0 0.0020089650693679165 -0.00061837634474088007 0 0.0020285018078222538 -0.00053825251327008683 0 0.0019419681618400039 -0.00055978154320979764 0 0.0020285018078222538 -0.00053825251327008683 0 0.0019419681618400039 -0.00055978154320979764 0 0.0019465657210355548 -0.0004704955235769945 0 0.0020285018078222538 -0.00053825251327008683 0 0.0020381036236887546 -0.0004507595003993409 0 0.0019465657210355548 -0.0004704955235769945 0 0.0019419681618400039 -0.00055978154320979764 0 0.0018669775825995185 -0.00049927914211502248 0 0.0019465657210355548 -0.0004704955235769945 0 0.0019497017296114842 -0.00065449887924278307 0 0.0020089650693679165 -0.00061837634474088007 0 0.0019419681618400039 -0.00055978154320979764 0 0.0019497017296114842 -0.00065449887924278307 0 0.0019419681618400039 -0.00055978154320979764 0 0.0018559924639451972 -0.00058406241411167257 0 0.0021674333983204173 -0.0011336429499810565 0 0.0021675119856896263 -0.0011662538531208402 0 0.0024656214586120011 -0.0015937471869883111 0 0.002400617264721858 -0.0016288821863263449 0 0.0024918526286914883 -0.0016458479473791324 0 0.0019419681618400039 -0.00055978154320979764 0 0.0018559924639451972 -0.00058406241411167257 0 0.0018669775825995185 -0.00049927914211502248 0 0.0018559924639451972 -0.00058406241411167257 0 0.0018669775825995185 -0.00049927914211502248 0 0.0017642577615377656 -0.00051913422288605714 0 0.0021675119856896263 -0.0011662538531208402 0 0.0022951133924481526 -0.00066324786914900163 0 0.0024918526286914883 -0.0016458479473791324 0 0.0025374295230107761 -0.0016509603878648964 0 0.0025259437667898531 -0.0016289283948793237 0 0.0025184678657834093 -0.001599773931213754 0 0.0024918526286914883 -0.0016458479473791324 0 0.0025259437667898531 -0.0016289283948793237 0 0.0025437826758541301 -0.0016315915387266557 0 0.0025374295230107761 -0.0016509603878648964 0 0.0025259437667898531 -0.0016289283948793237 0 0.0025417200957371625 -0.0016109242889358365 0 0.0025437826758541301 -0.0016315915387266557 0 0.0025259437667898531 -0.0016289283948793237 0 0.0021805504915237955 -0.00068959945376005833 0 0.0021721134717929565 -0.00068317642231316726 0 0.0021648695214980108 -0.00070367235473450275 0 0.0013834282494272244 -0.0012672337783566825 0 0.0013384898162577493 -0.0012702162344431277 0 0.0013596219286614519 -0.0012278130994008525 0 0.0013384898162577493 -0.0012702162344431277 0 0.0013417315592303154 -0.0013195244286177698 0 0.0012934335228064349 -0.0012764597868069733 0 0.0013834282494272244 -0.0012672337783566825 0 0.0013384898162577493 -0.0012702162344431277 0 0.0013417315592303154 -0.0013195244286177698 0 0.0013344027405044392 -0.0011998100538242642 0 0.0013596219286614519 -0.0012278130994008525 0 0.0013033462274033827 -0.0012209774654673418 0 0.0013384898162577493 -0.0012702162344431277 0 0.0013596219286614519 -0.0012278130994008525 0 0.0013033462274033827 -0.0012209774654673418 0 0.0013834282494272244 -0.0012672337783566825 0 0.0013596219286614519 -0.0012278130994008525 0 0.0014238960360597253 -0.0012184152606924928 0 0.0018111252159405337 -0.00092051497739156936 0 0.0019304843577985275 -0.0012558114078904058 0 0.0021805504915237955 -0.00068959945376005833 0 0.0021388192794229962 -0.00077327509243516881 0 0.0021366706382754739 -0.00069502667341815767 0 0.0021757742164716346 -0.0014726585169654082 0 0.0020646091335125953 -0.0014893598685358736 0 0.0022488291878057323 -0.0015796081896320357 0 0.0021388192794229962 -0.00077327509243516881 0 0.0020507566833544112 -0.00072355615579706262 0 0.0021366706382754739 -0.00069502667341815767 0 0.0021757742164716346 -0.0014726585169654082 0 0.0022708018972877326 -0.0014376573903964619 0 0.0022488291878057323 -0.0015796081896320357 0 0.0019304843577985275 -0.0012558114078904058 0 0.0021740304636156779 -0.0011413348752866374 0 0.0020089650693679165 -0.00061837634474088007 0 0.0020507566833544112 -0.00072355615579706262 0 0.0020834576010455518 -0.00063190476553485315 0 0.0020507566833544112 -0.00072355615579706262 0 0.0021366706382754739 -0.00069502667341815767 0 0.0020834576010455518 -0.00063190476553485315 0 0.0021805504915237955 -0.00068959945376005833 0 0.0021721134717929565 -0.00068317642231316726 0 0.0021366706382754739 -0.00069502667341815767 0 0.0021366706382754739 -0.00069502667341815767 0 0.0021560638076166773 -0.00064889340114309432 0 0.0020834576010455518 -0.00063190476553485315 0 0.0021721134717929565 -0.00068317642231316726 0 0.0021366706382754739 -0.00069502667341815767 0 0.0021560638076166773 -0.00064889340114309432 0 0.0021560638076166773 -0.00064889340114309432 0 0.0021386663019840918 -0.00059355519586140484 0 0.0022061883195268169 -0.00061287738314574317 0 0.0021560638076166773 -0.00064889340114309432 0 0.0021386663019840918 -0.00059355519586140484 0 0.0020834576010455518 -0.00063190476553485315 0 0.0021721134717929565 -0.00068317642231316726 0 0.0021560638076166773 -0.00064889340114309432 0 0.0021822880179851556 -0.00062536404801166365 0 0.0021661389070117333 -0.00063317512907329961 0 0.0021486389346652814 -0.00063788736559899353 0 0.0021386663019840918 -0.00059355519586140484 0 0.0021516148484030952 -0.00052647099329796799 0 0.0022061883195268169 -0.00061287738314574317 0 0.0020285018078222538 -0.00053825251327008683 0 0.0020834576010455518 -0.00063190476553485315 0 0.0020954112317578288 -0.00055792448893680316 0 0.0020089650693679165 -0.00061837634474088007 0 0.0020285018078222538 -0.00053825251327008683 0 0.0020834576010455518 -0.00063190476553485315 0 0.0021386663019840918 -0.00059355519586140484 0 0.0020834576010455518 -0.00063190476553485315 0 0.0020954112317578288 -0.00055792448893680316 0 0.0020285018078222538 -0.00053825251327008683 0 0.0020906904209001091 -0.00048073480540492442 0 0.0020381036236887546 -0.0004507595003993409 0 0.0020285018078222538 -0.00053825251327008683 0 0.0020954112317578288 -0.00055792448893680316 0 0.0020906904209001091 -0.00048073480540492442 0 0.0020954112317578288 -0.00055792448893680316 0 0.0020906904209001091 -0.00048073480540492442 0 0.0021516148484030952 -0.00052647099329796799 0 0.0021516148484030952 -0.00052647099329796799 0 0.0022061883195268169 -0.00061287738314574317 0 0.002231756403216433 -0.00045888672807585366 0 0.0021386663019840918 -0.00059355519586140484 0 0.0020954112317578288 -0.00055792448893680316 0 0.0021516148484030952 -0.00052647099329796799 0 0.0020906904209001091 -0.00048073480540492442 0 0.0021516148484030952 -0.00052647099329796799 0 0.002158370026998598 -0.0004618237037902182 0 0.0021516148484030952 -0.00052647099329796799 0 0.002231756403216433 -0.00045888672807585366 0 0.002158370026998598 -0.0004618237037902182 0 0.0019958614582286137 -0.00064107616130554517 0 0.0019777239320097439 -0.00065812957939168841 0 0.0019778600903946459 -0.00062079295648325089 0 0.0021486389346652814 -0.00063788736559899353 0 0.0019478702752954982 -0.00049449768532992984 0 0.0017560694489705297 -0.00067475828168082951 0 0.001907191340273126 -0.0005386303471153933 0 0.0015282902363518986 -0.00042542325942878235 0 0.001823527344712879 -0.0008199607650036571 0 0.0019478702752954982 -0.00049449768532992984 0 0.0018111252159405337 -0.00092051497739156936 0 0.0014767675338839318 -0.0010804558778326422 0 0.0021805504915237955 -0.00068959945376005833 0 0.0021648695214980108 -0.00070367235473450275 0 0.0021258232987744685 -0.00071887792040237891 0 0.001823527344712879 -0.0008199607650036571 0 0.0021486389346652814 -0.00063788736559899353 0 0.0021559570203180632 -0.00071887985877531362 0 0.0021648695214980108 -0.00070367235473450275 0 0.0021258232987744685 -0.00071887792040237891 0 0.0021475925047878819 -0.00074320186056617255 0 0.0021791185282570786 -0.00071346713241826544 0 0.0021559570203180632 -0.00071887985877531362 0 0.0021694064878775292 -0.00068789448296765088 0 0.0021486389346652814 -0.00063788736559899353 0 0.0021791185282570786 -0.00071346713241826544 0 0.0021559570203180632 -0.00071887985877531362 0 0.0021648695214980108 -0.00070367235473450275 0 0.0021721134717929565 -0.00068317642231316726 0 0.0021791185282570786 -0.00071346713241826544 0 0.0021648695214980108 -0.00070367235473450275 0 0.0021475925047878819 -0.00074320186056617255 0 0.0021559570203180632 -0.00071887985877531362 0 0.0021258232987744685 -0.00071887792040237891 0 0.0012796363082743394 -0.0011964747230181517 0 0.0012873273590625958 -0.001231815010017434 0 0.0012632337545147164 -0.0012421981856684063 0 0.0014767675338839318 -0.0010804558778326422 0 0.0012229620034325467 -0.0012938756270576299 0 0.0012796363082743394 -0.0011964747230181517 0 0.0012632337545147164 -0.0012421981856684063 0 0.0012523714095937265 -0.0012421655292991374 0 0.001823527344712879 -0.0008199607650036571 0 0.0014767675338839318 -0.0010804558778326422 0 0.0013126103295645331 -0.0012274334652198477 0 0.0012873273590625958 -0.001231815010017434 0 0.0012812431674538577 -0.0012551605625402314 0 0.0013126103295645331 -0.0012274334652198477 0 0.0012796363082743394 -0.0011964747230181517 0 0.0012873273590625958 -0.001231815010017434 0 0.001823527344712879 -0.0008199607650036571 0 0.0014803577597461983 -0.0007569219916494606 0 0.0012632337545147164 -0.0012421981856684063 0 0.0012622136233961807 -0.001244312013885006 0 0.0012523714095937265 -0.0012421655292991374 0 0.0014803577597461983 -0.0007569219916494606 0 0.0014716008714825239 -0.00093186584699603617 0 0.0012873273590625958 -0.001231815010017434 0 0.0012812431674538577 -0.0012551605625402314 0 0.0012632337545147164 -0.0012421981856684063 0 0.0012644637760759157 -0.0012426004169407586 0 0.0012632337545147164 -0.0012421981856684063 0 0.0012622136233961807 -0.001244312013885006 0 0.0014803577597461983 -0.0007569219916494606 0 0.0013591394876808218 -0.00047292395396399139 0 0.000892536396316124 -0.0010210064602889637 0 0.00094971016042649868 -0.0010727596891848764 0 0.00094028589426576692 -0.0010208030428910321 0 0.0013591394876808218 -0.00047292395396399139 0 0.0010743725055811101 -0.0012379871200112638 0 0.0012622136233961807 -0.001244312013885006 0 0.0012523714095937265 -0.0012421655292991374 0 0.0012356067169422785 -0.0012459275313614403 0 0.0012523714095937265 -0.0012421655292991374 0 0.0012356067169422785 -0.0012459275313614403 0 0.0012432797326571365 -0.0012393751752739109 0 0.00094971016042649868 -0.0010727596891848764 0 0.0010095250155289219 -0.0010702257735720367 0 0.00098300780613475545 -0.0010204133245127801 0 0.00094971016042649868 -0.0010727596891848764 0 0.00098300780613475545 -0.0010204133245127801 0 0.00094028589426576692 -0.0010208030428910321 0 0.0010743725055811101 -0.0012379871200112638 0 0.0011086766307179623 -0.0011770029678862923 0 0.00094971016042649868 -0.0010727596891848764 0 0.0010095250155289219 -0.0010702257735720367 0 0.0010137026300979296 -0.0011336057172974866 0 0.0012356067169422785 -0.0012459275313614403 0 0.0012287420985691909 -0.001237376822587397 0 0.0012038034702818662 -0.0012441991195344087 0 0.0012548963302363386 -0.0012388739617115907 0 0.0012523714095937265 -0.0012421655292991374 0 0.0012432797326571365 -0.0012393751752739109 0 0.0014767675338839318 -0.0010804558778326422 0 0.001250578768757503 -0.0012737980367098728 0 0.0012548963302363386 -0.0012388739617115907 0 0.0012432797326571365 -0.0012393751752739109 0 0.0012414940302603336 -0.0012287548468028582 0 0.0012287420985691909 -0.001237376822587397 0 0.0012432797326571365 -0.0012393751752739109 0 0.0012414940302603336 -0.0012287548468028582 0 0.0012356067169422785 -0.0012459275313614403 0 0.0012287420985691909 -0.001237376822587397 0 0.0012432797326571365 -0.0012393751752739109 0 0.0010874287850484176 -0.0010665408758597707 0 0.0010434465049367317 -0.001031778373887051 0 0.001094666275301171 -0.0010282705227041629 0 0.0010874287850484176 -0.0010665408758597707 0 0.0010434465049367317 -0.001031778373887051 0 0.0010623626846686172 -0.0010991335060723606 0 0.0010095250155289219 -0.0010702257735720367 0 0.0010434465049367317 -0.001031778373887051 0 0.0010623626846686172 -0.0010991335060723606 0 0.0010095250155289219 -0.0010702257735720367 0 0.0010434465049367317 -0.001031778373887051 0 0.00098300780613475545 -0.0010204133245127801 0 0.0010095250155289219 -0.0010702257735720367 0 0.0010137026300979296 -0.0011336057172974866 0 0.0010623626846686172 -0.0010991335060723606 0 0.0010623626846686172 -0.0010991335060723606 0 0.0011289395842849197 -0.0012006489311432997 0 0.0011116483666612795 -0.0011201687228783268 0 0.0010137026300979296 -0.0011336057172974866 0 0.0010623626846686172 -0.0010991335060723606 0 0.0011289395842849197 -0.0012006489311432997 0 0.0010874287850484176 -0.0010665408758597707 0 0.0010623626846686172 -0.0010991335060723606 0 0.0011116483666612795 -0.0011201687228783268 0 0.0011086766307179623 -0.0011770029678862923 0 0.0011280890902182195 -0.0012029006414772574 0 0.0012038034702818662 -0.0012441991195344087 0 0.0011839806858333132 -0.0012026638319242381 0 0.0012313022353405763 -0.0012116601127558572 0 0.0012038034702818662 -0.0012441991195344087 0 0.0011289395842849197 -0.0012006489311432997 0 0.0011839806858333132 -0.0012026638319242381 0 0.0011839806858333132 -0.0012026638319242381 0 0.0012313022353405763 -0.0012116601127558572 0 0.0012092897844027523 -0.0011771724540051507 0 0.0011289395842849197 -0.0012006489311432997 0 0.0011839806858333132 -0.0012026638319242381 0 0.0011575443108919783 -0.0011877961467736779 0 0.0011289395842849197 -0.0012006489311432997 0 0.0011575443108919783 -0.0011877961467736779 0 0.0011424920012585802 -0.0011929871809476813 0 0.0013384898162577493 -0.0012702162344431277 0 0.0012934335228064349 -0.0012764597868069733 0 0.0013033462274033827 -0.0012209774654673418 0 0.0012287420985691909 -0.001237376822587397 0 0.0012038034702818662 -0.0012441991195344087 0 0.0012313022353405763 -0.0012116601127558572 0 0.0012287420985691909 -0.001237376822587397 0 0.0012414940302603336 -0.0012287548468028582 0 0.0012313022353405763 -0.0012116601127558572 0 0.0012313022353405763 -0.0012116601127558572 0 0.0013033462274033827 -0.0012209774654673418 0 0.001248094195476212 -0.0011870053371184608 0 0.001250578768757503 -0.0012737980367098728 0 0.0012358303978805519 -0.0012089818197117304 0 0.0012934335228064349 -0.0012764597868069733 0 0.0012313022353405763 -0.0012116601127558572 0 0.0013033462274033827 -0.0012209774654673418 0 0.0013344027405044392 -0.0011998100538242642 0 0.0013033462274033827 -0.0012209774654673418 0 0.0012961068091237571 -0.0011856197268385023 0 0.0013033462274033827 -0.0012209774654673418 0 0.0012961068091237571 -0.0011856197268385023 0 0.001248094195476212 -0.0011870053371184608 0 0.0013344027405044392 -0.0011998100538242642 0 0.0013379313670268105 -0.0011886237944518014 0 0.0012961068091237571 -0.0011856197268385023 0 0.0013379313670268105 -0.0011886237944518014 0 0.0012961068091237571 -0.0011856197268385023 0 0.0012867397839142808 -0.001153067718383165 0 0.0012961068091237571 -0.0011856197268385023 0 0.0012867397839142808 -0.001153067718383165 0 0.0012510524223288833 -0.0011594230045688667 0 0.0013379313670268105 -0.0011886237944518014 0 0.0012867397839142808 -0.001153067718383165 0 0.0013076354057546373 -0.0011031992722800219 0 0.0012510524223288833 -0.0011594230045688667 0 0.0012169548542951209 -0.001133721175351766 0 0.0012652780451619899 -0.0011191865714132933 0 0.0012867397839142808 -0.001153067718383165 0 0.0012510524223288833 -0.0011594230045688667 0 0.0012652780451619899 -0.0011191865714132933 0 0.0012313022353405763 -0.0012116601127558572 0 0.001248094195476212 -0.0011870053371184608 0 0.0012092897844027523 -0.0011771724540051507 0 0.0012510524223288833 -0.0011594230045688667 0 0.001248094195476212 -0.0011870053371184608 0 0.0012092897844027523 -0.0011771724540051507 0 0.0012961068091237571 -0.0011856197268385023 0 0.0012510524223288833 -0.0011594230045688667 0 0.001248094195476212 -0.0011870053371184608 0 0.0011839806858333132 -0.0012026638319242381 0 0.0012092897844027523 -0.0011771724540051507 0 0.0011575443108919783 -0.0011877961467736779 0 0.0012092897844027523 -0.0011771724540051507 0 0.0011575443108919783 -0.0011877961467736779 0 0.0011751699462553627 -0.001160316095048499 0 0.0011575443108919783 -0.0011877961467736779 0 0.0011751699462553627 -0.001160316095048499 0 0.0011521475227191701 -0.0011691765962525407 0 0.0011751699462553627 -0.001160316095048499 0 0.0012169548542951209 -0.001133721175351766 0 0.0011724133340549241 -0.0011294138100587947 0 0.0011751699462553627 -0.001160316095048499 0 0.0011724133340549241 -0.0011294138100587947 0 0.0011575532247954134 -0.0011511362673190281 0 0.0011751699462553627 -0.001160316095048499 0 0.0011575532247954134 -0.0011511362673190281 0 0.0011521475227191701 -0.0011691765962525407 0 0.0012092897844027523 -0.0011771724540051507 0 0.0011751699462553627 -0.001160316095048499 0 0.0012169548542951209 -0.001133721175351766 0 0.0012510524223288833 -0.0011594230045688667 0 0.0012092897844027523 -0.0011771724540051507 0 0.0012169548542951209 -0.001133721175351766 0 0.0012169548542951209 -0.001133721175351766 0 0.0012121305041205344 -0.0010993058740948437 0 0.001245907834171289 -0.0011005505306561191 0 0.0012169548542951209 -0.001133721175351766 0 0.0011724133340549241 -0.0011294138100587947 0 0.0012121305041205344 -0.0010993058740948437 0 0.0012083814784297981 -0.0010552233953295075 0 0.0011715967361687651 -0.0010931416498625476 0 0.0012121305041205344 -0.0010993058740948437 0 0.0011724133340549241 -0.0011294138100587947 0 0.0011715967361687651 -0.0010931416498625476 0 0.0012121305041205344 -0.0010993058740948437 0 0.0014432078316602859 -0.0020492114763581526 0 0.0015286671751664896 -0.0021514052671033649 0 0.0012419941502941321 -0.0010755786320221646 0 0.0012121305041205344 -0.0010993058740948437 0 0.001245907834171289 -0.0011005505306561191 0 0.0012419941502941321 -0.0010755786320221646 0 0.001245907834171289 -0.0011005505306561191 0 0.0012864483687843986 -0.001091901063076514 0 0.0017410277736527025 -0.0029477612444472139 0 0.0018605147340915831 -0.0030362289465634415 0 0.0017134370888165816 -0.0030750058736925298 0 0.0013254284608113717 -0.0011036561767449966 0 0.0012864483687843986 -0.001091901063076514 0 0.0013076354057546373 -0.0011031992722800219 0 0.0012864483687843986 -0.001091901063076514 0 0.0013076354057546373 -0.0011031992722800219 0 0.0012652780451619899 -0.0011191865714132933 0 0.001595329699926395 -0.001564725029650343 0 0.0015286671751664896 -0.0021514052671033649 0 0.0012867397839142808 -0.001153067718383165 0 0.0013076354057546373 -0.0011031992722800219 0 0.0012652780451619899 -0.0011191865714132933 0 0.0012169548542951209 -0.001133721175351766 0 0.001245907834171289 -0.0011005505306561191 0 0.0012652780451619899 -0.0011191865714132933 0 0.001245907834171289 -0.0011005505306561191 0 0.0012864483687843986 -0.001091901063076514 0 0.0012652780451619899 -0.0011191865714132933 0 0.0010813998447282193 -0.0014268642276268669 0 0.0010404482100945982 -0.0014000505500876802 0 0.0010481050694511607 -0.0012589620852395682 0 0.00099894383053280265 -0.0013542095772196296 0 0.00095888900515330279 -0.0013229229963475438 0 0.0010481050694511607 -0.0012589620852395682 0 0.00099894383053280265 -0.0013542095772196296 0 0.0010404482100945982 -0.0014000505500876802 0 0.0010481050694511607 -0.0012589620852395682 0 -0.00088085234990210913 -0.0015674019872571705 0 -6.6999620350764329e-05 -0.0011161120994331955 0 -0.0014169793870513704 -0.00104364577379793 0 -0.00088085234990210913 -0.0015674019872571705 0 -0.0014019285599330409 -0.001092835779635988 0 -0.0014060186396100563 -0.0010918944718153905 0 -0.0014066257757771924 -0.0011128629875766306 0 -0.0013869950618837315 -0.0010801346123482808 0 -0.0013810932357618288 -0.0010872214560916887 0 -0.0013854283994309577 -0.0010798020735908337 0 -0.0017240963429577306 -0.0012718591600242978 0 -0.00088085234990210913 -0.0015674019872571705 0 -0.0018018407793230014 -0.001437340249794824 0 -0.0019034637621319593 -0.0015203226160604359 0 -0.0018389463192039993 -0.0015257958702582252 0 -0.0018407555170206469 -0.0015776128701934483 0 -0.0019034637621319593 -0.0015203226160604359 0 -0.0018389463192039993 -0.0015257958702582252 0 0.00099154795723884587 -0.0015075654701100134 0 0.0010813998447282193 -0.0014268642276268669 0 0.0010404482100945982 -0.0014000505500876802 0 0.00099894383053280265 -0.0013542095772196296 0 0.0010404482100945982 -0.0014000505500876802 0 0.0009590853682060796 -0.0014044685911251153 0 0.00071911657857119259 -0.0018004654327968218 0 -0.00088085234990210913 -0.0015674019872571705 0 0.00099154795723884587 -0.0015075654701100134 0 0.0010404482100945982 -0.0014000505500876802 0 0.0009590853682060796 -0.0014044685911251153 0 0.00099154795723884587 -0.0015075654701100134 0 0.0009590853682060796 -0.0014044685911251153 0 0.00089579552892648259 -0.0014706055015674916 0 0.0009590853682060796 -0.0014044685911251153 0 0.00089579552892648259 -0.0014706055015674916 0 0.00089776276162954109 -0.0013591373987605234 0 0.00080206458597192973 -0.001434826461494851 0 0.00089579552892648259 -0.0014706055015674916 0 0.00089776276162954109 -0.0013591373987605234 0 0.00080206458597192973 -0.001434826461494851 0 0.00089776276162954109 -0.0013591373987605234 0 0.0008975264133567857 -0.0012853570332793545 0 0.00096107347401372671 -0.0011700180744184984 0 0.00098130592615291762 -0.0012349697873700455 0 0.0011724133340549241 -0.0011294138100587947 0 0.0011715967361687651 -0.0010931416498625476 0 0.001133975480243249 -0.0011414939082302633 0 0.00091959408466173317 -0.0013551552506614339 0 0.00098130592615291762 -0.0012349697873700455 0 0.00099894383053280265 -0.0013542095772196296 0 0.0009590853682060796 -0.0014044685911251153 0 0.00095888900515330279 -0.0013229229963475438 0 0.0009590853682060796 -0.0014044685911251153 0 0.00089776276162954109 -0.0013591373987605234 0 0.00095888900515330279 -0.0013229229963475438 0 0.00089776276162954109 -0.0013591373987605234 0 0.00095888900515330279 -0.0013229229963475438 0 0.00090225218572606927 -0.0012875971801249869 0 0.00098130592615291762 -0.0012349697873700455 0 0.00097433485673394397 -0.001208504137520585 0 0.00095888900515330279 -0.0013229229963475438 0 0.00098794636429252992 -0.0012575458672981683 0 0.0010481050694511607 -0.0012589620852395682 0 0.00098794636429252992 -0.0012575458672981683 0 0.00090225218572606927 -0.0012875971801249869 0 0.00099358754429656267 -0.0011910545089838349 0 0.00095888900515330279 -0.0013229229963475438 0 0.00098794636429252992 -0.0012575458672981683 0 0.00090225218572606927 -0.0012875971801249869 0 0.001133975480243249 -0.0011414939082302633 0 0.0011390427409108351 -0.0011907578404331679 0 0.0011521475227191701 -0.0011691765962525407 0 0.0011724133340549241 -0.0011294138100587947 0 0.0011575532247954134 -0.0011511362673190281 0 0.001133975480243249 -0.0011414939082302633 0 0.00098130592615291762 -0.0012349697873700455 0 0.0010690844329862216 -0.0011660837506631643 0 0.0011575532247954134 -0.0011511362673190281 0 0.001133975480243249 -0.0011414939082302633 0 0.0011521475227191701 -0.0011691765962525407 0 0.0011575443108919783 -0.0011877961467736779 0 0.0011390427409108351 -0.0011907578404331679 0 0.0011521475227191701 -0.0011691765962525407 0 0.00097027925943315942 -0.001227366862916653 0 0.00097683177947644503 -0.0011647966744312724 0 0.00099358754429656267 -0.0011910545089838349 0 0.00097683177947644503 -0.0011647966744312724 0 0.00099358754429656267 -0.0011910545089838349 0 0.0010254390780913818 -0.0011419252680827611 0 -0.0013854283994309577 -0.0010798020735908337 0 -0.0013921908935709164 -0.0010764323910024732 0 -0.0013855683948821335 -0.0010712936316790689 0 0.00099358754429656267 -0.0011910545089838349 0 0.0010481050694511607 -0.0012589620852395682 0 0.0010254390780913818 -0.0011419252680827611 0 -6.6999620350764329e-05 -0.0011161120994331955 0 -0.00019307335215467813 -0.0011153933292440243 0 0.00098794636429252992 -0.0012575458672981683 0 0.00099358754429656267 -0.0011910545089838349 0 0.0010481050694511607 -0.0012589620852395682 0 -0.0013869950618837315 -0.0010801346123482808 0 -0.0013854283994309577 -0.0010798020735908337 0 -0.0013903688715233306 -0.0010794514509806755 0 -0.0014001675006181278 -0.0010813485629188485 0 -0.0013869950618837315 -0.0010801346123482808 0 -0.0013903688715233306 -0.0010794514509806755 0 -0.0013854283994309577 -0.0010798020735908337 0 -0.0013903688715233306 -0.0010794514509806755 0 -0.0013921908935709164 -0.0010764323910024732 0 -0.0014001675006181278 -0.0010813485629188485 0 -0.0013903688715233306 -0.0010794514509806755 0 -0.0013921908935709164 -0.0010764323910024732 0 -0.001402121380881185 -0.0010784378246116156 0 -0.0013921908935709164 -0.0010764323910024732 0 -0.0013997124508470752 -0.0010662793491865979 0 -0.0013921908935709164 -0.0010764323910024732 0 -0.0013855683948821335 -0.0010712936316790689 0 -0.0013997124508470752 -0.0010662793491865979 0 -0.0013855683948821335 -0.0010712936316790689 0 -0.0013997124508470752 -0.0010662793491865979 0 -0.0013732953368432879 -0.0010638496129493893 0 0.0011390427409108351 -0.0011907578404331679 0 0.0011424920012585802 -0.0011929871809476813 0 0.0011546164258230648 -0.001177845434744889 0 0.0010690844329862216 -0.0011660837506631643 0 0.0010873078542704053 -0.0011407384186044567 0 0.0011575443108919783 -0.0011877961467736779 0 0.0011390427409108351 -0.0011907578404331679 0 0.0011424920012585802 -0.0011929871809476813 0 0.00097683177947644503 -0.0011647966744312724 0 0.0010130136742653689 -0.0011264830756810384 0 0.0010226167368950999 -0.0010935456843947249 0 0.00097683177947644503 -0.0011647966744312724 0 0.0010254390780913818 -0.0011419252680827611 0 0.0010130136742653689 -0.0011264830756810384 0 0.0010254390780913818 -0.0011419252680827611 0 0.0010130136742653689 -0.0011264830756810384 0 0.0010459280185121495 -0.0010847913390836118 0 0.0010130136742653689 -0.0011264830756810384 0 0.0010226167368950999 -0.0010935456843947249 0 0.0010459280185121495 -0.0010847913390836118 0 -0.00019307335215467813 -0.0011153933292440243 0 -0.00015941430954330505 -0.0010743410803308515 0 0.0011289395842849197 -0.0012006489311432997 0 0.0011424920012585802 -0.0011929871809476813 0 0.0011546164258230648 -0.001177845434744889 0 0.0011289395842849197 -0.0012006489311432997 0 0.0011546164258230648 -0.001177845434744889 0 0.0011116483666612795 -0.0011201687228783268 0 0.0011546164258230648 -0.001177845434744889 0 0.0011116483666612795 -0.0011201687228783268 0 0.0011141676504896716 -0.0010660895996477526 0 0.0010873078542704053 -0.0011407384186044567 0 0.0011102775304759106 -0.0010757561187376705 0 0.0010226167368950999 -0.0010935456843947249 0 0.0010459280185121495 -0.0010847913390836118 0 0.0011141676504896716 -0.0010660895996477526 0 -0.00015941430954330505 -0.0010743410803308515 0 -0.0001143058927367123 -0.0010457715428155803 0 0.0010459280185121495 -0.0010847913390836118 0 0.00112502633696629 -0.0010547445810662828 0 0.0011141676504896716 -0.0010660895996477526 0 -0.0013732953368432879 -0.0010638496129493893 0 -0.0013458934366342684 -0.0010733768920414392 0 -0.0013819506535873007 -0.0010677431289143431 0 0.0010874287850484176 -0.0010665408758597707 0 0.0011116483666612795 -0.0011201687228783268 0 0.0011141676504896716 -0.0010660895996477526 0 0.0010874287850484176 -0.0010665408758597707 0 0.0011141676504896716 -0.0010660895996477526 0 0.001094666275301171 -0.0010282705227041629 0 0.00112502633696629 -0.0010547445810662828 0 0.0011141676504896716 -0.0010660895996477526 0 0.001094666275301171 -0.0010282705227041629 0 -0.0014242096241905593 -0.0010591144247081466 0 -0.0013997124508470752 -0.0010662793491865979 0 -0.0013819506535873007 -0.0010677431289143431 0 -0.0013997124508470752 -0.0010662793491865979 0 -0.0013732953368432879 -0.0010638496129493893 0 -0.0013819506535873007 -0.0010677431289143431 0 -0.0014242096241905593 -0.0010591144247081466 0 -0.0013819506535873007 -0.0010677431289143431 0 -0.0013922869630841395 -0.0010920143947986511 0 -0.0014203247069297308 -0.0010710926477299756 0 -0.001446677271214919 -0.0010097979087023367 0 -0.0013819506535873007 -0.0010677431289143431 0 -0.0013922869630841395 -0.0010920143947986511 0 -0.0013559869067647943 -0.0010941122692533891 0 -0.001446677271214919 -0.0010097979087023367 0 -0.0014351550160975721 -0.0011948889538795067 0 -0.0013922869630841395 -0.0010920143947986511 0 -0.0013559869067647943 -0.0010941122692533891 0 -0.0013641564017689092 -0.0011127562048456132 0 -0.0014791426934030927 -0.0010014948124585073 0 -0.0014536930129689944 -0.00096194452408043319 0 -0.0015303528469941083 -0.00092563670893048568 0 0.001094666275301171 -0.0010282705227041629 0 0.0011160631865036418 -0.00094917382317794203 0 0.0010643993191070586 -0.0009767425120582908 0 0.00112502633696629 -0.0010547445810662828 0 0.001094666275301171 -0.0010282705227041629 0 0.0011160631865036418 -0.00094917382317794203 0 -0.0001143058927367123 -0.0010457715428155803 0 -0.00011153148861336998 -0.001102459667024534 0 -0.0013458934366342684 -0.0010733768920414392 0 -0.0013819506535873007 -0.0010677431289143431 0 -0.0013559869067647943 -0.0010941122692533891 0 -0.0013458934366342684 -0.0010733768920414392 0 -0.0013559869067647943 -0.0010941122692533891 0 -0.0013186526874000828 -0.0011009865061537975 0 -0.0013559869067647943 -0.0010941122692533891 0 -0.0013186526874000828 -0.0011009865061537975 0 -0.0013333761611252219 -0.0011169903707447847 0 -0.0013559869067647943 -0.0010941122692533891 0 -0.0013333761611252219 -0.0011169903707447847 0 -0.0013641564017689092 -0.0011127562048456132 0 0.0011160631865036418 -0.00094917382317794203 0 0.0010895982410434829 -0.00084696456072359111 0 0.0010613929726529566 -0.00092004066878461548 0 -0.0013186526874000828 -0.0011009865061537975 0 -0.0013333761611252219 -0.0011169903707447847 0 -0.001294690875579245 -0.0011302526793388519 0 -0.00011153148861336998 -0.001102459667024534 0 1.8743946009556115e-05 -0.00063626178910732457 0 -0.0013333761611252219 -0.0011169903707447847 0 -0.0013390775287163198 -0.0011324031836240371 0 -0.0013641564017689092 -0.0011127562048456132 0 -0.0013333761611252219 -0.0011169903707447847 0 -0.0013390775287163198 -0.0011324031836240371 0 -0.0013362317970023977 -0.0011335844897795825 0 -0.0011570888060587709 4.7017237815000135e-05 0 9.726205463561872e-05 0.00092305250996482617 0 -0.0013333761611252219 -0.0011169903707447847 0 -0.0013362317970023977 -0.0011335844897795825 0 -0.001294690875579245 -0.0011302526793388519 0 -0.00086564109314271772 0.00064750841389315877 0 -0.00090487665249153703 0.00075644829915723344 0 -0.00051358126129416777 0.00056263963594025389 0 -0.00094099337444733359 0.00077591145091961339 0 -0.00086564109314271772 0.00064750841389315877 0 -0.0010301376756672526 0.0005828190371237168 0 -0.0011695611319382556 3.7708586070111162e-05 0 -0.0011634932817168992 0.00047540994656876802 0 -0.00094048836893757283 0.00077402643296060631 0 -0.00086564109314271772 0.00064750841389315877 0 -0.00090487665249153703 0.00075644829915723344 0 -0.0011695611319382556 3.7708586070111162e-05 0 -0.0011570888060587709 4.7017237815000135e-05 0 -0.00083339335292132669 0.00025725999481240013 0 5.9281483217363222e-05 0.00035556984944957489 0 -0.00012319330977127863 -0.00010744098299888477 0 -0.0011570888060587709 4.7017237815000135e-05 0 1.8743946009556115e-05 -0.00063626178910732457 0 0.00012630233347814531 0.00011379371184141585 0 5.9281483217363222e-05 0.00035556984944957489 0 -0.00012319330977127863 -0.00010744098299888477 0 0.00053195865531265984 0.00041511808306086062 0 1.8743946009556115e-05 -0.00063626178910732457 0 -0.0014536930129689944 -0.00096194452408043319 0 -0.0014751042099141077 -0.00089639027663980715 0 -0.0015303528469941083 -0.00092563670893048568 0 -0.0015786864804250007 -0.00081772886064699853 0 -0.0014751042099141077 -0.00089639027663980715 0 -0.0015303528469941083 -0.00092563670893048568 0 -0.0011695611319382556 3.7708586070111162e-05 0 -0.0014351550160975721 -0.0011948889538795067 0 -0.0011695611319382556 3.7708586070111162e-05 0 -0.0014568312437074076 8.2810381107692674e-05 0 -0.00094099337444733359 0.00077591145091961339 0 -0.0014352464170013339 0.00070113539984590235 0 -0.0010301376756672526 0.0005828190371237168 0 -0.0011695611319382556 3.7708586070111162e-05 0 -0.0013371487158611102 0.00092911388952603158 0 -0.0011644058277889779 0.00093261774093546896 0 -0.0013471303744289761 0.0010403472587804674 0 -0.0013304014659953336 0.00092037172780019838 0 -0.0013471303744289761 0.0010403472587804674 0 -0.0013304014659953336 0.00092037172780019838 0 -0.0014352827037188516 0.00096394165710601213 0 -0.0013371487158611102 0.00092911388952603158 0 -0.0014620317764596675 0.00098697065035988226 0 -0.0014143762810340764 0.0010088826812219896 0 -0.0014774294447366773 0.0010066196596311926 0 -0.0014572979377424403 0.00097015564995549676 0 -0.0014143762810340764 0.0010088826812219896 0 -0.0014043675252983895 0.00094610104256730404 0 -0.0014572979377424403 0.00097015564995549676 0 -0.0014043675252983895 0.00094610104256730404 0 -0.001483084918099888 0.00092138559541358339 0 -0.0014572979377424403 0.00097015564995549676 0 -0.0014043675252983895 0.00094610104256730404 0 -0.0014242304082929212 0.0008672229124684302 0 -0.001483084918099888 0.00092138559541358339 0 -0.00013388469248018419 0.0022157505705811668 0 -0.00098387764654390324 0.0015895447098927006 0 -0.0014043675252983895 0.00094610104256730404 0 -0.0012977818264261734 0.00091817991104792458 0 -0.0014242304082929212 0.0008672229124684302 0 -0.00013388469248018419 0.0022157505705811668 0 0.00068248292020271219 0.0032068621935392376 0 -0.0014043675252983895 0.00094610104256730404 0 -0.0013193954708153933 0.0010045955641174063 0 -0.0012977818264261734 0.00091817991104792458 0 -0.0014143762810340764 0.0010088826812219896 0 -0.0014043675252983895 0.00094610104256730404 0 -0.0013193954708153933 0.0010045955641174063 0 -0.0013371487158611102 0.00092911388952603158 0 -0.0012522089799849297 0.00077354372396211076 0 -0.00013166885971967589 0.0018557868068898946 0 -0.00016419283073546809 0.0018648501260573941 0 3.5631993421671687e-06 0.0019926903482850142 0 -0.0013193954708153933 0.0010045955641174063 0 -0.0012091327705348901 0.00098567770058247063 0 -0.0012977818264261734 0.00091817991104792458 0 -0.0012522089799849297 0.00077354372396211076 0 -0.00043576085166008608 0.0012661746924284088 0 -0.00086564109314271772 0.00064750841389315877 0 -0.0010301376756672526 0.0005828190371237168 0 -0.00061956944331193105 0.00046836054785800307 0 -0.00086564109314271772 0.00064750841389315877 0 -0.00051358126129416777 0.00056263963594025389 0 -0.00061956944331193105 0.00046836054785800307 0 0.00061333202876354077 0.00095931981534417546 0 0.00061605248019279467 0.00097048754890061769 0 0.00061190035980937475 0.00096678837774994157 0 0.00061333202876354077 0.00095931981534417546 0 0.00061605248019279467 0.00097048754890061769 0 0.00061996130629534546 0.00096767590134030706 0 0.00072385363652937315 0.0015105010259505633 0 0.0010550547064008778 0.0011704823484772339 0 0.0011512852666905806 0.0016661882406348448 0 0.0011517803874800941 0.0016676219200910424 0 0.0011514568234545827 0.0016656502203712246 0 0.00072385363652937315 0.0015105010259505633 0 0.0012824437270382368 0.0020851050698778846 0 0.00053195865531265984 0.00041511808306086062 0 9.726205463561872e-05 0.00092305250996482617 0 0.00072385363652937315 0.0015105010259505633 0 9.726205463561872e-05 0.00092305250996482617 0 0.00036058910026272057 0.0014368290355953142 0 0.00027511810880144781 0.0014806909050928702 0 0.00024636890994618102 0.0013633064485156345 0 9.726205463561872e-05 0.00092305250996482617 0 -0.00043576085166008608 0.0012661746924284088 0 0.00027511810880144781 0.0014806909050928702 0 0.00016710123683289288 0.0013860576814004651 0 0.00024636890994618102 0.0013633064485156345 0 -0.00043576085166008608 0.0012661746924284088 0 0.00051772079383777985 0.0019564906253586953 0 0.00089758532169769702 0.0032113197828169335 0 0.00095895898384798614 0.0032562851325257532 0 0.00083438007146842093 0.0032459088080782242 0 0.00095895898384798614 0.0032562851325257532 0 0.00089195333210367064 0.0033696171361424759 0 0.00083438007146842093 0.0032459088080782242 0 0.00072385363652937315 0.0015105010259505633 0 0.00051772079383777985 0.0019564906253586953 0 0.00097875355683003603 0.0034699638787560722 0 0.00089195333210367064 0.0033696171361424759 0 0.00078114504387010288 0.0034765032362215624 0 0.00095895898384798614 0.0032562851325257532 0 0.00097875355683003603 0.0034699638787560722 0 0.00089195333210367064 0.0033696171361424759 0 0.00095895898384798614 0.0032562851325257532 0 0.00097875355683003603 0.0034699638787560722 0 0.0011665955875541519 0.00342041951692389 0 0.00051772079383777985 0.0019564906253586953 0 -0.00013388469248018419 0.0022157505705811668 0 -0.00043576085166008608 0.0012661746924284088 0 -0.00013388469248018419 0.0022157505705811668 0 0.0011665955875541519 0.00342041951692389 0 0.0010496186648170141 0.0036640656925898307 0 0.0012119064910802815 0.0036904065829828953 0 0.00097875355683003603 0.0034699638787560722 0 0.0011665955875541519 0.00342041951692389 0 0.0010496186648170141 0.0036640656925898307 0 0.0010496186648170141 0.0036640656925898307 0 0.00090086214709076415 0.0035867233171626238 0 0.0008115423393654542 0.0037214735391466192 0 0.00097875355683003603 0.0034699638787560722 0 0.0010496186648170141 0.0036640656925898307 0 0.00090086214709076415 0.0035867233171626238 0 0.00097875355683003603 0.0034699638787560722 0 0.00090086214709076415 0.0035867233171626238 0 0.00078114504387010288 0.0034765032362215624 0 0.0010496186648170141 0.0036640656925898307 0 0.0008115423393654542 0.0037214735391466192 0 0.0010400446791630463 0.003899176675778473 0 0.0010496186648170141 0.0036640656925898307 0 0.0012339409594951311 0.0038527162864187905 0 0.0012119064910802815 0.0036904065829828953 0 0.0010496186648170141 0.0036640656925898307 0 0.0012339409594951311 0.0038527162864187905 0 0.0010400446791630463 0.003899176675778473 0 0.0013495680449396807 0.0038478505447147597 0 0.0013372610068226255 0.0036123085356033783 0 0.0012119064910802815 0.0036904065829828953 0 0.0012339409594951311 0.0038527162864187905 0 0.0013495680449396807 0.0038478505447147597 0 0.0012119064910802815 0.0036904065829828953 0 0.0013495680449396807 0.0038478505447147597 0 0.0014747595231495107 0.0037887733435387084 0 0.0014759904378247406 0.0039407261313260528 0 0.0013495680449396807 0.0038478505447147597 0 0.0013372610068226255 0.0036123085356033783 0 0.0014747595231495107 0.0037887733435387084 0 -0.00021297611638311249 0.0025346913157218206 0 -0.00023864437407700818 0.0025267668288758115 0 -0.000177046749399945 0.0026084972062962418 0 0.00068248292020271219 0.0032068621935392376 0 0.0006083687041044505 0.0031632029086555223 0 0.0011665955875541519 0.00342041951692389 0 0.0013372610068226255 0.0036123085356033783 0 0.0012119064910802815 0.0036904065829828953 0 -0.00029382776683532791 0.0024453191137626903 0 -0.00021297611638311249 0.0025346913157218206 0 -0.00023864437407700818 0.0025267668288758115 0 0.0016970545878410299 0.0032148539297084718 0 0.0018193358249295772 0.0026538132518239251 0 0.0016933369729040058 0.002756235171237078 0 0.0017436654462725527 0.0027575967830292926 0 0.0017050178010065832 0.0027778002882495418 0 0.0019057231089106062 0.0037684867215639706 0 0.0018347581087020048 0.0037679585543369371 0 0.0018687718302038978 0.0038379731303168386 0 0.0012753675383300883 0.0031022725234402079 0 0.00133333005798055 0.0030074543417155908 0 0.0011828943416497793 0.0029123534953700014 0 0.0016970545878410299 0.0032148539297084718 0 0.0016445031654554255 0.002329382776353126 0 0.0018193358249295772 0.0026538132518239251 0 0.0017250724517871403 0.0033667442037829736 0 0.0018347581087020048 0.0037679585543369371 0 0.0018108098009928253 0.0038492114869693151 0 0.0017751746027229144 0.0038143189919224527 0 0.0018347581087020048 0.0037679585543369371 0 0.0018108098009928253 0.0038492114869693151 0 0.0018687718302038978 0.0038379731303168386 0 0.0018108098009928253 0.0038492114869693151 0 0.0018687718302038978 0.0038379731303168386 0 0.0018274585729039232 0.0039061776621221967 0 0.0018687718302038978 0.0038379731303168386 0 0.0019428799374023172 0.0038391608571086691 0 0.0019031103959406006 0.0038950607802677802 0 0.0019057231089106062 0.0037684867215639706 0 0.0018687718302038978 0.0038379731303168386 0 0.0019428799374023172 0.0038391608571086691 0 0.0014665083795361968 0.0034826128264116908 0 0.0016366621397731693 0.0035947851582316995 0 0.0015899672129325115 0.003485246132392256 0 0.0014665083795361968 0.0034826128264116908 0 0.0015899672129325115 0.003485246132392256 0 0.0014971586622097314 0.003277932033487667 0 0.0012502393299614659 0.0035763274198917327 0 0.0012768858037280396 0.0038556371094368535 0 0.0016366621397731693 0.0035947851582316995 0 0.0017187075368720345 0.0034082024233095631 0 0.0017492457061847506 0.0037438279013123979 0 0.0016366621397731693 0.0035947851582316995 0 0.0015899672129325115 0.003485246132392256 0 0.0017187075368720345 0.0034082024233095631 0 0.0016687452417295608 0.0033741445865153735 0 0.0014855018025829729 0.003211835303205391 0 0.00090086214709076415 0.0035867233171626238 0 0.0008115423393654542 0.0037214735391466192 0 0.00078114504387010288 0.0034765032362215624 0 0.0015899672129325115 0.003485246132392256 0 0.0017187075368720345 0.0034082024233095631 0 0.0016924667655462001 0.00310063645338538 0 0.0015899672129325115 0.003485246132392256 0 0.00157856982457054 0.0031737296826878101 0 0.0017508547265530693 0.0029477653087706182 0 0.0012502393299614659 0.0035763274198917327 0 0.0014855018025829729 0.003211835303205391 0 0.00157856982457054 0.0031737296826878101 0 0.0015638640735860323 0.0030337562650243287 0 0.0017508547265530693 0.0029477653087706182 0 0.0012751355327009757 0.0031040849104143069 0 0.0014665083795361968 0.0034826128264116908 0 0.0013578954040262701 0.0031098902021706293 0 0.0016970545878410299 0.0032148539297084718 0 0.0017043953939004472 0.0036887210960900902 0 0.0014665083795361968 0.0034826128264116908 0 0.0014971586622097314 0.003277932033487667 0 0.0013578954040262701 0.0031098902021706293 0 0.0014971586622097314 0.003277932033487667 0 0.0014901792028032053 0.0031212862640427972 0 0.0013578954040262701 0.0031098902021706293 0 0.0015899672129325115 0.003485246132392256 0 0.0014971586622097314 0.003277932033487667 0 0.00157856982457054 0.0031737296826878101 0 0.0014971586622097314 0.003277932033487667 0 0.00157856982457054 0.0031737296826878101 0 0.0014901792028032053 0.0031212862640427972 0 0.00157856982457054 0.0031737296826878101 0 0.0014901792028032053 0.0031212862640427972 0 0.0015638640735860323 0.0030337562650243287 0 0.0014901792028032053 0.0031212862640427972 0 0.0015638640735860323 0.0030337562650243287 0 0.0014430524693382905 0.0030255094655927441 0 0.0014430524693382905 0.0030255094655927441 0 0.0013578954040262701 0.0031098902021706293 0 0.00133333005798055 0.0030074543417155908 0 0.0014901792028032053 0.0031212862640427972 0 0.0014430524693382905 0.0030255094655927441 0 0.0013578954040262701 0.0031098902021706293 0 0.0016970545878410299 0.0032148539297084718 0 0.0015201052280636184 0.003189469324776679 0 0.0012753675383300883 0.0031022725234402079 0 0.0013578954040262701 0.0031098902021706293 0 0.00133333005798055 0.0030074543417155908 0 0.00133333005798055 0.0030074543417155908 0 0.0014075674967775455 0.0029110233307802591 0 0.0011828943416497793 0.0029123534953700014 0 0.0018547668028313453 0.0012083715956327692 0 0.0017843449214841798 0.0012042699014717956 0 0.001774174208238311 0.001263263976989311 0 0.0014075674967775455 0.0029110233307802591 0 0.0015164456184596309 0.0027347079497441417 0 0.0011828943416497793 0.0029123534953700014 0 0.0017788255253942875 0.0019157970904540823 0 0.0016445031654554255 0.002329382776353126 0 0.0014430524693382905 0.0030255094655927441 0 0.00133333005798055 0.0030074543417155908 0 0.0014075674967775455 0.0029110233307802591 0 0.0014075674967775455 0.0029110233307802591 0 0.0015638562550819551 0.0028889107356001873 0 0.0015164456184596309 0.0027347079497441417 0 0.0014430524693382905 0.0030255094655927441 0 0.0014075674967775455 0.0029110233307802591 0 0.0015638562550819551 0.0028889107356001873 0 0.0015638640735860323 0.0030337562650243287 0 0.0014430524693382905 0.0030255094655927441 0 0.0015638562550819551 0.0028889107356001873 0 0.0017467608567428301 0.0029448197172321374 0 0.0017306999855169125 0.0027135744150083583 0 0.001850399555746672 0.0025539098211528498 0 0.0014855018025829729 0.003211835303205391 0 0.0012824437270382368 0.0020851050698778846 0 0.00089195333210367064 0.0033696171361424759 0 0.00078114504387010288 0.0034765032362215624 0 0.00083438007146842093 0.0032459088080782242 0 0.0015638562550819551 0.0028889107356001873 0 0.0017508547265530693 0.0029477653087706182 0 0.0017306999855169125 0.0027135744150083583 0 0.0015638640735860323 0.0030337562650243287 0 0.0015638562550819551 0.0028889107356001873 0 0.0017508547265530693 0.0029477653087706182 0 0.0014855018025829729 0.003211835303205391 0 0.0016473516334406879 0.0027315922747503858 0 0.0015638562550819551 0.0028889107356001873 0 0.0015164456184596309 0.0027347079497441417 0 0.0017306999855169125 0.0027135744150083583 0 0.0015164456184596309 0.0027347079497441417 0 0.0017306999855169125 0.0027135744150083583 0 0.001850399555746672 0.0025539098211528498 0 0.0017788255253942875 0.0019157970904540823 0 0.0012824437270382368 0.0020851050698778846 0 0.0018547668028313453 0.0012083715956327692 0 0.0019262494961805687 0.0011646818352028666 0 0.0018680871074831342 0.0011289952839639501 0 0.0019262494961805687 0.0011646818352028666 0 0.0019326964917059811 0.0011381602303206213 0 0.0018680871074831342 0.0011289952839639501 0 0.00053195865531265984 0.00041511808306086062 0 0.0010550547064008778 0.0011704823484772339 0 0.0012824437270382368 0.0020851050698778846 0 0.0010550547064008778 0.0011704823484772339 0 0.0018547668028313453 0.0012083715956327692 0 0.0018204780927561595 0.0011552238557368867 0 0.0017843449214841798 0.0012042699014717956 0 0.0018547668028313453 0.0012083715956327692 0 0.0018204780927561595 0.0011552238557368867 0 0.0018680871074831342 0.0011289952839639501 0 0.0018204780927561595 0.0011552238557368867 0 0.0018680871074831342 0.0011289952839639501 0 0.0018134335383091966 0.0011090172957437046 0 0.0018204780927561595 0.0011552238557368867 0 0.0017724450747798471 0.0011368306485844946 0 0.0018134335383091966 0.0011090172957437046 0 0.0017724450747798471 0.0011368306485844946 0 0.0017164534518978956 0.0011131575514208706 0 0.0017690107551562944 0.0010826034742087731 0 0.0017724450747798471 0.0011368306485844946 0 0.0017310434770279744 0.0011916752276892749 0 0.0017164534518978956 0.0011131575514208706 0 0.0017724450747798471 0.0011368306485844946 0 0.0017310434770279744 0.0011916752276892749 0 0.0017843449214841798 0.0012042699014717956 0 0.0018204780927561595 0.0011552238557368867 0 0.0017724450747798471 0.0011368306485844946 0 0.0017843449214841798 0.0012042699014717956 0 0.0017843449214841798 0.0012042699014717956 0 0.0017540318589964357 0.0012236188622359665 0 0.001774174208238311 0.001263263976989311 0 0.0017310434770279744 0.0011916752276892749 0 0.0017843449214841798 0.0012042699014717956 0 0.0017540318589964357 0.0012236188622359665 0 0.0017310434770279744 0.0011916752276892749 0 0.0017540318589964357 0.0012236188622359665 0 0.0017151955526953453 0.001256268727515853 0 0.0017540318589964357 0.0012236188622359665 0 0.001774174208238311 0.001263263976989311 0 0.0017151955526953453 0.001256268727515853 0 0.0016921484102110822 0.0013153529557560204 0 0.001774174208238311 0.001263263976989311 0 0.0017151955526953453 0.001256268727515853 0 0.0018193358249295772 0.0026538132518239251 0 0.0016445031654554255 0.002329382776353126 0 0.0016921484102110822 0.0013153529557560204 0 0.0017151955526953453 0.001256268727515853 0 0.0016319096402985433 0.0012440348829514877 0 0.0017310434770279744 0.0011916752276892749 0 0.0017151955526953453 0.001256268727515853 0 0.0016639483449233051 0.0011738613551122105 0 0.0017151955526953453 0.001256268727515853 0 0.0016319096402985433 0.0012440348829514877 0 0.0016639483449233051 0.0011738613551122105 0 0.0017310434770279744 0.0011916752276892749 0 0.0016639483449233051 0.0011738613551122105 0 0.0017164534518978956 0.0011131575514208706 0 0.0016639483449233051 0.0011738613551122105 0 0.0017164534518978956 0.0011131575514208706 0 0.0016442120836642588 0.0010818469854848513 0 0.0017651746506707454 0.0010220460177526223 0 0.0015655164067241982 0.00097268555228522508 0 0.0016442120836642588 0.0010818469854848513 0 0.0017180118085766234 0.0010259048603999173 0 0.0015707479655052803 0.00097477116166592504 0 0.0017164534518978956 0.0011131575514208706 0 0.0016442120836642588 0.0010818469854848513 0 0.0017180118085766234 0.0010259048603999173 0 0.0017651746506707454 0.0010220460177526223 0 0.001756372378288836 0.00085673856802767916 0 0.0017164534518978956 0.0011131575514208706 0 0.0017180118085766234 0.0010259048603999173 0 0.0017690107551562944 0.0010826034742087731 0 0.0017180118085766234 0.0010259048603999173 0 0.0017690107551562944 0.0010826034742087731 0 0.0018385672136423826 0.0010592602979148885 0 0.0017724450747798471 0.0011368306485844946 0 0.0017690107551562944 0.0010826034742087731 0 0.0018134335383091966 0.0011090172957437046 0 0.0017602261353884799 0.00097995391034779149 0 0.0017848843035338357 0.00089552419099268952 0 0.0019295512505956148 0.00099525388149694898 0 0.0016832420007865381 0.00078917407451108731 0 0.001756372378288836 0.00085673856802767916 0 0.0016103587605554924 0.00070347580746018862 0 0.0015193134327434418 0.00062153112762485495 0 0.0015451142874246869 0.00070235628677128457 0 0.0017602261353884799 0.00097995391034779149 0 0.0016700213260112244 0.00091302056394474448 0 0.0015707479655052803 0.00097477116166592504 0 0.0017848843035338357 0.00089552419099268952 0 0.0016700213260112244 0.00091302056394474448 0 0.0016037719124337795 0.00076512536813023741 0 0.0017602261353884799 0.00097995391034779149 0 0.0017848843035338357 0.00089552419099268952 0 0.0016700213260112244 0.00091302056394474448 0 0.0019326964917059811 0.0011381602303206213 0 0.0018680871074831342 0.0011289952839639501 0 0.0018385672136423826 0.0010592602979148885 0 0.0010550547064008778 0.0011704823484772339 0 0.001756372378288836 0.00085673856802767916 0 0.0010895982410434829 -0.00084696456072359111 0 0.0010598160708331359 -0.00085089640395420848 0 0.0010613929726529566 -0.00092004066878461548 0 0.00099068453055452472 0.00046883388815705614 0 0.001174282671724141 0.00079969405120753831 0 0.0015614170971957159 0.00084155949887692965 0 1.8743946009556115e-05 -0.00063626178910732457 0 0.0010839416207940674 0.0001388743427909546 0 0.00095312177260459317 0.00060496881060455028 0 0.00099068453055452472 0.00046883388815705614 0 0.001174282671724141 0.00079969405120753831 0 0.00053195865531265984 0.00041511808306086062 0 0.0010839416207940674 0.0001388743427909546 0 0.00043548792209407582 -0.00027598705147349127 0 0.00036616940877836528 -2.4799795739164391e-05 0 0.00076997287206739579 2.0203131686307258e-05 0 0.0010839416207940674 0.0001388743427909546 0 0.001756372378288836 0.00085673856802767916 0 0.0018680871074831342 0.0011289952839639501 0 0.0018385672136423826 0.0010592602979148885 0 0.0018134335383091966 0.0011090172957437046 0 0.0017690107551562944 0.0010826034742087731 0 0.0018385672136423826 0.0010592602979148885 0 0.0018134335383091966 0.0011090172957437046 0 0.0014371211685882054 0.00060971780756365404 0 0.0015193134327434418 0.00062153112762485495 0 0.0015451142874246869 0.00070235628677128457 0 0.0010839416207940674 0.0001388743427909546 0 0.0012914431123721792 -0.00014642649795920792 0 0.0010598160708331359 -0.00085089640395420848 0 0.0010061664359251345 -0.00091112602770346805 0 0.0010613929726529566 -0.00092004066878461548 0 0.0011160631865036418 -0.00094917382317794203 0 0.0010613929726529566 -0.00092004066878461548 0 0.0010643993191070586 -0.0009767425120582908 0 0.0010613929726529566 -0.00092004066878461548 0 0.0010643993191070586 -0.0009767425120582908 0 0.0010180723385384289 -0.00097114724238521412 0 0.0010061664359251345 -0.00091112602770346805 0 0.0010613929726529566 -0.00092004066878461548 0 0.0010180723385384289 -0.00097114724238521412 0 0.0010434465049367317 -0.001031778373887051 0 0.0010180723385384289 -0.00097114724238521412 0 0.00098300780613475545 -0.0010204133245127801 0 0.0010434465049367317 -0.001031778373887051 0 0.0010643993191070586 -0.0009767425120582908 0 0.0010180723385384289 -0.00097114724238521412 0 0.0010434465049367317 -0.001031778373887051 0 0.001094666275301171 -0.0010282705227041629 0 0.0010643993191070586 -0.0009767425120582908 0 0.0016832420007865381 0.00078917407451108731 0 0.0016129074542939475 0.00076626335972870797 0 0.0016103587605554924 0.00070347580746018862 0 0.0016234427254486366 0.00074098382572754078 0 0.0016037719124337795 0.00076512536813023741 0 0.0010061664359251345 -0.00091112602770346805 0 0.0010180723385384289 -0.00097114724238521412 0 0.00095003410235838034 -0.00096729129437138209 0 0.0012914431123721792 -0.00014642649795920792 0 0.0012760429729097463 -7.0197616584560135e-05 0 0.0016103587605554924 0.00070347580746018862 0 0.0015451142874246869 0.00070235628677128457 0 0.0016234427254486366 0.00074098382572754078 0 0.00095003410235838034 -0.00096729129437138209 0 0.00098300780613475545 -0.0010204133245127801 0 0.00094028589426576692 -0.0010208030428910321 0 0.0010180723385384289 -0.00097114724238521412 0 0.00095003410235838034 -0.00096729129437138209 0 0.00098300780613475545 -0.0010204133245127801 0 0.0013591394876808218 -0.00047292395396399139 0 0.0012760429729097463 -7.0197616584560135e-05 0 0.000892536396316124 -0.0010210064602889637 0 0.00095003410235838034 -0.00096729129437138209 0 0.00094028589426576692 -0.0010208030428910321 0 0.0015882359753508822 0.00064456563247816125 0 0.0016234427254486366 0.00074098382572754078 0 0.0016037719124337795 0.00076512536813023741 0 0.0016024854824275025 -0.00032474165467205254 0 0.0016403036576756326 -0.00029079586610312341 0 0.0013612168592647379 -8.9066830959425486e-05 0 0.0015882359753508822 0.00064456563247816125 0 0.0016037719124337795 0.00076512536813023741 0 0.0015069903632846009 0.00079745114571380942 0 0.001479720568862099 0.00079441708227089502 0 0.0014350558783579686 0.00082536762841116254 0 0.0014778206673555375 0.00094853805436285674 0 0.0015947301898580496 0.00024905777667267361 0 0.0014503926000465506 0.0010333000223184815 0 0.0015069903632846009 0.00079745114571380942 0 0.0014392541857926569 0.00072377907681850254 0 0.0014357375786770705 0.00089742281017271401 0 0.0015882359753508822 0.00064456563247816125 0 0.0015069903632846009 0.00079745114571380942 0 0.0014392541857926569 0.00072377907681850254 0 0.0013591394876808218 -0.00047292395396399139 0 0.0015947301898580496 0.00024905777667267361 0 0.001907191340273126 -0.0005386303471153933 0 0.0015375635577525556 -0.0001979194594234782 0 0.0015282902363518986 -0.00042542325942878235 0 0.0022632682547946369 -0.00033765534039407292 0 0.0022488313274640994 -0.00046985113101610175 0 0.0022176338499096458 -0.00043421488249525915 0 0.0014803577597461983 -0.0007569219916494606 0 0.0015947301898580496 0.00024905777667267361 0 0.0015947301898580496 0.00024905777667267361 0 0.0019478702752954982 -0.00049449768532992984 0 0.0019478702752954982 -0.00049449768532992984 0 0.0020332676670663055 -0.00052377847264962302 0 0.002231756403216433 -0.00045888672807585366 0 0.0022176338499096458 -0.00043421488249525915 0 0.002158370026998598 -0.0004618237037902182 0 0.0022176338499096458 -0.00043421488249525915 0 0.002158370026998598 -0.0004618237037902182 0 0.002117542374017622 -0.00041090550322238941 0 0.0020906904209001091 -0.00048073480540492442 0 0.002158370026998598 -0.0004618237037902182 0 0.002117542374017622 -0.00041090550322238941 0 0.0022176338499096458 -0.00043421488249525915 0 0.002117542374017622 -0.00041090550322238941 0 0.0022091541868882098 -0.00029125187289610725 0 0.0022632682547946369 -0.00033765534039407292 0 0.0022176338499096458 -0.00043421488249525915 0 0.0022091541868882098 -0.00029125187289610725 0 0.0020906904209001091 -0.00048073480540492442 0 0.002117542374017622 -0.00041090550322238941 0 0.0020381036236887546 -0.0004507595003993409 0 0.002117542374017622 -0.00041090550322238941 0 0.0020381036236887546 -0.0004507595003993409 0 0.0020190491155518391 -0.00037219995490799516 0 0.0020269406731462207 -0.0002326843354472161 0 0.0019534835415165827 -3.1630506926030294e-05 0 0.0018009794283155333 -0.00021326159575128212 0 0.0021258567783569299 -0.00040606920696946354 0 0.0018576202478264865 -0.00030955841813165358 0 0.002117542374017622 -0.00041090550322238941 0 0.0020269406731462207 -0.0002326843354472161 0 0.0018009794283155333 -0.00021326159575128212 0 0.0014350558783579686 0.00082536762841116254 0 0.0013098112866947789 0.00094258243650170465 0 0.0014778206673555375 0.00094853805436285674 0 0.0020269406731462207 -0.0002326843354472161 0 0.0022091541868882098 -0.00029125187289610725 0 0.0019534835415165827 -3.1630506926030294e-05 0 0.0017854937084007059 0.00025888635112453402 0 0.001587692707714794 0.00038071773313200897 0 0.0015947301898580496 0.00024905777667267361 0 0.0017854937084007059 0.00025888635112453402 0 0.002117542374017622 -0.00041090550322238941 0 0.0020269406731462207 -0.0002326843354472161 0 0.0022091541868882098 -0.00029125187289610725 0 0.0013098112866947789 0.00094258243650170465 0 0.001363517258954051 0.0010688884229364684 0 0.0014778206673555375 0.00094853805436285674 0 0.0013098112866947789 0.00094258243650170465 0 0.001363517258954051 0.0010688884229364684 0 0.0011937599213279345 0.0010535258047012692 0 0.001363517258954051 0.0010688884229364684 0 0.0011937599213279345 0.0010535258047012692 0 0.0012850346348353182 0.0011762371840393076 0 0.001363517258954051 0.0010688884229364684 0 0.0014672107014303936 0.0010838772672817935 0 0.0014778206673555375 0.00094853805436285674 0 0.0014672107014303936 0.0010838772672817935 0 0.0015707479655052803 0.00097477116166592504 0 0.0014357375786770705 0.00089742281017271401 0 0.0014656911304314908 0.0010260694509147111 0 0.0014503926000465506 0.0010333000223184815 0 0.0014672107014303936 0.0010838772672817935 0 0.0015707479655052803 0.00097477116166592504 0 0.0015650770375088417 0.0011579622069973611 0 0.0016442120836642588 0.0010818469854848513 0 0.0015707479655052803 0.00097477116166592504 0 0.0015650770375088417 0.0011579622069973611 0 0.0016700213260112244 0.00091302056394474448 0 0.0016037719124337795 0.00076512536813023741 0 0.0015707479655052803 0.00097477116166592504 0 0.0016037719124337795 0.00076512536813023741 0 0.0015069903632846009 0.00079745114571380942 0 0.0015707479655052803 0.00097477116166592504 0 0.0015069903632846009 0.00079745114571380942 0 0.0015707479655052803 0.00097477116166592504 0 0.0014357375786770705 0.00089742281017271401 0 0.0024548303751133504 -2.245068818812255e-05 0 0.0025469198480257411 -0.00012297282158300893 0 0.0025563120988336785 -6.5729112089487644e-06 0 0.0024548303751133504 -2.245068818812255e-05 0 0.0024574946131849683 -0.00011192508403179107 0 0.0025469198480257411 -0.00012297282158300893 0 0.0024548303751133504 -2.245068818812255e-05 0 0.0024574946131849683 -0.00011192508403179107 0 0.0024041658677981192 -0.00011958538400197227 0 0.0018669775825995185 -0.00049927914211502248 0 0.0017642577615377656 -0.00051913422288605714 0 0.0018407546981270193 -0.00041268207974665713 0 0.0024574946131849683 -0.00011192508403179107 0 0.0024130557381685908 -0.00018960557643219757 0 0.0024041658677981192 -0.00011958538400197227 0 0.0024574946131849683 -0.00011192508403179107 0 0.0025469198480257411 -0.00012297282158300893 0 0.0024130557381685908 -0.00018960557643219757 0 0.0024234076522504141 -0.00031005312639056123 0 0.0025469198480257411 -0.00012297282158300893 0 0.0024130557381685908 -0.00018960557643219757 0 0.0022951133924481526 -0.00066324786914900163 0 0.0022051137418274041 -0.00025686843903283656 0 0.0018669775825995185 -0.00049927914211502248 0 0.0018407546981270193 -0.00041268207974665713 0 0.0019465657210355548 -0.0004704955235769945 0 0.0025469198480257411 -0.00012297282158300893 0 0.0026547160572442537 3.0473775029548624e-05 0 0.0025563120988336785 -6.5729112089487644e-06 0 0.0022051137418274041 -0.00025686843903283656 0 0.0020288563529273379 5.6992747375343951e-05 0 0.0018407546981270193 -0.00041268207974665713 0 0.0019419732819843793 -0.0003873264933226623 0 0.0019198215818093214 -0.00030757338977724548 0 0.0019419732819843793 -0.0003873264933226623 0 0.0020190491155518391 -0.00037219995490799516 0 0.0019198215818093214 -0.00030757338977724548 0 0.0019419732819843793 -0.0003873264933226623 0 0.0019465657210355548 -0.0004704955235769945 0 0.0019869296745298934 -0.00042001253889809069 0 0.0018407546981270193 -0.00041268207974665713 0 0.0019419732819843793 -0.0003873264933226623 0 0.0019465657210355548 -0.0004704955235769945 0 0.0020381036236887546 -0.0004507595003993409 0 0.0019869296745298934 -0.00042001253889809069 0 0.0020190491155518391 -0.00037219995490799516 0 0.0020381036236887546 -0.0004507595003993409 0 0.0019465657210355548 -0.0004704955235769945 0 0.0019869296745298934 -0.00042001253889809069 0 0.0019419732819843793 -0.0003873264933226623 0 0.0019869296745298934 -0.00042001253889809069 0 0.0020190491155518391 -0.00037219995490799516 0 0.0018576202478264865 -0.00030955841813165358 0 0.0020288563529273379 5.6992747375343951e-05 0 0.0019534835415165827 -3.1630506926030294e-05 0 0.0018009794283155333 -0.00021326159575128212 0 0.0017289009303815437 -3.9501786680413447e-07 0 0.001587692707714794 0.00038071773313200897 0 0.0018637730059761879 0.0012372227161850558 0 0.0018009794283155333 -0.00021326159575128212 0 0.0017289009303815437 -3.9501786680413447e-07 0 0.0014815428610398616 -7.3832612461760553e-06 0 0.0019534835415165827 -3.1630506926030294e-05 0 0.0017289009303815437 -3.9501786680413447e-07 0 0.0016648744909607172 0.00022916468358959125 0 0.0021514596551722052 0.0021608107358362266 0 0.0022252443371428279 0.0025973992243213812 0 0.0021328661546925424 0.002744666189462122 0 0.002069534112691659 0.0027957069975099191 0 0.00215611252716053 0.0028328857639204419 0 0.0023265348031308569 0.0010262227999346385 0 0.0022450397129965527 0.0010966772842663126 0 0.0021205040941056157 0.0010506130098233586 0 0.0023265348031308569 0.0010262227999346385 0 0.0021205040941056157 0.0010506130098233586 0 0.0021679461116181405 0.00082014319158857059 0 0.0018637730059761879 0.0012372227161850558 0 0.0021514596551722052 0.0021608107358362266 0 0.0021514596551722052 0.0021608107358362266 0 0.002227203783793178 0.0024076397549131008 0 0.002279939513245319 0.0019955635975511758 0 0.0022607645459627656 0.002011733961479589 0 0.0022236721046892628 0.0019736483950934191 0 0.0021514596551722052 0.0021608107358362266 0 0.0023117950801053509 0.001679291447181623 0 0.0026191440417955999 0.0021648855676856633 0 0.0025701808598402056 0.0021152973823015705 0 0.0025108550970112625 0.0021623132470089046 0 0.002227203783793178 0.0024076397549131008 0 0.0023117950801053509 0.001679291447181623 0 0.0017289009303815437 -3.9501786680413447e-07 0 0.0016648744909607172 0.00022916468358959125 0 0.0014815428610398616 -7.3832612461760553e-06 0 0.0018637730059761879 0.0012372227161850558 0 0.0020288563529273379 5.6992747375343951e-05 0 0.0024548303751133504 -2.245068818812255e-05 0 0.0025563120988336785 -6.5729112089487644e-06 0 0.0025662589473380193 8.7903892409952646e-05 0 0.0021205040941056157 0.0010506130098233586 0 0.0021679461116181405 0.00082014319158857059 0 0.0019979984946038127 0.00092769517950332494 0 0.0026547160572442537 3.0473775029548624e-05 0 0.0025563120988336785 -6.5729112089487644e-06 0 0.0025662589473380193 8.7903892409952646e-05 0 0.0020288563529273379 5.6992747375343951e-05 0 0.002468873690720721 0.00066603958920574799 0 0.0023117950801053509 0.001679291447181623 0 0.002468873690720721 0.00066603958920574799 0 0.0024506505574802759 0.0013081791022820568 0 0.0024347251342912019 0.0012885439420481876 0 0.0024243243735394605 0.0012951075789662321 0 0.0025108550970112625 0.0021623132470089046 0 0.0024506371680602735 0.0020688959846893594 0 0.0024102983804634029 0.0021933368980498577 0 0.0025701808598402056 0.0021152973823015705 0 0.0025108550970112625 0.0021623132470089046 0 0.0024506371680602735 0.0020688959846893594 0 0.0023117950801053509 0.001679291447181623 0 0.0025907232163832252 0.0012320421838842093 0 0.002468873690720721 0.00066603958920574799 0 0.0025907232163832252 0.0012320421838842093 0 0.0029011342876895229 0.0011601545398022409 0 0.00283474919732439 0.0011328233520696278 0 0.0028212727758330784 0.0012174999566836051 0 0.0024506371680602735 0.0020688959846893594 0 0.0024102983804634029 0.0021933368980498577 0 0.0022640925496291799 0.0021858872757565722 0 0.0025907232163832252 0.0012320421838842093 0 0.0027501709044266288 0.0019672139338811961 0 0.0025826818224688472 0.00011947540085784306 0 0.0028300943368816671 0.00036637945269127423 0 0.0026160168716898129 0.00029423800593206538 0 0.002521988648878792 -5.1681052631760556e-06 0 0.002468873690720721 0.00066603958920574799 0 0.0027365461531776354 0.00042426474401507268 0 0.0026160168716898129 0.00029423800593206538 0 0.0024430524314393016 0.00031500267034439359 0 0.0025907232163832252 0.0012320421838842093 0 0.0026404071801266172 0.00069930574268955656 0 0.0028300943368816671 0.00036637945269127423 0 0.0027365461531776354 0.00042426474401507268 0 0.0026160168716898129 0.00029423800593206538 0 0.0025826818224688472 0.00011947540085784306 0 0.0026160168716898129 0.00029423800593206538 0 0.0024430524314393016 0.00031500267034439359 0 0.002056685435486641 0.0027557013303430599 0 0.0022586158665721836 0.0026170309780089007 0 0.0023823850459354641 0.0023780125467086433 0 0.0023590277268548373 0.0022746513838743628 0 0.0022597228997993379 0.0023357372745349768 0 0.0023823850459354641 0.0023780125467086433 0 0.0023590277268548373 0.0022746513838743628 0 0.0025021433885025427 0.0022691117179007465 0 0.0023590277268548373 0.0022746513838743628 0 0.0024102983804634029 0.0021933368980498577 0 0.0022640925496291799 0.0021858872757565722 0 0.0023590277268548373 0.0022746513838743628 0 0.0024102983804634029 0.0021933368980498577 0 0.0025021433885025427 0.0022691117179007465 0 0.002227203783793178 0.0024076397549131008 0 0.0022586158665721836 0.0026170309780089007 0 0.0026191440417955999 0.0021648855676856633 0 0.0025108550970112625 0.0021623132470089046 0 0.0025021433885025427 0.0022691117179007465 0 0.0025108550970112625 0.0021623132470089046 0 0.0024102983804634029 0.0021933368980498577 0 0.0025021433885025427 0.0022691117179007465 0 0.001878230652195542 0.0030704616291112128 0 0.0019720759617583052 0.0029717728645046381 0 0.0020120806908447406 0.00309148274086329 0 0.0019720759617583052 0.0029717728645046381 0 0.0020120806908447406 0.00309148274086329 0 0.0020659945961856983 0.003002749632536942 0 0.0020120806908447406 0.00309148274086329 0 0.0020659945961856983 0.003002749632536942 0 0.0021326225037835759 0.0030864552181951413 0 0.0019720759617583052 0.0029717728645046381 0 0.0020659945961856983 0.003002749632536942 0 0.002060755480041658 0.0029446793401947287 0 0.0020718853866372711 0.0028748069757159136 0 0.0019720759617583052 0.0029717728645046381 0 0.002060755480041658 0.0029446793401947287 0 0.0020603709474065111 0.0027954273024810806 0 0.0020243417769828459 0.0028256208182895642 0 0.0021323044255865077 0.0029292646714237703 0 0.0020718853866372711 0.0028748069757159136 0 0.002060755480041658 0.0029446793401947287 0 0.0021323044255865077 0.0029292646714237703 0 0.002227203783793178 0.0024076397549131008 0 0.0021993190256751273 0.0028985597605709562 0 0.0020659945961856983 0.003002749632536942 0 0.002060755480041658 0.0029446793401947287 0 0.0021323044255865077 0.0029292646714237703 0 0.0020659945961856983 0.003002749632536942 0 0.0021323044255865077 0.0029292646714237703 0 0.0021805499633620116 0.0030066512553732728 0 0.0021328661546925424 0.002744666189462122 0 0.00215611252716053 0.0028328857639204419 0 0.0022576116750050645 0.0029405105991065477 0 0.0021323044255865077 0.0029292646714237703 0 0.00215611252716053 0.0028328857639204419 0 0.0022576116750050645 0.0029405105991065477 0 0.0021323044255865077 0.0029292646714237703 0 0.0021805499633620116 0.0030066512553732728 0 0.0022576116750050645 0.0029405105991065477 0 0.0018637730059761879 0.0012372227161850558 0 0.0017589036585738884 0.002101005303733681 0 0.0020603709474065111 0.0027954273024810806 0 0.0021323044255865077 0.0029292646714237703 0 0.00215611252716053 0.0028328857639204419 0 0.0020659945961856983 0.003002749632536942 0 0.0021326225037835759 0.0030864552181951413 0 0.0021805499633620116 0.0030066512553732728 0 0.0021805499633620116 0.0030066512553732728 0 0.0022576116750050645 0.0029405105991065477 0 0.0022631293664404487 0.0030847585730085559 0 0.0021326225037835759 0.0030864552181951413 0 0.0021805499633620116 0.0030066512553732728 0 0.0022631293664404487 0.0030847585730085559 0 0.0021326225037835759 0.0030864552181951413 0 0.0022036691554531839 0.0031746491796306757 0 0.0020835823997681869 0.0031976391290317232 0 0.0022036691554531839 0.0031746491796306757 0 0.0021825729466385256 0.0032713366737057584 0 0.0020835823997681869 0.0031976391290317232 0 0.0021326225037835759 0.0030864552181951413 0 0.0022036691554531839 0.0031746491796306757 0 0.0022631293664404487 0.0030847585730085559 0 0.0021825729466385256 0.0032713366737057584 0 0.0021070935544239356 0.0033173118572070487 0 0.0022274732314770847 0.0033509095450946569 0 0.0022036691554531839 0.0031746491796306757 0 0.0021825729466385256 0.0032713366737057584 0 0.0022689512016773328 0.0032399388048414764 0 0.0021825729466385256 0.0032713366737057584 0 0.0022716942260734433 0.0032918062741013076 0 0.0022274732314770847 0.0033509095450946569 0 0.0021070935544239356 0.0033173118572070487 0 0.0020835823997681869 0.0031976391290317232 0 0.0020284486059341184 0.0032742422325357486 0 0.0021825729466385256 0.0032713366737057584 0 0.0021070935544239356 0.0033173118572070487 0 0.0020835823997681869 0.0031976391290317232 0 0.0020120806908447406 0.00309148274086329 0 0.0021326225037835759 0.0030864552181951413 0 0.0020835823997681869 0.0031976391290317232 0 0.0020120806908447406 0.00309148274086329 0 0.0020835823997681869 0.0031976391290317232 0 0.0019517999077271683 0.0032173025953510775 0 0.001878230652195542 0.0030704616291112128 0 0.0020120806908447406 0.00309148274086329 0 0.0019517999077271683 0.0032173025953510775 0 0.0019517999077271683 0.0032173025953510775 0 0.0018909483100710467 0.0033170263925890453 0 0.0019903178397080649 0.003361106561441994 0 0.0020835823997681869 0.0031976391290317232 0 0.0020284486059341184 0.0032742422325357486 0 0.0019517999077271683 0.0032173025953510775 0 0.0020284486059341184 0.0032742422325357486 0 0.0019517999077271683 0.0032173025953510775 0 0.0019903178397080649 0.003361106561441994 0 0.0019517999077271683 0.0032173025953510775 0 0.0018599277582694177 0.0032195790171072581 0 0.0018909483100710467 0.0033170263925890453 0 0.0018599277582694177 0.0032195790171072581 0 0.0018909483100710467 0.0033170263925890453 0 0.0017927923550445509 0.0033275894535717034 0 0.001878230652195542 0.0030704616291112128 0 0.0019517999077271683 0.0032173025953510775 0 0.0018599277582694177 0.0032195790171072581 0 0.001878230652195542 0.0030704616291112128 0 0.0018599277582694177 0.0032195790171072581 0 0.001787571565965766 0.0031601060733710989 0 0.0015650770375088417 0.0011579622069973611 0 0.0014346172092243332 0.0011875948012113845 0 0.0015335805058265851 0.0013051149560958531 0 0.0016921484102110822 0.0013153529557560204 0 0.0016319096402985433 0.0012440348829514877 0 0.0015335805058265851 0.0013051149560958531 0 0.0016319096402985433 0.0012440348829514877 0 0.0015650770375088417 0.0011579622069973611 0 0.0015335805058265851 0.0013051149560958531 0 0.0016319096402985433 0.0012440348829514877 0 0.0016639483449233051 0.0011738613551122105 0 0.0015650770375088417 0.0011579622069973611 0 0.0016639483449233051 0.0011738613551122105 0 0.0016442120836642588 0.0010818469854848513 0 0.0015650770375088417 0.0011579622069973611 0 0.0014672107014303936 0.0010838772672817935 0 0.0015650770375088417 0.0011579622069973611 0 0.0014346172092243332 0.0011875948012113845 0 0.001363517258954051 0.0010688884229364684 0 0.0014346172092243332 0.0011875948012113845 0 0.0012850346348353182 0.0011762371840393076 0 0.001363517258954051 0.0010688884229364684 0 0.0014672107014303936 0.0010838772672817935 0 0.0014346172092243332 0.0011875948012113845 0 0.0017589036585738884 0.002101005303733681 0 0.0018506222074389032 0.0025399137205462745 0 0.0022576116750050645 0.0029405105991065477 0 0.0022631293664404487 0.0030847585730085559 0 0.00235893900642117 0.0030879798577452735 0 0.0024307475817223626 0.003018481164328359 0 0.0018506222074389032 0.0025399137205462745 0 0.0014346172092243332 0.0011875948012113845 0 0.0012850346348353182 0.0011762371840393076 0 0.001375130148220841 0.0012969105926321186 0 0.0014346172092243332 0.0011875948012113845 0 0.001375130148220841 0.0012969105926321186 0 0.0015335805058265851 0.0013051149560958531 0 0.0023759016409203443 0.0030780712609714774 0 0.0023081546505884509 0.0031643441310500518 0 0.0024241023133591806 0.0033131022534907671 0 0.0023759016409203443 0.0030780712609714774 0 0.0024241023133591806 0.0033131022534907671 0 0.002609963067567321 0.003344245616161094 0 0.0018506222074389032 0.0025399137205462745 0 0.0019693355277169682 0.0034851618907545557 0 0.0023081546505884509 0.0031643441310500518 0 0.0022689512016773328 0.0032399388048414764 0 0.0024241023133591806 0.0033131022534907671 0 0.0022036691554531839 0.0031746491796306757 0 0.0022631293664404487 0.0030847585730085559 0 0.0023081546505884509 0.0031643441310500518 0 0.0022631293664404487 0.0030847585730085559 0 0.0023759016409203443 0.0030780712609714774 0 0.0023081546505884509 0.0031643441310500518 0 0.0022036691554531839 0.0031746491796306757 0 0.0023081546505884509 0.0031643441310500518 0 0.0022689512016773328 0.0032399388048414764 0 0.0022689512016773328 0.0032399388048414764 0 0.0022716942260734433 0.0032918062741013076 0 0.0024241023133591806 0.0033131022534907671 0 0.0024241023133591806 0.0033131022534907671 0 0.0023298294349568668 0.0035725882649775666 0 0.0020998902469953774 0.0036386955963356774 0 0.0022716942260734433 0.0032918062741013076 0 0.0024241023133591806 0.0033131022534907671 0 0.0022274732314770847 0.0033509095450946569 0 0.0024181684958470818 0.0033191831179971731 0 0.0021742583048113494 0.0034918155789520839 0 0.0021825729466385256 0.0032713366737057584 0 0.0022689512016773328 0.0032399388048414764 0 0.0022716942260734433 0.0032918062741013076 0 0.0024241023133591806 0.0033131022534907671 0 0.002609963067567321 0.003344245616161094 0 0.0023298294349568668 0.0035725882649775666 0 0.0019693355277169682 0.0034851618907545557 0 0.0021398394641099182 0.0037351075278147152 0 0.0017478757344407177 0.0038853587157756252 0 0.0017626704056903991 0.0039144701461676923 0 0.0017878933808503222 0.0038689369376383254 0 0.0019693355277169682 0.0034851618907545557 0 0.0017250724517871403 0.0033667442037829736 0 0.0019515245433744141 0.0036739856837464161 0 0.0019693355277169682 0.0034851618907545557 0 0.0017478757344407177 0.0038853587157756252 0 0.0017363295337708862 0.0038668951885334731 0 0.0017652616753920315 0.0038637295432017143 0 0.0017478757344407177 0.0038853587157756252 0 0.0017652616753920315 0.0038637295432017143 0 0.0017464502393668947 0.0038795776034170329 0 0.0016579558955765394 0.0027588076358190197 0 0.0017263170820270824 0.0028510459734221254 0 0.0017586411247232951 0.002767364411929932 0 0.0017263170820270824 0.0028510459734221254 0 0.0017586411247232951 0.002767364411929932 0 0.0017926069361505201 0.0028124473178402615 0 0.0018506222074389032 0.0025399137205462745 0 0.0015578130566554979 0.0018901599565015578 0 0.0018193358249295772 0.0026538132518239251 0 0.0015578130566554979 0.0018901599565015578 0 0.001859022146060717 0.002774535245188533 0 0.0017586411247232951 0.002767364411929932 0 0.0017926069361505201 0.0028124473178402615 0 0.0018108098009928253 0.0038492114869693151 0 0.0017751746027229144 0.0038143189919224527 0 0.0017652616753920315 0.0038637295432017143 0 0.0018108098009928253 0.0038492114869693151 0 0.0017652616753920315 0.0038637295432017143 0 0.001782116102268663 0.0038811105762816709 0 0.0017363295337708862 0.0038668951885334731 0 0.0017751746027229144 0.0038143189919224527 0 0.0017652616753920315 0.0038637295432017143 0 0.001782116102268663 0.0038811105762816709 0 0.0017700461529497693 0.0039089895727292641 0 0.0018274585729039232 0.0039061776621221967 0 0.0017652616753920315 0.0038637295432017143 0 0.001782116102268663 0.0038811105762816709 0 0.0017464502393668947 0.0038795776034170329 0 0.0017700461529497693 0.0039089895727292641 0 0.0017336476621939599 0.0038778470167391199 0 0.0017464502393668947 0.0038795776034170329 0 0.001782116102268663 0.0038811105762816709 0 0.0017700461529497693 0.0039089895727292641 0 0.0017464502393668947 0.0038795776034170329 0 0.0017700461529497693 0.0039089895727292641 0 0.0017510239223827433 0.0039718949318025285 0 0.0017336476621939599 0.0038778470167391199 0 0.0017700461529497693 0.0039089895727292641 0 0.0017510239223827433 0.0039718949318025285 0 0.0017966173547240185 0.0039630083847451703 0 0.0017336476621939599 0.0038778470167391199 0 0.0016234196113212199 0.003931349887999318 0 0.0016919466515918306 0.0039844204631656558 0 0.0017510239223827433 0.0039718949318025285 0 0.0017336476621939599 0.0038778470167391199 0 0.0016919466515918306 0.0039844204631656558 0 0.001755787650874352 0.0038618316335420786 0 0.0016827800355192059 0.0038466376550031047 0 0.0017336476621939599 0.0038778470167391199 0 0.0017878933808503222 0.0038689369376383254 0 0.0018399098146930249 0.0037598600707554278 0 0.0017336476621939599 0.0038778470167391199 0 0.0017464502393668947 0.0038795776034170329 0 0.0017878933808503222 0.0038689369376383254 0 0.0017478757344407177 0.0038853587157756252 0 0.0017464502393668947 0.0038795776034170329 0 0.0017878933808503222 0.0038689369376383254 0 0.0017878933808503222 0.0038689369376383254 0 0.0019276289782300651 0.0037916983277385108 0 0.0018399098146930249 0.0037598600707554278 0 0.0017626704056903991 0.0039144701461676923 0 0.0018910680198825154 0.0038964738238145107 0 0.0017878933808503222 0.0038689369376383254 0 0.0018910680198825154 0.0038964738238145107 0 0.0017878933808503222 0.0038689369376383254 0 0.0019276289782300651 0.0037916983277385108 0 0.0019276289782300651 0.0037916983277385108 0 0.0020138167132912337 0.0037592602421046869 0 0.0020715561342846342 0.0037647070541429518 0 0.0021398394641099182 0.0037351075278147152 0 0.0020575569421565167 0.0037671448547652669 0 0.0023298294349568668 0.0035725882649775666 0 0.0020998902469953774 0.0036386955963356774 0 0.0020715561342846342 0.0037647070541429518 0 0.0018910680198825154 0.0038964738238145107 0 0.0019276289782300651 0.0037916983277385108 0 0.0020715561342846342 0.0037647070541429518 0 0.0019276289782300651 0.0037916983277385108 0 0.0019885297122843571 0.0036871176421624627 0 0.0018399098146930249 0.0037598600707554278 0 0.0022098673994142728 0.0043049101011209193 0 0.0016827800355192059 0.0038466376550031047 0 0.0022098673994142728 0.0043049101011209193 0 0.001947189637186794 0.0036758158968152178 0 0.0019276289782300651 0.0037916983277385108 0 0.0020138167132912337 0.0037592602421046869 0 0.0019885297122843571 0.0036871176421624627 0 0.0020138167132912337 0.0037592602421046869 0 0.0019885297122843571 0.0036871176421624627 0 0.002059708764684537 0.0037690802851923729 0 0.001541059525661837 0.003966921725113615 0 0.0016234196113212199 0.003931349887999318 0 0.0016133502056140006 0.0040714949173899038 0 0.0016234196113212199 0.003931349887999318 0 0.0016133502056140006 0.0040714949173899038 0 0.0016919466515918306 0.0039844204631656558 0 0.0022098673994142728 0.0043049101011209193 0 0.0020991786419274705 0.0048142627923289036 0 0.0027319833120985982 0.0055971196985301003 0 0.0025610514281656175 0.0053925525196122231 0 0.0028356302649870119 0.005454967994588846 0 0.0025610514281656175 0.0053925525196122231 0 0.0028100893939720546 0.0052986581266144719 0 0.0026341713379971778 0.0051522947858488122 0 0.0025610514281656175 0.0053925525196122231 0 0.0028356302649870119 0.005454967994588846 0 0.0028100893939720546 0.0052986581266144719 0 0.0020991786419274705 0.0048142627923289036 0 0.0020124442886339205 0.0046570456916890917 0 0.0016133502056140006 0.0040714949173899038 0 0.0017352218933488948 0.0041238823563743221 0 0.0017424517814934606 0.0040432833816925612 0 0.0016133502056140006 0.0040714949173899038 0 0.0017352218933488948 0.0041238823563743221 0 0.0016763792468811602 0.0041678558146875039 0 0.0017352218933488948 0.0041238823563743221 0 0.0017424517814934606 0.0040432833816925612 0 0.001792360988160801 0.0041083159454886331 0 0.0017424517814934606 0.0040432833816925612 0 0.0018022331688943443 0.0040264929691753134 0 0.001792360988160801 0.0041083159454886331 0 0.0017510239223827433 0.0039718949318025285 0 0.0017424517814934606 0.0040432833816925612 0 0.0018022331688943443 0.0040264929691753134 0 0.0017510239223827433 0.0039718949318025285 0 0.0017966173547240185 0.0039630083847451703 0 0.0018022331688943443 0.0040264929691753134 0 0.0017510239223827433 0.0039718949318025285 0 0.0017424517814934606 0.0040432833816925612 0 0.0016919466515918306 0.0039844204631656558 0 0.0016133502056140006 0.0040714949173899038 0 0.0017424517814934606 0.0040432833816925612 0 0.0016919466515918306 0.0039844204631656558 0 0.0019270009581654046 0.0034240178067917533 0 0.0019610441065919695 0.0034746967287348613 0 0.0018771167476006176 0.0034610624095232456 0 0.0019931335087385008 0.0037639360002445213 0 0.002490477425520807 0.0033873630406055302 0 0.0019270009581654046 0.0034240178067917533 0 0.0019858004233083439 0.0034191982194519983 0 0.0019610441065919695 0.0034746967287348613 0 0.0018889234647055002 0.0034178567907083919 0 0.0018909483100710467 0.0033170263925890453 0 0.0017927923550445509 0.0033275894535717034 0 0.0018052362199604309 0.0034723740152139727 0 0.0020216235364705162 0.0033435934221470436 0 0.0018889234647055002 0.0034178567907083919 0 0.0018909483100710467 0.0033170263925890453 0 0.0019903178397080649 0.003361106561441994 0 0.0019270009581654046 0.0034240178067917533 0 0.0019903178397080649 0.003361106561441994 0 0.0019858004233083439 0.0034191982194519983 0 0.0019903178397080649 0.003361106561441994 0 0.0019858004233083439 0.0034191982194519983 0 0.0020788233911911446 0.0034184841588580893 0 0.0020450445484409148 0.0035963103387193496 0 0.0019931335087385008 0.0037639360002445213 0 0.0019912223824018051 0.0038175074789948758 0 0.0020246034927610809 0.0038310445215994338 0 0.0020398434413059705 0.0038371356453367977 0 0.0019858004233083439 0.0034191982194519983 0 0.0020788233911911446 0.0034184841588580893 0 0.0019610441065919695 0.0034746967287348613 0 0.0019912223824018051 0.0038175074789948758 0 0.0019995628191377068 0.0038340775566158844 0 0.0020246034927610809 0.0038310445215994338 0 0.0019912223824018051 0.0038175074789948758 0 0.002038483314634265 0.0038037865627813501 0 0.0019995628191377068 0.0038340775566158844 0 0.0021070935544239356 0.0033173118572070487 0 0.0019903178397080649 0.003361106561441994 0 0.0020788233911911446 0.0034184841588580893 0 0.0021070935544239356 0.0033173118572070487 0 0.0020284486059341184 0.0032742422325357486 0 0.0019903178397080649 0.003361106561441994 0 0.0020998902469953774 0.0036386955963356774 0 0.0019912223824018051 0.0038175074789948758 0 0.0020715561342846342 0.0037647070541429518 0 0.0021070935544239356 0.0033173118572070487 0 0.0022274732314770847 0.0033509095450946569 0 0.0020788233911911446 0.0034184841588580893 0 0.0021742583048113494 0.0034918155789520839 0 0.0020450445484409148 0.0035963103387193496 0 0.002089321954674192 0.0038255046087037094 0 0.002059708764684537 0.0037690802851923729 0 0.002038483314634265 0.0038037865627813501 0 0.002089321954674192 0.0038255046087037094 0 0.002038483314634265 0.0038037865627813501 0 0.0019995628191377068 0.0038340775566158844 0 0.0019912223824018051 0.0038175074789948758 0 0.0020715561342846342 0.0037647070541429518 0 0.002038483314634265 0.0038037865627813501 0 0.0020138167132912337 0.0037592602421046869 0 0.0020715561342846342 0.0037647070541429518 0 0.002059708764684537 0.0037690802851923729 0 0.0020715561342846342 0.0037647070541429518 0 0.002059708764684537 0.0037690802851923729 0 0.002038483314634265 0.0038037865627813501 0 0.0027319833120985982 0.0055971196985301003 0 0.0028356302649870119 0.005454967994588846 0 0.0030191156942572486 0.0055044046249419672 0 0.0022098673994142728 0.0043049101011209193 0 0.0025513861280857752 0.0047089557637164181 0 0.0028356302649870119 0.005454967994588846 0 0.0029760072164547596 0.0053677250329113085 0 0.0030191156942572486 0.0055044046249419672 0 0.0028356302649870119 0.005454967994588846 0 0.0028100893939720546 0.0052986581266144719 0 0.0029760072164547596 0.0053677250329113085 0 0.0028100893939720546 0.0052986581266144719 0 0.0029760072164547596 0.0053677250329113085 0 0.0029956976147196288 0.0052491360206219665 0 0.0029760072164547596 0.0053677250329113085 0 0.0029956976147196288 0.0052491360206219665 0 0.0031093478250962476 0.0053352188898040439 0 0.0029956976147196288 0.0052491360206219665 0 0.0031093478250962476 0.0053352188898040439 0 0.0031355372250418136 0.0052191432463617538 0 0.0029760072164547596 0.0053677250329113085 0 0.0031093478250962476 0.0053352188898040439 0 0.0030191156942572486 0.0055044046249419672 0 0.0025513861280857752 0.0047089557637164181 0 0.0026569209354245942 0.0046360212370109826 0 0.0031093478250962476 0.0053352188898040439 0 0.0030191156942572486 0.0055044046249419672 0 0.0032931376175546643 0.0053977967871834207 0 0.0019995628191377068 0.0038340775566158844 0 0.0020246034927610809 0.0038310445215994338 0 0.0020918211787511851 0.0037745964029084057 0 0.0020531854508011719 0.0038255157333510399 0 0.0019931335087385008 0.0037639360002445213 0 0.0020246034927610809 0.0038310445215994338 0 0.002094477693601673 0.0038483205069386873 0 0.0020918211787511851 0.0037745964029084057 0 0.0031093478250962476 0.0053352188898040439 0 0.0032931376175546643 0.0053977967871834207 0 0.0032552967756599703 0.0052542772883769117 0 0.0031093478250962476 0.0053352188898040439 0 0.0032552967756599703 0.0052542772883769117 0 0.0031355372250418136 0.0052191432463617538 0 0.0032931376175546643 0.0053977967871834207 0 0.0033699753232684405 0.0052783693448208375 0 0.0035443242044709204 0.0052978653571252206 0 0.0033699753232684405 0.0052783693448208375 0 0.0033852529388703348 0.0051636661134797524 0 0.0035443242044709204 0.0052978653571252206 0 0.0032931376175546643 0.0053977967871834207 0 0.0032552967756599703 0.0052542772883769117 0 0.0033699753232684405 0.0052783693448208375 0 0.0026569209354245942 0.0046360212370109826 0 0.0030184702671346942 0.0041192494732939875 0 0.0032552967756599703 0.0052542772883769117 0 0.0033699753232684405 0.0052783693448208375 0 0.0033852529388703348 0.0051636661134797524 0 0.0020857189659476147 0.0038730534101911315 0 0.0021855095840016062 0.0038124761984396674 0 0.0023000611793100893 0.0038881094873922245 0 0.0020918211787511851 0.0037745964029084057 0 0.0021855095840016062 0.0038124761984396674 0 0.0023050092478384843 0.0036996366567424417 0 0.0019931335087385008 0.0037639360002445213 0 0.0021691423071059776 0.003797683584875942 0 0.002094477693601673 0.0038483205069386873 0 0.0020918211787511851 0.0037745964029084057 0 0.0021855095840016062 0.0038124761984396674 0 0.0033650054724923095 0.0049605856564221918 0 0.0033852529388703348 0.0051636661134797524 0 0.0035485926593380331 0.0050676372812667866 0 0.0033650054724923095 0.0049605856564221918 0 0.0033852529388703348 0.0051636661134797524 0 0.0032246572513941188 0.0050994609700096344 0 0.0032552967756599703 0.0052542772883769117 0 0.0033852529388703348 0.0051636661134797524 0 0.0032246572513941188 0.0050994609700096344 0 0.0032552967756599703 0.0052542772883769117 0 0.0032246572513941188 0.0050994609700096344 0 0.0031355372250418136 0.0052191432463617538 0 0.0033650054724923095 0.0049605856564221918 0 0.0032257629177916869 0.0049737697912907207 0 0.003198854184427548 0.0048450742455344821 0 0.0032246572513941188 0.0050994609700096344 0 0.0032257629177916869 0.0049737697912907207 0 0.0031077048518595883 0.0049910097281612859 0 0.0033650054724923095 0.0049605856564221918 0 0.0032246572513941188 0.0050994609700096344 0 0.0032257629177916869 0.0049737697912907207 0 0.0032257629177916869 0.0049737697912907207 0 0.0031077048518595883 0.0049910097281612859 0 0.003198854184427548 0.0048450742455344821 0 0.0032246572513941188 0.0050994609700096344 0 0.0031077048518595883 0.0049910097281612859 0 0.0030542146288927347 0.0051264090221451678 0 0.0031077048518595883 0.0049910097281612859 0 0.0029567797714480414 0.0050040782201959573 0 0.0030164291751895653 0.0048566868229272453 0 0.0031077048518595883 0.0049910097281612859 0 0.0030542146288927347 0.0051264090221451678 0 0.0029567797714480414 0.0050040782201959573 0 0.0032246572513941188 0.0050994609700096344 0 0.0031355372250418136 0.0052191432463617538 0 0.0030542146288927347 0.0051264090221451678 0 0.0029956976147196288 0.0052491360206219665 0 0.0031355372250418136 0.0052191432463617538 0 0.0030542146288927347 0.0051264090221451678 0 0.0030542146288927347 0.0051264090221451678 0 0.0028616269734844327 0.0051299267680114105 0 0.0029567797714480414 0.0050040782201959573 0 0.0029956976147196288 0.0052491360206219665 0 0.0030542146288927347 0.0051264090221451678 0 0.0028616269734844327 0.0051299267680114105 0 0.0028100893939720546 0.0052986581266144719 0 0.0029956976147196288 0.0052491360206219665 0 0.0028616269734844327 0.0051299267680114105 0 0.0028616269734844327 0.0051299267680114105 0 0.0029567797714480414 0.0050040782201959573 0 0.00272485587254268 0.0049121481145560772 0 0.0029567797714480414 0.0050040782201959573 0 0.0030164291751895653 0.0048566868229272453 0 0.00272485587254268 0.0049121481145560772 0 0.0029819584978642536 0.0047426736030423281 0 0.0030164291751895653 0.0048566868229272453 0 0.00272485587254268 0.0049121481145560772 0 0.0029819584978642536 0.0047426736030423281 0 0.0028424372324038594 0.0047086825389349172 0 0.003045977776712143 0.0046240268492401095 0 0.0029819584978642536 0.0047426736030423281 0 0.0030164291751895653 0.0048566868229272453 0 0.0032319753059569518 0.0046586291052023729 0 0.0029819584978642536 0.0047426736030423281 0 0.0032319753059569518 0.0046586291052023729 0 0.003045977776712143 0.0046240268492401095 0 0.003030801105737408 0.0048462939297826786 0 0.003223603787219257 0.0046294074262125326 0 0.0031077048518595883 0.0049910097281612859 0 0.0030164291751895653 0.0048566868229272453 0 0.003198854184427548 0.0048450742455344821 0 0.0030164291751895653 0.0048566868229272453 0 0.003198854184427548 0.0048450742455344821 0 0.0032186455899095405 0.0045953865623455572 0 0.0034239913093908488 0.0049634767486993791 0 0.003198854184427548 0.0048450742455344821 0 0.0034230657975859342 0.0047304113692936646 0 0.0034065364680962778 0.0049857356430966625 0 0.0032034691840818925 0.0048457065486360775 0 0.003198854184427548 0.0048450742455344821 0 0.0032186455899095405 0.0045953865623455572 0 0.0034230657975859342 0.0047304113692936646 0 0.0034230657975859342 0.0047304113692936646 0 0.0036337558362922544 0.0046121940259176699 0 0.0034741012802209583 0.0045370342004654772 0 0.0032186455899095405 0.0045953865623455572 0 0.0034230657975859342 0.0047304113692936646 0 0.0034741012802209583 0.0045370342004654772 0 0.0034239913093908488 0.0049634767486993791 0 0.0034230657975859342 0.0047304113692936646 0 0.0036336357668310991 0.0048457606866871821 0 0.0019431799167733974 0.0046039527211857965 0 0.0020124442886339205 0.0046570456916890917 0 0.002149177325897512 0.0049404236365330166 0 0.0023630080339260492 0.0051801763632953208 0 0.0024434063721725709 0.0049542999386116464 0 0.0017325924197712146 0.0042621219326840131 0 0.0017682360071282163 0.0041820728882596588 0 0.0018164127267231071 0.0042578224289418808 0 0.0017325924197712146 0.0042621219326840131 0 0.0017682360071282163 0.0041820728882596588 0 0.0016763792468811602 0.0041678558146875039 0 0.0017352218933488948 0.0041238823563743221 0 0.0017682360071282163 0.0041820728882596588 0 0.0016763792468811602 0.0041678558146875039 0 0.0017352218933488948 0.0041238823563743221 0 0.0017682360071282163 0.0041820728882596588 0 0.001792360988160801 0.0041083159454886331 0 0.0023630080339260492 0.0051801763632953208 0 0.0026341713379971778 0.0051522947858488122 0 0.0024434063721725709 0.0049542999386116464 0 0.0025610514281656175 0.0053925525196122231 0 0.0023630080339260492 0.0051801763632953208 0 0.0026341713379971778 0.0051522947858488122 0 0.0028100893939720546 0.0052986581266144719 0 0.0028616269734844327 0.0051299267680114105 0 0.0026341713379971778 0.0051522947858488122 0 0.0028616269734844327 0.0051299267680114105 0 0.0026341713379971778 0.0051522947858488122 0 0.00272485587254268 0.0049121481145560772 0 0.0026341713379971778 0.0051522947858488122 0 0.00272485587254268 0.0049121481145560772 0 0.0024434063721725709 0.0049542999386116464 0 0.0024434063721725709 0.0049542999386116464 0 0.0025217985172830424 0.0047431243536133786 0 0.0022685777739274125 0.0047721129632714984 0 0.00272485587254268 0.0049121481145560772 0 0.0024434063721725709 0.0049542999386116464 0 0.0025217985172830424 0.0047431243536133786 0 0.00272485587254268 0.0049121481145560772 0 0.0025217985172830424 0.0047431243536133786 0 0.0027469928479214797 0.0046186771374007408 0 0.0029819584978642536 0.0047426736030423281 0 0.00272485587254268 0.0049121481145560772 0 0.0028424372324038594 0.0047086825389349172 0 0.0027303143792910527 0.0049018387188148656 0 0.0027936423458596112 0.0046735269995374171 0 0.0025217985172830424 0.0047431243536133786 0 0.0027469928479214797 0.0046186771374007408 0 0.0025456876068528232 0.004571395814367901 0 0.0027469928479214797 0.0046186771374007408 0 0.0025456876068528232 0.004571395814367901 0 0.0026315356933616181 0.0044535170856861237 0 0.0025217985172830424 0.0047431243536133786 0 0.0025456876068528232 0.004571395814367901 0 0.0023743097102739419 0.0045954589883056736 0 0.0025456876068528232 0.004571395814367901 0 0.0023743097102739419 0.0045954589883056736 0 0.0024494549866631815 0.0044457331038705063 0 0.0025217985172830424 0.0047431243536133786 0 0.0023743097102739419 0.0045954589883056736 0 0.0022685777739274125 0.0047721129632714984 0 0.0023743097102739419 0.0045954589883056736 0 0.0021839065192505044 0.0045870876700609201 0 0.002275111130386549 0.004466548799807811 0 0.0023743097102739419 0.0045954589883056736 0 0.0022685777739274125 0.0047721129632714984 0 0.0021839065192505044 0.0045870876700609201 0 0.002149177325897512 0.0049404236365330166 0 0.0024434063721725709 0.0049542999386116464 0 0.0022685777739274125 0.0047721129632714984 0 0.0019431799167733974 0.0046039527211857965 0 0.0018737225643600073 0.0045126310281887877 0 0.002149177325897512 0.0049404236365330166 0 0.0022685777739274125 0.0047721129632714984 0 0.00194952661557604 0.0046751829717622886 0 0.0021839065192505044 0.0045870876700609201 0 0.00194952661557604 0.0046751829717622886 0 0.0019826375617606924 0.0044751274811156054 0 0.0022685777739274125 0.0047721129632714984 0 0.0021839065192505044 0.0045870876700609201 0 0.00194952661557604 0.0046751829717622886 0 0.00194952661557604 0.0046751829717622886 0 0.0018327326051189546 0.0044010812742260701 0 0.0019826375617606924 0.0044751274811156054 0 0.0018737225643600073 0.0045126310281887877 0 0.0018324952090007639 0.0044147100317855617 0 0.0017905309582084772 0.0043570576517740142 0 0.0018515966893155535 0.0044137900968779812 0 0.001852881533751461 0.0043260966911668319 0 0.0017905309582084772 0.0043570576517740142 0 0.0018515966893155535 0.0044137900968779812 0 0.0018327326051189546 0.0044010812742260701 0 0.0017325924197712146 0.0042621219326840131 0 0.0017905309582084772 0.0043570576517740142 0 0.0018164127267231071 0.0042578224289418808 0 0.0017905309582084772 0.0043570576517740142 0 0.001852881533751461 0.0043260966911668319 0 0.0018164127267231071 0.0042578224289418808 0 0.001852881533751461 0.0043260966911668319 0 0.0018164127267231071 0.0042578224289418808 0 0.0019014150644104083 0.0042297506297311986 0 0.0018164127267231071 0.0042578224289418808 0 0.0018528415678453517 0.0041651175878824765 0 0.0019014150644104083 0.0042297506297311986 0 0.0018528415678453517 0.0041651175878824765 0 0.0019333999435711879 0.0041471300078597603 0 0.0019014150644104083 0.0042297506297311986 0 0.0018528415678453517 0.0041651175878824765 0 0.0019333999435711879 0.0041471300078597603 0 0.0018928443973569855 0.0041072293132450701 0 0.0017682360071282163 0.0041820728882596588 0 0.0018528415678453517 0.0041651175878824765 0 0.001792360988160801 0.0041083159454886331 0 0.0017682360071282163 0.0041820728882596588 0 0.0018164127267231071 0.0042578224289418808 0 0.0018528415678453517 0.0041651175878824765 0 0.0020094346230731712 0.0041819613103128142 0 0.0019333999435711879 0.0041471300078597603 0 0.0019867185085185894 0.0040958186461994206 0 0.0020094346230731712 0.0041819613103128142 0 0.0019333999435711879 0.0041471300078597603 0 0.0019014150644104083 0.0042297506297311986 0 0.0020094346230731712 0.0041819613103128142 0 0.0019014150644104083 0.0042297506297311986 0 0.0019468449360749863 0.0042996581604937698 0 0.0016562244629569267 0.0043425053405754394 0 0.0016279358737127515 0.0044584061140141252 0 0.0012079996865240689 0.0045493762262368374 0 0.0013191223412980736 0.0046174764906089715 0 0.0012554208957427978 0.0045882581663653759 0 0.0013191223412980736 0.0046174764906089715 0 0.0013379569696559557 0.0045718843460170831 0 0.001275761453603942 0.0045894220844204803 0 0.0013191223412980736 0.0046174764906089715 0 0.001275761453603942 0.0045894220844204803 0 0.0012554208957427978 0.0045882581663653759 0 0.0016848625734649982 0.0044841017833175678 0 0.0016279358737127515 0.0044584061140141252 0 0.0018515966893155535 0.0044137900968779812 0 0.001852881533751461 0.0043260966911668319 0 0.0019468449360749863 0.0042996581604937698 0 0.001852881533751461 0.0043260966911668319 0 0.0019014150644104083 0.0042297506297311986 0 0.0019468449360749863 0.0042996581604937698 0 0.0014995553680795758 0.0045896493475716523 0 0.0013191223412980736 0.0046174764906089715 0 0.0013379569696559557 0.0045718843460170831 0 0.0014995553680795758 0.0045896493475716523 0 0.0013379569696559557 0.0045718843460170831 0 0.0013954229920882526 0.0045114024220740427 0 0.0013379569696559557 0.0045718843460170831 0 0.0012836141903364629 0.004558012235418853 0 0.001275761453603942 0.0045894220844204803 0 0.0012836141903364629 0.004558012235418853 0 0.0012515367995762116 0.0045737852862549732 0 0.001275761453603942 0.0045894220844204803 0 0.0012836141903364629 0.004558012235418853 0 0.0012515367995762116 0.0045737852862549732 0 0.0012599734932248045 0.0045371615050350074 0 0.0012244026867342585 0.0045517855322620322 0 0.0012515367995762116 0.0045737852862549732 0 0.0012599734932248045 0.0045371615050350074 0 0.0012244026867342585 0.0045517855322620322 0 0.0012515367995762116 0.0045737852862549732 0 0.0012085141767509122 0.0045843858653601549 0 0.0012283790081002199 0.0046183418932882218 0 0.0011953358689234328 0.0046807667628736152 0 0.0011160819729546898 0.0046521890905807037 0 0.0011943098970927286 0.0047808156686491195 0 0.0012146202658974315 0.0046956315632247069 0 0.0012547904293670829 0.0045735199785898913 0 0.0012283790081002199 0.0046183418932882218 0 0.0012515367995762116 0.0045737852862549732 0 0.0012402514840370263 0.004636971712720722 0 0.0012085141767509122 0.0045843858653601549 0 0.0012564524946413194 0.0045891429347162914 0 0.001275761453603942 0.0045894220844204803 0 0.0012554208957427978 0.0045882581663653759 0 0.0012515367995762116 0.0045737852862549732 0 0.0012564524946413194 0.0045891429347162914 0 0.001275761453603942 0.0045894220844204803 0 0.00034348241972034115 0.0056662607718579866 0 0.00028849082603843272 0.0061763671178196372 0 3.9887711249386352e-05 0.0057303824949435384 0 0.0013540072121494982 0.004864433268543706 0 0.0013163976795561002 0.0047924193622943308 0 0.0013438053806659157 0.0047367132564945383 0 0.00083264113524890101 0.0053359616305698751 0 0.00097100922869255805 0.0053192521639226749 0 0.0013540072121494982 0.004864433268543706 0 0.0013438053806659157 0.0047367132564945383 0 0.0013834711177556393 0.0047008079446290508 0 0.0013540072121494982 0.004864433268543706 0 0.001287454125037592 0.0048245996370817482 0 0.0012672119036338558 0.0049003130008542003 0 0.0013540072121494982 0.004864433268543706 0 0.0013163976795561002 0.0047924193622943308 0 0.001287454125037592 0.0048245996370817482 0 0.0013163976795561002 0.0047924193622943308 0 0.0012790799607898275 0.0047429963846466177 0 0.0013438053806659157 0.0047367132564945383 0 0.0011953358689234328 0.0046807667628736152 0 0.0012489619718313921 0.0047273766314373938 0 0.001287454125037592 0.0048245996370817482 0 0.0011943098970927286 0.0047808156686491195 0 0.0012672119036338558 0.0049003130008542003 0 0.0012244026867342585 0.0045517855322620322 0 0.0012085141767509122 0.0045843858653601549 0 0.0011769814052010727 0.0045403649555024444 0 0.0013163976795561002 0.0047924193622943308 0 0.001287454125037592 0.0048245996370817482 0 0.0012790799607898275 0.0047429963846466177 0 0.001287454125037592 0.0048245996370817482 0 0.0011943098970927286 0.0047808156686491195 0 0.0012790799607898275 0.0047429963846466177 0 0.0011160819729546898 0.0046521890905807037 0 0.0012146202658974315 0.0046956315632247069 0 0.0012529450055242316 0.0046236425250691529 0 0.0011943098970927286 0.0047808156686491195 0 0.0012146202658974315 0.0046956315632247069 0 0.0012790799607898275 0.0047429963846466177 0 0.0012146202658974315 0.0046956315632247069 0 0.0012712541704623041 0.0046784845699735979 0 0.0012529450055242316 0.0046236425250691529 0 0.0012712541704623041 0.0046784845699735979 0 0.001316766938885827 0.0046536413982836812 0 0.0012529450055242316 0.0046236425250691529 0 0.0012712541704623041 0.0046784845699735979 0 0.0012790799607898275 0.0047429963846466177 0 0.0013178218101764865 0.0047047882342492187 0 0.0012146202658974315 0.0046956315632247069 0 0.0012712541704623041 0.0046784845699735979 0 0.0012790799607898275 0.0047429963846466177 0 0.0012790799607898275 0.0047429963846466177 0 0.0013438053806659157 0.0047367132564945383 0 0.0013178218101764865 0.0047047882342492187 0 0.0013438053806659157 0.0047367132564945383 0 0.0013455687313765304 0.0047113780695860093 0 0.0013178218101764865 0.0047047882342492187 0 0.0013438053806659157 0.0047367132564945383 0 0.0013455687313765304 0.0047113780695860093 0 0.001369096411094538 0.004703946255472059 0 0.0013455687313765304 0.0047113780695860093 0 0.0013178218101764865 0.0047047882342492187 0 0.0013432233581110937 0.0046930097146800223 0 0.0013455687313765304 0.0047113780695860093 0 0.0013432233581110937 0.0046930097146800223 0 0.001369096411094538 0.004703946255472059 0 0.0013178218101764865 0.0047047882342492187 0 0.001316766938885827 0.0046536413982836812 0 0.0013432233581110937 0.0046930097146800223 0 0.0012712541704623041 0.0046784845699735979 0 0.0013178218101764865 0.0047047882342492187 0 0.001316766938885827 0.0046536413982836812 0 0.001316766938885827 0.0046536413982836812 0 0.0013614547935806812 0.0046701939613258952 0 0.0013595215311208875 0.0046262389414119358 0 0.001316766938885827 0.0046536413982836812 0 0.0013432233581110937 0.0046930097146800223 0 0.0013614547935806812 0.0046701939613258952 0 0.0013614547935806812 0.0046701939613258952 0 0.0013856723539673193 0.0046995264836834161 0 0.001369096411094538 0.004703946255472059 0 0.0013432233581110937 0.0046930097146800223 0 0.0013614547935806812 0.0046701939613258952 0 0.001369096411094538 0.004703946255472059 0 0.0013614547935806812 0.0046701939613258952 0 0.0013918485740161549 0.0046554356328755171 0 0.0013856723539673193 0.0046995264836834161 0 0.0013614547935806812 0.0046701939613258952 0 0.0013918485740161549 0.0046554356328755171 0 0.0013595215311208875 0.0046262389414119358 0 0.0011085926581652261 0.0048708522957061854 0 0.00097100922869255805 0.0053192521639226749 0 0.00097100922869255805 0.0053192521639226749 0 0.0010517174701883735 0.0052748667441395404 0 0.0013438053806659157 0.0047367132564945383 0 0.0013834711177556393 0.0047008079446290508 0 0.001369096411094538 0.004703946255472059 0 0.0013688037105704142 0.0045701007652931063 0 0.0014116600706323935 0.0045501051315464747 0 0.0013929766264905296 0.0045064814981492802 0 0.0013688037105704142 0.0045701007652931063 0 0.0014116600706323935 0.0045501051315464747 0 0.0013931577887712201 0.0045986841361667728 0 0.0014116600706323935 0.0045501051315464747 0 0.0013931577887712201 0.0045986841361667728 0 0.0014336851541997798 0.0045916100900522195 0 0.0013918485740161549 0.0046554356328755171 0 0.0013931577887712201 0.0045986841361667728 0 0.0014336851541997798 0.0045916100900522195 0 0.0013918485740161549 0.0046554356328755171 0 0.0013931577887712201 0.0045986841361667728 0 0.0013595215311208875 0.0046262389414119358 0 0.0013688037105704142 0.0045701007652931063 0 0.0013931577887712201 0.0045986841361667728 0 0.0013595215311208875 0.0046262389414119358 0 0.001316766938885827 0.0046536413982836812 0 0.0013595215311208875 0.0046262389414119358 0 0.0013117540937882045 0.0045889844923126333 0 0.0013688037105704142 0.0045701007652931063 0 0.0013595215311208875 0.0046262389414119358 0 0.0013117540937882045 0.0045889844923126333 0 0.0013688037105704142 0.0045701007652931063 0 0.0013273534523397419 0.0045364365440759497 0 0.0013929766264905296 0.0045064814981492802 0 0.0013688037105704142 0.0045701007652931063 0 0.0013117540937882045 0.0045889844923126333 0 0.0013273534523397419 0.0045364365440759497 0 0.0011160819729546898 0.0046521890905807037 0 0.0012529450055242316 0.0046236425250691529 0 0.0012457475981403588 0.0045212821956987287 0 0.0013117540937882045 0.0045889844923126333 0 0.0013273534523397419 0.0045364365440759497 0 0.0012457475981403588 0.0045212821956987287 0 0.0013117540937882045 0.0045889844923126333 0 0.0012529450055242316 0.0046236425250691529 0 0.0012457475981403588 0.0045212821956987287 0 0.001316766938885827 0.0046536413982836812 0 0.0013117540937882045 0.0045889844923126333 0 0.0012529450055242316 0.0046236425250691529 0 0.0012457475981403588 0.0045212821956987287 0 0.0013071985494917992 0.0044317095533226393 0 0.00125287877618661 0.0043937187806261224 0 0.0012457475981403588 0.0045212821956987287 0 0.0011502231409240367 0.0044710236594957048 0 0.00125287877618661 0.0043937187806261224 0 0.0013273534523397419 0.0045364365440759497 0 0.0012457475981403588 0.0045212821956987287 0 0.0013350534070186481 0.0044818364379371721 0 0.0012457475981403588 0.0045212821956987287 0 0.0013071985494917992 0.0044317095533226393 0 0.0013350534070186481 0.0044818364379371721 0 0.0013273534523397419 0.0045364365440759497 0 0.0013350534070186481 0.0044818364379371721 0 0.0013929766264905296 0.0045064814981492802 0 0.0013350534070186481 0.0044818364379371721 0 0.0013664881078684404 0.0044153519626962366 0 0.0013792811268745337 0.0044633473280411258 0 0.0013071985494917992 0.0044317095533226393 0 0.0013350534070186481 0.0044818364379371721 0 0.0013664881078684404 0.0044153519626962366 0 0.0013664881078684404 0.0044153519626962366 0 0.0014222410152334775 0.0044493883372066848 0 0.0014412311389019148 0.0043976947732221189 0 0.0013664881078684404 0.0044153519626962366 0 0.0014222410152334775 0.0044493883372066848 0 0.0013792811268745337 0.0044633473280411258 0 0.0014222410152334775 0.0044493883372066848 0 0.0013792811268745337 0.0044633473280411258 0 0.0013929766264905296 0.0045064814981492802 0 0.0013350534070186481 0.0044818364379371721 0 0.0013792811268745337 0.0044633473280411258 0 0.0013929766264905296 0.0045064814981492802 0 0.0012079996865240689 0.0045493762262368374 0 0.0012554208957427978 0.0045882581663653759 0 0.0012495440999058906 0.004566530400724955 0 0.0012564524946413194 0.0045891429347162914 0 0.0012554208957427978 0.0045882581663653759 0 0.0012495440999058906 0.004566530400724955 0 0.0012283790081002199 0.0046183418932882218 0 0.0012516596480794426 0.0045731989280455975 0 0.0012799734679531359 0.0046178983113703831 0 0.0012495440999058906 0.004566530400724955 0 0.0012922893220129142 0.0045292174593380315 0 0.0012283790081002199 0.0046183418932882218 0 0.0012172523495617624 0.004504359751430459 0 0.0011160819729546898 0.0046521890905807037 0 0.0012457475981403588 0.0045212821956987287 0 0.0011502231409240367 0.0044710236594957048 0 0.0012922893220129142 0.0045292174593380315 0 0.0012296206350999538 0.0045062817626697052 0 0.001240408691915978 0.0044259885640516756 0 0.0012495440999058906 0.004566530400724955 0 0.0012922893220129142 0.0045292174593380315 0 0.0012296206350999538 0.0045062817626697052 0 0.0012079996865240689 0.0045493762262368374 0 0.0012495440999058906 0.004566530400724955 0 0.0012296206350999538 0.0045062817626697052 0 0.0012079996865240689 0.0045493762262368374 0 0.0012296206350999538 0.0045062817626697052 0 0.0012029482251067474 0.0044722742506255785 0 0.0012079996865240689 0.0045493762262368374 0 0.0011640450897395303 0.0044014451498304141 0 0.0012029482251067474 0.0044722742506255785 0 0.0011640450897395303 0.0044014451498304141 0 0.001240408691915978 0.0044259885640516756 0 0.0011350381140198531 0.0042358306608723528 0 0.0012079996865240689 0.0045493762262368374 0 0.0011640450897395303 0.0044014451498304141 0 0.0011513359654907703 0.0043841938580401456 0 0.0020614945324080717 0.0040713518192863471 0 0.0020386906199407751 0.0040682351286438325 0 0.0020258006431071777 0.0040941949901692207 0 0.0013068636076582791 0.0042802799889110734 0 0.0013201960409866969 0.0042499250125881093 0 0.0012296206350999538 0.0045062817626697052 0 0.0012029482251067474 0.0044722742506255785 0 0.001240408691915978 0.0044259885640516756 0 0.0011640450897395303 0.0044014451498304141 0 0.0012029482251067474 0.0044722742506255785 0 0.001240408691915978 0.0044259885640516756 0 0.0012172523495617624 0.004504359751430459 0 0.0012434516696080285 0.0043202086716328768 0 0.0012922893220129142 0.0045292174593380315 0 0.001240408691915978 0.0044259885640516756 0 0.001294701814479516 0.0043624058718293541 0 0.001240408691915978 0.0044259885640516756 0 0.001294701814479516 0.0043624058718293541 0 0.0011350381140198531 0.0042358306608723528 0 0.001294701814479516 0.0043624058718293541 0 0.0012050851311557361 0.0041988160021103295 0 0.0011350381140198531 0.0042358306608723528 0 0.001294701814479516 0.0043624058718293541 0 0.0012050851311557361 0.0041988160021103295 0 0.0012600590562322714 0.0041089966851447137 0 0.0011640450897395303 0.0044014451498304141 0 0.0011397923548975336 0.0043708848505867219 0 0.0011350381140198531 0.0042358306608723528 0 0.00096791460380481588 0.0043921061051994019 0 0.0010453543139412361 0.004240388125164936 0 0.00086653286979924147 0.0041979228897080301 0 0.0013201960409866969 0.0042499250125881093 0 0.0015944128137621015 0.0040858478254695166 0 0.0020614945324080717 0.0040713518192863471 0 0.002024615065120207 0.0039938407854822307 0 0.0020314728444525919 0.0040439055154834966 0 0.0020614945324080717 0.0040713518192863471 0 0.0020386906199407751 0.0040682351286438325 0 0.0020314728444525919 0.0040439055154834966 0 0.0013201960409866969 0.0042499250125881093 0 0.0010837984866624675 0.0042651304469324552 0 0.0013976597598665355 0.0043026343924259108 0 0.0014120319550600916 0.0043510768455902061 0 0.0013486401296603499 0.0043466495900576904 0 0.0013976597598665355 0.0043026343924259108 0 0.0014265990628603406 0.0042469441810325456 0 0.001449318752785261 0.0043036929641836049 0 0.0013976597598665355 0.0043026343924259108 0 0.0014120319550600916 0.0043510768455902061 0 0.001449318752785261 0.0043036929641836049 0 0.0013664881078684404 0.0044153519626962366 0 0.0014120319550600916 0.0043510768455902061 0 0.0013486401296603499 0.0043466495900576904 0 0.0013664881078684404 0.0044153519626962366 0 0.0014120319550600916 0.0043510768455902061 0 0.0014412311389019148 0.0043976947732221189 0 0.0013071985494917992 0.0044317095533226393 0 0.0013664881078684404 0.0044153519626962366 0 0.0013486401296603499 0.0043466495900576904 0 0.0013976597598665355 0.0043026343924259108 0 0.0013486401296603499 0.0043466495900576904 0 0.0013535491698187707 0.0042641585951173674 0 0.0013486401296603499 0.0043466495900576904 0 0.0012873968389534264 0.0043006980342884648 0 0.0013535491698187707 0.0042641585951173674 0 0.0011502231409240367 0.0044710236594957048 0 0.0011951547815760616 0.004280264616753628 0 0.00125287877618661 0.0043937187806261224 0 0.0013071985494917992 0.0044317095533226393 0 0.0013486401296603499 0.0043466495900576904 0 0.00125287877618661 0.0043937187806261224 0 0.0013486401296603499 0.0043466495900576904 0 0.0012873968389534264 0.0043006980342884648 0 0.00125287877618661 0.0043937187806261224 0 0.0011951547815760616 0.004280264616753628 0 0.0012873968389534264 0.0043006980342884648 0 0.00125287877618661 0.0043937187806261224 0 0.0012434516696080285 0.0043202086716328768 0 0.0012611950183032297 0.0041309518079073876 0 0.0011951547815760616 0.004280264616753628 0 0.0013074552512134521 0.0041982142662731524 0 0.0012600590562322714 0.0041089966851447137 0 0.0011951547815760616 0.004280264616753628 0 0.0012873968389534264 0.0043006980342884648 0 0.0013074552512134521 0.0041982142662731524 0 0.0012873968389534264 0.0043006980342884648 0 0.0013074552512134521 0.0041982142662731524 0 0.0013535491698187707 0.0042641585951173674 0 0.0013074552512134521 0.0041982142662731524 0 0.0013535491698187707 0.0042641585951173674 0 0.0014224329321621725 0.0041408327214879298 0 0.0014265990628603406 0.0042469441810325456 0 0.0014224329321621725 0.0041408327214879298 0 0.0014761102573833333 0.0041818698271155683 0 0.0013535491698187707 0.0042641585951173674 0 0.0014265990628603406 0.0042469441810325456 0 0.0014224329321621725 0.0041408327214879298 0 0.0013976597598665355 0.0043026343924259108 0 0.0013535491698187707 0.0042641585951173674 0 0.0014265990628603406 0.0042469441810325456 0 0.0014276528768360401 0.0040462792365870736 0 0.0014224329321621725 0.0041408327214879298 0 0.0015091794226172745 0.0040732810221570086 0 0.0014276528768360401 0.0040462792365870736 0 0.0014224329321621725 0.0041408327214879298 0 0.0013476673871089583 0.0040863816560963882 0 0.0013074552512134521 0.0041982142662731524 0 0.0014224329321621725 0.0041408327214879298 0 0.0013476673871089583 0.0040863816560963882 0 0.0014276528768360401 0.0040462792365870736 0 0.0013476673871089583 0.0040863816560963882 0 0.0013827939680461751 0.0039874588840153038 0 0.0013476673871089583 0.0040863816560963882 0 0.0012984872734318972 0.0039828540276090514 0 0.0013827939680461751 0.0039874588840153038 0 0.0013476673871089583 0.0040863816560963882 0 0.0012600590562322714 0.0041089966851447137 0 0.0012984872734318972 0.0039828540276090514 0 0.0013074552512134521 0.0041982142662731524 0 0.0013476673871089583 0.0040863816560963882 0 0.0012600590562322714 0.0041089966851447137 0 0.0012600590562322714 0.0041089966851447137 0 0.0012984872734318972 0.0039828540276090514 0 0.0012046596323142806 0.0039916643803714121 0 0.0012339409594951311 0.0038527162864187905 0 0.0012984872734318972 0.0039828540276090514 0 0.0012046596323142806 0.0039916643803714121 0 0.0013495680449396807 0.0038478505447147597 0 0.0012984872734318972 0.0039828540276090514 0 0.0013827939680461751 0.0039874588840153038 0 0.0012339409594951311 0.0038527162864187905 0 0.0013495680449396807 0.0038478505447147597 0 0.0012984872734318972 0.0039828540276090514 0 0.0013495680449396807 0.0038478505447147597 0 0.0013827939680461751 0.0039874588840153038 0 0.0014759904378247406 0.0039407261313260528 0 0.0014276528768360401 0.0040462792365870736 0 0.0013827939680461751 0.0039874588840153038 0 0.0014759904378247406 0.0039407261313260528 0 0.0010453543139412361 0.004240388125164936 0 0.00098453486846417256 0.0040745867190486581 0 0.00086653286979924147 0.0041979228897080301 0 0.00098453486846417256 0.0040745867190486581 0 0.00084112111984152148 0.0039571617327000819 0 0.00086653286979924147 0.0041979228897080301 0 0.0010453543139412361 0.004240388125164936 0 0.00098453486846417256 0.0040745867190486581 0 0.0011319903436727936 0.0040835188559988694 0 0.0010837984866624675 0.0042651304469324552 0 0.0011419388570867188 0.0040941917469675699 0 0.0012050851311557361 0.0041988160021103295 0 0.0011350381140198531 0.0042358306608723528 0 0.0011319903436727936 0.0040835188559988694 0 0.0012050851311557361 0.0041988160021103295 0 0.0012600590562322714 0.0041089966851447137 0 0.0011319903436727936 0.0040835188559988694 0 0.0012600590562322714 0.0041089966851447137 0 0.0011319903436727936 0.0040835188559988694 0 0.0012046596323142806 0.0039916643803714121 0 0.0012339409594951311 0.0038527162864187905 0 0.0012046596323142806 0.0039916643803714121 0 0.0010400446791630463 0.003899176675778473 0 0.0011319903436727936 0.0040835188559988694 0 0.0012046596323142806 0.0039916643803714121 0 0.0010400446791630463 0.003899176675778473 0 0.00098453486846417256 0.0040745867190486581 0 0.0011319903436727936 0.0040835188559988694 0 0.0010400446791630463 0.003899176675778473 0 0.0008115423393654542 0.0037214735391466192 0 0.0010400446791630463 0.003899176675778473 0 0.00084112111984152148 0.0039571617327000819 0 0.00098453486846417256 0.0040745867190486581 0 0.0010400446791630463 0.003899176675778473 0 0.00084112111984152148 0.0039571617327000819 0 0.0014665083795361968 0.0034826128264116908 0 0.0016366621397731693 0.0035947851582316995 0 0.0016259685284054596 0.003785844008499004 0 0.0016366621397731693 0.0035947851582316995 0 0.0016259685284054596 0.003785844008499004 0 0.0017492457061847506 0.0037438279013123979 0 0.0016259685284054596 0.003785844008499004 0 0.0017492457061847506 0.0037438279013123979 0 0.0017698321859688515 0.0040804330671530709 0 0.0012768858037280396 0.0038556371094368535 0 0.0015944128137621015 0.0040858478254695166 0 0.0019834793942076537 0.00391282309783698 0 0.001943251646464781 0.0039932006209490436 0 0.0019943806451893265 0.0039996930583421761 0 0.0019834793942076537 0.00391282309783698 0 0.002024615065120207 0.0039938407854822307 0 0.0019943806451893265 0.0039996930583421761 0 0.0018267103329432572 0.0038527133447598121 0 0.0015944128137621015 0.0040858478254695166 0 0.0019834793942076537 0.00391282309783698 0 0.001943251646464781 0.0039932006209490436 0 0.00193088200536019 0.0039386879514660576 0 0.001943251646464781 0.0039932006209490436 0 0.00193088200536019 0.0039386879514660576 0 0.0018874882649308456 0.0039504301354060254 0 0.0019428799374023172 0.0038391608571086691 0 0.0019834793942076537 0.00391282309783698 0 0.0019031103959406006 0.0038950607802677802 0 0.0019834793942076537 0.00391282309783698 0 0.00193088200536019 0.0039386879514660576 0 0.0019031103959406006 0.0038950607802677802 0 0.0017043953939004472 0.0036887210960900902 0 0.0018267103329432572 0.0038527133447598121 0 0.0019031103959406006 0.0038950607802677802 0 0.0018274585729039232 0.0039061776621221967 0 0.0018874882649308456 0.0039504301354060254 0 0.0018687718302038978 0.0038379731303168386 0 0.0019031103959406006 0.0038950607802677802 0 0.0018274585729039232 0.0039061776621221967 0 0.00193088200536019 0.0039386879514660576 0 0.0019031103959406006 0.0038950607802677802 0 0.0018874882649308456 0.0039504301354060254 0 0.0018108098009928253 0.0038492114869693151 0 0.001782116102268663 0.0038811105762816709 0 0.0018274585729039232 0.0039061776621221967 0 0.0018274585729039232 0.0039061776621221967 0 0.0018424276465423119 0.0039777186385458923 0 0.0017966173547240185 0.0039630083847451703 0 0.0017700461529497693 0.0039089895727292641 0 0.0018274585729039232 0.0039061776621221967 0 0.0017966173547240185 0.0039630083847451703 0 0.0018274585729039232 0.0039061776621221967 0 0.0018424276465423119 0.0039777186385458923 0 0.0018874882649308456 0.0039504301354060254 0 0.0018424276465423119 0.0039777186385458923 0 0.0018874882649308456 0.0039504301354060254 0 0.0018860243688503969 0.0040013378071878823 0 0.001943251646464781 0.0039932006209490436 0 0.0018874882649308456 0.0039504301354060254 0 0.0018860243688503969 0.0040013378071878823 0 0.0018860243688503969 0.0040013378071878823 0 0.0018549732388841325 0.00402739391372959 0 0.001904296920695867 0.0040495727078159764 0 0.0018424276465423119 0.0039777186385458923 0 0.0018860243688503969 0.0040013378071878823 0 0.0018549732388841325 0.00402739391372959 0 0.0018549732388841325 0.00402739391372959 0 0.001904296920695867 0.0040495727078159764 0 0.0018462781352485238 0.0040829163967599407 0 0.0018424276465423119 0.0039777186385458923 0 0.0017966173547240185 0.0039630083847451703 0 0.0018022331688943443 0.0040264929691753134 0 0.0018424276465423119 0.0039777186385458923 0 0.0018549732388841325 0.00402739391372959 0 0.0018022331688943443 0.0040264929691753134 0 0.0018549732388841325 0.00402739391372959 0 0.0018022331688943443 0.0040264929691753134 0 0.0018462781352485238 0.0040829163967599407 0 0.0018528415678453517 0.0041651175878824765 0 0.0018462781352485238 0.0040829163967599407 0 0.001792360988160801 0.0041083159454886331 0 0.0018022331688943443 0.0040264929691753134 0 0.0018462781352485238 0.0040829163967599407 0 0.001792360988160801 0.0041083159454886331 0 0.0018528415678453517 0.0041651175878824765 0 0.0018462781352485238 0.0040829163967599407 0 0.0018928443973569855 0.0041072293132450701 0 0.001904296920695867 0.0040495727078159764 0 0.0018462781352485238 0.0040829163967599407 0 0.0018928443973569855 0.0041072293132450701 0 0.0019333999435711879 0.0041471300078597603 0 0.0018928443973569855 0.0041072293132450701 0 0.0019389506417702592 0.0040882934746685317 0 0.001904296920695867 0.0040495727078159764 0 0.0018928443973569855 0.0041072293132450701 0 0.0019389506417702592 0.0040882934746685317 0 0.0019389506417702592 0.0040882934746685317 0 0.0019867185085185894 0.0040958186461994206 0 0.001968145776761005 0.0040453222111557696 0 0.0019333999435711879 0.0041471300078597603 0 0.0019389506417702592 0.0040882934746685317 0 0.0019867185085185894 0.0040958186461994206 0 0.0016562244629569267 0.0043425053405754394 0 0.0013201960409866969 0.0042499250125881093 0 0.0020094346230731712 0.0041819613103128142 0 0.0020614945324080717 0.0040713518192863471 0 0.0020258006431071777 0.0040941949901692207 0 0.0020094346230731712 0.0041819613103128142 0 0.0020258006431071777 0.0040941949901692207 0 0.0019867185085185894 0.0040958186461994206 0 0.0020258006431071777 0.0040941949901692207 0 0.0019867185085185894 0.0040958186461994206 0 0.0020243588478233965 0.0040610200862736777 0 0.0020386906199407751 0.0040682351286438325 0 0.0020258006431071777 0.0040941949901692207 0 0.0020243588478233965 0.0040610200862736777 0 0.0019867185085185894 0.0040958186461994206 0 0.0020014528259979436 0.0040544060012204326 0 0.0020243588478233965 0.0040610200862736777 0 0.0019867185085185894 0.0040958186461994206 0 0.0020014528259979436 0.0040544060012204326 0 0.001968145776761005 0.0040453222111557696 0 0.0020014528259979436 0.0040544060012204326 0 0.001997037094812637 0.0040337409141735329 0 0.001968145776761005 0.0040453222111557696 0 0.0020014528259979436 0.0040544060012204326 0 0.001997037094812637 0.0040337409141735329 0 0.0020138905400657321 0.0040433884394425763 0 0.0020243588478233965 0.0040610200862736777 0 0.0020138905400657321 0.0040433884394425763 0 0.0020314728444525919 0.0040439055154834966 0 0.0020386906199407751 0.0040682351286438325 0 0.0020243588478233965 0.0040610200862736777 0 0.0020314728444525919 0.0040439055154834966 0 0.0020014528259979436 0.0040544060012204326 0 0.0020243588478233965 0.0040610200862736777 0 0.0020138905400657321 0.0040433884394425763 0 0.0020138905400657321 0.0040433884394425763 0 0.0020314728444525919 0.0040439055154834966 0 0.0020151425514035341 0.0040239349742075122 0 0.001997037094812637 0.0040337409141735329 0 0.0020138905400657321 0.0040433884394425763 0 0.0020151425514035341 0.0040239349742075122 0 0.002024615065120207 0.0039938407854822307 0 0.0020314728444525919 0.0040439055154834966 0 0.0020151425514035341 0.0040239349742075122 0 0.002024615065120207 0.0039938407854822307 0 0.0020151425514035341 0.0040239349742075122 0 0.0019943806451893265 0.0039996930583421761 0 0.001997037094812637 0.0040337409141735329 0 0.0019943806451893265 0.0039996930583421761 0 0.001968145776761005 0.0040453222111557696 0 0.001997037094812637 0.0040337409141735329 0 0.0020151425514035341 0.0040239349742075122 0 0.0019943806451893265 0.0039996930583421761 0 0.001904296920695867 0.0040495727078159764 0 0.0019389506417702592 0.0040882934746685317 0 0.001968145776761005 0.0040453222111557696 0 0.001943251646464781 0.0039932006209490436 0 0.0019943806451893265 0.0039996930583421761 0 0.001968145776761005 0.0040453222111557696 0 0.001943251646464781 0.0039932006209490436 0 0.001904296920695867 0.0040495727078159764 0 0.001968145776761005 0.0040453222111557696 0 0.001943251646464781 0.0039932006209490436 0 0.0018860243688503969 0.0040013378071878823 0 0.001904296920695867 0.0040495727078159764 0 0.0052348904639805153 0.0010747335145708773 0 0.0051226365683434416 0.0011016483322378633 0 0.0051725052366761925 0.00093177006020984238 0 0.0052348904639805153 0.0010747335145708773 0 0.005315841636977744 0.00096931395862772253 0 0.0051725052366761925 0.00093177006020984238 0 0.0050000405811906207 0.0010403702056763153 0 0.0051680896898499496 0.0009190727850068198 0 0.0050000025546530101 0.0010404305713302357 0 0.0051226365683434416 0.0011016483322378633 0 0.0051725052366761925 0.00093177006020984238 0 0.0050000025546530101 0.0010404305713302357 0 0.0049999941053845533 0.0012268506489656991 0 0.0051226365683434416 0.0011016483322378633 0 0.0049999941053845533 0.0012268506489656991 0 0.0051226365683434416 0.0011016483322378633 0 0.0051979548847471396 0.0012446599224486639 0 0.0052348904639805153 0.0010747335145708773 0 0.0051226365683434416 0.0011016483322378633 0 0.0051979548847471396 0.0012446599224486639 0 0.0052348904639805153 0.0010747335145708773 0 0.0051979548847471396 0.0012446599224486639 0 0.0053806655680082825 0.0010966120674748387 0 0.0051964575488439007 0.0012485213821358955 0 0.0053710796192197093 0.0011053296505547942 0 0.0051909991771411715 0.001255141080302373 0 0.0054073212119427113 0.0012413339969804308 0 0.0053806655680082825 0.0010966120674748387 0 0.0054073212119427113 0.0012413339969804308 0 0.0054495602445097588 0.0010094657110069742 0 0.0053806655680082825 0.0010966120674748387 0 0.0054064995848198084 0.00122494358765536 0 0.0054567345707988071 0.0010391424090227495 0 0.0054073212119427113 0.0012413339969804308 0 0.005535609287862041 0.0012296888361516714 0 0.0055074333698416087 0.0011607399852184748 0 0.0054073212119427113 0.0012413339969804308 0 0.0055074333698416087 0.0011607399852184748 0 0.0054357230610481005 0.0010488269439199087 0 0.0055074333698416087 0.0011607399852184748 0 0.0055288934470630767 0.001087694102441221 0 0.00558660471646601 0.0011466008673757791 0 0.0055288934470630767 0.001087694102441221 0 0.0054357230610481005 0.0010488269439199087 0 0.0055819030231846331 0.0010085263224471933 0 0.0055074333698416087 0.0011607399852184748 0 0.0055288934470630767 0.001087694102441221 0 0.0054357230610481005 0.0010488269439199087 0 0.0052348904639805153 0.0010747335145708773 0 0.0053806655680082825 0.0010966120674748387 0 0.005315841636977744 0.00096931395862772253 0 0.0054495602445097588 0.0010094657110069742 0 0.0053806655680082825 0.0010966120674748387 0 0.005315841636977744 0.00096931395862772253 0 0.0053970096475799666 0.00089636597470621514 0 0.0054841215773998196 0.00079139521015460029 0 0.0053379683387697425 0.00081634215406836848 0 0.005315841636977744 0.00096931395862772253 0 0.0053970096475799666 0.00089636597470621514 0 0.0053379683387697425 0.00081634215406836848 0 0.0054495602445097588 0.0010094657110069742 0 0.005315841636977744 0.00096931395862772253 0 0.0053970096475799666 0.00089636597470621514 0 0.0054567345707988071 0.0010391424090227495 0 0.0053304142453699296 0.00077539858071689661 0 0.0048249430317957526 0.00072583025068307793 0 0.0048571989460693297 0.00072557623460224184 0 0.0048658295090299774 0.00079456310856145277 0 0.0053304142453699296 0.00077539858071689661 0 0.0052118819749423584 0.0008776460811557201 0 0.0054495602445097588 0.0010094657110069742 0 0.0053970096475799666 0.00089636597470621514 0 0.0054841215773998196 0.00079139521015460029 0 0.0054357230610481005 0.0010488269439199087 0 0.0054672996634205027 0.00085192664390916517 0 0.0055819030231846331 0.0010085263224471933 0 0.0054658062695450852 0.00076692439998651103 0 0.0054995615846345604 0.00070064731577349458 0 0.0053379683387697425 0.00081634215406836848 0 0.0054658062695450852 0.00076692439998651103 0 0.0054841215773998196 0.00079139521015460029 0 0.0053379683387697425 0.00081634215406836848 0 0.0048249430317957526 0.00072583025068307793 0 0.0048328062001516438 0.00069268759353460514 0 0.0048571989460693297 0.00072557623460224184 0 0.0054658062695450852 0.00076692439998651103 0 0.0054833715817619215 0.00079123041736548015 0 0.0054995615846345604 0.00070064731577349458 0 0.0053583923179870117 0.00079227491475630124 0 0.0053304142453699296 0.00077539858071689661 0 0.0053304142453699296 0.00077539858071689661 0 0.0053605964555183344 0.00067639691688639516 0 0.0055048275500533695 0.00063072243301200473 0 0.0053434679667076004 0.00076254801661124682 0 0.0052833156466720703 0.00051121019834151076 0 0.0053605964555183344 0.00067639691688639516 0 0.0053637974050199117 0.00078031131544974315 0 0.0053434679667076004 0.00076254801661124682 0 0.005170523979670251 0.00067001735702490028 0 0.0052833156466720703 0.00051121019834151076 0 0.0053637974050199117 0.00078031131544974315 0 0.0051680896898499496 0.0009190727850068198 0 0.005315841636977744 0.00096931395862772253 0 0.0053379683387697425 0.00081634215406836848 0 0.0051725052366761925 0.00093177006020984238 0 0.0053434679667076004 0.00076254801661124682 0 0.005170523979670251 0.00067001735702490028 0 0.0051757241806849805 0.00090079747199949499 0 0.0049999985757375317 0.0010403859215263711 0 0.0051757241806849805 0.00090079747199949499 0 0.0049999906066493819 0.00074492737245669357 0 0.005170523979670251 0.00067001735702490028 0 0.0051757241806849805 0.00090079747199949499 0 0.0049999906066493819 0.00074492737245669357 0 0.005170523979670251 0.00067001735702490028 0 0.0049999906066493819 0.00074492737245669357 0 0.0049999908640998847 0.00044946208939659703 0 0.005170523979670251 0.00067001735702490028 0 0.0052833156466720703 0.00051121019834151076 0 0.0049999908640998847 0.00044946208939659703 0 0.0052833156466720703 0.00051121019834151076 0 0.0049999908640998847 0.00044946208939659703 0 0.0051778843754428389 0.00030324117994724411 0 0.0052833156466720703 0.00051121019834151076 0 0.0051778843754428389 0.00030324117994724411 0 0.0053881205776261125 0.00039322730043390329 0 0.0049999908640998847 0.00044946208939659703 0 0.0051778843754428389 0.00030324117994724411 0 0.0050000061145864675 0.00015408677907627246 0 0.0051778843754428389 0.00030324117994724411 0 0.0051785337148525712 6.2870322526223989e-05 0 0.0050000061145864675 0.00015408677907627246 0 0.0051778843754428389 0.00030324117994724411 0 0.0051785337148525712 6.2870322526223989e-05 0 0.0053323843338701146 0.00024486206409139093 0 0.005182014523080136 4.3098902655080693e-05 0 0.0050000375801860794 0.00015399694014756843 0 0.0049999993375248464 -0.00013862123282637928 0 0.0051897356541057383 2.4431761363685497e-05 0 0.0049999987868065482 0.00015401295879982925 0 0.0055415788270918509 0.00015574372360503818 0 0.0053940271793627833 0.00011118997658050229 0 0.0054816364852884585 0.00026946896761953081 0 0.0055270443417873693 2.3856425751460118e-05 0 0.0055415788270918509 0.00015574372360503818 0 0.0053940271793627833 0.00011118997658050229 0 0.0051785337148525712 6.2870322526223989e-05 0 0.0053940271793627833 0.00011118997658050229 0 0.0053323843338701146 0.00024486206409139093 0 0.0053940271793627833 0.00011118997658050229 0 0.0053323843338701146 0.00024486206409139093 0 0.0054816364852884585 0.00026946896761953081 0 0.0053323843338701146 0.00024486206409139093 0 0.0054816364852884585 0.00026946896761953081 0 0.0053881205776261125 0.00039322730043390329 0 0.0051778843754428389 0.00030324117994724411 0 0.0053323843338701146 0.00024486206409139093 0 0.0053881205776261125 0.00039322730043390329 0 0.0054816364852884585 0.00026946896761953081 0 0.0055279825032537163 0.00040858167978651818 0 0.0053881205776261125 0.00039322730043390329 0 0.0055048275500533695 0.00063072243301200473 0 0.0052833156466720703 0.00051121019834151076 0 0.0053881205776261125 0.00039322730043390329 0 0.0053605964555183344 0.00067639691688639516 0 0.0055558653548861111 0.00039207125559077838 0 0.0055048275500533695 0.00063072243301200473 0 0.0055279825032537163 0.00040858167978651818 0 0.0053881205776261125 0.00039322730043390329 0 0.0053605964555183344 0.00067639691688639516 0 0.0052449987630611792 0.00058325213790179028 0 0.0054908522668406139 0.00059476312187880555 0 0.0055279825032537163 0.00040858167978651818 0 0.0056340537061297033 0.00049187817372339489 0 0.0048328062001516438 0.00069268759353460514 0 0.0048870667487323285 0.00065692214942612663 0 0.0048792485430993156 0.00069310222406122511 0 0.0048870667487323285 0.00065692214942612663 0 0.0049056934377030605 0.00066797725998283554 0 0.0048792485430993156 0.00069310222406122511 0 0.0049013095782726663 0.00066269453267500385 0 0.0049056934377030605 0.00066797725998283554 0 0.0049003988898361018 0.00066493640910880909 0 0.0049013095782726663 0.00066269453267500385 0 0.0049056934377030605 0.00066797725998283554 0 0.004901037245495587 0.00065921652082707451 0 0.0048870667487323285 0.00065692214942612663 0 0.0049056934377030605 0.00066797725998283554 0 0.0048990285126626404 0.00065523935310821417 0 0.0049056934377030605 0.00066797725998283554 0 0.0048990285126626404 0.00065523935310821417 0 0.004901037245495587 0.00065921652082707451 0 0.0048990285126626404 0.00065523935310821417 0 0.0049005675968545751 0.00065343077630059866 0 0.004901037245495587 0.00065921652082707451 0 0.0049005675968545751 0.00065343077630059866 0 0.004901037245495587 0.00065921652082707451 0 0.0049008771245967657 0.00065633983492333699 0 0.004901037245495587 0.00065921652082707451 0 0.0049010503150039219 0.00065949069432605584 0 0.0049008771245967657 0.00065633983492333699 0 0.0049013095782726663 0.00066269453267500385 0 0.004901037245495587 0.00065921652082707451 0 0.0049010503150039219 0.00065949069432605584 0 0.0056340537061297033 0.00049187817372339489 0 0.0057779343175145366 0.00038504766346290215 0 0.0056420333721070312 0.00028844756205836599 0 0.0048870667487323285 0.00065692214942612663 0 0.0048990285126626404 0.00065523935310821417 0 0.0049006053812947403 0.00064634930071587337 0 0.0052449987630611792 0.00058325213790179028 0 0.0052210694959060671 0.00044946116874507945 0 0.0048990285126626404 0.00065523935310821417 0 0.0049003594708340818 0.00065089871775002024 0 0.0049006053812947403 0.00064634930071587337 0 0.0049003594708340818 0.00065089871775002024 0 0.0049006053812947403 0.00064634930071587337 0 0.0049004957746469251 0.00064828967854568538 0 0.0048990285126626404 0.00065523935310821417 0 0.0049005675968545751 0.00065343077630059866 0 0.0049003594708340818 0.00065089871775002024 0 0.0049005675968545751 0.00065343077630059866 0 0.0049003594708340818 0.00065089871775002024 0 0.0049005518834672442 0.00065122972874493703 0 0.0055279825032537163 0.00040858167978651818 0 0.0056340537061297033 0.00049187817372339489 0 0.0056420333721070312 0.00028844756205836599 0 0.0054816364852884585 0.00026946896761953081 0 0.0055279825032537163 0.00040858167978651818 0 0.0056420333721070312 0.00028844756205836599 0 0.0055415788270918509 0.00015574372360503818 0 0.0054816364852884585 0.00026946896761953081 0 0.0056420333721070312 0.00028844756205836599 0 0.0056420333721070312 0.00028844756205836599 0 0.0056843540929330362 0.00010084690256857399 0 0.0058296915884654514 0.0001973030035185506 0 0.0057779343175145366 0.00038504766346290215 0 0.0056420333721070312 0.00028844756205836599 0 0.0058296915884654514 0.0001973030035185506 0 0.0055270443417873693 2.3856425751460118e-05 0 0.0055415788270918509 0.00015574372360503818 0 0.0056843540929330362 0.00010084690256857399 0 0.0055415788270918509 0.00015574372360503818 0 0.0056420333721070312 0.00028844756205836599 0 0.0056843540929330362 0.00010084690256857399 0 0.0049760926715901694 0.00076712051703430853 0 0.0049199427207369875 0.00066861916808074449 0 0.0048513309791699665 0.00072886648455277464 0 0.0049199427207369875 0.00066861916808074449 0 0.0048513309791699665 0.00072886648455277464 0 0.0048214533769489632 0.00066351716786910997 0 0.0049760926715901694 0.00076712051703430853 0 0.0049199427207369875 0.00066861916808074449 0 0.0050223728872317089 0.00062731069575664811 0 0.0058784573028462152 9.0600829862877902e-06 0 0.0056843540929330362 0.00010084690256857399 0 0.0058296915884654514 0.0001973030035185506 0 0.0051918551536826252 -0.00010512533068065748 0 0.0054555093937552436 0.0004907286980902699 0 0.0052210694959060671 0.00044946116874507945 0 0.0054555093937552436 0.0004907286980902699 0 0.0049199427207369875 0.00066861916808074449 0 0.0050223728872317089 0.00062731069575664811 0 0.0049407206227112402 0.00056398533241193037 0 0.0050703160993199065 0.00047203323582031695 0 0.0050223728872317089 0.00062731069575664811 0 0.0049407206227112402 0.00056398533241193037 0 0.0048968189697550842 0.00062803573490425517 0 0.0048608506131775763 0.00062252805523258187 0 0.0048214533769489632 0.00066351716786910997 0 0.0048703111867704199 0.0006266779959245907 0 0.004848727135841494 0.00064512085721720304 0 0.0048968189697550842 0.00062803573490425517 0 0.004898436532191899 0.0006273834967425243 0 0.0048608506131775763 0.00062252805523258187 0 0.0049199427207369875 0.00066861916808074449 0 0.0049407206227112402 0.00056398533241193037 0 0.0048214533769489632 0.00066351716786910997 0 0.0048968189697550842 0.00062803573490425517 0 0.004898436532191899 0.0006273834967425243 0 0.0048993439244440079 0.00063520837910478886 0 0.0048608506131775763 0.00062252805523258187 0 0.0048310691017343713 0.000612627384396254 0 0.0048200603852381453 0.00063227320511780602 0 0.0048816835791612124 0.00062052015393615164 0 0.0049005109278240366 0.00060808329613918938 0 0.004898436532191899 0.0006273834967425243 0 0.0048608506131775763 0.00062252805523258187 0 0.004812170196627487 0.00056543486584579108 0 0.004898436532191899 0.0006273834967425243 0 0.0049072335847010753 0.00064440776519868106 0 0.0049202350612575245 0.00064760893357852616 0 0.0049072335847010753 0.00064440776519868106 0 0.0049027231885826845 0.00064450716677792632 0 0.0048993439244440079 0.00063520837910478886 0 0.004898436532191899 0.0006273834967425243 0 0.0049072335847010753 0.00064440776519868106 0 0.0048993439244440079 0.00063520837910478886 0 0.0049072335847010753 0.00064440776519868106 0 0.0049058767491951382 0.00065065005235716874 0 0.004911700747397294 0.00065258391898661303 0 0.0049072335847010753 0.00064440776519868106 0 0.0049027231885826845 0.00064450716677792632 0 0.0049058767491951382 0.00065065005235716874 0 0.0049027231885826845 0.00064450716677792632 0 0.0049058767491951382 0.00065065005235716874 0 0.004902254412974736 0.00064931159513054236 0 0.0049072335847010753 0.00064440776519868106 0 0.004911700747397294 0.00065258391898661303 0 0.0049202350612575245 0.00064760893357852616 0 0.0052210694959060671 0.00044946116874507945 0 0.0048703111867704199 0.0006266779959245907 0 0.0049006053812947403 0.00064634930071587337 0 0.0048993439244440079 0.00063520837910478886 0 0.0049003483052970885 0.00064513769152765225 0 0.0049006053812947403 0.00064634930071587337 0 0.0048968189697550842 0.00062803573490425517 0 0.0048993439244440079 0.00063520837910478886 0 0.0049027231885826845 0.00064450716677792632 0 0.0048993439244440079 0.00063520837910478886 0 0.0049003483052970885 0.00064513769152765225 0 0.0049027231885826845 0.00064450716677792632 0 0.004902254412974736 0.00064931159513054236 0 0.0049003483052970885 0.00064513769152765225 0 0.0049058767491951382 0.00065065005235716874 0 0.004902254412974736 0.00064931159513054236 0 0.0049039667110888085 0.00065513414098800028 0 0.004902254412974736 0.00064931159513054236 0 0.0049008360839134599 0.00064931383272315269 0 0.0049016602455881778 0.00065357446204044386 0 0.004902254412974736 0.00064931159513054236 0 0.0049003483052970885 0.00064513769152765225 0 0.0049008360839134599 0.00064931383272315269 0 0.0049006053812947403 0.00064634930071587337 0 0.0049003483052970885 0.00064513769152765225 0 0.0049004957746469251 0.00064828967854568538 0 0.0049003483052970885 0.00064513769152765225 0 0.0049008360839134599 0.00064931383272315269 0 0.0049004957746469251 0.00064828967854568538 0 0.0049008360839134599 0.00064931383272315269 0 0.0049004957746469251 0.00064828967854568538 0 0.0049008572670554904 0.00065313763214284049 0 0.0049008360839134599 0.00064931383272315269 0 0.0049008572670554904 0.00065313763214284049 0 0.0049016602455881778 0.00065357446204044386 0 0.0049005518834672442 0.00065122972874493703 0 0.0049004957746469251 0.00064828967854568538 0 0.0049008572670554904 0.00065313763214284049 0 0.0049005675968545751 0.00065343077630059866 0 0.0049005518834672442 0.00065122972874493703 0 0.0049008572670554904 0.00065313763214284049 0 0.0049003594708340818 0.00065089871775002024 0 0.0049005518834672442 0.00065122972874493703 0 0.0049004957746469251 0.00064828967854568538 0 0.0049010503150039219 0.00065949069432605584 0 0.0049010112351462864 0.00065802311281767272 0 0.0049009180623498134 0.00066084640620751628 0 0.0049010112351462864 0.00065802311281767272 0 0.0049011959939798079 0.0006597822693681268 0 0.0049009180623498134 0.00066084640620751628 0 0.0049010503150039219 0.00065949069432605584 0 0.0049010112351462864 0.00065802311281767272 0 0.0049008771245967657 0.00065633983492333699 0 0.0049010112351462864 0.00065802311281767272 0 0.0049008572670554904 0.00065313763214284049 0 0.0049012615009593457 0.00065674523125064399 0 0.0049010112351462864 0.00065802311281767272 0 0.0049008771245967657 0.00065633983492333699 0 0.0049008572670554904 0.00065313763214284049 0 0.0049005675968545751 0.00065343077630059866 0 0.0049008771245967657 0.00065633983492333699 0 0.0049008572670554904 0.00065313763214284049 0 0.0049008572670554904 0.00065313763214284049 0 0.0049012615009593457 0.00065674523125064399 0 0.0049016602455881778 0.00065357446204044386 0 0.0049012615009593457 0.00065674523125064399 0 0.004902105563547734 0.00065780194673506042 0 0.0049016602455881778 0.00065357446204044386 0 0.0049010112351462864 0.00065802311281767272 0 0.0049012615009593457 0.00065674523125064399 0 0.0049011959939798079 0.0006597822693681268 0 0.0049012615009593457 0.00065674523125064399 0 0.004902105563547734 0.00065780194673506042 0 0.0049011959939798079 0.0006597822693681268 0 0.004902105563547734 0.00065780194673506042 0 0.0049016602455881778 0.00065357446204044386 0 0.0049039667110888085 0.00065513414098800028 0 0.004902254412974736 0.00064931159513054236 0 0.0049016602455881778 0.00065357446204044386 0 0.0049039667110888085 0.00065513414098800028 0 0.004902105563547734 0.00065780194673506042 0 0.0049039667110888085 0.00065513414098800028 0 0.0049033021032604453 0.00065910285367435815 0 0.0049039667110888085 0.00065513414098800028 0 0.0049033021032604453 0.00065910285367435815 0 0.0049053955049934428 0.00066164194240158508 0 0.0049020432594755921 0.00066189526220047402 0 0.0049053955049934428 0.00066164194240158508 0 0.004903234507315616 0.00067025611946174945 0 0.0049033021032604453 0.00065910285367435815 0 0.0049020432594755921 0.00066189526220047402 0 0.0049053955049934428 0.00066164194240158508 0 0.004902105563547734 0.00065780194673506042 0 0.0049020432594755921 0.00066189526220047402 0 0.0049011959939798079 0.0006597822693681268 0 0.004902105563547734 0.00065780194673506042 0 0.0049033021032604453 0.00065910285367435815 0 0.0049020432594755921 0.00066189526220047402 0 0.0049020432594755921 0.00066189526220047402 0 0.0049011959939798079 0.0006597822693681268 0 0.0049003753296069799 0.00066279048294619249 0 0.0049020432594755921 0.00066189526220047402 0 0.0049005176632487034 0.00066438694019944986 0 0.0049003753296069799 0.00066279048294619249 0 0.0049005176632487034 0.00066438694019944986 0 0.0049003753296069799 0.00066279048294619249 0 0.0048997882686478977 0.00066434577371674507 0 0.0049013095782726663 0.00066269453267500385 0 0.0049003753296069799 0.00066279048294619249 0 0.0049003988898361018 0.00066493640910880909 0 0.0049003753296069799 0.00066279048294619249 0 0.0048997882686478977 0.00066434577371674507 0 0.0049003988898361018 0.00066493640910880909 0 0.0049013095782726663 0.00066269453267500385 0 0.0049003753296069799 0.00066279048294619249 0 0.0049009180623498134 0.00066084640620751628 0 0.0049011959939798079 0.0006597822693681268 0 0.0049003753296069799 0.00066279048294619249 0 0.0049009180623498134 0.00066084640620751628 0 0.0049013095782726663 0.00066269453267500385 0 0.0049010503150039219 0.00065949069432605584 0 0.0049009180623498134 0.00066084640620751628 0 0.004911700747397294 0.00065258391898661303 0 0.0049089450788560611 0.0006580411501604939 0 0.0049151357182726143 0.00065921261974796102 0 0.0049058767491951382 0.00065065005235716874 0 0.004911700747397294 0.00065258391898661303 0 0.0049089450788560611 0.0006580411501604939 0 0.0049058767491951382 0.00065065005235716874 0 0.0049039667110888085 0.00065513414098800028 0 0.0049089450788560611 0.0006580411501604939 0 0.0049039667110888085 0.00065513414098800028 0 0.0049089450788560611 0.0006580411501604939 0 0.0049053955049934428 0.00066164194240158508 0 0.0049089450788560611 0.0006580411501604939 0 0.0049053955049934428 0.00066164194240158508 0 0.0049115230727416583 0.00066649616601027382 0 0.0049115230727416583 0.00066649616601027382 0 0.0049166112966248614 0.0006676051986386673 0 0.0049151357182726143 0.00065921261974796102 0 0.0049089450788560611 0.0006580411501604939 0 0.0049115230727416583 0.00066649616601027382 0 0.0049151357182726143 0.00065921261974796102 0 0.0049115230727416583 0.00066649616601027382 0 0.0049111583692034956 0.00067521060040109005 0 0.0049166112966248614 0.0006676051986386673 0 0.0049053955049934428 0.00066164194240158508 0 0.0049115230727416583 0.00066649616601027382 0 0.004903234507315616 0.00067025611946174945 0 0.0049115230727416583 0.00066649616601027382 0 0.0049111583692034956 0.00067521060040109005 0 0.004903234507315616 0.00067025611946174945 0 0.0049111583692034956 0.00067521060040109005 0 0.0049022991192969453 0.00068068710984414119 0 0.004903234507315616 0.00067025611946174945 0 0.0049111583692034956 0.00067521060040109005 0 0.0049102191808020673 0.00069267425590989473 0 0.0049022991192969453 0.00068068710984414119 0 0.0048112889942358242 0.0012610087190863823 0 0.0049237513165978943 0.00085022783301195288 0 0.0050648704927303279 0.0011049932834733519 0 0.0049638367656332167 0.0011228286606360686 0 0.0049779799720743719 0.0010231298990607091 0 0.0049638367656332167 0.0011228286606360686 0 0.0049779799720743719 0.0010231298990607091 0 0.0048391829964679663 0.0011112941704372074 0 0.0049779799720743719 0.0010231298990607091 0 0.0048891837320559958 0.00094075901982686671 0 0.0048391829964679663 0.0011112941704372074 0 0.0049237513165978943 0.00085022783301195288 0 0.0049016764765454591 0.00075934936330962174 0 0.0049022991192969453 0.00068068710984414119 0 0.004903234507315616 0.00067025611946174945 0 0.0048969232986606059 0.00066874041284084823 0 0.0049020432594755921 0.00066189526220047402 0 0.0049005176632487034 0.00066438694019944986 0 0.004903234507315616 0.00067025611946174945 0 0.004903234507315616 0.00067025611946174945 0 0.0048969232986606059 0.00066874041284084823 0 0.0048984388916702712 0.00066511360266283766 0 0.0049005176632487034 0.00066438694019944986 0 0.004903234507315616 0.00067025611946174945 0 0.0048984388916702712 0.00066511360266283766 0 0.0049016764765454591 0.00075934936330962174 0 0.004908442182760096 0.00072394395038170303 0 0.0049005176632487034 0.00066438694019944986 0 0.0048997882686478977 0.00066434577371674507 0 0.0048984388916702712 0.00066511360266283766 0 0.0048997882686478977 0.00066434577371674507 0 0.0049003988898361018 0.00066493640910880909 0 0.0048984388916702712 0.00066511360266283766 0 0.0049003988898361018 0.00066493640910880909 0 0.0048989412094009354 0.00066298448420277405 0 0.0048984388916702712 0.00066511360266283766 0 0.0048987663729158446 0.00066782943105619681 0 0.0049016764765454591 0.00075934936330962174 0 0.0049056934377030605 0.00066797725998283554 0 0.0049550285634008756 0.00070492160737555421 0 0.0049059804085945652 0.00070631566449273992 0 0.0049056934377030605 0.00066797725998283554 0 0.0049003988898361018 0.00066493640910880909 0 0.0048989412094009354 0.00066298448420277405 0 0.0049056934377030605 0.00066797725998283554 0 0.0049059804085945652 0.00070631566449273992 0 0.0048792485430993156 0.00069310222406122511 0 0.0049059804085945652 0.00070631566449273992 0 0.0048839631184713368 0.00072651785438375915 0 0.0049074563905518974 0.00075132279536310102 0 0.0049550285634008756 0.00070492160737555421 0 0.0049059804085945652 0.00070631566449273992 0 0.0049074563905518974 0.00075132279536310102 0 0.0048328062001516438 0.00069268759353460514 0 0.0048792485430993156 0.00069310222406122511 0 0.0048571989460693297 0.00072557623460224184 0 0.0049059804085945652 0.00070631566449273992 0 0.0048792485430993156 0.00069310222406122511 0 0.0048839631184713368 0.00072651785438375915 0 0.0048792485430993156 0.00069310222406122511 0 0.0048839631184713368 0.00072651785438375915 0 0.0048571989460693297 0.00072557623460224184 0 0.0048839631184713368 0.00072651785438375915 0 0.0048571989460693297 0.00072557623460224184 0 0.0048658295090299774 0.00079456310856145277 0 0.0048839631184713368 0.00072651785438375915 0 0.0049074563905518974 0.00075132279536310102 0 0.0048658295090299774 0.00079456310856145277 0 0.0049381826244564893 0.00078459841537468675 0 0.0049074563905518974 0.00075132279536310102 0 0.0048658295090299774 0.00079456310856145277 0 0.0049550285634008756 0.00070492160737555421 0 0.0049381826244564893 0.00078459841537468675 0 0.0049074563905518974 0.00075132279536310102 0 0.0049016764765454591 0.00075934936330962174 0 0.0048611861827123964 0.0009526392127248304 0 0.0048611861827123964 0.0009526392127248304 0 0.0051611461690735496 0.001162767049267383 0 0.0049381826244564893 0.00078459841537468675 0 0.0048658295090299774 0.00079456310856145277 0 0.004917973805393115 0.00087019978186409733 0 0.0048391829964679663 0.0011112941704372074 0 0.0047912865887300747 0.0012795853037366645 0 0.0049534640387296396 0.0012283224455576424 0 0.0055288934470630767 0.001087694102441221 0 0.0055819030231846331 0.0010085263224471933 0 0.00558660471646601 0.0011466008673757791 0 0.0052118819749423584 0.0008776460811557201 0 0.0051611461690735496 0.001162767049267383 0 0.0055819030231846331 0.0010085263224471933 0 0.00558660471646601 0.0011466008673757791 0 0.0056917294855936343 0.0011626080518993592 0 0.005535609287862041 0.0012296888361516714 0 0.00558660471646601 0.0011466008673757791 0 0.0056725043494829279 0.0012282552494949819 0 0.005535609287862041 0.0012296888361516714 0 0.0055074333698416087 0.0011607399852184748 0 0.00558660471646601 0.0011466008673757791 0 0.00558660471646601 0.0011466008673757791 0 0.0056917294855936343 0.0011626080518993592 0 0.0056725043494829279 0.0012282552494949819 0 0.0048195948230968415 0.0013185691009584997 0 0.0048435041435809737 0.0013513957027712978 0 0.0049534640387296396 0.0012283224455576424 0 0.0047912865887300747 0.0012795853037366645 0 0.0048195948230968415 0.0013185691009584997 0 0.0049534640387296396 0.0012283224455576424 0 0.0051611461690735496 0.001162767049267383 0 0.0051643240342711645 0.001371954601644617 0 0.0051643240342711645 0.001371954601644617 0 0.0054703935623588188 0.0013023463453444143 0 0.0053039804769091405 0.0015173079084420252 0 0.0053260302862675694 0.0015063268184469499 0 0.0052932283746896635 0.0015030002133082463 0 0.0052795226503174605 0.0013092138602206198 0 0.0052765292749245877 0.0013052417271319605 0 0.0052825158504601569 0.0013024668661819623 0 0.0051611461690735496 0.001162767049267383 0 0.0054703935623588188 0.0013023463453444143 0 0.0051643240342711645 0.001371954601644617 0 0.0050891868344702862 0.0016213765322172999 0 0.0048296098874525658 0.0017813673608018477 0 0.004796574279245157 0.0017237605633058295 0 0.0047938634631163558 0.0017905219633700829 0 0.0047528085027302687 0.0017759233674157526 0 0.004796574279245157 0.0017237605633058295 0 0.0047938634631163558 0.0017905219633700829 0 0.0050891868344702862 0.0016213765322172999 0 0.0048514986378918818 0.0014943588794074927 0 0.0048296098874525658 0.0017813673608018477 0 0.0048505537975347384 0.0017402840464595425 0 0.0048800950665226599 0.0018034764650454889 0 0.0048296098874525658 0.0017813673608018477 0 0.0048505537975347384 0.0017402840464595425 0 0.004796574279245157 0.0017237605633058295 0 0.004843844887289124 0.0016670048890827117 0 0.0048505537975347384 0.0017402840464595425 0 0.004796574279245157 0.0017237605633058295 0 0.0050648704927303279 0.0011049932834733519 0 0.0049638367656332167 0.0011228286606360686 0 0.0049534640387296396 0.0012283224455576424 0 0.0048112889942358242 0.0012610087190863823 0 0.0048514986378918818 0.0014943588794074927 0 0.0049638367656332167 0.0011228286606360686 0 0.0048391829964679663 0.0011112941704372074 0 0.0049534640387296396 0.0012283224455576424 0 0.0045745031201419395 0.0015367008540692264 0 0.0044954669238905223 0.0015619395602878435 0 0.0045023419661728717 0.0014607241544639441 0 0.0043924727527131701 0.0014610051329677328 0 0.0044954669238905223 0.0015619395602878435 0 0.0045023419661728717 0.0014607241544639441 0 0.004843844887289124 0.0016670048890827117 0 0.0048505537975347384 0.0017402840464595425 0 0.0049046432165254037 0.0017260793537642045 0 0.0048112889942358242 0.0012610087190863823 0 0.004697556593332158 0.001651086844185506 0 0.0048505537975347384 0.0017402840464595425 0 0.0049046432165254037 0.0017260793537642045 0 0.0048800950665226599 0.0018034764650454889 0 0.0049046432165254037 0.0017260793537642045 0 0.0049660741903091877 0.0017862804209304542 0 0.0048800950665226599 0.0018034764650454889 0 0.004697556593332158 0.001651086844185506 0 0.0046239913349354934 0.0019715929690404268 0 0.0045745031201419395 0.0015367008540692264 0 0.0044954669238905223 0.0015619395602878435 0 0.0046005581514917552 0.0016640867450367848 0 0.0046239913349354934 0.0019715929690404268 0 0.004031684718726382 0.0018536832185340566 0 0.0045745031201419395 0.0015367008540692264 0 0.0046005581514917552 0.0016640867450367848 0 0.0046590473586222651 0.0015829355596793206 0 0.0041282428798496652 0.0020838344215927214 0 0.004217521301360219 0.0019611238335137103 0 0.0042516175249158678 0.0020952615223684833 0 0.004031684718726382 0.0018536832185340566 0 0.0039480988790513158 0.002143132113745044 0 0.0037327326113643358 0.0021058142139755084 0 0.0039024700750163719 0.0021079865098777607 0 0.0037775371556458938 0.0022524365982275604 0 0.0035845807061212587 0.0020353337002223543 0 0.0037327326113643358 0.0021058142139755084 0 0.0036273878200687453 0.002209379011416766 0 0.0037327326113643358 0.0021058142139755084 0 0.0037775371556458938 0.0022524365982275604 0 0.0036273878200687453 0.002209379011416766 0 0.0037327326113643358 0.0021058142139755084 0 0.003783796665314065 0.0019802697920466537 0 0.0039024700750163719 0.0021079865098777607 0 0.0037327326113643358 0.0021058142139755084 0 0.003783796665314065 0.0019802697920466537 0 0.0036699867597169921 0.0019227483853530968 0 0.0035845807061212587 0.0020353337002223543 0 0.0037327326113643358 0.0021058142139755084 0 0.0036699867597169921 0.0019227483853530968 0 0.0036699867597169921 0.0019227483853530968 0 0.0036431043902242399 0.00179718975138124 0 0.0037652672991755226 0.001842429978398847 0 0.003783796665314065 0.0019802697920466537 0 0.0036699867597169921 0.0019227483853530968 0 0.0037652672991755226 0.001842429978398847 0 0.003783796665314065 0.0019802697920466537 0 0.0037652672991755226 0.001842429978398847 0 0.0038405516979839755 0.00192076343307171 0 0.0037652672991755226 0.001842429978398847 0 0.0038409932945617023 0.0018419059705049538 0 0.0038405516979839755 0.00192076343307171 0 0.0045745031201419395 0.0015367008540692264 0 0.0046590473586222651 0.0015829355596793206 0 0.0046191834789871171 0.0014163385641020334 0 0.004031684718726382 0.0018536832185340566 0 0.0040322283818305764 0.0016069273081324371 0 0.0035950323953205586 0.0020258924633864439 0 0.0035225880321914675 0.0017135059947394698 0 0.0036431043902242399 0.00179718975138124 0 0.0035950323953205586 0.0020258924633864439 0 0.0036699867597169921 0.0019227483853530968 0 0.0036431043902242399 0.00179718975138124 0 0.004031684718726382 0.0018536832185340566 0 0.0036624419426011454 0.002046468222493845 0 0.0035225880321914675 0.0017135059947394698 0 0.0036431043902242399 0.00179718975138124 0 0.0036665777512717608 0.0015814630210220062 0 0.0036431043902242399 0.00179718975138124 0 0.0037344741630101616 0.0017112346304594445 0 0.0036665777512717608 0.0015814630210220062 0 0.0037652672991755226 0.001842429978398847 0 0.0037344741630101616 0.0017112346304594445 0 0.0038488528418917562 0.0017653169321862102 0 0.0037652672991755226 0.001842429978398847 0 0.0038409932945617023 0.0018419059705049538 0 0.0038488528418917562 0.0017653169321862102 0 0.0036431043902242399 0.00179718975138124 0 0.0037652672991755226 0.001842429978398847 0 0.0037344741630101616 0.0017112346304594445 0 0.0036665777512717608 0.0015814630210220062 0 0.0037102145328345671 0.0014420493164018617 0 0.0039237290163637514 0.0015306364515307886 0 0.0037344741630101616 0.0017112346304594445 0 0.0036665777512717608 0.0015814630210220062 0 0.0039237290163637514 0.0015306364515307886 0 0.0035225880321914675 0.0017135059947394698 0 0.0036665777512717608 0.0015814630210220062 0 0.0035728132990374365 0.0014900292805679093 0 0.0040322283818305764 0.0016069273081324371 0 0.004417864664402746 0.0010536936777974805 0 0.0035225880321914675 0.0017135059947394698 0 0.0034557622157847367 0.0014021732244113175 0 0.0035728132990374365 0.0014900292805679093 0 0.0036665777512717608 0.0015814630210220062 0 0.0035728132990374365 0.0014900292805679093 0 0.0037102145328345671 0.0014420493164018617 0 0.0046191834789871171 0.0014163385641020334 0 0.0044845744915934698 0.0013563599280765385 0 0.0045783290502259483 0.0012496189418152441 0 0.0047438902664058129 0.00096220124495719492 0 0.004417864664402746 0.0010536936777974805 0 0.0046191834789871171 0.0014163385641020334 0 0.0045023419661728717 0.0014607241544639441 0 0.0044845744915934698 0.0013563599280765385 0 0.0045745031201419395 0.0015367008540692264 0 0.0046191834789871171 0.0014163385641020334 0 0.0045023419661728717 0.0014607241544639441 0 0.0049111583692034956 0.00067521060040109005 0 0.0049102191808020673 0.00069267425590989473 0 0.0049212754223334886 0.00067544398268258273 0 0.0043924727527131701 0.0014610051329677328 0 0.0045023419661728717 0.0014607241544639441 0 0.0044845744915934698 0.0013563599280765385 0 0.0048112889942358242 0.0012610087190863823 0 0.0047438902664058129 0.00096220124495719492 0 0.0049212754223334886 0.00067544398268258273 0 0.0049166112966248614 0.0006676051986386673 0 0.0049204955593222478 0.00066197281523654302 0 0.0049111583692034956 0.00067521060040109005 0 0.0049212754223334886 0.00067544398268258273 0 0.0049166112966248614 0.0006676051986386673 0 0.0049166112966248614 0.0006676051986386673 0 0.0049204955593222478 0.00066197281523654302 0 0.0049151357182726143 0.00065921261974796102 0 0.0049204955593222478 0.00066197281523654302 0 0.0049151357182726143 0.00065921261974796102 0 0.0049202350612575245 0.00064760893357852616 0 0.0049212754223334886 0.00067544398268258273 0 0.0049204955593222478 0.00066197281523654302 0 0.0049242639331774024 0.00066115023449406023 0 0.0049204955593222478 0.00066197281523654302 0 0.0049242639331774024 0.00066115023449406023 0 0.0049202350612575245 0.00064760893357852616 0 0.0049212754223334886 0.00067544398268258273 0 0.0049242639331774024 0.00066115023449406023 0 0.0049279661342373233 0.00066311710700283266 0 0.0049242639331774024 0.00066115023449406023 0 0.0049279661342373233 0.00066311710700283266 0 0.0049272610166182298 0.00065845836253102278 0 0.004417864664402746 0.0010536936777974805 0 0.0046146956760326407 0.00070105834610098149 0 0.0046146956760326407 0.00070105834610098149 0 0.0041580225650461045 0.00086867865558415381 0 0.0044458647875003868 0.00086120740983147085 0 0.0044360708164083362 0.00082033892319370453 0 0.0044695251750638109 0.00083485466724243882 0 0.004417864664402746 0.0010536936777974805 0 0.0041580225650461045 0.00086867865558415381 0 0.0046146956760326407 0.00070105834610098149 0 0.0049005109278240366 0.00060808329613918938 0 0.0046769799561162855 0.00043133357864456119 0 0.0047102041365594061 0.00054442826272968058 0 0.0046200660455907169 0.00050217437381190719 0 0.0049242639331774024 0.00066115023449406023 0 0.0049272610166182298 0.00065845836253102278 0 0.0049202350612575245 0.00064760893357852616 0 0.0047255056735990035 0.00053193608404697034 0 0.0047732477377573123 0.00058463318190438401 0 0.0047440606646470696 0.0005970299431236393 0 0.0046146956760326407 0.00070105834610098149 0 0.0047175312969751143 0.00054203734256480539 0 0.0046769799561162855 0.00043133357864456119 0 0.0046200660455907169 0.00050217437381190719 0 0.0046314428149250349 0.0004128017029571252 0 0.0047102041365594061 0.00054442826272968058 0 0.0046512730850578913 0.00054534543038753055 0 0.0046200660455907169 0.00050217437381190719 0 0.0047255056735990035 0.00053193608404697034 0 0.0047732477377573123 0.00058463318190438401 0 0.004812170196627487 0.00056543486584579108 0 0.004911700747397294 0.00065258391898661303 0 0.0049151357182726143 0.00065921261974796102 0 0.0049202350612575245 0.00064760893357852616 0 0.0047732477377573123 0.00058463318190438401 0 0.004812170196627487 0.00056543486584579108 0 0.0047944416755596056 0.00061413582595367853 0 0.0048608506131775763 0.00062252805523258187 0 0.004812170196627487 0.00056543486584579108 0 0.0048310691017343713 0.000612627384396254 0 0.0048310691017343713 0.000612627384396254 0 0.0048200603852381453 0.00063227320511780602 0 0.0047944416755596056 0.00061413582595367853 0 0.004812170196627487 0.00056543486584579108 0 0.0048310691017343713 0.000612627384396254 0 0.0047944416755596056 0.00061413582595367853 0 0.0048200603852381453 0.00063227320511780602 0 0.004789155470389877 0.00064875488344430467 0 0.0048214533769489632 0.00066351716786910997 0 0.0048608506131775763 0.00062252805523258187 0 0.0048200603852381453 0.00063227320511780602 0 0.0048214533769489632 0.00066351716786910997 0 0.004789155470389877 0.00064875488344430467 0 0.0047649036619846971 0.00062870808252907002 0 0.0047944416755596056 0.00061413582595367853 0 0.0048200603852381453 0.00063227320511780602 0 0.004789155470389877 0.00064875488344430467 0 0.0047944416755596056 0.00061413582595367853 0 0.004789155470389877 0.00064875488344430467 0 0.0047649036619846971 0.00062870808252907002 0 0.0047485390977043459 0.00065779114407713717 0 0.0047649036619846971 0.00062870808252907002 0 0.0047944416755596056 0.00061413582595367853 0 0.00476857628568262 0.00060616778488242231 0 0.0047732477377573123 0.00058463318190438401 0 0.0047944416755596056 0.00061413582595367853 0 0.00476857628568262 0.00060616778488242231 0 0.0047649036619846971 0.00062870808252907002 0 0.0047440606646470696 0.0005970299431236393 0 0.0047485390977043459 0.00065779114407713717 0 0.0047175312969751143 0.00054203734256480539 0 0.004748998331582599 0.00065884134903998178 0 0.0047102041365594061 0.00054442826272968058 0 0.0046869062987501481 0.00059362301553785078 0 0.0047485390977043459 0.00065779114407713717 0 0.0047649036619846971 0.00062870808252907002 0 0.00476857628568262 0.00060616778488242231 0 0.0047440606646470696 0.0005970299431236393 0 0.0047732477377573123 0.00058463318190438401 0 0.00476857628568262 0.00060616778488242231 0 0.0047440606646470696 0.0005970299431236393 0 0.0046512730850578913 0.00054534543038753055 0 0.0046869062987501481 0.00059362301553785078 0 0.0046377856356804312 0.00062759807363961658 0 0.0047102041365594061 0.00054442826272968058 0 0.0046512730850578913 0.00054534543038753055 0 0.0046869062987501481 0.00059362301553785078 0 0.0046869062987501481 0.00059362301553785078 0 0.0047485390977043459 0.00065779114407713717 0 0.0046377856356804312 0.00062759807363961658 0 0.0044453437274489353 -0.00064265741936519701 0 0.0044273239215399333 -0.00062887023958612006 0 0.0044525573405241126 -0.00061589858837971532 0 0.0047485390977043459 0.00065779114407713717 0 0.0047444247039239891 0.0007003280484026448 0 0.0046377856356804312 0.00062759807363961658 0 0.0045385011244163352 0.00011456225644846971 0 0.004458859323676209 8.8130115337804748e-05 0 0.0044828697629820747 7.081940964718957e-05 0 0.0045909886070648644 6.366298788236646e-05 0 0.0044275855334846214 -0.000294810559955153 0 0.0045909886070648644 6.366298788236646e-05 0 0.0045928160760359445 0.00037602608496214594 0 0.0048513309791699665 0.00072886648455277464 0 0.0047444247039239891 0.0007003280484026448 0 0.0047911005116144699 0.00067903355590690731 0 0.0045452722103101074 3.1964937188264156e-05 0 0.0045909886070648644 6.366298788236646e-05 0 0.0048513309791699665 0.00072886648455277464 0 0.0048214533769489632 0.00066351716786910997 0 0.0047911005116144699 0.00067903355590690731 0 0.0047485390977043459 0.00065779114407713717 0 0.0047444247039239891 0.0007003280484026448 0 0.0047911005116144699 0.00067903355590690731 0 0.004789155470389877 0.00064875488344430467 0 0.0048214533769489632 0.00066351716786910997 0 0.0047911005116144699 0.00067903355590690731 0 0.004789155470389877 0.00064875488344430467 0 0.0047485390977043459 0.00065779114407713717 0 0.0047911005116144699 0.00067903355590690731 0 0.0044767119924061525 -0.00061897429982996674 0 0.0044525573405241126 -0.00061589858837971532 0 0.0044784212983667573 -0.00060398994198776631 0 0.0044767119924061525 -0.00061897429982996674 0 0.0044692826600586013 -0.00063309528014616448 0 0.0044525573405241126 -0.00061589858837971532 0 0.0044767119924061525 -0.00061897429982996674 0 0.0044784212983667573 -0.00060398994198776631 0 0.0044893481341553992 -0.00061455297186720453 0 0.0044767119924061525 -0.00061897429982996674 0 0.0044692826600586013 -0.00063309528014616448 0 0.0044886799355830752 -0.00063573744455950112 0 0.0044453437274489353 -0.00064265741936519701 0 0.0044692826600586013 -0.00063309528014616448 0 0.0044525573405241126 -0.00061589858837971532 0 0.0046883944560082817 0.00054070894787439756 0 0.0043637594238895121 0.00044523146972635377 0 0.004458859323676209 8.8130115337804748e-05 0 0.0044828697629820747 7.081940964718957e-05 0 0.0044281508727980479 2.7472534212499968e-05 0 0.0046512730850578913 0.00054534543038753055 0 0.0046377856356804312 0.00062759807363961658 0 0.0045334279350757864 0.00054296402875134652 0 0.0045928160760359445 0.00037602608496214594 0 0.0043637594238895121 0.00044523146972635377 0 0.0042372341098910471 0.00036969764772657999 0 0.0043986375672802362 -0.00023045088066913529 0 0.004263340145624123 9.8918932166862014e-05 0 0.0041615517717774825 0.00020729370340910017 0 0.0039886874653985663 9.57202872135686e-05 0 0.0042756396137308686 0.00038935211705623903 0 0.0042046339101801103 0.00038870618508868949 0 0.0042353548776955068 0.00035562806102383868 0 0.0043637594238895121 0.00044523146972635377 0 0.0042145811104780705 0.00049480270949123749 0 0.0044275855334846214 -0.000294810559955153 0 0.0043986375672802362 -0.00023045088066913529 0 0.004458859323676209 8.8130115337804748e-05 0 0.0044281508727980479 2.7472534212499968e-05 0 0.0043816010167746612 6.0830780416092906e-05 0 0.0044281508727980479 2.7472534212499968e-05 0 0.0044143730337129474 2.7217717725809083e-05 0 0.0043816010167746612 6.0830780416092906e-05 0 0.0042372341098910471 0.00036969764772657999 0 0.0038496843755891894 0.00035486567968094737 0 0.0043637594238895121 0.00044523146972635377 0 0.0042372341098910471 0.00036969764772657999 0 0.0042372341098910471 0.00036969764772657999 0 0.0042145811104780705 0.00049480270949123749 0 0.0039930588169638237 0.00059676885317556396 0 0.0039679026075655557 0.00057194391617486915 0 0.0039400192075085376 0.00059625480579929345 0 0.0042145811104780705 0.00049480270949123749 0 0.003974081368891237 0.00073167159546060697 0 0.0039930588169638237 0.00059676885317556396 0 0.0039967152316882403 0.00059298861132925178 0 0.0039679026075655557 0.00057194391617486915 0 0.0039722617647084167 0.00088689734992943058 0 0.0039712972601644893 0.00087617281111383987 0 0.0039591472955533393 0.00087921462404626238 0 0.0046512730850578913 0.00054534543038753055 0 0.0045309716699702841 0.00054637687543375316 0 0.0046200660455907169 0.00050217437381190719 0 0.0045159469704952821 0.00053383593269975486 0 0.0046200660455907169 0.00050217437381190719 0 0.0046314428149250349 0.0004128017029571252 0 0.0042145811104780705 0.00049480270949123749 0 0.0041580225650461045 0.00086867865558415381 0 0.0039722617647084167 0.00088689734992943058 0 0.0039712972601644893 0.00087617281111383987 0 0.0039875100050736287 0.00087235528589418442 0 0.0045309716699702841 0.00054637687543375316 0 0.0045159469704952821 0.00053383593269975486 0 0.0046200660455907169 0.00050217437381190719 0 0.0035032865642588055 0.0013511814484153629 0 0.0035728132990374365 0.0014900292805679093 0 0.0037102145328345671 0.0014420493164018617 0 0.0039712972601644893 0.00087617281111383987 0 0.0039875100050736287 0.00087235528589418442 0 0.0039662913213097699 0.00086610858454750142 0 0.0041580225650461045 0.00086867865558415381 0 0.0038066348154490023 0.0011592047685348137 0 0.0034557622157847367 0.0014021732244113175 0 0.0035032865642588055 0.0013511814484153629 0 0.0035728132990374365 0.0014900292805679093 0 0.0039591472955533393 0.00087921462404626238 0 0.0039662913213097699 0.00086610858454750142 0 0.0039461142142457025 0.00087168242093897295 0 0.0038066348154490023 0.0011592047685348137 0 0.003751849937714448 0.0012545074319666317 0 0.0039712972601644893 0.00087617281111383987 0 0.0039591472955533393 0.00087921462404626238 0 0.0039662913213097699 0.00086610858454750142 0 0.0039662913213097699 0.00086610858454750142 0 0.0039461142142457025 0.00087168242093897295 0 0.0039455985798152399 0.0008613460198353272 0 0.003694856239485731 0.00085602162568420388 0 0.003751849937714448 0.0012545074319666317 0 0.0034179230234537561 0.0009645665420837398 0 0.0037042375027323922 0.0012050298818147961 0 0.0034097405675845432 0.0012410730691785829 0 0.003974081368891237 0.00073167159546060697 0 0.003694856239485731 0.00085602162568420388 0 0.0033961747403093842 0.00094810277699143781 0 0.0037465962907066242 0.0010394524142010387 0 0.0036008266976638387 0.00076145651156112927 0 0.0033961747403093842 0.00094810277699143781 0 0.0037465962907066242 0.0010394524142010387 0 0.0037042375027323922 0.0012050298818147961 0 0.0027324360994702775 0.0011654953015714305 0 0.0027252976467538573 0.0011905628853458427 0 0.0027034780575446093 0.0011415511489524216 0 0.0027808504783848175 0.0010861119606210921 0 0.0027107627479878008 0.0012171553170550093 0 0.003694856239485731 0.00085602162568420388 0 0.0036266394890266665 0.0011517562867455545 0 0.0037465962907066242 0.0010394524142010387 0 0.0036008266976638387 0.00076145651156112927 0 0.0037145202536835007 0.00046843820645493914 0 0.0032216521636140652 0.0010892876805439183 0 0.0031557935189568081 0.00031092561254953831 0 0.0027034780575446093 0.0011415511489524216 0 0.0026851449248415488 0.00084553335968405531 0 0.0027808504783848175 0.0010861119606210921 0 0.0036008266976638387 0.00076145651156112927 0 0.0035565398341759541 0.00061186456625507294 0 0.0037145202536835007 0.00046843820645493914 0 0.0035565398341759541 0.00061186456625507294 0 0.0034070154957764735 0.00046699513260729005 0 0.0037145202536835007 0.00046843820645493914 0 0.0033961747403093842 0.00094810277699143781 0 0.0035565398341759541 0.00061186456625507294 0 0.0034070154957764735 0.00046699513260729005 0 0.0039679026075655557 0.00057194391617486915 0 0.003940265338505577 0.00055208165872028638 0 0.0039400192075085376 0.00059625480579929345 0 0.003694856239485731 0.00085602162568420388 0 0.0038496843755891894 0.00035486567968094737 0 0.0033961747403093842 0.00094810277699143781 0 0.0036008266976638387 0.00076145651156112927 0 0.0035565398341759541 0.00061186456625507294 0 0.0041615517717774825 0.00020729370340910017 0 0.0039876078483367322 0.00014681069436449121 0 0.0039886874653985663 9.57202872135686e-05 0 0.0039723845533972263 -0.0001407496357519781 0 0.0039886355971008322 -0.00057343635292372733 0 0.0034767337793077898 -0.00021128329767005518 0 0.0034686375719313036 -0.00017300772070582448 0 0.0034803389461763642 -0.00044228062440653204 0 0.0043986375672802362 -0.00023045088066913529 0 0.0039723845533972263 -0.0001407496357519781 0 0.0044496801348592368 -0.00057271490202228867 0 0.0045043683371381055 -0.00055522156868938882 0 0.0044893481341553992 -0.00061455297186720453 0 0.0043986375672802362 -0.00023045088066913529 0 0.0045605799277532158 -0.00065036909376508677 0 0.0039148935969075581 0.00033090445619882207 0 0.003919608797166017 0.00012550815438935794 0 0.0032504160168531763 0.0001229502148262381 0 0.0034767337793077898 -0.00021128329767005518 0 0.0034686375719313036 -0.00017300772070582448 0 0.0035532680122407558 -0.00020324573629574631 0 0.0039723845533972263 -0.0001407496357519781 0 0.0038496843755891894 0.00035486567968094737 0 0.0038496843755891894 0.00035486567968094737 0 0.0031557935189568081 0.00031092561254953831 0 0.0039723845533972263 -0.0001407496357519781 0 0.0031557935189568081 0.00031092561254953831 0 0.0034686375719313036 -0.00017300772070582448 0 0.0035532680122407558 -0.00020324573629574631 0 0.0036035737701425184 -0.00013598917186066122 0 0.0031557935189568081 0.00031092561254953831 0 0.0031251362855270635 -0.00034853368067587855 0 0.0026481200522562292 -0.00029739907739189352 0 0.0028517574723933093 -0.00034855334797100692 0 0.0027703273024351077 -0.00018900775973047811 0 0.0026622574598088194 -5.6049310102822921e-05 0 0.0026481200522562292 -0.00029739907739189352 0 0.0027703273024351077 -0.00018900775973047811 0 0.0035532680122407558 -0.00020324573629574631 0 0.0036035737701425184 -0.00013598917186066122 0 0.0035926549739337477 -0.0002830981867070743 0 0.0034767337793077898 -0.00021128329767005518 0 0.0035532680122407558 -0.00020324573629574631 0 0.0035926549739337477 -0.0002830981867070743 0 0.0035690557946948822 -0.00023902003991409072 0 0.0032855034387863969 -0.00050765704334144437 0 0.0034767337793077898 -0.00021128329767005518 0 0.0035926549739337477 -0.0002830981867070743 0 0.0035826579904431836 -0.00042411200366716405 0 0.0031251362855270635 -0.00034853368067587855 0 0.0032855034387863969 -0.00050765704334144437 0 0.0026481200522562292 -0.00029739907739189352 0 0.0026981903973587449 -0.00049432047375880912 0 0.0028517574723933093 -0.00034855334797100692 0 0.0026481200522562292 -0.00029739907739189352 0 0.0026981903973587449 -0.00049432047375880912 0 0.002629428690465843 -0.00055072911895201763 0 0.0034767337793077898 -0.00021128329767005518 0 0.0036438116031470625 -0.00052529494607157768 0 0.0034803389461763642 -0.00044228062440653204 0 0.0045043683371381055 -0.00055522156868938882 0 0.0045038926616528911 -0.00062743082168676832 0 0.0044893481341553992 -0.00061455297186720453 0 0.0044767119924061525 -0.00061897429982996674 0 0.0044886799355830752 -0.00063573744455950112 0 0.0044893481341553992 -0.00061455297186720453 0 0.0045038926616528911 -0.00062743082168676832 0 0.0044886799355830752 -0.00063573744455950112 0 0.0044893481341553992 -0.00061455297186720453 0 0.0023038667281509691 -0.00019183609560167122 0 0.0023270406585708895 -0.00012545267107976727 0 0.0023639335805557961 -0.00015478643152200012 0 0.0024130557381685908 -0.00018960557643219757 0 0.0023639335805557961 -0.00015478643152200012 0 0.0024041658677981192 -0.00011958538400197227 0 0.0023038667281509691 -0.00019183609560167122 0 0.0024130557381685908 -0.00018960557643219757 0 0.0023639335805557961 -0.00015478643152200012 0 0.0023270406585708895 -0.00012545267107976727 0 0.0023639335805557961 -0.00015478643152200012 0 0.0024041658677981192 -0.00011958538400197227 0 0.00240210183082404 -0.00029796899239418865 0 0.0023038667281509691 -0.00019183609560167122 0 0.0024130557381685908 -0.00018960557643219757 0 0.0029264084419708776 -0.00064486607375266035 0 0.0030512483733371623 -0.00040958624470184687 0 0.0028818217873562181 -0.00047444973657050402 0 0.0026981903973587449 -0.00049432047375880912 0 0.0028818217873562181 -0.00047444973657050402 0 0.0028517574723933093 -0.00034855334797100692 0 0.0029264084419708776 -0.00064486607375266035 0 0.0026981903973587449 -0.00049432047375880912 0 0.0028818217873562181 -0.00047444973657050402 0 0.0030512483733371623 -0.00040958624470184687 0 0.0028818217873562181 -0.00047444973657050402 0 0.0028517574723933093 -0.00034855334797100692 0 0.0026622574598088194 -5.6049310102822921e-05 0 0.0027703273024351077 -0.00018900775973047811 0 0.0029198145017153309 -5.4574278397838206e-05 0 0.0028517574723933093 -0.00034855334797100692 0 0.0027703273024351077 -0.00018900775973047811 0 0.0029198145017153309 -5.4574278397838206e-05 0 0.0030512483733371623 -0.00040958624470184687 0 0.0028517574723933093 -0.00034855334797100692 0 0.0029198145017153309 -5.4574278397838206e-05 0 0.0026849292110260391 -0.0002424909650686772 0 0.0025517707281746782 0.00012336053556938359 0 0.0031557935189568081 0.00031092561254953831 0 0.0025517707281746782 0.00012336053556938359 0 0.0025517707281746782 0.00012336053556938359 0 0.0022626767350067004 0.00012801159709386706 0 0.0023038667281509691 -0.00019183609560167122 0 0.0023270406585708895 -0.00012545267107976727 0 0.0021811204013346026 0.00012040575834569575 0 0.0023270406585708895 -0.00012545267107976727 0 0.0021811204013346026 0.00012040575834569575 0 0.0023926386301700779 0.00013065526237397381 0 0.002521988648878792 -5.1681052631760556e-06 0 0.0023446348093898138 -0.00010083310953458313 0 0.0024548303751133504 -2.245068818812255e-05 0 0.0023270406585708895 -0.00012545267107976727 0 0.0024041658677981192 -0.00011958538400197227 0 0.0025826818224688472 0.00011947540085784306 0 0.0023270406585708895 -0.00012545267107976727 0 0.0023926386301700779 0.00013065526237397381 0 0.0023926386301700779 0.00013065526237397381 0 0.0024430524314393016 0.00031500267034439359 0 0.002158660957040686 0.00021079033127989922 0 0.0025826818224688472 0.00011947540085784306 0 0.0023926386301700779 0.00013065526237397381 0 0.0024430524314393016 0.00031500267034439359 0 0.00283474919732439 0.0011328233520696278 0 0.0027611199446132416 0.0011012097762442322 0 0.0028068282625094304 0.0011672333818958547 0 0.0026404071801266172 0.00069930574268955656 0 0.002591461955056799 0.00059941603018495346 0 0.0021882835675354549 0.00013297002878935512 0 0.0023926386301700779 0.00013065526237397381 0 0.002158660957040686 0.00021079033127989922 0 0.0027611199446132416 0.0011012097762442322 0 0.0027741468733173823 0.0011640554626210511 0 0.0028068282625094304 0.0011672333818958547 0 0.0026851449248415488 0.00084553335968405531 0 0.0028493196429861555 0.00090907791427084989 0 0.0027808504783848175 0.0010861119606210921 0 0.0027611199446132416 0.0011012097762442322 0 0.0027396462943185432 0.0011597719460126566 0 0.0027741468733173823 0.0011640554626210511 0 0.0030771213021391509 0.00036414748800638156 0 0.0025506798710158828 0.00036084350370300917 0 0.0026163394046636178 0.00018921365452964297 0 0.0031557935189568081 0.00031092561254953831 0 0.002591461955056799 0.00059941603018495346 0 0.0025517707281746782 0.00012336053556938359 0 0.002591461955056799 0.00059941603018495346 0 0.002591461955056799 0.00059941603018495346 0 0.0027324360994702775 0.0011654953015714305 0 0.0027741468733173823 0.0011640554626210511 0 0.0027782934200402433 0.001201609612399745 0 0.0028011373467520359 0.0011941089626418861 0 0.0027396462943185432 0.0011597719460126566 0 0.0027741468733173823 0.0011640554626210511 0 0.0027782934200402433 0.001201609612399745 0 0.0027396462943185432 0.0011597719460126566 0 0.0027782934200402433 0.001201609612399745 0 0.00275260948592926 0.0012227321745308182 0 0.0027396462943185432 0.0011597719460126566 0 0.00275260948592926 0.0012227321745308182 0 0.0027107627479878008 0.0012171553170550093 0 0.00283474919732439 0.0011328233520696278 0 0.0028068282625094304 0.0011672333818958547 0 0.0028212727758330784 0.0012174999566836051 0 0.0027741468733173823 0.0011640554626210511 0 0.0028068282625094304 0.0011672333818958547 0 0.0028011373467520359 0.0011941089626418861 0 0.0028068282625094304 0.0011672333818958547 0 0.0028011373467520359 0.0011941089626418861 0 0.0028212727758330784 0.0012174999566836051 0 0.0027782934200402433 0.001201609612399745 0 0.0028011373467520359 0.0011941089626418861 0 0.0028212727758330784 0.0012174999566836051 0 0.0027501709044266288 0.0019672139338811961 0 0.0026803199382001638 0.0022533137505474556 0 0.0023590277268548373 0.0022746513838743628 0 0.0022640925496291799 0.0021858872757565722 0 0.0022597228997993379 0.0023357372745349768 0 0.0030972973986718964 0.0021081652282274291 0 0.0030976012801432079 0.0022563124363632289 0 0.0029953926110219864 0.0021732577664263777 0 0.0027501709044266288 0.0019672139338811961 0 0.0028804771204907782 0.0017384054841095469 0 0.0030976012801432079 0.0022563124363632289 0 0.0029944538710980034 0.002321266559842221 0 0.0030962289767176264 0.002406024827585845 0 0.0026803199382001638 0.0022533137505474556 0 0.0025657578067738961 0.0028699006970453076 0 0.0023823850459354641 0.0023780125467086433 0 0.0022597228997993379 0.0023357372745349768 0 0.0022587505774969143 0.0024897917355070527 0 0.0030976012801432079 0.0022563124363632289 0 0.0029944538710980034 0.002321266559842221 0 0.0029953926110219864 0.0021732577664263777 0 0.0029944538710980034 0.002321266559842221 0 0.0028934036159202563 0.0022374551798059516 0 0.0029026459173323613 0.0024021593322625092 0 0.0029944538710980034 0.002321266559842221 0 0.0029953926110219864 0.0021732577664263777 0 0.0028934036159202563 0.0022374551798059516 0 0.0028804771204907782 0.0017384054841095469 0 0.0033132771195784534 0.001810066182107665 0 0.002777888004962422 0.0012619766922810402 0 0.00275260948592926 0.0012227321745308182 0 0.0027048018884235654 0.0013314368030508182 0 0.0027782934200402433 0.001201609612399745 0 0.0028212727758330784 0.0012174999566836051 0 0.002777888004962422 0.0012619766922810402 0 0.0027782934200402433 0.001201609612399745 0 0.002777888004962422 0.0012619766922810402 0 0.00275260948592926 0.0012227321745308182 0 0.0032216521636140652 0.0010892876805439183 0 0.0033132771195784534 0.001810066182107665 0 0.0037465962907066242 0.0010394524142010387 0 0.0037042375027323922 0.0012050298818147961 0 0.0037777406950550863 0.001582250971268768 0 0.0037042375027323922 0.0012050298818147961 0 0.003549746106536438 0.0013008120050633119 0 0.0037777406950550863 0.001582250971268768 0 0.0027034780575446093 0.0011415511489524216 0 0.0027107627479878008 0.0012171553170550093 0 0.0027048018884235654 0.0013314368030508182 0 0.0037042375027323922 0.0012050298818147961 0 0.003549746106536438 0.0013008120050633119 0 0.0034097405675845432 0.0012410730691785829 0 0.00275260948592926 0.0012227321745308182 0 0.0027107627479878008 0.0012171553170550093 0 0.0027048018884235654 0.0013314368030508182 0 0.003549746106536438 0.0013008120050633119 0 0.0034060894929209902 0.00124085711044154 0 0.0033930740714342993 0.0018211174871855477 0 0.0037344741630101616 0.0017112346304594445 0 0.0039237290163637514 0.0015306364515307886 0 0.0038488528418917562 0.0017653169321862102 0 0.0035525890250372831 0.0012238667614367729 0 0.003751849937714448 0.0012545074319666317 0 0.0039237290163637514 0.0015306364515307886 0 0.0039174351328788316 0.0018353809022676798 0 0.0038488528418917562 0.0017653169321862102 0 0.003751849937714448 0.0012545074319666317 0 0.003732630936961588 0.0019321461922659413 0 0.0039174351328788316 0.0018353809022676798 0 0.0038409932945617023 0.0018419059705049538 0 0.0038488528418917562 0.0017653169321862102 0 0.0038489113737908242 0.0022144501479722731 0 0.0039011325658157474 0.0021773105855729114 0 0.0039087561606986681 0.0022454140866759254 0 0.003732630936961588 0.0019321461922659413 0 0.0033132771195784534 0.001810066182107665 0 0.003549746106536438 0.0013008120050633119 0 0.0033930740714342993 0.0018211174871855477 0 0.0037777406950550863 0.001582250971268768 0 0.0033132771195784534 0.001810066182107665 0 0.0034192614103870267 0.002353069242750497 0 0.0038489113737908242 0.0022144501479722731 0 0.0039087561606986681 0.0022454140866759254 0 0.0038553594454733128 0.0022882633208627895 0 0.003783796665314065 0.0019802697920466537 0 0.0038405516979839755 0.00192076343307171 0 0.0039024700750163719 0.0021079865098777607 0 0.003732630936961588 0.0019321461922659413 0 0.0038903342984901216 0.0022184401777030028 0 0.0039174351328788316 0.0018353809022676798 0 0.0038405516979839755 0.00192076343307171 0 0.0039024700750163719 0.0021079865098777607 0 0.0039174351328788316 0.0018353809022676798 0 0.0038409932945617023 0.0018419059705049538 0 0.0038405516979839755 0.00192076343307171 0 0.0034192614103870267 0.002353069242750497 0 0.0032726495957952958 0.0026897431996324526 0 0.0039087561606986681 0.0022454140866759254 0 0.0038553594454733128 0.0022882633208627895 0 0.0039149706381195791 0.0023111375602511666 0 0.0032726495957952958 0.0026897431996324526 0 0.0032688774747585262 0.0028046177300942768 0 0.0029026459173323613 0.0024021593322625092 0 0.0029138060255955258 0.0025655563331000186 0 0.00300498096930979 0.0024854300356210706 0 0.0032726495957952958 0.0026897431996324526 0 0.0030640080832155369 0.0028627226554919145 0 0.0031242675567891287 0.0032732225973613649 0 0.0031149261686995735 0.0032737288741697735 0 0.0031196515702249534 0.0032733191676809414 0 0.0031149261686995735 0.0032737288741697735 0 0.0031123246287176869 0.0032740656063839808 0 0.0031196515702249534 0.0032733191676809414 0 0.0025657578067738961 0.0028699006970453076 0 0.0024342121466586612 0.0033700607296035289 0 0.0031149261686995735 0.0032737288741697735 0 0.003109085473191281 0.0032719908358697157 0 0.0031123246287176869 0.0032740656063839808 0 0.0018599277582694177 0.0032195790171072581 0 0.001787571565965766 0.0031601060733710989 0 0.0017927923550445509 0.0033275894535717034 0 0.0030640080832155369 0.0028627226554919145 0 0.0025657578067738961 0.0028699006970453076 0 0.002056685435486641 0.0027557013303430599 0 0.0025657578067738961 0.0028699006970453076 0 0.0029944538710980034 0.002321266559842221 0 0.0029026459173323613 0.0024021593322625092 0 0.00300498096930979 0.0024854300356210706 0 0.0029944538710980034 0.002321266559842221 0 0.00300498096930979 0.0024854300356210706 0 0.0030962289767176264 0.002406024827585845 0 0.0031243238690631171 0.0032670109625449395 0 0.0031165803671702017 0.0032687938489018671 0 0.0031091776603986059 0.0032669146235788432 0 0.0032493416115215385 0.003283242874116684 0 0.002490477425520807 0.0033873630406055302 0 0.0031169045145883214 0.0032714197841599234 0 0.0031229352588313373 0.0032717605974562974 0 0.0031165803671702017 0.0032687938489018671 0 0.0031229352588313373 0.0032717605974562974 0 0.0031243238690631171 0.0032670109625449395 0 0.0031165803671702017 0.0032687938489018671 0 0.0031169045145883214 0.0032714197841599234 0 0.0031165803671702017 0.0032687938489018671 0 0.0031091776603986059 0.0032669146235788432 0 0.0018052362199604309 0.0034723740152139727 0 0.002490477425520807 0.0033873630406055302 0 0.002490477425520807 0.0033873630406055302 0 0.0024342121466586612 0.0033700607296035289 0 0.0018889234647055002 0.0034178567907083919 0 0.0017998678370448411 0.0034779374715368577 0 0.0017927923550445509 0.0033275894535717034 0 0.0031169045145883214 0.0032714197841599234 0 0.0031091776603986059 0.0032669146235788432 0 0.0031123246287176869 0.0032740656063839808 0 0.0031169045145883214 0.0032714197841599234 0 0.0031123246287176869 0.0032740656063839808 0 0.0031196515702249534 0.0032733191676809414 0 0.0031169045145883214 0.0032714197841599234 0 0.0031229352588313373 0.0032717605974562974 0 0.0031220228936911726 0.0032727138563216824 0 0.0031169045145883214 0.0032714197841599234 0 0.0031220228936911726 0.0032727138563216824 0 0.0031196515702249534 0.0032733191676809414 0 0.0031220228936911726 0.0032727138563216824 0 0.0031234497222189695 0.0032729571448955391 0 0.0031270285874475494 0.0032731409112307141 0 0.0031229352588313373 0.0032717605974562974 0 0.0031220228936911726 0.0032727138563216824 0 0.0031286077146924409 0.0032737823295271515 0 0.0031234497222189695 0.0032729571448955391 0 0.0031196515702249534 0.0032733191676809414 0 0.003124825727774211 0.0032727418179298814 0 0.0031220228936911726 0.0032727138563216824 0 0.0031234497222189695 0.0032729571448955391 0 0.0031196515702249534 0.0032733191676809414 0 0.0031242675567891287 0.0032732225973613649 0 0.0031196515702249534 0.0032733191676809414 0 0.003124825727774211 0.0032727418179298814 0 0.003124825727774211 0.0032727418179298814 0 0.0031270285874475494 0.0032731409112307141 0 0.00313390567277431 0.0032730753284350529 0 0.0031270285874475494 0.0032731409112307141 0 0.00313390567277431 0.0032730753284350529 0 0.0031286077146924409 0.0032737823295271515 0 0.0031248299201893591 0.0032726301285150449 0 0.003124825727774211 0.0032727418179298814 0 0.00313390567277431 0.0032730753284350529 0 0.0032726495957952958 0.0026897431996324526 0 0.0035099648831497634 0.0027936224398431679 0 0.0038553594454733128 0.0022882633208627895 0 0.0039149706381195791 0.0023111375602511666 0 0.0038775591814855888 0.0023608754657869473 0 0.0031234497222189695 0.0032729571448955391 0 0.003124825727774211 0.0032727418179298814 0 0.0031270285874475494 0.0032731409112307141 0 0.0031220228936911726 0.0032727138563216824 0 0.0031270285874475494 0.0032731409112307141 0 0.0031286077146924409 0.0032737823295271515 0 0.0038903342984901216 0.0022184401777030028 0 0.003862485077551236 0.0023435415068785337 0 0.0038553594454733128 0.0022882633208627895 0 0.0038775591814855888 0.0023608754657869473 0 0.0038610622790884283 0.0023656248254879208 0 0.0039024700750163719 0.0021079865098777607 0 0.0038610622790884283 0.0023656248254879208 0 0.0037775371556458938 0.0022524365982275604 0 0.0038610622790884283 0.0023656248254879208 0 0.0037834501638014419 0.0023328351636913228 0 0.0037775371556458938 0.0022524365982275604 0 0.0038610622790884283 0.0023656248254879208 0 0.0037834501638014419 0.0023328351636913228 0 0.0037709176049873097 0.0023639121049769817 0 0.00313390567277431 0.0032730753284350529 0 0.0031352780735338483 0.0032832436829200841 0 0.0031244335717097041 0.003283533303152778 0 0.0035099648831497634 0.0027936224398431679 0 0.0036812835305611276 0.0031687026563569976 0 0.0038775591814855888 0.0023608754657869473 0 0.0038610622790884283 0.0023656248254879208 0 0.0037203583151881286 0.002504459549543113 0 0.00313390567277431 0.0032730753284350529 0 0.0031352780735338483 0.0032832436829200841 0 0.0031323404330579649 0.0032761928063652509 0 0.0032493416115215385 0.003283242874116684 0 0.0030888829214074775 0.0032808500355357476 0 0.0031243238690631171 0.0032670109625449395 0 0.0031352780735338483 0.0032832436829200841 0 0.0031294035851692778 0.0032738532141290077 0 0.0031229352588313373 0.0032717605974562974 0 0.0031294035851692778 0.0032738532141290077 0 0.0031286077146924409 0.0032737823295271515 0 0.00313390567277431 0.0032730753284350529 0 0.0031286077146924409 0.0032737823295271515 0 0.0031323404330579649 0.0032761928063652509 0 0.0031294035851692778 0.0032738532141290077 0 0.0031286077146924409 0.0032737823295271515 0 0.0031323404330579649 0.0032761928063652509 0 0.0031352780735338483 0.0032832436829200841 0 0.0031294035851692778 0.0032738532141290077 0 0.0031323404330579649 0.0032761928063652509 0 0.0031229352588313373 0.0032717605974562974 0 0.0031243238690631171 0.0032670109625449395 0 0.0031294035851692778 0.0032738532141290077 0 0.0030981374167091519 0.0033274351415812004 0 0.0031953425367114729 0.0032824839791754305 0 0.0031352334867058053 0.0032987218771391318 0 0.0031352780735338483 0.0032832436829200841 0 0.0031359554453003207 0.0032950299490032003 0 0.0031359554453003207 0.0032950299490032003 0 0.0031318204942666567 0.0033045099295826853 0 0.003133572264778086 0.0032920418006702041 0 0.0031352334867058053 0.0032987218771391318 0 0.0031359554453003207 0.0032950299490032003 0 0.003133572264778086 0.0032920418006702041 0 0.0031352780735338483 0.0032832436829200841 0 0.0031359554453003207 0.0032950299490032003 0 0.0031355885619747332 0.0032976696138426955 0 0.0031359554453003207 0.0032950299490032003 0 0.0031355885619747332 0.0032976696138426955 0 0.0031318204942666567 0.0033045099295826853 0 0.0031352780735338483 0.0032832436829200841 0 0.0031328601809128024 0.0032940919816471081 0 0.0031244335717097041 0.003283533303152778 0 0.0031352780735338483 0.0032832436829200841 0 0.0031328601809128024 0.0032940919816471081 0 0.0031355885619747332 0.0032976696138426955 0 0.0031328601809128024 0.0032940919816471081 0 0.0031355885619747332 0.0032976696138426955 0 0.0031406536077650538 0.0033083277484880851 0 0.003071243561435147 0.003162146710771631 0 0.0033074036640128816 0.0038103469388047402 0 0.0031355885619747332 0.0032976696138426955 0 0.0031406536077650538 0.0033083277484880851 0 0.0031318204942666567 0.0033045099295826853 0 0.0031971191771645682 0.0033748726734213553 0 0.0031457976966503122 0.0034470974785422923 0 0.0031189678207684981 0.0033128977271735145 0 0.0031406536077650538 0.0033083277484880851 0 0.0031971191771645682 0.0033748726734213553 0 0.0032986821376583069 0.0033978956991641139 0 0.0031406536077650538 0.0033083277484880851 0 0.0031971191771645682 0.0033748726734213553 0 0.0031189678207684981 0.0033128977271735145 0 0.0031318204942666567 0.0033045099295826853 0 0.0030925419027764815 0.0033171759792303616 0 0.0030826034319952904 0.0033605969270319061 0 0.0031406536077650538 0.0033083277484880851 0 0.0031318204942666567 0.0033045099295826853 0 0.003124526456744671 0.0032877440913872793 0 0.0031318204942666567 0.0033045099295826853 0 0.0030925419027764815 0.0033171759792303616 0 0.003124526456744671 0.0032877440913872793 0 0.0030925419027764815 0.0033171759792303616 0 0.00301969648011479 0.0033135206894433773 0 0.003124526456744671 0.0032877440913872793 0 0.0030184702671346942 0.0041192494732939875 0 0.0033074036640128816 0.0038103469388047402 0 0.0030925419027764815 0.0033171759792303616 0 0.0030826034319952904 0.0033605969270319061 0 0.00301969648011479 0.0033135206894433773 0 0.0034272179971304565 0.0041786545344148513 0 0.0032864563524096493 0.0043536468499329722 0 0.0031474066180189816 0.0042696299315085843 0 0.002490477425520807 0.0033873630406055302 0 0.0031953425367114729 0.0032824839791754305 0 0.0031352334867058053 0.0032987218771391318 0 0.0031080946419056775 0.0033016455748269393 0 0.003133572264778086 0.0032920418006702041 0 0.0021855095840016062 0.0038124761984396674 0 0.0023000611793100893 0.0038881094873922245 0 0.0023050092478384843 0.0036996366567424417 0 0.002490477425520807 0.0033873630406055302 0 0.0030184702671346942 0.0041192494732939875 0 0.0030125251622723434 0.0034076253341455043 0 0.0030826034319952904 0.0033605969270319061 0 0.00301969648011479 0.0033135206894433773 0 0.0033852529388703348 0.0051636661134797524 0 0.0035443242044709204 0.0052978653571252206 0 0.0035485926593380331 0.0050676372812667866 0 0.0030184702671346942 0.0041192494732939875 0 0.003573316035921586 0.0048556672951338645 0 0.0034272179971304565 0.0041786545344148513 0 0.0032864563524096493 0.0043536468499329722 0 0.003427166928287948 0.0044382243019935232 0 0.0036677878091219739 0.0044693677523855837 0 0.0036677644175633073 0.0044647802369157056 0 0.0036786072213727951 0.0044634476703134841 0 0.0034972139216934007 0.0044188544310766282 0 0.0033074036640128816 0.0038103469388047402 0 0.0034972139216934007 0.0044188544310766282 0 0.003573316035921586 0.0048556672951338645 0 0.0036677878091219739 0.0044693677523855837 0 0.0036677644175633073 0.0044647802369157056 0 0.0036596716514291955 0.0044697445812049734 0 0.0036677644175633073 0.0044647802369157056 0 0.0036550730421353551 0.0044574385946704858 0 0.003676439364007291 0.0044581401403894086 0 0.003573316035921586 0.0048556672951338645 0 0.0036494591129198318 0.0046343785848313715 0 0.0036677644175633073 0.0044647802369157056 0 0.0036596716514291955 0.0044697445812049734 0 0.0036550730421353551 0.0044574385946704858 0 0.0034065364680962778 0.0049857356430966625 0 0.003573316035921586 0.0048556672951338645 0 0.0034239913093908488 0.0049634767486993791 0 0.0036294991255853772 0.0050782252256055763 0 0.0036336357668310991 0.0048457606866871821 0 0.0036550730421353551 0.0044574385946704858 0 0.0036695958067425628 0.0044456370762461462 0 0.003676439364007291 0.0044581401403894086 0 0.0036550730421353551 0.0044574385946704858 0 0.0036695958067425628 0.0044456370762461462 0 0.0036438259401711899 0.0044369062889712766 0 0.0036695958067425628 0.0044456370762461462 0 0.0036438259401711899 0.0044369062889712766 0 0.003667786141459837 0.0044179442959340299 0 0.0036494591129198318 0.0046343785848313715 0 0.0036365733200698146 0.0045258095125681793 0 0.0034230657975859342 0.0047304113692936646 0 0.0036336357668310991 0.0048457606866871821 0 0.0036337558362922544 0.0046121940259176699 0 0.0038291995236091263 0.0041895096340684255 0 0.0038320659033493354 0.004180483718514259 0 0.0038207685624590047 0.0042033449767381091 0 0.0036695958067425628 0.0044456370762461462 0 0.0036993423456070321 0.0044424777845926168 0 0.003667786141459837 0.0044179442959340299 0 0.0036993423456070321 0.0044424777845926168 0 0.003676439364007291 0.0044581401403894086 0 0.0036897365781253292 0.0044569100174871 0 0.0036695958067425628 0.0044456370762461462 0 0.0036993423456070321 0.0044424777845926168 0 0.003676439364007291 0.0044581401403894086 0 0.0037568671636333214 0.0042874024753168259 0 0.0037891301044124842 0.0044492850845619502 0 0.0038291995236091263 0.0041895096340684255 0 0.0038320968386784207 0.0041843620230772802 0 0.0038320659033493354 0.004180483718514259 0 0.0038320968386784207 0.0041843620230772802 0 0.0038350405991940725 0.0041983323168147705 0 0.003843308145217046 0.0041889798627071356 0 0.0037891301044124842 0.0044492850845619502 0 0.0036561094688944509 0.003715795204905988 0 0.0036897365781253292 0.0044569100174871 0 0.0036786072213727951 0.0044634476703134841 0 0.0036870414333442679 0.0044612576987634774 0 0.0036677644175633073 0.0044647802369157056 0 0.003676439364007291 0.0044581401403894086 0 0.0036786072213727951 0.0044634476703134841 0 0.003676439364007291 0.0044581401403894086 0 0.0036897365781253292 0.0044569100174871 0 0.0036786072213727951 0.0044634476703134841 0 0.0036786072213727951 0.0044634476703134841 0 0.0036746966120496877 0.0044681167199919309 0 0.0036870414333442679 0.0044612576987634774 0 0.0036677878091219739 0.0044693677523855837 0 0.0036786072213727951 0.0044634476703134841 0 0.0036746966120496877 0.0044681167199919309 0 0.0031971191771645682 0.0033748726734213553 0 0.0032986821376583069 0.0033978956991641139 0 0.0031457976966503122 0.0034470974785422923 0 0.0033074036640128816 0.0038103469388047402 0 0.0036561094688944509 0.003715795204905988 0 0.0038680137892266727 0.002820834358144723 0 0.0042490194916137607 0.0026849286693401671 0 0.0042018969214948146 0.0030256262028707432 0 0.0036561094688944509 0.003715795204905988 0 0.0041045788535578704 0.0034090709554871427 0 0.0042490194916137607 0.0026849286693401671 0 0.0046670794950277846 0.0030110977103301332 0 0.0042018969214948146 0.0030256262028707432 0 0.0038350405991940725 0.0041983323168147705 0 0.0038618068373916887 0.0041982980435344742 0 0.003843308145217046 0.0041889798627071356 0 0.0038320968386784207 0.0041843620230772802 0 0.003843308145217046 0.0041889798627071356 0 0.0038485507998271629 0.0041754131179443186 0 0.0038618068373916887 0.0041982980435344742 0 0.003843308145217046 0.0041889798627071356 0 0.0038485507998271629 0.0041754131179443186 0 0.0038320968386784207 0.0041843620230772802 0 0.0038485507998271629 0.0041754131179443186 0 0.0038320659033493354 0.004180483718514259 0 0.0038485507998271629 0.0041754131179443186 0 0.0038837232277808666 0.0041568837523616557 0 0.0038661238469639811 0.0041484575391174472 0 0.0038618068373916887 0.0041982980435344742 0 0.0038485507998271629 0.0041754131179443186 0 0.0038837232277808666 0.0041568837523616557 0 0.0038485507998271629 0.0041754131179443186 0 0.0038320659033493354 0.004180483718514259 0 0.0038661238469639811 0.0041484575391174472 0 0.0039278717001137997 0.0041037978893551652 0 0.0038837232277808666 0.0041568837523616557 0 0.0038661238469639811 0.0041484575391174472 0 0.0039278717001137997 0.0041037978893551652 0 0.0039278676513022368 0.0040803080124656747 0 0.0038661238469639811 0.0041484575391174472 0 0.0039278717001137997 0.0041037978893551652 0 0.0038837232277808666 0.0041568837523616557 0 0.0039209188832714688 0.0041899089605574001 0 0.0039209188832714688 0.0041899089605574001 0 0.0039987876546162485 0.0040957218815017475 0 0.004045133430247691 0.0041538482302601728 0 0.0039278717001137997 0.0041037978893551652 0 0.0039209188832714688 0.0041899089605574001 0 0.0039987876546162485 0.0040957218815017475 0 0.0042755291455504564 0.0033705760037313305 0 0.0045724758099263954 0.0032691950097066265 0 0.0046484679725191441 0.0025422151351871597 0 0.0050078597550509991 0.0027297850854522791 0 0.0050069861392707206 0.0026635164255547133 0 0.0041045788535578704 0.0034090709554871427 0 0.0042755291455504564 0.0033705760037313305 0 0.0038618068373916887 0.0041982980435344742 0 0.0038837232277808666 0.0041568837523616557 0 0.0039209188832714688 0.0041899089605574001 0 0.0042490194916137607 0.0026849286693401671 0 0.0046484679725191441 0.0025422151351871597 0 0.0046670794950277846 0.0030110977103301332 0 0.004694474783230815 0.002258781254081368 0 0.0047408562313982225 0.0022734570472889059 0 0.0047811818055308111 0.0021878116009323169 0 0.0046484679725191441 0.0025422151351871597 0 0.0046670794950277846 0.0030110977103301332 0 0.0050078597550509991 0.0027297850854522791 0 0.0046468823378924629 0.0026512462480897088 0 0.0050591834778168426 0.0023818537560131806 0 0.004694474783230815 0.002258781254081368 0 0.0047408562313982225 0.0022734570472889059 0 0.004695758966204347 0.0023203818629681221 0 0.0047494273988968735 0.0023286554682051324 0 0.004695758966204347 0.0023203818629681221 0 0.0047243589627870373 0.0023610124743379739 0 0.0047408562313982225 0.0022734570472889059 0 0.0047494273988968735 0.0023286554682051324 0 0.004695758966204347 0.0023203818629681221 0 0.0047663796612211424 0.0022303239444881259 0 0.0046659879281304422 0.0023308908702810802 0 0.004695758966204347 0.0023203818629681221 0 0.0047243589627870373 0.0023610124743379739 0 0.0046665613096806054 0.0023602859962213486 0 0.0047232439031867487 0.0023276315573392595 0 0.0047663796612211424 0.0022303239444881259 0 0.004695758966204347 0.0023203818629681221 0 0.0046665613096806054 0.0023602859962213486 0 0.0046082882654374917 0.0023320555456387729 0 0.0046665613096806054 0.0023602859962213486 0 0.0046082882654374917 0.0023320555456387729 0 0.0046000415047673217 0.0023975525661656897 0 0.0046468823378924629 0.0026512462480897088 0 0.0045115468704412676 0.0028296037690127285 0 0.004694474783230815 0.002258781254081368 0 0.004695758966204347 0.0023203818629681221 0 0.0046082882654374917 0.0023320555456387729 0 0.0046670794950277846 0.0030110977103301332 0 0.0042018969214948146 0.0030256262028707432 0 0.0043543924231868704 0.0032708193439789533 0 0.0042018969214948146 0.0030256262028707432 0 0.0043543924231868704 0.0032708193439789533 0 0.0041385716730788901 0.0032352643575349112 0 0.0036561094688944509 0.003715795204905988 0 0.0035071596788806411 0.0031408917184261756 0 0.0038680137892266727 0.002820834358144723 0 0.0042018969214948146 0.0030256262028707432 0 0.003952116861112227 0.0031257220820710991 0 0.0042018969214948146 0.0030256262028707432 0 0.003952116861112227 0.0031257220820710991 0 0.0041385716730788901 0.0032352643575349112 0 0.003952116861112227 0.0031257220820710991 0 0.0041385716730788901 0.0032352643575349112 0 0.0040336083521370194 0.0034226383258592302 0 0.0035071596788806411 0.0031408917184261756 0 0.0036812835305611276 0.0031687026563569976 0 0.0031328601809128024 0.0032940919816471081 0 0.0031189678207684981 0.0033128977271735145 0 0.0031244335717097041 0.003283533303152778 0 0.0031328601809128024 0.0032940919816471081 0 0.0031406536077650538 0.0033083277484880851 0 0.0031189678207684981 0.0033128977271735145 0 0.0043543924231868704 0.0032708193439789533 0 0.0041385716730788901 0.0032352643575349112 0 0.0040336083521370194 0.0034226383258592302 0 0.0043543924231868704 0.0032708193439789533 0 0.0040336083521370194 0.0034226383258592302 0 0.0040586228799553642 0.0035193584270361224 0 0.0045115468704412676 0.0028296037690127285 0 0.0040797917131806354 0.0026834140821275177 0 0.0046000415047673217 0.0023975525661656897 0 0.0045304420960857487 0.0023990350411248829 0 0.0045390165617371194 0.0024280730592501996 0 0.0046082882654374917 0.0023320555456387729 0 0.0046000415047673217 0.0023975525661656897 0 0.0045304420960857487 0.0023990350411248829 0 0.0038610622790884283 0.0023656248254879208 0 0.0037203583151881286 0.002504459549543113 0 0.0037316777733945976 0.0024172015924338228 0 0.0037203583151881286 0.002504459549543113 0 0.0037036269792579866 0.0024447703126469485 0 0.0037316777733945976 0.0024172015924338228 0 0.0036812835305611276 0.0031687026563569976 0 0.0040797917131806354 0.0026834140821275177 0 0.004096380143061149 0.0025665296324335631 0 0.0041298557744696889 0.00253630665306788 0 0.0040767427344509085 0.0024875906759356421 0 0.0040797917131806354 0.0026834140821275177 0 0.004133413049837084 0.0024155327885156432 0 0.0037288250162530248 0.0024192267960327302 0 0.0037434851148516468 0.0024056734623682323 0 0.0036711321183616826 0.002370819184040941 0 0.0039630090418428148 0.0025442594656470896 0 0.004133413049837084 0.0024155327885156432 0 0.0040797917131806354 0.0026834140821275177 0 0.0039630090418428148 0.0025442594656470896 0 0.0038610622790884283 0.0023656248254879208 0 0.0037316777733945976 0.0024172015924338228 0 0.0037434851148516468 0.0024056734623682323 0 0.0038610622790884283 0.0023656248254879208 0 0.0037434851148516468 0.0024056734623682323 0 0.0037709176049873097 0.0023639121049769817 0 0.0039630090418428148 0.0025442594656470896 0 0.0039496082505730938 0.002544461996747033 0 0.0037434851148516468 0.0024056734623682323 0 0.0037709176049873097 0.0023639121049769817 0 0.0037279929744772665 0.0023251335478464675 0 0.0037834501638014419 0.0023328351636913228 0 0.0037279929744772665 0.0023251335478464675 0 0.0037775371556458938 0.0022524365982275604 0 0.0037834501638014419 0.0023328351636913228 0 0.0037709176049873097 0.0023639121049769817 0 0.0037279929744772665 0.0023251335478464675 0 0.0037434851148516468 0.0024056734623682323 0 0.0037279929744772665 0.0023251335478464675 0 0.0036711321183616826 0.002370819184040941 0 0.0037279929744772665 0.0023251335478464675 0 0.0036711321183616826 0.002370819184040941 0 0.0036273878200687453 0.002209379011416766 0 0.004133413049837084 0.0024155327885156432 0 0.0039480988790513158 0.002143132113745044 0 0.0037279929744772665 0.0023251335478464675 0 0.0037775371556458938 0.0022524365982275604 0 0.0036273878200687453 0.002209379011416766 0 0.0046239913349354934 0.0019715929690404268 0 0.004133413049837084 0.0024155327885156432 0 0.0041282428798496652 0.0020838344215927214 0 0.0042845614701099294 0.0022301070555938874 0 0.0042516175249158678 0.0020952615223684833 0 0.0046108414014050768 0.0024861924801144958 0 0.0046000415047673217 0.0023975525661656897 0 0.0045390165617371194 0.0024280730592501996 0 0.0046239913349354934 0.0019715929690404268 0 0.0048117685811139427 0.0021323858901915352 0 0.0049660741903091877 0.0017862804209304542 0 0.0048800950665226599 0.0018034764650454889 0 0.0049247742998912766 0.0018457810919422241 0 0.0046108414014050768 0.0024861924801144958 0 0.0046000415047673217 0.0023975525661656897 0 0.0046629246753182021 0.002422999881416271 0 0.0048800950665226599 0.0018034764650454889 0 0.0048692824428224315 0.0018637766258299117 0 0.0049247742998912766 0.0018457810919422241 0 0.0047663796612211424 0.0022303239444881259 0 0.0048117685811139427 0.0021323858901915352 0 0.0048817146248355007 0.0019078230472996639 0 0.0048692824428224315 0.0018637766258299117 0 0.0049247742998912766 0.0018457810919422241 0 0.0047146098695730687 0.0023582444070134024 0 0.0046665613096806054 0.0023602859962213486 0 0.0046629246753182021 0.002422999881416271 0 0.0046665613096806054 0.0023602859962213486 0 0.0046000415047673217 0.0023975525661656897 0 0.0046629246753182021 0.002422999881416271 0 0.0052793068729586551 0.0017205288322339721 0 0.0053294617770591945 0.0016598149000355096 0 0.0052352438678419577 0.0016645654573383367 0 0.0050216064508202254 0.0017635741106234552 0 0.005084612531439615 0.0019828038328514523 0 0.004793095754499271 0.0018333135791206438 0 0.0048367483834692252 0.001834964596913798 0 0.0048379176915935313 0.0018935554375711084 0 0.0048817146248355007 0.0019078230472996639 0 0.0048692824428224315 0.0018637766258299117 0 0.0048275225829711357 0.0019086326945460608 0 0.0048692824428224315 0.0018637766258299117 0 0.0048291033883181463 0.0018452803307078146 0 0.0048275225829711357 0.0019086326945460608 0 0.0048323258736391022 0.0018260778658505854 0 0.005084612531439615 0.0019828038328514523 0 0.0048296098874525658 0.0017813673608018477 0 0.0048800950665226599 0.0018034764650454889 0 0.0048291033883181463 0.0018452803307078146 0 0.0048296098874525658 0.0017813673608018477 0 0.0048367483834692252 0.001834964596913798 0 0.0047938634631163558 0.0017905219633700829 0 0.0048303246459828614 0.0017932781390735707 0 0.0048323258736391022 0.0018260778658505854 0 0.0048800950665226599 0.0018034764650454889 0 0.0048692824428224315 0.0018637766258299117 0 0.0048291033883181463 0.0018452803307078146 0 0.0050891868344702862 0.0016213765322172999 0 0.0050216064508202254 0.0017635741106234552 0 0.0047528085027302687 0.0017759233674157526 0 0.004793095754499271 0.0018333135791206438 0 0.0047938634631163558 0.0017905219633700829 0 0.004793095754499271 0.0018333135791206438 0 0.0048367483834692252 0.001834964596913798 0 0.0047938634631163558 0.0017905219633700829 0 0.0053218209207507019 0.001776986469573649 0 0.0052793068729586551 0.0017205288322339721 0 0.0053314147452435756 0.0017116674870656554 0 0.0050891868344702862 0.0016213765322172999 0 0.0054449628912216341 0.0015437348806620356 0 0.0053218209207507019 0.001776986469573649 0 0.0053729977802726616 0.001724941067628623 0 0.0053314147452435756 0.0017116674870656554 0 0.0053260302862675694 0.0015063268184469499 0 0.0052932283746896635 0.0015030002133082463 0 0.0053449919594495731 0.001450536316367073 0 0.0056445669776660993 0.0013383079974662426 0 0.0056079688226334324 0.0014626414444400084 0 0.0054527665520846414 0.0014354048010544157 0 0.0054703935623588188 0.0013023463453444143 0 0.0054449628912216341 0.0015437348806620356 0 0.0054703935623588188 0.0013023463453444143 0 0.0055024846039274326 0.001379879112530114 0 0.005535609287862041 0.0012296888361516714 0 0.0056725043494829279 0.0012282552494949819 0 0.0054731644130803407 0.0013425119117615235 0 0.0053777371884165875 0.0016973562230406958 0 0.0053294617770591945 0.0016598149000355096 0 0.005420991485823143 0.0016583798744061636 0 0.0053729977802726616 0.001724941067628623 0 0.0053777371884165875 0.0016973562230406958 0 0.0054257196981135816 0.0016707695247806166 0 0.0056079688226334324 0.0014626414444400084 0 0.0054942619377331241 0.0015952259237562152 0 0.005494110915651584 0.0015084850627770767 0 0.0054449628912216341 0.0015437348806620356 0 0.0054601878445130134 0.0016427111927470425 0 0.0053729977802726616 0.001724941067628623 0 0.0053777371884165875 0.0016973562230406958 0 0.0053554266397550388 0.0017078378642040287 0 0.0054083147061642772 0.0016690847475043856 0 0.0053790964111001599 0.0017721448836259884 0 0.0053777371884165875 0.0016973562230406958 0 0.0054257196981135816 0.0016707695247806166 0 0.0054240917682705989 0.0016681499078483293 0 0.0052793068729586551 0.0017205288322339721 0 0.0053314147452435756 0.0017116674870656554 0 0.0053294617770591945 0.0016598149000355096 0 0.0053314147452435756 0.0017116674870656554 0 0.0053554266397550388 0.0017078378642040287 0 0.0053294617770591945 0.0016598149000355096 0 0.0053729977802726616 0.001724941067628623 0 0.0053314147452435756 0.0017116674870656554 0 0.0053554266397550388 0.0017078378642040287 0 0.0053777371884165875 0.0016973562230406958 0 0.0053554266397550388 0.0017078378642040287 0 0.0053294617770591945 0.0016598149000355096 0 0.0054908474810558255 0.0020111747330969891 0 0.005464123628872909 0.002084622234859849 0 0.005549340738017096 0.0020673179542995716 0 0.0054908474810558255 0.0020111747330969891 0 0.005464123628872909 0.002084622234859849 0 0.0053745966815308861 0.0020059647379084122 0 0.0054865830790103128 0.0018238228807640337 0 0.0053790964111001599 0.0017721448836259884 0 0.005464123628872909 0.002084622234859849 0 0.005379584796121239 0.0021070110270766328 0 0.0053745966815308861 0.0020059647379084122 0 0.005464123628872909 0.002084622234859849 0 0.0054534275589219593 0.00217169667286779 0 0.005379584796121239 0.0021070110270766328 0 0.005464123628872909 0.002084622234859849 0 0.005549340738017096 0.0020673179542995716 0 0.0055323546289965169 0.0021542343387190525 0 0.005549340738017096 0.0020673179542995716 0 0.0056219690241481012 0.002103361676215291 0 0.0055323546289965169 0.0021542343387190525 0 0.0054865830790103128 0.0018238228807640337 0 0.005084612531439615 0.0019828038328514523 0 0.0054908474810558255 0.0020111747330969891 0 0.005549340738017096 0.0020673179542995716 0 0.0056072405445692971 0.0020105835122312334 0 0.0047663796612211424 0.0022303239444881259 0 0.005084612531439615 0.0019828038328514523 0 0.0047494273988968735 0.0023286554682051324 0 0.0047288750207714796 0.0023559286655369166 0 0.0047925967012003917 0.0023547370384610555 0 0.005084612531439615 0.0019828038328514523 0 0.0052137076089360411 0.0021932533042286991 0 0.005549340738017096 0.0020673179542995716 0 0.0056072405445692971 0.0020105835122312334 0 0.0056219690241481012 0.002103361676215291 0 0.0047494273988968735 0.0023286554682051324 0 0.0047925967012003917 0.0023547370384610555 0 0.0047831170803621283 0.0022722810981309271 0 0.0047408562313982225 0.0022734570472889059 0 0.0047831170803621283 0.0022722810981309271 0 0.0047811818055308111 0.0021878116009323169 0 0.0047408562313982225 0.0022734570472889059 0 0.0047494273988968735 0.0023286554682051324 0 0.0047831170803621283 0.0022722810981309271 0 0.0052137076089360411 0.0021932533042286991 0 0.0050591834778168426 0.0023818537560131806 0 0.0056219690241481012 0.002103361676215291 0 0.0056297553960101788 0.0022027963464801657 0 0.0055796592299169759 0.002188640773331401 0 0.0050591834778168426 0.0023818537560131806 0 0.0050565191753350943 0.0025128547092347921 0 0.0056219690241481012 0.002103361676215291 0 0.0055323546289965169 0.0021542343387190525 0 0.0055796592299169759 0.002188640773331401 0 0.0055323546289965169 0.0021542343387190525 0 0.0055379364857108936 0.0022281632466892251 0 0.0054878651426533698 0.0022422566662624759 0 0.0055323546289965169 0.0021542343387190525 0 0.0055796592299169759 0.002188640773331401 0 0.0055379364857108936 0.0022281632466892251 0 0.0052433466193626353 0.0025291805594280909 0 0.0050915072144920954 0.0023853598669147913 0 0.0054655859283235571 0.0023379980137955658 0 0.0055379364857108936 0.0022281632466892251 0 0.0055070733297542251 0.0022702834437706662 0 0.0054878651426533698 0.0022422566662624759 0 0.0055379364857108936 0.0022281632466892251 0 0.005573902648885032 0.0022624060690869799 0 0.0055070733297542251 0.0022702834437706662 0 0.0055796592299169759 0.002188640773331401 0 0.0055379364857108936 0.0022281632466892251 0 0.005573902648885032 0.0022624060690869799 0 0.005573902648885032 0.0022624060690869799 0 0.0055070733297542251 0.0022702834437706662 0 0.0054655859283235571 0.0023379980137955658 0 0.0054253619483330797 0.0023780496471624119 0 0.0054555201182860539 0.0023492747902784418 0 0.0046484679725191441 0.0025422151351871597 0 0.0050069861392707206 0.0026635164255547133 0 0.005091116424361903 0.0025364977341518903 0 0.0046484679725191441 0.0025422151351871597 0 0.005091116424361903 0.0025364977341518903 0 0.0050915072144920954 0.0023853598669147913 0 0.0052433466193626353 0.0025291805594280909 0 0.0050069861392707206 0.0026635164255547133 0 0.005091116424361903 0.0025364977341518903 0 0.0050591834778168426 0.0023818537560131806 0 0.0054253619483330797 0.0023780496471624119 0 0.0056297553960101788 0.0022027963464801657 0 0.0055796592299169759 0.002188640773331401 0 0.005573902648885032 0.0022624060690869799 0 0.0050103476614519662 0.0027327160809769743 0 0.0052433466193626353 0.0025291805594280909 0 0.0050069861392707206 0.0026635164255547133 0 0.0052433466193626353 0.0025291805594280909 0 0.005091116424361903 0.0025364977341518903 0 0.0050915072144920954 0.0023853598669147913 0 0.0039987876546162485 0.0040957218815017475 0 0.004045133430247691 0.0041538482302601728 0 0.0040988139554354588 0.0040255570770198843 0 0.0045724758099263954 0.0032691950097066265 0 0.0048691733366975441 0.0031717405086415643 0 0.004045133430247691 0.0041538482302601728 0 0.0041552651455852435 0.0040429850300295013 0 0.0042587420415970932 0.0040515061921421042 0 0.0050915072144920954 0.0023853598669147913 0 0.0055089502225665818 0.0022895722035400929 0 0.0054655859283235571 0.0023379980137955658 0 0.004045133430247691 0.0041538482302601728 0 0.0041552651455852435 0.0040429850300295013 0 0.0040988139554354588 0.0040255570770198843 0 0.0040988139554354588 0.0040255570770198843 0 0.0042303702649348317 0.0039152576398646961 0 0.0040455521647351691 0.0039517279698057994 0 0.0041552651455852435 0.0040429850300295013 0 0.0040988139554354588 0.0040255570770198843 0 0.0042303702649348317 0.0039152576398646961 0 0.0041552651455852435 0.0040429850300295013 0 0.0042303702649348317 0.0039152576398646961 0 0.0042587420415970932 0.0040515061921421042 0 0.0039987876546162485 0.0040957218815017475 0 0.0040988139554354588 0.0040255570770198843 0 0.0040455521647351691 0.0039517279698057994 0 0.0039278717001137997 0.0041037978893551652 0 0.0039987876546162485 0.0040957218815017475 0 0.0040455521647351691 0.0039517279698057994 0 0.0045068857420967525 0.0038287550393345531 0 0.0042303702649348317 0.0039152576398646961 0 0.0042927574569084342 0.0037537106809555371 0 0.0045068857420967525 0.0038287550393345531 0 0.0042303702649348317 0.0039152576398646961 0 0.0042587420415970932 0.0040515061921421042 0 0.0054280312984782367 0.0023825814202240209 0 0.0055089502225665818 0.0022895722035400929 0 0.0054797463555530945 0.0022953078085064431 0 0.0055089502225665818 0.0022895722035400929 0 0.0054875526963422344 0.0023093240819911523 0 0.0054797463555530945 0.0022953078085064431 0 0.0055089502225665818 0.0022895722035400929 0 0.0054655859283235571 0.0023379980137955658 0 0.0054875526963422344 0.0023093240819911523 0 0.0054875526963422344 0.0023093240819911523 0 0.0054797463555530945 0.0022953078085064431 0 0.0054859235810439493 0.0022894611425725311 0 0.0054655859283235571 0.0023379980137955658 0 0.0054875526963422344 0.0023093240819911523 0 0.0054859235810439493 0.0022894611425725311 0 0.0054280312984782367 0.0023825814202240209 0 0.0054411031596444765 0.0022590235937508603 0 0.0053852029784242387 0.0023074737847550374 0 0.0049591211185866608 0.0031058190896438441 0 0.0048691733366975441 0.0031717405086415643 0 0.0054280312984782367 0.0023825814202240209 0 0.0054797463555530945 0.0022953078085064431 0 0.0054411031596444765 0.0022590235937508603 0 0.0054411031596444765 0.0022590235937508603 0 0.0054534275589219593 0.00217169667286779 0 0.0053783494176924979 0.0022003814921998325 0 0.0054797463555530945 0.0022953078085064431 0 0.0054411031596444765 0.0022590235937508603 0 0.0054878651426533698 0.0022422566662624759 0 0.0054411031596444765 0.0022590235937508603 0 0.0054878651426533698 0.0022422566662624759 0 0.0054534275589219593 0.00217169667286779 0 0.0054797463555530945 0.0022953078085064431 0 0.0054859235810439493 0.0022894611425725311 0 0.0054878651426533698 0.0022422566662624759 0 0.0055070733297542251 0.0022702834437706662 0 0.0054859235810439493 0.0022894611425725311 0 0.0054878651426533698 0.0022422566662624759 0 0.0055070733297542251 0.0022702834437706662 0 0.0054655859283235571 0.0023379980137955658 0 0.0054859235810439493 0.0022894611425725311 0 0.005464123628872909 0.002084622234859849 0 0.0055323546289965169 0.0021542343387190525 0 0.0054534275589219593 0.00217169667286779 0 0.0055323546289965169 0.0021542343387190525 0 0.0054878651426533698 0.0022422566662624759 0 0.0054534275589219593 0.00217169667286779 0 0.0054534275589219593 0.00217169667286779 0 0.0053783494176924979 0.0022003814921998325 0 0.005379584796121239 0.0021070110270766328 0 0.0052849460060320503 0.0021465735700188634 0 0.0053783494176924979 0.0022003814921998325 0 0.005379584796121239 0.0021070110270766328 0 0.0052849460060320503 0.0021465735700188634 0 0.0051633669213621584 0.0021120366968501833 0 0.0052866827597084333 0.0020700840474769861 0 0.0052849460060320503 0.0021465735700188634 0 0.0052867909194063457 0.0022491379036923779 0 0.0051633669213621584 0.0021120366968501833 0 0.0052849460060320503 0.0021465735700188634 0 0.0052867909194063457 0.0022491379036923779 0 0.0053783494176924979 0.0022003814921998325 0 0.0054411031596444765 0.0022590235937508603 0 0.0053783494176924979 0.0022003814921998325 0 0.0053852029784242387 0.0023074737847550374 0 0.0052867909194063457 0.0022491379036923779 0 0.0053783494176924979 0.0022003814921998325 0 0.0053852029784242387 0.0023074737847550374 0 0.0052867909194063457 0.0022491379036923779 0 0.0053346603217880959 0.0024974759100468437 0 0.0051361556801780362 0.0023347889988933851 0 0.0052867909194063457 0.0022491379036923779 0 0.0053852029784242387 0.0023074737847550374 0 0.0053346603217880959 0.0024974759100468437 0 0.0049591211185866608 0.0031058190896438441 0 0.0050463983550529624 0.0029710402926025406 0 0.0045068857420967525 0.0038287550393345531 0 0.0048214008291299713 0.0034571709227329242 0 0.0044963977162835039 0.0036010136335875341 0 0.0054280312984782367 0.0023825814202240209 0 0.0053852029784242387 0.0023074737847550374 0 0.0053346603217880959 0.0024974759100468437 0 0.0049998214427844009 0.0024478548257622847 0 0.0051361556801780362 0.0023347889988933851 0 0.0050808374275746297 0.0027523261930175705 0 0.0053346603217880959 0.0024974759100468437 0 0.0051361556801780362 0.0023347889988933851 0 0.0050808374275746297 0.0027523261930175705 0 0.0050463983550529624 0.0029710402926025406 0 0.0050530741470292606 0.0028058298389567774 0 0.0049998214427844009 0.0024478548257622847 0 0.0051361556801780362 0.0023347889988933851 0 0.0050000807217151898 0.0021532246641836005 0 0.0050000249748244872 0.0021531225380552487 0 0.0051710484585302885 0.0020376804098507207 0 0.0051361556801780362 0.0023347889988933851 0 0.0050000807217151898 0.0021532246641836005 0 0.0051633669213621584 0.0021120366968501833 0 0.0052867909194063457 0.0022491379036923779 0 0.0051361556801780362 0.0023347889988933851 0 0.0051633669213621584 0.0021120366968501833 0 0.0051710484585302885 0.0020376804098507207 0 0.0053181380718350327 0.0019355234493468319 0 0.0051876132632753362 0.0019618483101216918 0 0.0049999870397124694 0.0018896430337896543 0 0.0051422025600122816 0.0018046429765641967 0 0.0050000029442127244 0.0021531246433507231 0 0.0051876132632753362 0.0019618483101216918 0 0.0049999870397124694 0.0018896430337896543 0 0.0049999870397124694 0.0018896430337896543 0 0.0051422025600122816 0.0018046429765641967 0 0.0050000118642963311 0.00162625113018114 0 0.0051422025600122816 0.0018046429765641967 0 0.0050000118642963311 0.00162625113018114 0 0.0052119677843390682 0.0016850324440438177 0 0.0052119677843390682 0.0016850324440438177 0 0.0053096969426361844 0.001674309413310931 0 0.0052401408409766728 0.0015325317793937103 0 0.0050000118642963311 0.00162625113018114 0 0.0052119677843390682 0.0016850324440438177 0 0.0052401408409766728 0.0015325317793937103 0 0.0051876132632753362 0.0019618483101216918 0 0.0051422025600122816 0.0018046429765641967 0 0.0053559790485711361 0.0017751258031373548 0 0.0051422025600122816 0.0018046429765641967 0 0.0052119677843390682 0.0016850324440438177 0 0.0053559790485711361 0.0017751258031373548 0 0.0052849460060320503 0.0021465735700188634 0 0.0052866827597084333 0.0020700840474769861 0 0.005379584796121239 0.0021070110270766328 0 0.0053559790485711361 0.0017751258031373548 0 0.0053648646932185845 0.0017475194326203201 0 0.0053096969426361844 0.001674309413310931 0 0.0052866827597084333 0.0020700840474769861 0 0.005379584796121239 0.0021070110270766328 0 0.0053745966815308861 0.0020059647379084122 0 0.0053710085833443529 0.0017366094503782916 0 0.0054601878445130134 0.0016427111927470425 0 0.0053181380718350327 0.0019355234493468319 0 0.0053790964111001599 0.0017721448836259884 0 0.0053648646932185845 0.0017475194326203201 0 0.0054076633141894141 0.0016260291168256258 0 0.0054942619377331241 0.0015952259237562152 0 0.0053648646932185845 0.0017475194326203201 0 0.0054206846811150388 0.0016843543398301658 0 0.0054257196981135816 0.0016707695247806166 0 0.0053559790485711361 0.0017751258031373548 0 0.0053648646932185845 0.0017475194326203201 0 0.0054314713801061473 0.0016826163227055381 0 0.0053648646932185845 0.0017475194326203201 0 0.0054206846811150388 0.0016843543398301658 0 0.0054314713801061473 0.0016826163227055381 0 0.0053882218907677654 0.0017658957195200175 0 0.0053790964111001599 0.0017721448836259884 0 0.0054206846811150388 0.0016843543398301658 0 0.0054257196981135816 0.0016707695247806166 0 0.0054240917682705989 0.0016681499078483293 0 0.0052119677843390682 0.0016850324440438177 0 0.0053559790485711361 0.0017751258031373548 0 0.0053096969426361844 0.001674309413310931 0 0.0053096969426361844 0.001674309413310931 0 0.0053572593643864729 0.0016040399133534433 0 0.0052401408409766728 0.0015325317793937103 0 0.0053648646932185845 0.0017475194326203201 0 0.0053096969426361844 0.001674309413310931 0 0.005364531184648619 0.001661035149981257 0 0.0053648646932185845 0.0017475194326203201 0 0.0054076633141894141 0.0016260291168256258 0 0.005364531184648619 0.001661035149981257 0 0.0053096969426361844 0.001674309413310931 0 0.005364531184648619 0.001661035149981257 0 0.0053572593643864729 0.0016040399133534433 0 0.0054076633141894141 0.0016260291168256258 0 0.005364531184648619 0.001661035149981257 0 0.0053572593643864729 0.0016040399133534433 0 0.0055024846039274326 0.001379879112530114 0 0.0052319400218808591 0.0015098334193467677 0 0.0053572593643864729 0.0016040399133534433 0 0.005418338285100412 0.0015420017309657158 0 0.0052401408409766728 0.0015325317793937103 0 0.005418338285100412 0.0015420017309657158 0 0.0054527665520846414 0.0014354048010544157 0 0.0052401408409766728 0.0015325317793937103 0 0.0054076633141894141 0.0016260291168256258 0 0.0053572593643864729 0.0016040399133534433 0 0.005418338285100412 0.0015420017309657158 0 0.0054942619377331241 0.0015952259237562152 0 0.005418338285100412 0.0015420017309657158 0 0.005494110915651584 0.0015084850627770767 0 0.0054076633141894141 0.0016260291168256258 0 0.0054942619377331241 0.0015952259237562152 0 0.005418338285100412 0.0015420017309657158 0 0.005418338285100412 0.0015420017309657158 0 0.005494110915651584 0.0015084850627770767 0 0.0054527665520846414 0.0014354048010544157 0 0.0054073212119427113 0.0012413339969804308 0 0.005535609287862041 0.0012296888361516714 0 0.0054731644130803407 0.0013425119117615235 0 0.0056079688226334324 0.0014626414444400084 0 0.005494110915651584 0.0015084850627770767 0 0.0054527665520846414 0.0014354048010544157 0 0.0054731644130803407 0.0013425119117615235 0 0.0053235956823003 0.0013344127645531954 0 0.0052456789873546236 0.0014804214007652584 0 0.0054073212119427113 0.0012413339969804308 0 0.0054731644130803407 0.0013425119117615235 0 0.0053235956823003 0.0013344127645531954 0 0.0051909991771411715 0.001255141080302373 0 0.0054073212119427113 0.0012413339969804308 0 0.0053235956823003 0.0013344127645531954 0 0.0051909991771411715 0.001255141080302373 0 0.0053235956823003 0.0013344127645531954 0 0.0052456789873546236 0.0014804214007652584 0 0.0051909991771411715 0.001255141080302373 0 0.0049999896097379206 0.0014133299075958802 0 0.0052456789873546236 0.0014804214007652584 0 0.0049999941053845533 0.0012268506489656991 0 0.0051979548847471396 0.0012446599224486639 0 0.0050000018085071037 0.0014133155476076251 0 0.0051964575488439007 0.0012485213821358955 0 0.0050000316777828093 0.0014132913556137822 0 0.005000000815624365 0.001626176965237099 0 0.0049999896097379206 0.0014133299075958802 0 0.0052456789873546236 0.0014804214007652584 0 0.0050000500631044676 0.0016261779182030686 0 0.0052319400218808591 0.0015098334193467677 0 0.0049914589396559093 0.003559755710441133 0 0.0049996015888049937 0.003365014041008346 0 0.0049716562775112029 0.0038899549499754917 0 0.0049914589396559093 0.003559755710441133 0 0.0049819649069598425 0.0036157997416050264 0 0.0049375317152958436 0.0035801957676097856 0 0.0049914589396559093 0.003559755710441133 0 0.0049819649069598425 0.0036157997416050264 0 0.004981087046154211 0.0037415037496747912 0 0.0049819649069598425 0.0036157997416050264 0 0.0049896474704698695 0.0036590009858378661 0 0.004981087046154211 0.0037415037496747912 0 0.0049685051560450005 0.0036147058696073897 0 0.0049819649069598425 0.0036157997416050264 0 0.0049896474704698695 0.0036590009858378661 0 0.0049685051560450005 0.0036147058696073897 0 0.0049436489331428773 0.0035865660747559469 0 0.0049325307374624306 0.0036021556772299142 0 0.0049685051560450005 0.0036147058696073897 0 0.0049436489331428773 0.0035865660747559469 0 0.0049896474704698695 0.0036590009858378661 0 0.0049436489331428773 0.0035865660747559469 0 0.0049362046729017591 0.0035714411758842489 0 0.0049896474704698695 0.0036590009858378661 0 0.0049685051560450005 0.0036147058696073897 0 0.0049325307374624306 0.0036021556772299142 0 0.0049819649069598425 0.0036157997416050264 0 0.0048797174263953873 0.0033329638707365787 0 0.0046698805355628184 0.0036717988517600678 0 0.0042052291030200174 0.0038386833102764381 0 0.0045096866786499797 0.0039649205300377717 0 0.004162142050911896 0.0038014659375087043 0 0.0037314367490642701 0.0041613673788196762 0 0.0040200369637124157 0.0040874040481253086 0 0.0039141785437987325 0.0041900983971996635 0 0.0046171685361607413 0.0036348063938360965 0 0.0045096866786499797 0.0039649205300377717 0 0.0049436489331428773 0.0035865660747559469 0 0.0048615108827350087 0.0035221055657819072 0 0.0049362046729017591 0.0035714411758842489 0 0.0048615108827350087 0.0035221055657819072 0 0.0048797174263953873 0.0033329638707365787 0 0.0046698805355628184 0.0036717988517600678 0 0.0049436489331428773 0.0035865660747559469 0 0.0049325307374624306 0.0036021556772299142 0 0.0048615108827350087 0.0035221055657819072 0 0.0048615108827350087 0.0035221055657819072 0 0.0046698805355628184 0.0036717988517600678 0 0.0048145664435159221 0.0036829340048794763 0 0.0049325307374624306 0.0036021556772299142 0 0.0048615108827350087 0.0035221055657819072 0 0.0048145664435159221 0.0036829340048794763 0 0.0046698805355628184 0.0036717988517600678 0 0.0048145664435159221 0.0036829340048794763 0 0.0045481301310004883 0.0038236526523552751 0 0.0048145664435159221 0.0036829340048794763 0 0.0045481301310004883 0.0038236526523552751 0 0.0048352035298348936 0.0036234941721523133 0 0.0049325307374624306 0.0036021556772299142 0 0.0049819649069598425 0.0036157997416050264 0 0.0049375317152958436 0.0035801957676097856 0 0.0049325307374624306 0.0036021556772299142 0 0.0048145664435159221 0.0036829340048794763 0 0.0049375317152958436 0.0035801957676097856 0 0.0048145664435159221 0.0036829340048794763 0 0.0049375317152958436 0.0035801957676097856 0 0.0048352035298348936 0.0036234941721523133 0 0.0049375317152958436 0.0035801957676097856 0 0.0048352035298348936 0.0036234941721523133 0 0.0049456603401576288 0.0033224183817498623 0 0.0048352035298348936 0.0036234941721523133 0 0.0049454272968992982 0.0034401839910051793 0 0.0049456603401576288 0.0033224183817498623 0 0.0045481301310004883 0.0038236526523552751 0 0.0048352035298348936 0.0036234941721523133 0 0.0049454272968992982 0.0034401839910051793 0 0.0045559450829939846 0.0037752137480020998 0 0.0045834994027136554 0.003690510932589851 0 0.0049454272968992982 0.0034401839910051793 0 0.0049456603401576288 0.0033224183817498623 0 0.0048705904704233896 0.0032009713816140428 0 0.0049996015888049937 0.003365014041008346 0 0.0049456603401576288 0.0033224183817498623 0 0.0049998985977142219 0.0028408527063389965 0 0.0049914589396559093 0.003559755710441133 0 0.0049375317152958436 0.0035801957676097856 0 0.0049456603401576288 0.0033224183817498623 0 0.0049914589396559093 0.003559755710441133 0 0.0049996015888049937 0.003365014041008346 0 0.0049456603401576288 0.0033224183817498623 0 0.0049456603401576288 0.0033224183817498623 0 0.0049998985977142219 0.0028408527063389965 0 0.0049779925527712546 0.0030383214066769001 0 0.0049998214427844009 0.0024478548257622847 0 0.0049998985977142219 0.0028408527063389965 0 0.0050808374275746297 0.0027523261930175705 0 0.0049998985977142219 0.0028408527063389965 0 0.0049779925527712546 0.0030383214066769001 0 0.0050808374275746297 0.0027523261930175705 0 0.0048214008291299713 0.0034571709227329242 0 0.0050808374275746297 0.0027523261930175705 0 0.0049392730021750163 0.0031093264028687669 0 0.0049779925527712546 0.0030383214066769001 0 0.0050808374275746297 0.0027523261930175705 0 0.0049392730021750163 0.0031093264028687669 0 0.0048214008291299713 0.0034571709227329242 0 0.0045958870487770118 0.0033814864952038323 0 0.0044963977162835039 0.0036010136335875341 0 0.0048214008291299713 0.0034571709227329242 0 0.0049392730021750163 0.0031093264028687669 0 0.0045958870487770118 0.0033814864952038323 0 0.0049779925527712546 0.0030383214066769001 0 0.0049392730021750163 0.0031093264028687669 0 0.0045958870487770118 0.0033814864952038323 0 0.0045912010019017336 0.0034190141396285181 0 0.0045759036837305063 0.0034940057187485942 0 0.0049456603401576288 0.0033224183817498623 0 0.0049779925527712546 0.0030383214066769001 0 0.0048705904704233896 0.0032009713816140428 0 0.0049779925527712546 0.0030383214066769001 0 0.0045958870487770118 0.0033814864952038323 0 0.0048705904704233896 0.0032009713816140428 0 0.0045834994027136554 0.003690510932589851 0 0.0045759036837305063 0.0034940057187485942 0 0.0042673554696690732 0.0037355353842734623 0 0.0043085923451577236 0.0036665370866810474 0 0.0042311133455440525 0.0039286574435861013 0 0.0043085923451577236 0.0036665370866810474 0 0.0041780171924220453 0.0039298044746334622 0 0.0042311133455440525 0.0039286574435861013 0 0.0045958870487770118 0.0033814864952038323 0 0.0042673554696690732 0.0037355353842734623 0 0.0043085923451577236 0.0036665370866810474 0 0.0043085923451577236 0.0036665370866810474 0 0.0042927574569084342 0.0037537106809555371 0 0.0044963977162835039 0.0036010136335875341 0 0.0045958870487770118 0.0033814864952038323 0 0.0043085923451577236 0.0036665370866810474 0 0.0044963977162835039 0.0036010136335875341 0 0.0043085923451577236 0.0036665370866810474 0 0.0042927574569084342 0.0037537106809555371 0 0.0041892335881304303 0.0037676923878359431 0 0.0045068857420967525 0.0038287550393345531 0 0.0042927574569084342 0.0037537106809555371 0 0.0044963977162835039 0.0036010136335875341 0 0.0040474552325896985 0.0039683602164859097 0 0.0040300550631335941 0.0039681551231251994 0 0.0040455521647351691 0.0039517279698057994 0 0.0039176092637996391 0.0041135429366086114 0 0.0039278676513022368 0.0040803080124656747 0 0.0042303702649348317 0.0039152576398646961 0 0.0042927574569084342 0.0037537106809555371 0 0.0040455521647351691 0.0039517279698057994 0 0.0042927574569084342 0.0037537106809555371 0 0.0040455521647351691 0.0039517279698057994 0 0.0041892335881304303 0.0037676923878359431 0 0.0040455521647351691 0.0039517279698057994 0 0.0041892335881304303 0.0037676923878359431 0 0.0041358267071595319 0.0038000283286944844 0 0.0041892335881304303 0.0037676923878359431 0 0.0041358267071595319 0.0038000283286944844 0 0.0041682626631332894 0.0038353807812714961 0 0.0041358267071595319 0.0038000283286944844 0 0.0041682626631332894 0.0038353807812714961 0 0.004141899687462364 0.003939881129807166 0 0.0043085923451577236 0.0036665370866810474 0 0.0041892335881304303 0.0037676923878359431 0 0.0041682626631332894 0.0038353807812714961 0 0.0043085923451577236 0.0036665370866810474 0 0.0041682626631332894 0.0038353807812714961 0 0.0041780171924220453 0.0039298044746334622 0 0.0041682626631332894 0.0038353807812714961 0 0.0040809943153945075 0.004061451481131257 0 0.0041780171924220453 0.0039298044746334622 0 0.0041682626631332894 0.0038353807812714961 0 0.0040809943153945075 0.004061451481131257 0 0.004141899687462364 0.003939881129807166 0 0.0040809943153945075 0.004061451481131257 0 0.0040008655217641893 0.004158155743948397 0 0.0040483875997304533 0.0041204745603432144 0 0.0040809943153945075 0.004061451481131257 0 0.0041085603456225573 0.0040384143619276976 0 0.0040483875997304533 0.0041204745603432144 0 0.0041085603456225573 0.0040384143619276976 0 0.0040483875997304533 0.0041204745603432144 0 0.0040989160485116914 0.0040424211895495228 0 0.0040809943153945075 0.004061451481131257 0 0.0041085603456225573 0.0040384143619276976 0 0.0041780171924220453 0.0039298044746334622 0 0.0041085603456225573 0.0040384143619276976 0 0.0041780171924220453 0.0039298044746334622 0 0.0041571998522509689 0.0040014871067401668 0 0.0041780171924220453 0.0039298044746334622 0 0.0042311133455440525 0.0039286574435861013 0 0.0041571998522509689 0.0040014871067401668 0 0.0042385618410147787 0.0039814312858557173 0 0.0042311133455440525 0.0039286574435861013 0 0.0042279125508679792 0.0039737433070307559 0 0.0042385618410147787 0.0039814312858557173 0 0.0042673554696690732 0.0037355353842734623 0 0.0042311133455440525 0.0039286574435861013 0 0.0045481301310004883 0.0038236526523552751 0 0.0042385618410147787 0.0039814312858557173 0 0.0042279125508679792 0.0039737433070307559 0 0.0042311133455440525 0.0039286574435861013 0 0.0042279125508679792 0.0039737433070307559 0 0.0041571998522509689 0.0040014871067401668 0 0.0042279125508679792 0.0039737433070307559 0 0.0041571998522509689 0.0040014871067401668 0 0.0041188746070854529 0.0039930465026080551 0 0.0041085603456225573 0.0040384143619276976 0 0.0041571998522509689 0.0040014871067401668 0 0.0040989160485116914 0.0040424211895495228 0 0.0041188746070854529 0.0039930465026080551 0 0.0040686198292408642 0.004118572132328812 0 0.0040989160485116914 0.0040424211895495228 0 0.0041571998522509689 0.0040014871067401668 0 0.0041188746070854529 0.0039930465026080551 0 0.0040989160485116914 0.0040424211895495228 0 0.0045481301310004883 0.0038236526523552751 0 0.0042279125508679792 0.0039737433070307559 0 0.0042052291030200174 0.0038386833102764381 0 0.0042279125508679792 0.0039737433070307559 0 0.0041188746070854529 0.0039930465026080551 0 0.0042052291030200174 0.0038386833102764381 0 0.0041188746070854529 0.0039930465026080551 0 0.0042052291030200174 0.0038386833102764381 0 0.0040981460792221648 0.0040584153012814764 0 0.0046698805355628184 0.0036717988517600678 0 0.0045481301310004883 0.0038236526523552751 0 0.0042052291030200174 0.0038386833102764381 0 0.0037314367490642701 0.0041613673788196762 0 0.0042052291030200174 0.0038386833102764381 0 0.0040200369637124157 0.0040874040481253086 0 0.0040981460792221648 0.0040584153012814764 0 0.0040212198318721115 0.0042902927461410416 0 0.0039939937593708313 0.0041828404797345682 0 0.0042052291030200174 0.0038386833102764381 0 0.0040200369637124157 0.0040874040481253086 0 0.0040981460792221648 0.0040584153012814764 0 0.0040200369637124157 0.0040874040481253086 0 0.0040981460792221648 0.0040584153012814764 0 0.0039939937593708313 0.0041828404797345682 0 0.0040200369637124157 0.0040874040481253086 0 0.0039141785437987325 0.0041900983971996635 0 0.0039939937593708313 0.0041828404797345682 0 0.0040686198292408642 0.004118572132328812 0 0.0040981460792221648 0.0040584153012814764 0 0.0040212198318721115 0.0042902927461410416 0 0.0041188746070854529 0.0039930465026080551 0 0.0040686198292408642 0.004118572132328812 0 0.0040981460792221648 0.0040584153012814764 0 0.0040686198292408642 0.004118572132328812 0 0.0040128541901353898 0.0042157889520069566 0 0.004011132450843705 0.0042916993050897238 0 0.0040128541901353898 0.0042157889520069566 0 0.0039550304788359006 0.0042451090514575894 0 0.0039401406572182199 0.004372720533675661 0 0.0040128541901353898 0.0042157889520069566 0 0.0040483875997304533 0.0041204745603432144 0 0.0039550304788359006 0.0042451090514575894 0 0.0040008655217641893 0.004158155743948397 0 0.0040483875997304533 0.0041204745603432144 0 0.0039550304788359006 0.0042451090514575894 0 0.0040686198292408642 0.004118572132328812 0 0.0040128541901353898 0.0042157889520069566 0 0.0040483875997304533 0.0041204745603432144 0 0.0040686198292408642 0.004118572132328812 0 0.0040483875997304533 0.0041204745603432144 0 0.0040989160485116914 0.0040424211895495228 0 0.0038535672764407965 0.0043008289960284321 0 0.0038285269161855862 0.00426009720901422 0 0.0039160919471662994 0.0042241547884692204 0 0.0040008655217641893 0.004158155743948397 0 0.0039550304788359006 0.0042451090514575894 0 0.0039160919471662994 0.0042241547884692204 0 0.0038535672764407965 0.0043008289960284321 0 0.0039550304788359006 0.0042451090514575894 0 0.0039160919471662994 0.0042241547884692204 0 0.0038535672764407965 0.0043008289960284321 0 0.0039550304788359006 0.0042451090514575894 0 0.0038444413459638345 0.0043938084104566807 0 0.0038535672764407965 0.0043008289960284321 0 0.0037480761876651815 0.0044067953327805052 0 0.0038444413459638345 0.0043938084104566807 0 0.0038535672764407965 0.0043008289960284321 0 0.0037624096459107806 0.0043385537006953899 0 0.0037480761876651815 0.0044067953327805052 0 0.0036683245825131134 0.0043927827695523433 0 0.0037624096459107806 0.0043385537006953899 0 0.0037480761876651815 0.0044067953327805052 0 0.0036683245825131134 0.0043927827695523433 0 0.0037278203409619286 0.0043250903944062752 0 0.0037624096459107806 0.0043385537006953899 0 0.0037278203409619286 0.0043250903944062752 0 0.0037624096459107806 0.0043385537006953899 0 0.0038285269161855862 0.00426009720901422 0 0.0038535672764407965 0.0043008289960284321 0 0.0037624096459107806 0.0043385537006953899 0 0.0038285269161855862 0.00426009720901422 0 0.0037278203409619286 0.0043250903944062752 0 0.0038285269161855862 0.00426009720901422 0 0.0037469894075808341 0.0042961918364628291 0 0.0038285269161855862 0.00426009720901422 0 0.0037469894075808341 0.0042961918364628291 0 0.003820829274608827 0.0042511384069303963 0 0.0038285269161855862 0.00426009720901422 0 0.0039703488709044686 0.0041724396405589956 0 0.003820829274608827 0.0042511384069303963 0 0.0038285269161855862 0.00426009720901422 0 0.0039160919471662994 0.0042241547884692204 0 0.0039703488709044686 0.0041724396405589956 0 0.0040008655217641893 0.004158155743948397 0 0.0039160919471662994 0.0042241547884692204 0 0.0039703488709044686 0.0041724396405589956 0 0.0040809943153945075 0.004061451481131257 0 0.0040008655217641893 0.004158155743948397 0 0.0039703488709044686 0.0041724396405589956 0 0.0039800413793460252 0.0041462233102275946 0 0.0040161190161255951 0.0040593712030986039 0 0.0040809943153945075 0.004061451481131257 0 0.0039703488709044686 0.0041724396405589956 0 0.004141899687462364 0.003939881129807166 0 0.0039703488709044686 0.0041724396405589956 0 0.0039086080763929311 0.0041920161736860523 0 0.0038897030939938496 0.0042083240861076551 0 0.0039703488709044686 0.0041724396405589956 0 0.0038897030939938496 0.0042083240861076551 0 0.003820829274608827 0.0042511384069303963 0 0.0038897030939938496 0.0042083240861076551 0 0.00389065253563738 0.0041580362827840448 0 0.0038251397497385104 0.0042286787933797677 0 0.0039176092637996391 0.0041135429366086114 0 0.0039086080763929311 0.0041920161736860523 0 0.0038897030939938496 0.0042083240861076551 0 0.0040300550631335941 0.0039681551231251994 0 0.0040161190161255951 0.0040593712030986039 0 0.0039176092637996391 0.0041135429366086114 0 0.0038897030939938496 0.0042083240861076551 0 0.00389065253563738 0.0041580362827840448 0 0.0039176092637996391 0.0041135429366086114 0 0.00389065253563738 0.0041580362827840448 0 0.0039278676513022368 0.0040803080124656747 0 0.00389065253563738 0.0041580362827840448 0 0.0039278676513022368 0.0040803080124656747 0 0.0038661238469639811 0.0041484575391174472 0 0.0039278717001137997 0.0041037978893551652 0 0.0040455521647351691 0.0039517279698057994 0 0.0039278676513022368 0.0040803080124656747 0 0.0038320659033493354 0.004180483718514259 0 0.0038207685624590047 0.0042033449767381091 0 0.0038661238469639811 0.0041484575391174472 0 0.0038207685624590047 0.0042033449767381091 0 0.0038661238469639811 0.0041484575391174472 0 0.0038484435932778453 0.0041846467246454168 0 0.00389065253563738 0.0041580362827840448 0 0.0038661238469639811 0.0041484575391174472 0 0.0038484435932778453 0.0041846467246454168 0 0.00389065253563738 0.0041580362827840448 0 0.0038484435932778453 0.0041846467246454168 0 0.0038251397497385104 0.0042286787933797677 0 0.0038207685624590047 0.0042033449767381091 0 0.0038251397497385104 0.0042286787933797677 0 0.0037810049499130425 0.0042602276937710416 0 0.0038207685624590047 0.0042033449767381091 0 0.0038484435932778453 0.0041846467246454168 0 0.0038251397497385104 0.0042286787933797677 0 0.0038251397497385104 0.0042286787933797677 0 0.0037482069838911153 0.0042868899357514567 0 0.0037810049499130425 0.0042602276937710416 0 0.0038897030939938496 0.0042083240861076551 0 0.0038251397497385104 0.0042286787933797677 0 0.003820829274608827 0.0042511384069303963 0 0.0038251397497385104 0.0042286787933797677 0 0.003820829274608827 0.0042511384069303963 0 0.0037482069838911153 0.0042868899357514567 0 0.0037469894075808341 0.0042961918364628291 0 0.003820829274608827 0.0042511384069303963 0 0.0037482069838911153 0.0042868899357514567 0 0.0037482069838911153 0.0042868899357514567 0 0.0036516850346693429 0.0043144041456615167 0 0.0036753075644376204 0.0043210780538867578 0 0.0037482069838911153 0.0042868899357514567 0 0.0037169454353615005 0.0043115098192363826 0 0.0036516850346693429 0.0043144041456615167 0 0.0037482069838911153 0.0042868899357514567 0 0.0037169454353615005 0.0043115098192363826 0 0.0037810049499130425 0.0042602276937710416 0 0.0038207685624590047 0.0042033449767381091 0 0.0037810049499130425 0.0042602276937710416 0 0.0038058607596260165 0.0042323435025573468 0 0.0037236838145893992 0.0043004693577152007 0 0.0037549235124817652 0.0043169045756465216 0 0.0037169454353615005 0.0043115098192363826 0 0.0037810049499130425 0.0042602276937710416 0 0.0038058607596260165 0.0042323435025573468 0 0.0037169454353615005 0.0043115098192363826 0 0.0037125583352041534 0.0043982577618573541 0 0.003667786141459837 0.0044179442959340299 0 0.0037568671636333214 0.0042874024753168259 0 0.0037549235124817652 0.0043169045756465216 0 0.0036993423456070321 0.0044424777845926168 0 0.0037125583352041534 0.0043982577618573541 0 0.003667786141459837 0.0044179442959340299 0 0.0038291995236091263 0.0041895096340684255 0 0.0038207685624590047 0.0042033449767381091 0 0.0038058607596260165 0.0042323435025573468 0 0.0036337558362922544 0.0046121940259176699 0 0.0036206561853253526 0.0043985285855016841 0 0.0034741012802209583 0.0045370342004654772 0 0.0036365733200698146 0.0045258095125681793 0 0.0036254701701027218 0.0044062968759130822 0 0.0036438259401711899 0.0044369062889712766 0 0.003667786141459837 0.0044179442959340299 0 0.0036206561853253526 0.0043985285855016841 0 0.0037169454353615005 0.0043115098192363826 0 0.003667786141459837 0.0044179442959340299 0 0.0036472344390084269 0.0043301950196835224 0 0.003667786141459837 0.0044179442959340299 0 0.0036206561853253526 0.0043985285855016841 0 0.0036472344390084269 0.0043301950196835224 0 0.0036206561853253526 0.0043985285855016841 0 0.0036031519205018429 0.0042898134759121378 0 0.0034413498664832426 0.0043794091790083402 0 0.0036206561853253526 0.0043985285855016841 0 0.0036472344390084269 0.0043301950196835224 0 0.0036031519205018429 0.0042898134759121378 0 0.0036472344390084269 0.0043301950196835224 0 0.0036516850346693429 0.0043144041456615167 0 0.0036031519205018429 0.0042898134759121378 0 0.0037169454353615005 0.0043115098192363826 0 0.0036472344390084269 0.0043301950196835224 0 0.0036516850346693429 0.0043144041456615167 0 0.0036516850346693429 0.0043144041456615167 0 0.0036031519205018429 0.0042898134759121378 0 0.0035964347959647545 0.0043547862114014166 0 0.0035427619459891366 0.00435933253859511 0 0.0035921977981192071 0.0043505317618681566 0 0.0035964347959647545 0.0043547862114014166 0 0.0036340839302843255 0.0043549643094312543 0 0.0035130244009192982 0.0043772160181214026 0 0.0034860351687745041 0.0044246725215649485 0 0.0034864121552647055 0.0043815668258162348 0 0.0035964347959647545 0.0043547862114014166 0 0.0034864121552647055 0.0043815668258162348 0 0.0035130244009192982 0.0043772160181214026 0 0.0034613708630464898 0.0043877569371793233 0 0.0034864121552647055 0.0043815668258162348 0 0.0035964347959647545 0.0043547862114014166 0 0.0035130244009192982 0.0043772160181214026 0 0.0036516850346693429 0.0043144041456615167 0 0.0035964347959647545 0.0043547862114014166 0 0.0036753075644376204 0.0043210780538867578 0 0.0037469894075808341 0.0042961918364628291 0 0.0037482069838911153 0.0042868899357514567 0 0.0036753075644376204 0.0043210780538867578 0 0.0037469894075808341 0.0042961918364628291 0 0.0036753075644376204 0.0043210780538867578 0 0.0036340839302843255 0.0043549643094312543 0 0.0037278203409619286 0.0043250903944062752 0 0.0037469894075808341 0.0042961918364628291 0 0.0036340839302843255 0.0043549643094312543 0 0.0035964347959647545 0.0043547862114014166 0 0.0036753075644376204 0.0043210780538867578 0 0.0036340839302843255 0.0043549643094312543 0 0.0036340839302843255 0.0043549643094312543 0 0.0035704984213313995 0.0044106475129056539 0 0.0035244641109717918 0.0044022836011847685 0 0.0036683245825131134 0.0043927827695523433 0 0.0037278203409619286 0.0043250903944062752 0 0.0036340839302843255 0.0043549643094312543 0 0.0036683245825131134 0.0043927827695523433 0 0.0036340839302843255 0.0043549643094312543 0 0.0035704984213313995 0.0044106475129056539 0 0.0035704984213313995 0.0044106475129056539 0 0.0035244641109717918 0.0044022836011847685 0 0.0034544387632693976 0.0044590189642422931 0 0.0035244641109717918 0.0044022836011847685 0 0.003440419203806333 0.0044283030904038083 0 0.0034544387632693976 0.0044590189642422931 0 0.0036340839302843255 0.0043549643094312543 0 0.0035244641109717918 0.0044022836011847685 0 0.0035130244009192982 0.0043772160181214026 0 0.0035244641109717918 0.0044022836011847685 0 0.003440419203806333 0.0044283030904038083 0 0.0035130244009192982 0.0043772160181214026 0 0.003440419203806333 0.0044283030904038083 0 0.0035130244009192982 0.0043772160181214026 0 0.0034486492772675091 0.0044017374868046922 0 0.0033673812941863788 0.0045013837142041328 0 0.0034544387632693976 0.0044590189642422931 0 0.0033460456483657428 0.0045541872874290809 0 0.0034544387632693976 0.0044590189642422931 0 0.0035079583732759187 0.0044830562315341538 0 0.0033460456483657428 0.0045541872874290809 0 0.003440419203806333 0.0044283030904038083 0 0.0033673812941863788 0.0045013837142041328 0 0.0034544387632693976 0.0044590189642422931 0 0.0035704984213313995 0.0044106475129056539 0 0.0034544387632693976 0.0044590189642422931 0 0.0035079583732759187 0.0044830562315341538 0 0.0036683245825131134 0.0043927827695523433 0 0.0035704984213313995 0.0044106475129056539 0 0.0035079583732759187 0.0044830562315341538 0 0.0036683245825131134 0.0043927827695523433 0 0.0035079583732759187 0.0044830562315341538 0 0.0036015045817323474 0.0044995159984695882 0 0.0035079583732759187 0.0044830562315341538 0 0.0034296602798154358 0.0045816631667709518 0 0.0036015045817323474 0.0044995159984695882 0 0.0035079583732759187 0.0044830562315341538 0 0.0034296602798154358 0.0045816631667709518 0 0.0033460456483657428 0.0045541872874290809 0 0.0034296602798154358 0.0045816631667709518 0 0.0032698559690072298 0.0046399913805525786 0 0.0033514013807431804 0.0046492725469117159 0 0.0034296602798154358 0.0045816631667709518 0 0.0033460456483657428 0.0045541872874290809 0 0.0032698559690072298 0.0046399913805525786 0 0.0033460456483657428 0.0045541872874290809 0 0.0031618694178734757 0.0046740044907629258 0 0.0032698559690072298 0.0046399913805525786 0 0.0033673812941863788 0.0045013837142041328 0 0.0033460456483657428 0.0045541872874290809 0 0.0032843701815165383 0.0045734660028782506 0 0.0033460456483657428 0.0045541872874290809 0 0.0032843701815165383 0.0045734660028782506 0 0.0031618694178734757 0.0046740044907629258 0 0.0032843701815165383 0.0045734660028782506 0 0.0031618694178734757 0.0046740044907629258 0 0.0032400444131064216 0.0046292549141026765 0 0.0031618694178734757 0.0046740044907629258 0 0.0031026251772992208 0.0047602901194161171 0 0.0032698559690072298 0.0046399913805525786 0 0.0031618694178734757 0.0046740044907629258 0 0.0029490959522144324 0.0048594509085090887 0 0.0031026251772992208 0.0047602901194161171 0 0.0031618694178734757 0.0046740044907629258 0 0.0029490959522144324 0.0048594509085090887 0 0.0030682557311009825 0.0047591344656695497 0 0.0029490959522144324 0.0048594509085090887 0 0.0030682557311009825 0.0047591344656695497 0 0.0028874100236411931 0.0048748705507379144 0 0.0029490959522144324 0.0048594509085090887 0 0.002900267272957704 0.0049360906934194978 0 0.0031026251772992208 0.0047602901194161171 0 0.002900267272957704 0.0049360906934194978 0 0.0028070592215654533 0.0049997337926635235 0 0.0025175121270983904 0.0050000630008631506 0 0.0029490959522144324 0.0048594509085090887 0 0.0025175121270983904 0.0050000630008631506 0 0.0028874100236411931 0.0048748705507379144 0 0.0029490959522144324 0.0048594509085090887 0 0.002900267272957704 0.0049360906934194978 0 0.0025175121270983904 0.0050000630008631506 0 0.0030982700073554016 0.0049998660008938401 0 0.0029830483232421824 0.0049487757554314169 0 0.0032652944443761138 0.0050948263289577866 0 0.002900267272957704 0.0049360906934194978 0 0.0028070592215654533 0.0049997337926635235 0 0.0029830483232421824 0.0049487757554314169 0 0.0028070592215654533 0.0049997337926635235 0 0.0030982700073554016 0.0049998660008938401 0 0.0029830483232421824 0.0049487757554314169 0 0.002900267272957704 0.0049360906934194978 0 0.0029830483232421824 0.0049487757554314169 0 0.0031026251772992208 0.0047602901194161171 0 0.0030254715300270453 0.0049355926808930641 0 0.0032717515086073093 0.0048811177027656468 0 0.0029830483232421824 0.0049487757554314169 0 0.0031026251772992208 0.0047602901194161171 0 0.0032715586855185958 0.0046524288399919702 0 0.0031026251772992208 0.0047602901194161171 0 0.0033514013807431804 0.0046492725469117159 0 0.0032715586855185958 0.0046524288399919702 0 0.0031026251772992208 0.0047602901194161171 0 0.0032698559690072298 0.0046399913805525786 0 0.0033514013807431804 0.0046492725469117159 0 0.0033514013807431804 0.0046492725469117159 0 0.0035610802202709437 0.00459846785505759 0 0.0036009830826495299 0.0046268266457241101 0 0.0035627335906324433 0.0048049104816495249 0 0.0032717515086073093 0.0048811177027656468 0 0.0033514013807431804 0.0046492725469117159 0 0.0035610802202709437 0.00459846785505759 0 0.0032715586855185958 0.0046524288399919702 0 0.0035797949426724911 0.0050203024695517221 0 0.0032652944443761138 0.0050948263289577866 0 0.0036146670944449876 0.0050197796750902132 0 0.0032652944443761138 0.0050948263289577866 0 0.0033893563923438653 0.0049998800663650905 0 0.0036146670944449876 0.0050197796750902132 0 0.0030982700073554016 0.0049998660008938401 0 0.0032652944443761138 0.0050948263289577866 0 0.0033893563923438653 0.0049998800663650905 0 0.0033893563923438653 0.0049998800663650905 0 0.0036803095416226817 0.0049998616297788944 0 0.0036146670944449876 0.0050197796750902132 0 0.0036803095416226817 0.0049998616297788944 0 0.0036146670944449876 0.0050197796750902132 0 0.0038277804256242726 0.0049452764621811017 0 0.0035797949426724911 0.0050203024695517221 0 0.0036146670944449876 0.0050197796750902132 0 0.0037977992705769013 0.0047638640479490211 0 0.0036146670944449876 0.0050197796750902132 0 0.0037977992705769013 0.0047638640479490211 0 0.0038277804256242726 0.0049452764621811017 0 0.0035610802202709437 0.00459846785505759 0 0.0037977992705769013 0.0047638640479490211 0 0.0036009830826495299 0.0046268266457241101 0 0.0035627335906324433 0.0048049104816495249 0 0.0037641341581506785 0.0047710162472161038 0 0.0037977992705769013 0.0047638640479490211 0 0.0037804025130093741 0.0045971563773793307 0 0.0038881871373782143 0.0045787780085303235 0 0.0037977992705769013 0.0047638640479490211 0 0.0037804025130093741 0.0045971563773793307 0 0.0036009830826495299 0.0046268266457241101 0 0.0037804025130093741 0.0045971563773793307 0 0.0038439887942683282 0.0044899857748332342 0 0.0038881871373782143 0.0045787780085303235 0 0.0037804025130093741 0.0045971563773793307 0 0.0036009830826495299 0.0046268266457241101 0 0.0037374789849240774 0.0045090647348817528 0 0.0034296602798154358 0.0045816631667709518 0 0.0033514013807431804 0.0046492725469117159 0 0.0036009830826495299 0.0046268266457241101 0 0.0034296602798154358 0.0045816631667709518 0 0.0036009830826495299 0.0046268266457241101 0 0.0036015045817323474 0.0044995159984695882 0 0.0036009830826495299 0.0046268266457241101 0 0.0037374789849240774 0.0045090647348817528 0 0.0036015045817323474 0.0044995159984695882 0 0.0037374789849240774 0.0045090647348817528 0 0.0036015045817323474 0.0044995159984695882 0 0.0037480761876651815 0.0044067953327805052 0 0.0036683245825131134 0.0043927827695523433 0 0.0036015045817323474 0.0044995159984695882 0 0.0037480761876651815 0.0044067953327805052 0 0.0037374789849240774 0.0045090647348817528 0 0.0037480761876651815 0.0044067953327805052 0 0.0038444413459638345 0.0043938084104566807 0 0.0039550304788359006 0.0042451090514575894 0 0.0038444413459638345 0.0043938084104566807 0 0.0039401406572182199 0.004372720533675661 0 0.0038444413459638345 0.0043938084104566807 0 0.0038439887942683282 0.0044899857748332342 0 0.0039401406572182199 0.004372720533675661 0 0.0038439887942683282 0.0044899857748332342 0 0.0039401406572182199 0.004372720533675661 0 0.0038881871373782143 0.0045787780085303235 0 0.0037374789849240774 0.0045090647348817528 0 0.0038444413459638345 0.0043938084104566807 0 0.0038439887942683282 0.0044899857748332342 0 0.0037804025130093741 0.0045971563773793307 0 0.0037374789849240774 0.0045090647348817528 0 0.0038439887942683282 0.0044899857748332342 0 0.0039650644450573442 0.0044474531654562482 0 0.0039401406572182199 0.004372720533675661 0 0.0038881871373782143 0.0045787780085303235 0 0.0040128541901353898 0.0042157889520069566 0 0.0039401406572182199 0.004372720533675661 0 0.004011132450843705 0.0042916993050897238 0 0.0039650644450573442 0.0044474531654562482 0 0.004011132450843705 0.0042916993050897238 0 0.0040212198318721115 0.0042902927461410416 0 0.0039650644450573442 0.0044474531654562482 0 0.0039401406572182199 0.004372720533675661 0 0.004011132450843705 0.0042916993050897238 0 0.0040686198292408642 0.004118572132328812 0 0.004011132450843705 0.0042916993050897238 0 0.0040212198318721115 0.0042902927461410416 0 0.0040212198318721115 0.0042902927461410416 0 0.0039939937593708313 0.0041828404797345682 0 0.0038657122558982456 0.0043306521673890591 0 0.0040212198318721115 0.0042902927461410416 0 0.0039249549610038438 0.0044368932518953682 0 0.0038657122558982456 0.0043306521673890591 0 0.0039141785437987325 0.0041900983971996635 0 0.0039939937593708313 0.0041828404797345682 0 0.0038657122558982456 0.0043306521673890591 0 0.0039249549610038438 0.0044368932518953682 0 0.00392194440978839 0.0046004705655678978 0 0.0037832782906540795 0.0044774096095396921 0 0.0039249549610038438 0.0044368932518953682 0 0.0039605983206765522 0.0044965175484861187 0 0.00392194440978839 0.0046004705655678978 0 0.0039650644450573442 0.0044474531654562482 0 0.0040212198318721115 0.0042902927461410416 0 0.0039605983206765522 0.0044965175484861187 0 0.0040212198318721115 0.0042902927461410416 0 0.0039249549610038438 0.0044368932518953682 0 0.0039605983206765522 0.0044965175484861187 0 0.0039605983206765522 0.0044965175484861187 0 0.00392194440978839 0.0046004705655678978 0 0.0039404045613116098 0.0046735799092836898 0 0.00392194440978839 0.0046004705655678978 0 0.0039677686363141229 0.0047825363560931484 0 0.0038421224730292663 0.0046848863258895724 0 0.00392194440978839 0.0046004705655678978 0 0.0039404045613116098 0.0046735799092836898 0 0.0039677686363141229 0.0047825363560931484 0 0.0039404045613116098 0.0046735799092836898 0 0.0038881871373782143 0.0045787780085303235 0 0.0038838253394587077 0.004801468974384937 0 0.0037977992705769013 0.0047638640479490211 0 0.0038881871373782143 0.0045787780085303235 0 0.0038838253394587077 0.004801468974384937 0 0.0039650644450573442 0.0044474531654562482 0 0.0039605983206765522 0.0044965175484861187 0 0.0039404045613116098 0.0046735799092836898 0 0.0039650644450573442 0.0044474531654562482 0 0.0039404045613116098 0.0046735799092836898 0 0.0038881871373782143 0.0045787780085303235 0 0.0037977992705769013 0.0047638640479490211 0 0.0038838253394587077 0.004801468974384937 0 0.0038277804256242726 0.0049452764621811017 0 0.0039404045613116098 0.0046735799092836898 0 0.0038838253394587077 0.004801468974384937 0 0.0039899827739665683 0.0048971806803232484 0 0.0038838253394587077 0.004801468974384937 0 0.0038277804256242726 0.0049452764621811017 0 0.0039899827739665683 0.0048971806803232484 0 0.0038277804256242726 0.0049452764621811017 0 0.0039714472290697826 0.0049999421645350378 0 0.0039899827739665683 0.0048971806803232484 0 0.0036803095416226817 0.0049998616297788944 0 0.0038277804256242726 0.0049452764621811017 0 0.0039714472290697826 0.0049999421645350378 0 0.0039714472290697826 0.0049999421645350378 0 0.004166636369366563 0.0049181892968864225 0 0.0039899827739665683 0.0048971806803232484 0 0.0039714472290697826 0.0049999421645350378 0 0.0042616029069033863 0.004999511997646507 0 0.004166636369366563 0.0049181892968864225 0 0.0042616029069033863 0.004999511997646507 0 0.004166636369366563 0.0049181892968864225 0 0.004255103844687848 0.0048349982735260977 0 0.004166636369366563 0.0049181892968864225 0 0.0040666253300187432 0.0048748491201420566 0 0.0039899827739665683 0.0048971806803232484 0 0.0039404045613116098 0.0046735799092836898 0 0.0039899827739665683 0.0048971806803232484 0 0.0039677686363141229 0.0047825363560931484 0 0.0040666253300187432 0.0048748491201420566 0 0.0039899827739665683 0.0048971806803232484 0 0.0039677686363141229 0.0047825363560931484 0 0.0040666253300187432 0.0048748491201420566 0 0.0039677686363141229 0.0047825363560931484 0 0.003984653788576948 0.0048416574174910357 0 0.0039677686363141229 0.0047825363560931484 0 0.003984653788576948 0.0048416574174910357 0 0.0038421224730292663 0.0046848863258895724 0 0.0042375153461772161 0.0047087175754005712 0 0.0042065702774153543 0.0045232490550980529 0 0.0042624927758476332 0.0049998984596228207 0 0.0050000046993536424 0.005000032673521713 0 0.0048141684925832803 0.0050193154725745792 0 0.0050000046993536424 0.005000032673521713 0 0.0050357693844917785 0.0048378150522029682 0 0.0049997002696781125 0.0040652985444737718 0 0.0050357693844917785 0.0048378150522029682 0 0.0051024586114334861 0.0043834581163923712 0 0.0049997002696781125 0.0040652985444737718 0 0.0044976360151650864 0.0046071503810462284 0 0.0044140506545426979 0.0045440312280629102 0 0.0044969229383959647 0.0044166000651405168 0 0.0044976360151650864 0.0046071503810462284 0 0.004334454153716554 0.0047438750327065708 0 0.0042449599375260797 0.0048425168447884352 0 0.0044976360151650864 0.0046071503810462284 0 0.004334454153716554 0.0047438750327065708 0 0.0044140506545426979 0.0045440312280629102 0 0.0040666253300187432 0.0048748491201420566 0 0.003984653788576948 0.0048416574174910357 0 0.0042449599375260797 0.0048425168447884352 0 0.0042375153461772161 0.0047087175754005712 0 0.0042453866658199628 0.004807829905472444 0 0.0042624927758476332 0.0049998984596228207 0 0.004546533297566031 0.0050653856571065336 0 0.0048141684925832803 0.0050193154725745792 0 0.004166636369366563 0.0049181892968864225 0 0.0040666253300187432 0.0048748491201420566 0 0.0042449599375260797 0.0048425168447884352 0 0.004166636369366563 0.0049181892968864225 0 0.0042449599375260797 0.0048425168447884352 0 0.004255103844687848 0.0048349982735260977 0 0.0042449599375260797 0.0048425168447884352 0 0.0042892780341789649 0.0048046706479130483 0 0.004255103844687848 0.0048349982735260977 0 0.004334454153716554 0.0047438750327065708 0 0.0042449599375260797 0.0048425168447884352 0 0.0042892780341789649 0.0048046706479130483 0 0.0042892780341789649 0.0048046706479130483 0 0.004255103844687848 0.0048349982735260977 0 0.0042829290280644678 0.0048012647021297063 0 0.0043700977915376955 0.0049666038731389891 0 0.0047341754844931168 0.0048659342840303224 0 0.0042624696408267168 0.0049999835071560146 0 0.0043700977915376955 0.0049666038731389891 0 0.0050000046993536424 0.005000032673521713 0 0.0048141684925832803 0.0050193154725745792 0 0.0050357693844917785 0.0048378150522029682 0 0.0048141684925832803 0.0050193154725745792 0 0.0049166796090494074 0.0049352668770970927 0 0.0050357693844917785 0.0048378150522029682 0 0.004546533297566031 0.0050653856571065336 0 0.0048141684925832803 0.0050193154725745792 0 0.0048301995913542272 0.0051328459781360119 0 0.004812584878557527 0.0050402994366786124 0 0.0047341754844931168 0.0048659342840303224 0 0.0047341754844931168 0.0048659342840303224 0 0.0047104146500054657 0.0046504188404751208 0 0.004334454153716554 0.0047438750327065708 0 0.0042892780341789649 0.0048046706479130483 0 0.0042829290280644678 0.0048012647021297063 0 0.004334454153716554 0.0047438750327065708 0 0.0042829290280644678 0.0048012647021297063 0 0.0042891772797301157 0.0046868674791044011 0 0.0051521592091784236 0.0048700985763187746 0 0.0050357693844917785 0.0048378150522029682 0 0.0051257882468239077 0.0046267924893466893 0 0.0047341754844931168 0.0048659342840303224 0 0.0050663019681339086 0.0048919587894493454 0 0.0050357693844917785 0.0048378150522029682 0 0.0051257882468239077 0.0046267924893466893 0 0.0051024586114334861 0.0043834581163923712 0 0.004334454153716554 0.0047438750327065708 0 0.0042891772797301157 0.0046868674791044011 0 0.0044140506545426979 0.0045440312280629102 0 0.0042891772797301157 0.0046868674791044011 0 0.0044140506545426979 0.0045440312280629102 0 0.0043846441089297385 0.0044648946682819277 0 0.0047104146500054657 0.0046504188404751208 0 0.0047513685514690655 0.0044359497268462774 0 0.0047513685514690655 0.0044359497268462774 0 0.0048567295783347626 0.0042143706656263815 0 0.0043846441089297385 0.0044648946682819277 0 0.0046431976101767199 0.0042781390063211262 0 0.0045041151943879757 0.0043711997841206808 0 0.0049996015888049937 0.003365014041008346 0 0.0049997002696781125 0.0040652985444737718 0 0.0049716562775112029 0.0038899549499754917 0 0.0043846441089297385 0.0044648946682819277 0 0.0046431976101767199 0.0042781390063211262 0 0.0046171649026679378 0.00426917398858027 0 0.0051024586114334861 0.0043834581163923712 0 0.0049997002696781125 0.0040652985444737718 0 0.0050813398422226473 0.0041390220190222786 0 0.0046431976101767199 0.0042781390063211262 0 0.0046171649026679378 0.00426917398858027 0 0.0048561077694244878 0.0039915704940760074 0 0.0045506546480956287 0.0043282794076846291 0 0.0045274686856232394 0.0043529533860808562 0 0.0045262970483998001 0.0043747561169712847 0 0.0046431976101767199 0.0042781390063211262 0 0.0045506546480956287 0.0043282794076846291 0 0.0045262970483998001 0.0043747561169712847 0 0.0046431976101767199 0.0042781390063211262 0 0.0045506546480956287 0.0043282794076846291 0 0.0045041151943879757 0.0043711997841206808 0 0.0045506546480956287 0.0043282794076846291 0 0.0045041151943879757 0.0043711997841206808 0 0.0045274686856232394 0.0043529533860808562 0 0.0044140506545426979 0.0045440312280629102 0 0.0043846441089297385 0.0044648946682819277 0 0.0045041151943879757 0.0043711997841206808 0 0.0044140506545426979 0.0045440312280629102 0 0.0045041151943879757 0.0043711997841206808 0 0.0044969229383959647 0.0044166000651405168 0 0.0044969229383959647 0.0044166000651405168 0 0.0045607799748149146 0.0043936073389484569 0 0.0045274686856232394 0.0043529533860808562 0 0.0044976360151650864 0.0046071503810462284 0 0.0044969229383959647 0.0044166000651405168 0 0.0045607799748149146 0.0043936073389484569 0 0.0045041151943879757 0.0043711997841206808 0 0.0044969229383959647 0.0044166000651405168 0 0.0045274686856232394 0.0043529533860808562 0 0.0042065702774153543 0.0045232490550980529 0 0.0041167071028028459 0.0044804485225413771 0 0.00392194440978839 0.0046004705655678978 0 0.0038421224730292663 0.0046848863258895724 0 0.0037832782906540795 0.0044774096095396921 0 0.0045607799748149146 0.0043936073389484569 0 0.0045274686856232394 0.0043529533860808562 0 0.0045337119276935645 0.0043623594919351893 0 0.0045274686856232394 0.0043529533860808562 0 0.0045262970483998001 0.0043747561169712847 0 0.0045337119276935645 0.0043623594919351893 0 0.0039249549610038438 0.0044368932518953682 0 0.0037832782906540795 0.0044774096095396921 0 0.0038657122558982456 0.0043306521673890591 0 0.0037314367490642701 0.0041613673788196762 0 0.0037832782906540795 0.0044774096095396921 0 0.0038657122558982456 0.0043306521673890591 0 0.0045096866786499797 0.0039649205300377717 0 0.0041167071028028459 0.0044804485225413771 0 0.0037314367490642701 0.0041613673788196762 0 0.0039141785437987325 0.0041900983971996635 0 0.0038657122558982456 0.0043306521673890591 0 0.0045348177490457803 0.0043485634693079542 0 0.0045262970483998001 0.0043747561169712847 0 0.0045337119276935645 0.0043623594919351893 0 0.0049362046729017591 0.0035714411758842489 0 0.0050763784040182038 0.0038467526911816299 0 0.0049896474704698695 0.0036590009858378661 0 0.0045096866786499797 0.0039649205300377717 0 0.0048256109205552077 0.0041016924524456596 0 0.0050763784040182038 0.0038467526911816299 0 0.0049896474704698695 0.0036590009858378661 0 0.004981087046154211 0.0037415037496747912 0 0.0049914589396559093 0.003559755710441133 0 0.004981087046154211 0.0037415037496747912 0 0.0049716562775112029 0.0038899549499754917 0 0.004981087046154211 0.0037415037496747912 0 0.0049716562775112029 0.0038899549499754917 0 0.0048561077694244878 0.0039915704940760074 0 0.0049997002696781125 0.0040652985444737718 0 0.0050813398422226473 0.0041390220190222786 0 0.0049716562775112029 0.0038899549499754917 0 0.0048567295783347626 0.0042143706656263815 0 0.0049433964040958029 0.003943146488731431 0 0.0046171649026679378 0.00426917398858027 0 0.0049716562775112029 0.0038899549499754917 0 0.0048561077694244878 0.0039915704940760074 0 0.0046405256919495579 0.0042750471233140635 0 0.0048256109205552077 0.0041016924524456596 0 0.0050763784040182038 0.0038467526911816299 0 0.004981087046154211 0.0037415037496747912 0 0.0048561077694244878 0.0039915704940760074 0 0.0046431976101767199 0.0042781390063211262 0 0.0050763784040182038 0.0038467526911816299 0 0.0048561077694244878 0.0039915704940760074 0 0.0014151444217489605 0.0042773390748494034 0 0.0013773463440093932 0.0043226343738212583 0 0.0013643225277728494 0.0042545791588563505 0 0.00097100709053118809 0.005096041342924601 0 0.00082917677927687886 0.0052386531983351376 0 0.0013773463440093932 0.0043226343738212583 0 0.0013643225277728494 0.0042545791588563505 0 0.001283110073109339 0.004308133809573486 0 0.0013773463440093932 0.0043226343738212583 0 0.001283110073109339 0.004308133809573486 0 0.0013468096868443869 0.004400095575038781 0 0.0014151444217489605 0.0042773390748494034 0 0.0013773463440093932 0.0043226343738212583 0 0.0014778139182606632 0.0043418813263208633 0 0.001523032797270428 0.0042055943846182513 0 0.0014738170785920884 0.0043504784665955283 0 0.0016435935938017285 0.004248002810505953 0 0.0016028816036092509 0.0043481638951871028 0 0.0014778139182606632 0.0043418813263208633 0 0.0016435935938017285 0.004248002810505953 0 0.0015571322058257515 0.0041738773977609694 0 0.0014778139182606632 0.0043418813263208633 0 0.0016435935938017285 0.004248002810505953 0 0.0015571322058257515 0.0041738773977609694 0 0.0016681618345470196 0.0041723961270455669 0 0.0015571322058257515 0.0041738773977609694 0 0.0016681618345470196 0.0041723961270455669 0 0.0016639687304002375 0.0041103121688016346 0 0.0014151444217489605 0.0042773390748494034 0 0.0014632698088275788 0.0042833767424541635 0 0.0014449614042033488 0.0042494627779826539 0 0.0014151444217489605 0.0042773390748494034 0 0.0014632698088275788 0.0042833767424541635 0 0.0014778139182606632 0.0043418813263208633 0 0.0014151444217489605 0.0042773390748494034 0 0.0014449614042033488 0.0042494627779826539 0 0.0014236408066031216 0.0042183688668564687 0 0.001523032797270428 0.0042055943846182513 0 0.0014664589995507175 0.0042432098984968251 0 0.0014632698088275788 0.0042833767424541635 0 0.0014449614042033488 0.0042494627779826539 0 0.0014723824581599537 0.0042263707207886745 0 0.0015571322058257515 0.0041738773977609694 0 0.0016121741264346651 0.004043072250208439 0 0.0016639687304002375 0.0041103121688016346 0 0.0014664589995507175 0.0042432098984968251 0 0.0014239439554000247 0.0049182747306529525 0 0.0012166559048615827 0.0049305010746553517 0 0.0012366358945399688 0.0049382856019767555 0 0.0012147249399230167 0.0049582412211091539 0 0.0016273038759401564 0.0040513700789508184 0 0.0016744039124500459 0.0040108328990587369 0 0.0016546653499858741 0.0039580550277007499 0 0.0014664589995507175 0.0042432098984968251 0 0.001685563828797287 0.0041083590532360352 0 0.0014664589995507175 0.0042432098984968251 0 0.0010455101809197494 0.0052854647100096241 0 0.0014449614042033488 0.0042494627779826539 0 0.0014723824581599537 0.0042263707207886745 0 0.0014236408066031216 0.0042183688668564687 0 0.0010455101809197494 0.0052854647100096241 0 0.00051349576672601849 0.0059518117047524998 0 0.00079728683508955146 0.0059609341531901916 0 0.00059627888952093011 0.005925494766217859 0 0.0006790978012690248 0.0058158106010682354 0 0.00070372989277758802 0.0058886403757580945 0 0.00054858300086512725 0.0060199202255031186 0 0.00053087986419093577 0.0058674418876881402 0 0.0010455101809197494 0.0052854647100096241 0 0.00097100709053118809 0.005096041342924601 0 0.0014151444217489605 0.0042773390748494034 0 0.0014236408066031216 0.0042183688668564687 0 0.0013643225277728494 0.0042545791588563505 0 0.00054858300086512725 0.0060199202255031186 0 0.00043802478348299996 0.0059688425523470754 0 0.00039408763454120549 0.0061464803730375897 0 0.00054858300086512725 0.0060199202255031186 0 0.00053087986419093577 0.0058674418876881402 0 0.00043802478348299996 0.0059688425523470754 0 0.00053087986419093577 0.0058674418876881402 0 0.00043802478348299996 0.0059688425523470754 0 0.00037904286714657173 0.0058628902712279229 0 0.00051349576672601849 0.0059518117047524998 0 0.00041156344759121414 0.0058567544930731106 0 0.00032435545204422461 0.0059984059374921638 0 0.00043802478348299996 0.0059688425523470754 0 0.00037904286714657173 0.0058628902712279229 0 0.00027750568736221027 0.005906608272735767 0 0.00023089172025373276 0.0058387624003627351 0 0.00037904286714657173 0.0058628902712279229 0 0.00027750568736221027 0.005906608272735767 0 0.00032435545204422461 0.0059984059374921638 0 0.00017555619193120086 0.0059253438906223263 0 0.00027750568736221027 0.005906608272735767 0 0.00032435545204422461 0.0059984059374921638 0 0.00037904286714657173 0.0058628902712279229 0 0.00027750568736221027 0.005906608272735767 0 0.00017555619193120086 0.0059253438906223263 0 0.00023089172025373276 0.0058387624003627351 0 0.00032435545204422461 0.0059984059374921638 0 0.00043802478348299996 0.0059688425523470754 0 0.00039408763454120549 0.0061464803730375897 0 5.5890437703442591e-05 0.0058414868007173127 0 6.480606963200119e-05 0.005935650102912346 0 -0.0001105137190622062 0.0058829276033070385 0 5.5890437703442591e-05 0.0058414868007173127 0 -0.0001088312317738028 0.0057243179774976423 0 -0.0001105137190622062 0.0058829276033070385 0 5.5890437703442591e-05 0.0058414868007173127 0 6.480606963200119e-05 0.005935650102912346 0 0.00017555619193120086 0.0059253438906223263 0 5.5890437703442591e-05 0.0058414868007173127 0 0.00017555619193120086 0.0059253438906223263 0 0.00014132541548995861 0.0058282120396391177 0 0.00017555619193120086 0.0059253438906223263 0 0.00014132541548995861 0.0058282120396391177 0 0.00023089172025373276 0.0058387624003627351 0 0.00032435545204422461 0.0059984059374921638 0 0.00017555619193120086 0.0059253438906223263 0 0.00015017708578985963 0.0060420575581199044 0 6.480606963200119e-05 0.005935650102912346 0 0.00017555619193120086 0.0059253438906223263 0 0.00015017708578985963 0.0060420575581199044 0 6.480606963200119e-05 0.005935650102912346 0 0.00015017708578985963 0.0060420575581199044 0 -2.2363940602354836e-05 0.0060077974842776454 0 0.00015017708578985963 0.0060420575581199044 0 -2.2363940602354836e-05 0.0060077974842776454 0 4.2669719351696375e-05 0.0061134752001228707 0 6.480606963200119e-05 0.005935650102912346 0 -2.2363940602354836e-05 0.0060077974842776454 0 -0.0001105137190622062 0.0058829276033070385 0 -2.2363940602354836e-05 0.0060077974842776454 0 4.2669719351696375e-05 0.0061134752001228707 0 -8.0400811924031062e-05 0.0061655436054336692 0 4.2669719351696375e-05 0.0061134752001228707 0 7.8397437749811417e-05 0.0062111015656782006 0 -8.0400811924031062e-05 0.0061655436054336692 0 4.2669719351696375e-05 0.0061134752001228707 0 0.00020177968431181608 0.0061540706388220449 0 7.8397437749811417e-05 0.0062111015656782006 0 0.00015017708578985963 0.0060420575581199044 0 4.2669719351696375e-05 0.0061134752001228707 0 0.00020177968431181608 0.0061540706388220449 0 0.00020177968431181608 0.0061540706388220449 0 7.8397437749811417e-05 0.0062111015656782006 0 0.00022312857902686978 0.0062768163673882086 0 -1.103755954520926e-05 0.0062609178825013562 0 7.8397437749811417e-05 0.0062111015656782006 0 6.1544093288210062e-05 0.0063451400887760108 0 -1.103755954520926e-05 0.0062609178825013562 0 7.8397437749811417e-05 0.0062111015656782006 0 -8.0400811924031062e-05 0.0061655436054336692 0 0.001283110073109339 0.004308133809573486 0 0.0012622253241844328 0.0044180983277230324 0 0.0012050928607585379 0.004376797419808582 0 0.00032435545204422461 0.0059984059374921638 0 0.00015017708578985963 0.0060420575581199044 0 0.00020177968431181608 0.0061540706388220449 0 0.00032435545204422461 0.0059984059374921638 0 0.00020177968431181608 0.0061540706388220449 0 0.00039408763454120549 0.0061464803730375897 0 0.00082917677927687886 0.0052386531983351376 0 0.00073917905686304776 0.005311192454443496 0 0.00020177968431181608 0.0061540706388220449 0 0.00039408763454120549 0.0061464803730375897 0 0.00022312857902686978 0.0062768163673882086 0 0.001283110073109339 0.004308133809573486 0 0.0012622253241844328 0.0044180983277230324 0 0.0013468096868443869 0.004400095575038781 0 0.0012622253241844328 0.0044180983277230324 0 0.0012050928607585379 0.004376797419808582 0 0.0011962881814707583 0.0044535630330594248 0 0.0012622253241844328 0.0044180983277230324 0 0.0011962881814707583 0.0044535630330594248 0 0.001241144937916784 0.0044800146859687402 0 0.0012622253241844328 0.0044180983277230324 0 0.0012980191274179318 0.004468272753559847 0 0.0013468096868443869 0.004400095575038781 0 0.0012622253241844328 0.0044180983277230324 0 0.0012980191274179318 0.004468272753559847 0 0.001241144937916784 0.0044800146859687402 0 -1.103755954520926e-05 0.0062609178825013562 0 6.1544093288210062e-05 0.0063451400887760108 0 -0.00010082687912487422 0.0063175782710232463 0 6.1544093288210062e-05 0.0063451400887760108 0 5.5539580314552378e-05 0.0063895041830264072 0 -0.00010082687912487422 0.0063175782710232463 0 0.00026223735059742828 0.006281404074687102 0 0.0004877009913814879 0.0054617638119266679 0 0.0012050928607585379 0.004376797419808582 0 0.0011962881814707583 0.0044535630330594248 0 0.0011420593461669273 0.0044399002235436004 0 0.00022312857902686978 0.0062768163673882086 0 6.1544093288210062e-05 0.0063451400887760108 0 5.4555033754211308e-05 0.0063937136539388593 0 0.00073917905686304776 0.005311192454443496 0 0.0004877009913814879 0.0054617638119266679 0 7.8397437749811417e-05 0.0062111015656782006 0 0.00022312857902686978 0.0062768163673882086 0 6.1544093288210062e-05 0.0063451400887760108 0 0.0011962881814707583 0.0044535630330594248 0 0.0011420593461669273 0.0044399002235436004 0 0.0011414054895169045 0.0044972646927284501 0 0.0004596592901546913 0.0054585981663988212 0 0.00063969075996903697 0.0053034664351965122 0 0.00050537270275534472 0.0050755221668658517 0 5.5539580314552378e-05 0.0063895041830264072 0 -1.2830719469048665e-05 0.0064415396505145281 0 -0.00010082687912487422 0.0063175782710232463 0 0.0004877009913814879 0.0054617638119266679 0 0.00085968273540490729 0.0048576629637716567 0 0.0004877009913814879 0.0054617638119266679 0 8.863085010365637e-05 0.005511953469509741 0 0.00023469583798390185 0.0048898092052940831 0 0.00039966326029760825 0.0051591247481955257 0 0.00014867616173319697 0.0053656315005556534 0 8.863085010365637e-05 0.005511953469509741 0 0.00085968273540490729 0.0048576629637716567 0 0.0011962881814707583 0.0044535630330594248 0 0.0011414054895169045 0.0044972646927284501 0 0.0011930055453085605 0.0044995223031669661 0 0.0011414054895169045 0.0044972646927284501 0 0.0011930055453085605 0.0044995223031669661 0 0.0011769814052010727 0.0045403649555024444 0 0.0011930055453085605 0.0044995223031669661 0 0.0011769814052010727 0.0045403649555024444 0 0.0012249965027919937 0.0045198438926633486 0 0.0012244026867342585 0.0045517855322620322 0 0.0011769814052010727 0.0045403649555024444 0 0.0012249965027919937 0.0045198438926633486 0 0.00034348241972034115 0.0056662607718579866 0 0.00039966326029760825 0.0051591247481955257 0 0.00014867616173319697 0.0053656315005556534 0 0.00083264113524890101 0.0053359616305698751 0 0.00085968273540490729 0.0048576629637716567 0 0.00085968273540490729 0.0048576629637716567 0 0.0012489619718313921 0.0047273766314373938 0 0.0013540072121494982 0.004864433268543706 0 0.0013290365250761126 0.0050102378045002857 0 0.0012672119036338558 0.0049003130008542003 0 0.0012980191274179318 0.004468272753559847 0 0.0012709338105646398 0.0045025055065671367 0 0.0013056319255541331 0.0045094021676156046 0 0.0012980191274179318 0.004468272753559847 0 0.0012709338105646398 0.0045025055065671367 0 0.001241144937916784 0.0044800146859687402 0 0.0011962881814707583 0.0044535630330594248 0 0.0011930055453085605 0.0044995223031669661 0 0.001241144937916784 0.0044800146859687402 0 0.0011930055453085605 0.0044995223031669661 0 0.001241144937916784 0.0044800146859687402 0 0.0012249965027919937 0.0045198438926633486 0 0.0012709338105646398 0.0045025055065671367 0 0.001241144937916784 0.0044800146859687402 0 0.0012249965027919937 0.0045198438926633486 0 0.0012709338105646398 0.0045025055065671367 0 0.0012249965027919937 0.0045198438926633486 0 0.0012599734932248045 0.0045371615050350074 0 0.0012244026867342585 0.0045517855322620322 0 0.0012249965027919937 0.0045198438926633486 0 0.0012599734932248045 0.0045371615050350074 0 0.0012709338105646398 0.0045025055065671367 0 0.0012599734932248045 0.0045371615050350074 0 0.0013056319255541331 0.0045094021676156046 0 0.0012836141903364629 0.004558012235418853 0 0.0012599734932248045 0.0045371615050350074 0 0.0013056319255541331 0.0045094021676156046 0 0.0013379569696559557 0.0045718843460170831 0 0.0012836141903364629 0.004558012235418853 0 0.0013056319255541331 0.0045094021676156046 0 0.0013379569696559557 0.0045718843460170831 0 0.0013056319255541331 0.0045094021676156046 0 0.0013954229920882526 0.0045114024220740427 0 0.0013194141198856497 0.0044996063259062869 0 0.0014391266916398216 0.0044514510501923645 0 0.0013056319255541331 0.0045094021676156046 0 0.0013954229920882526 0.0045114024220740427 0 0.0014597267788231622 0.0043728016173874024 0 0.0014995553680795758 0.0045896493475716523 0 0.0013954229920882526 0.0045114024220740427 0 0.0014597267788231622 0.0043728016173874024 0 0.0014014129774356312 0.004524883898129434 0 0.0014292512720362443 0.004439302883425613 0 0.0014773033326034063 0.0044731958583790936 0 0.0014014129774356312 0.004524883898129434 0 0.00135789790929063 0.0044690833138915998 0 0.0014292512720362443 0.004439302883425613 0 0.0012980191274179318 0.004468272753559847 0 0.0013056319255541331 0.0045094021676156046 0 0.00135789790929063 0.0044690833138915998 0 0.0013056319255541331 0.0045094021676156046 0 0.0014014129774356312 0.004524883898129434 0 0.00135789790929063 0.0044690833138915998 0 0.0012980191274179318 0.004468272753559847 0 0.00135789790929063 0.0044690833138915998 0 0.0013468096868443869 0.004400095575038781 0 0.00135789790929063 0.0044690833138915998 0 0.0014292512720362443 0.004439302883425613 0 0.0013468096868443869 0.004400095575038781 0 0.0013773463440093932 0.0043226343738212583 0 0.0013468096868443869 0.004400095575038781 0 0.0014778139182606632 0.0043418813263208633 0 0.0014292512720362443 0.004439302883425613 0 0.0013468096868443869 0.004400095575038781 0 0.0014778139182606632 0.0043418813263208633 0 0.0016028816036092509 0.0043481638951871028 0 0.0014778139182606632 0.0043418813263208633 0 0.0015381752816798174 0.0044198899521797202 0 0.0016028816036092509 0.0043481638951871028 0 0.0015381752816798174 0.0044198899521797202 0 0.0016470721848094846 0.0043973810459974321 0 0.0014292512720362443 0.004439302883425613 0 0.0014778139182606632 0.0043418813263208633 0 0.0015381752816798174 0.0044198899521797202 0 0.0014292512720362443 0.004439302883425613 0 0.0014773033326034063 0.0044731958583790936 0 0.0015381752816798174 0.0044198899521797202 0 0.0014773033326034063 0.0044731958583790936 0 0.0015346735531829975 0.0044673154170973232 0 0.0015381752816798174 0.0044198899521797202 0 0.0016052312105561675 0.0044571082954183395 0 0.0015221430121809413 0.0045202961669554972 0 0.0016723487315712369 0.0044939568540929035 0 0.0015346735531829975 0.0044673154170973232 0 0.0016052312105561675 0.0044571082954183395 0 0.0015221430121809413 0.0045202961669554972 0 0.0015346735531829975 0.0044673154170973232 0 0.0015381752816798174 0.0044198899521797202 0 0.0016052312105561675 0.0044571082954183395 0 0.0015381752816798174 0.0044198899521797202 0 0.0016052312105561675 0.0044571082954183395 0 0.0016470721848094846 0.0043973810459974321 0 0.001841784793564123 0.0042633220502482881 0 0.0019673990248460817 0.0042603934372708622 0 0.0019676490278863453 0.0042773887052007572 0 0.0018965886478387903 0.0043083910635442757 0 0.001841784793564123 0.0042633220502482881 0 0.0019673990248460817 0.0042603934372708622 0 0.0016778390043408939 0.0043943392074852596 0 0.0018128432556152924 0.0043870436968808067 0 0.0018965886478387903 0.0043083910635442757 0 0.0019350502903573753 0.0043233884846941278 0 0.0018906988323000777 0.0043797964059027125 0 0.0018965886478387903 0.0043083910635442757 0 0.0018111661269743296 0.0043310666398344404 0 0.0018906988323000777 0.0043797964059027125 0 0.0018965886478387903 0.0043083910635442757 0 0.001841784793564123 0.0042633220502482881 0 0.0018111661269743296 0.0043310666398344404 0 0.0019350502903573753 0.0043233884846941278 0 0.0020036425089797077 0.0043205714676966727 0 0.0019673990248460817 0.0042603934372708622 0 0.0018965886478387903 0.0043083910635442757 0 0.0019350502903573753 0.0043233884846941278 0 0.0019673990248460817 0.0042603934372708622 0 0.0019350502903573753 0.0043233884846941278 0 0.0019921743262068677 0.0043855354983392894 0 0.0020036425089797077 0.0043205714676966727 0 0.0014014129774356312 0.004524883898129434 0 0.0014773033326034063 0.0044731958583790936 0 0.0015221430121809413 0.0045202961669554972 0 0.0014391266916398216 0.0044514510501923645 0 0.0016778390043408939 0.0043943392074852596 0 0.0014597267788231622 0.0043728016173874024 0 0.001841784793564123 0.0042633220502482881 0 0.0018111661269743296 0.0043310666398344404 0 0.0014773033326034063 0.0044731958583790936 0 0.0015346735531829975 0.0044673154170973232 0 0.0015221430121809413 0.0045202961669554972 0 0.0014995553680795758 0.0045896493475716523 0 0.0014597267788231622 0.0043728016173874024 0 0.0018111661269743296 0.0043310666398344404 0 0.0016848625734649982 0.0044841017833175678 0 0.00180348992299773 0.0043312057501179281 0 0.0018515966893155535 0.0044137900968779812 0 0.0018111661269743296 0.0043310666398344404 0 0.0018327326051189546 0.0044010812742260701 0 0.0018111661269743296 0.0043310666398344404 0 0.0018327326051189546 0.0044010812742260701 0 0.0018906988323000777 0.0043797964059027125 0 0.0018327326051189546 0.0044010812742260701 0 0.0018906988323000777 0.0043797964059027125 0 0.0019826375617606924 0.0044751274811156054 0 0.0019350502903573753 0.0043233884846941278 0 0.0018906988323000777 0.0043797964059027125 0 0.0019921743262068677 0.0043855354983392894 0 0.0018906988323000777 0.0043797964059027125 0 0.0019826375617606924 0.0044751274811156054 0 0.0019921743262068677 0.0043855354983392894 0 0.0019826375617606924 0.0044751274811156054 0 0.0021218740907975654 0.0044461607382173174 0 0.0019921743262068677 0.0043855354983392894 0 0.0021839065192505044 0.0045870876700609201 0 0.0019826375617606924 0.0044751274811156054 0 0.0021218740907975654 0.0044461607382173174 0 0.0021218740907975654 0.0044461607382173174 0 0.0020755820863304483 0.0043474764559074371 0 0.0021937719226851489 0.0043596114389602182 0 0.0021218740907975654 0.0044461607382173174 0 0.0019921743262068677 0.0043855354983392894 0 0.0020755820863304483 0.0043474764559074371 0 0.0020145882137695653 0.0042609942927281722 0 0.0020248956186665816 0.0042399301325980231 0 0.0019921743262068677 0.0043855354983392894 0 0.0020036425089797077 0.0043205714676966727 0 0.0020755820863304483 0.0043474764559074371 0 0.002152460490514427 0.0042444922373744689 0 0.0019673990248460817 0.0042603934372708622 0 0.002353268256048772 0.0041241721400074186 0 0.0019673990248460817 0.0042603934372708622 0 0.0019676490278863453 0.0042773887052007572 0 0.0018415134706861204 0.0043799913748163331 0 0.0020036425089797077 0.0043205714676966727 0 0.0020578307887824886 0.0042948716742059112 0 0.0020755820863304483 0.0043474764559074371 0 0.0020755820863304483 0.0043474764559074371 0 0.0021448572918491005 0.0043042542974983597 0 0.0021937719226851489 0.0043596114389602182 0 0.0020578307887824886 0.0042948716742059112 0 0.0021448572918491005 0.0043042542974983597 0 0.002152460490514427 0.0042444922373744689 0 0.0020578307887824886 0.0042948716742059112 0 0.0020755820863304483 0.0043474764559074371 0 0.0021448572918491005 0.0043042542974983597 0 0.0020578307887824886 0.0042948716742059112 0 0.002152460490514427 0.0042444922373744689 0 0.0019673990248460817 0.0042603934372708622 0 0.0020036425089797077 0.0043205714676966727 0 0.0020578307887824886 0.0042948716742059112 0 0.0019673990248460817 0.0042603934372708622 0 0.002365106009492694 0.0042519827979648839 0 0.0022501857273138841 0.0042703109824264235 0 0.002353268256048772 0.0041241721400074186 0 0.002152460490514427 0.0042444922373744689 0 0.0022501857273138841 0.0042703109824264235 0 0.002353268256048772 0.0041241721400074186 0 0.0021448572918491005 0.0043042542974983597 0 0.002152460490514427 0.0042444922373744689 0 0.0022501857273138841 0.0042703109824264235 0 0.0022501857273138841 0.0042703109824264235 0 0.002328069274976773 0.0043460849069604547 0 0.0021937719226851489 0.0043596114389602182 0 0.0021448572918491005 0.0043042542974983597 0 0.0022501857273138841 0.0042703109824264235 0 0.0021937719226851489 0.0043596114389602182 0 0.002365106009492694 0.0042519827979648839 0 0.0022501857273138841 0.0042703109824264235 0 0.002328069274976773 0.0043460849069604547 0 0.002328069274976773 0.0043460849069604547 0 0.002275111130386549 0.004466548799807811 0 0.0024494549866631815 0.0044457331038705063 0 0.002328069274976773 0.0043460849069604547 0 0.0021937719226851489 0.0043596114389602182 0 0.002275111130386549 0.004466548799807811 0 0.0021218740907975654 0.0044461607382173174 0 0.0021937719226851489 0.0043596114389602182 0 0.002275111130386549 0.004466548799807811 0 0.0021839065192505044 0.0045870876700609201 0 0.0021218740907975654 0.0044461607382173174 0 0.002275111130386549 0.004466548799807811 0 0.0023743097102739419 0.0045954589883056736 0 0.002275111130386549 0.004466548799807811 0 0.0024494549866631815 0.0044457331038705063 0 0.0025456876068528232 0.004571395814367901 0 0.0024494549866631815 0.0044457331038705063 0 0.0026315356933616181 0.0044535170856861237 0 0.0024494549866631815 0.0044457331038705063 0 0.0025436734595561325 0.0043639258639166477 0 0.0026315356933616181 0.0044535170856861237 0 0.0024494549866631815 0.0044457331038705063 0 0.0025436734595561325 0.0043639258639166477 0 0.0024439228892315728 0.0043021297242171802 0 0.002328069274976773 0.0043460849069604547 0 0.0024494549866631815 0.0044457331038705063 0 0.0024439228892315728 0.0043021297242171802 0 0.0027936423458596112 0.0046735269995374171 0 0.0028340143938632412 0.0043864449489676837 0 0.0027469928479214797 0.0046186771374007408 0 0.0026315356933616181 0.0044535170856861237 0 0.0027961643792763211 0.0043383939901599734 0 0.0025436734595561325 0.0043639258639166477 0 0.0026315356933616181 0.0044535170856861237 0 0.0026322768760797797 0.0042985053633216299 0 0.0026315356933616181 0.0044535170856861237 0 0.0026322768760797797 0.0042985053633216299 0 0.0027961643792763211 0.0043383939901599734 0 0.0026776634881220383 0.0041970069103454306 0 0.0027223272489159118 0.0041243471000876001 0 0.0027961643792763211 0.0043383939901599734 0 0.0026322768760797797 0.0042985053633216299 0 0.0026776634881220383 0.0041970069103454306 0 0.0027961643792763211 0.0043383939901599734 0 0.0026322768760797797 0.0042985053633216299 0 0.0026040103899899478 0.0042008564687461463 0 0.0025350562072722492 0.0042431896754250445 0 0.0026322768760797797 0.0042985053633216299 0 0.0026040103899899478 0.0042008564687461463 0 0.0026776634881220383 0.0041970069103454306 0 0.0026040103899899478 0.0042008564687461463 0 0.0025400578670017253 0.0041394644939692395 0 0.002633425412189346 0.0041242914797419627 0 0.0026040103899899478 0.0042008564687461463 0 0.0026776634881220383 0.0041970069103454306 0 0.002633425412189346 0.0041242914797419627 0 0.002365106009492694 0.0042519827979648839 0 0.002328069274976773 0.0043460849069604547 0 0.0024439228892315728 0.0043021297242171802 0 0.0024439228892315728 0.0043021297242171802 0 0.0025350562072722492 0.0042431896754250445 0 0.002447434864534517 0.004206045981847685 0 0.002365106009492694 0.0042519827979648839 0 0.0024439228892315728 0.0043021297242171802 0 0.002447434864534517 0.004206045981847685 0 0.0025436734595561325 0.0043639258639166477 0 0.0024439228892315728 0.0043021297242171802 0 0.0025350562072722492 0.0042431896754250445 0 0.0025436734595561325 0.0043639258639166477 0 0.0026322768760797797 0.0042985053633216299 0 0.0025350562072722492 0.0042431896754250445 0 0.0026040103899899478 0.0042008564687461463 0 0.0025350562072722492 0.0042431896754250445 0 0.0025400578670017253 0.0041394644939692395 0 0.0025350562072722492 0.0042431896754250445 0 0.002447434864534517 0.004206045981847685 0 0.0025400578670017253 0.0041394644939692395 0 0.002447434864534517 0.004206045981847685 0 0.0025400578670017253 0.0041394644939692395 0 0.002353268256048772 0.0041241721400074186 0 0.002365106009492694 0.0042519827979648839 0 0.002447434864534517 0.004206045981847685 0 0.002353268256048772 0.0041241721400074186 0 0.0018748619159050398 0.0043865963931154521 0 0.0019331744860939084 0.0044048683415261677 0 0.0018734540585161963 0.0043617931399046401 0 0.0025400578670017253 0.0041394644939692395 0 0.002711356885703091 0.0040737801385721823 0 0.002353268256048772 0.0041241721400074186 0 0.0018748619159050398 0.0043865963931154521 0 0.0019331744860939084 0.0044048683415261677 0 0.0018415134706861204 0.0043799913748163331 0 0.0026611652921166695 0.0043659765622175734 0 0.0020248956186665816 0.0042399301325980231 0 0.0018748619159050398 0.0043865963931154521 0 0.0018528080105590457 0.0043881034901334477 0 0.0018415134706861204 0.0043799913748163331 0 0.0018748619159050398 0.0043865963931154521 0 0.0018528080105590457 0.0043881034901334477 0 0.0018734540585161963 0.0043617931399046401 0 0.0018438543142092814 0.0043759944945035243 0 0.0018528080105590457 0.0043881034901334477 0 0.0018734540585161963 0.0043617931399046401 0 0.0027223272489159118 0.0041243471000876001 0 0.002710380411375295 0.0040769925251209977 0 0.0028584517452044387 0.0040523584196394897 0 0.0026776634881220383 0.0041970069103454306 0 0.0027223272489159118 0.0041243471000876001 0 0.0026837600922991196 0.0041238773805511051 0 0.0027223272489159118 0.0041243471000876001 0 0.0026837600922991196 0.0041238773805511051 0 0.002711356885703091 0.0040737801385721823 0 0.0026837600922991196 0.0041238773805511051 0 0.002711356885703091 0.0040737801385721823 0 0.002633425412189346 0.0041242914797419627 0 0.00265153604838173 0.0042535596027396261 0 0.0026611652921166695 0.0043659765622175734 0 0.0025400578670017253 0.0041394644939692395 0 0.002711356885703091 0.0040737801385721823 0 0.002633425412189346 0.0041242914797419627 0 0.0026776634881220383 0.0041970069103454306 0 0.0026837600922991196 0.0041238773805511051 0 0.002633425412189346 0.0041242914797419627 0 0.0034170804694200392 0.0043891539735992531 0 0.0034206025663372115 0.0043911039909427267 0 0.0034189224100810317 0.0043900930107152892 0 0.0019331744860939084 0.0044048683415261677 0 0.0018734540585161963 0.0043617931399046401 0 0.0019208308122886369 0.0042995004783952621 0 0.0026611652921166695 0.0043659765622175734 0 0.0026889828232590581 0.0043541605071062564 0 0.0034170804694200392 0.0043891539735992531 0 0.0034206025663372115 0.0043911039909427267 0 0.0034251052981960658 0.0043935065874276345 0 0.0034206025663372115 0.0043911039909427267 0 0.0034230877508122978 0.0043929767552312766 0 0.0034251052981960658 0.0043935065874276345 0 0.0018400467986010582 0.0043491283902827868 0 0.0018734540585161963 0.0043617931399046401 0 0.0018520649262295269 0.0043133885205557136 0 0.0018438543142092814 0.0043759944945035243 0 0.0018400467986010582 0.0043491283902827868 0 0.0018734540585161963 0.0043617931399046401 0 0.0018734540585161963 0.0043617931399046401 0 0.0018520649262295269 0.0043133885205557136 0 0.0019208308122886369 0.0042995004783952621 0 0.0018400467986010582 0.0043491283902827868 0 0.0018520649262295269 0.0043133885205557136 0 0.0018090294295267765 0.0043298775687963149 0 0.0018520649262295269 0.0043133885205557136 0 0.0018090294295267765 0.0043298775687963149 0 0.0018075069705679877 0.0042799613535639998 0 0.0018090294295267765 0.0043298775687963149 0 0.0017635346342761743 0.0043109025793668741 0 0.0018075069705679877 0.0042799613535639998 0 0.0018090294295267765 0.0043298775687963149 0 0.0018148021945735703 0.0043688208817139725 0 0.0017692241956720075 0.0043549700876790868 0 0.0018400467986010582 0.0043491283902827868 0 0.0018090294295267765 0.0043298775687963149 0 0.0018148021945735703 0.0043688208817139725 0 0.0018438543142092814 0.0043759944945035243 0 0.0018400467986010582 0.0043491283902827868 0 0.0018148021945735703 0.0043688208817139725 0 0.0017692241956720075 0.0043549700876790868 0 0.0017201850716244964 0.0043840998029041579 0 0.001778621643645665 0.0043862558350900365 0 0.0018148021945735703 0.0043688208817139725 0 0.0017692241956720075 0.0043549700876790868 0 0.001778621643645665 0.0043862558350900365 0 0.0018090294295267765 0.0043298775687963149 0 0.0017692241956720075 0.0043549700876790868 0 0.0017635346342761743 0.0043109025793668741 0 0.0017692241956720075 0.0043549700876790868 0 0.0017635346342761743 0.0043109025793668741 0 0.0017006205307387849 0.004328899413519432 0 0.0017006205307387849 0.004328899413519432 0 0.0017201850716244964 0.0043840998029041579 0 0.0016470721848094846 0.0043973810459974321 0 0.0016028816036092509 0.0043481638951871028 0 0.0017006205307387849 0.004328899413519432 0 0.0016470721848094846 0.0043973810459974321 0 0.0017692241956720075 0.0043549700876790868 0 0.0017006205307387849 0.004328899413519432 0 0.0017201850716244964 0.0043840998029041579 0 0.0017201850716244964 0.0043840998029041579 0 0.0017432695931655722 0.0044213459456292348 0 0.001778621643645665 0.0043862558350900365 0 0.0017201850716244964 0.0043840998029041579 0 0.0017432695931655722 0.0044213459456292348 0 0.0016803693492209704 0.0044319356322549764 0 0.0017201850716244964 0.0043840998029041579 0 0.0016803693492209704 0.0044319356322549764 0 0.0016470721848094846 0.0043973810459974321 0 0.0016052312105561675 0.0044571082954183395 0 0.0016803693492209704 0.0044319356322549764 0 0.0016470721848094846 0.0043973810459974321 0 0.0016052312105561675 0.0044571082954183395 0 0.0016803693492209704 0.0044319356322549764 0 0.0016723487315712369 0.0044939568540929035 0 0.0017432695931655722 0.0044213459456292348 0 0.0016803693492209704 0.0044319356322549764 0 0.0016723487315712369 0.0044939568540929035 0 0.0019676490278863453 0.0042773887052007572 0 0.0018415134706861204 0.0043799913748163331 0 0.0018428333725958438 0.0044053059964009609 0 0.0018128432556152924 0.0043870436968808067 0 0.0018344985965337527 0.0044020832210076976 0 0.0017432695931655722 0.0044213459456292348 0 0.0016723487315712369 0.0044939568540929035 0 0.0018428333725958438 0.0044053059964009609 0 0.0018528080105590457 0.0043881034901334477 0 0.0018415134706861204 0.0043799913748163331 0 0.0018428333725958438 0.0044053059964009609 0 0.0018148021945735703 0.0043688208817139725 0 0.0018428333725958438 0.0044053059964009609 0 0.001778621643645665 0.0043862558350900365 0 0.0018438543142092814 0.0043759944945035243 0 0.0018148021945735703 0.0043688208817139725 0 0.0018428333725958438 0.0044053059964009609 0 0.0018438543142092814 0.0043759944945035243 0 0.0018528080105590457 0.0043881034901334477 0 0.0018428333725958438 0.0044053059964009609 0 0.0017432695931655722 0.0044213459456292348 0 0.0018428333725958438 0.0044053059964009609 0 0.001778621643645665 0.0043862558350900365 0 0.0036206561853253526 0.0043985285855016841 0 0.0034413498664832426 0.0043794091790083402 0 0.0034741012802209583 0.0045370342004654772 0 0.0032186455899095405 0.0045953865623455572 0 0.0034413498664832426 0.0043794091790083402 0 0.0034741012802209583 0.0045370342004654772 0 0.003223603787219257 0.0046294074262125326 0 0.0034158235165601424 0.0044446366219151627 0 0.0032319753059569518 0.0046586291052023729 0 0.0033933555806132856 0.0045041949867344255 0 0.0032204807160218646 0.0045507715669361607 0 0.0033933555806132856 0.0045041949867344255 0 0.0032747351952032359 0.0044714526864320144 0 0.0032204807160218646 0.0045507715669361607 0 0.0032747351952032359 0.0044714526864320144 0 0.0031336564432456089 0.0045125261704822076 0 0.0032204807160218646 0.0045507715669361607 0 0.0032747351952032359 0.0044714526864320144 0 0.0031336564432456089 0.0045125261704822076 0 0.003172591316832988 0.0043861644366708016 0 0.0031336564432456089 0.0045125261704822076 0 0.0032204807160218646 0.0045507715669361607 0 0.003045977776712143 0.0046240268492401095 0 0.0032319753059569518 0.0046586291052023729 0 0.0032204807160218646 0.0045507715669361607 0 0.003045977776712143 0.0046240268492401095 0 0.0030713898198468188 0.0044058573249498197 0 0.003045977776712143 0.0046240268492401095 0 0.002914702712389184 0.0044698231369003829 0 0.0028424372324038594 0.0047086825389349172 0 0.003045977776712143 0.0046240268492401095 0 0.002914702712389184 0.0044698231369003829 0 0.0030927322892181216 0.0044569116960072389 0 0.0030578149627178658 0.0046175496690694868 0 0.0028340143938632412 0.0043864449489676837 0 0.0031434960507643757 0.0042391950417457096 0 0.0030713898198468188 0.0044058573249498197 0 0.002914702712389184 0.0044698231369003829 0 0.002973269529877867 0.0042133322674899332 0 0.0027223272489159118 0.0041243471000876001 0 0.0027961643792763211 0.0043383939901599734 0 0.0028584517452044387 0.0040523584196394897 0 0.0030713898198468188 0.0044058573249498197 0 0.002973269529877867 0.0042133322674899332 0 0.0030978679207892693 0.0041929665968660238 0 0.0026611652921166695 0.0043659765622175734 0 0.0031434960507643757 0.0042391950417457096 0 0.0034195636440947706 0.0043903470405870573 0 0.003419022080113097 0.004389449536297196 0 0.0034184117238409794 0.0043898661899925548 0 0.0031434960507643757 0.0042391950417457096 0 0.0032659334286507134 0.0043407919566250831 0 0.0034206025663372115 0.0043911039909427267 0 0.0034195636440947706 0.0043903470405870573 0 0.0034189224100810317 0.0043900930107152892 0 0.0034170804694200392 0.0043891539735992531 0 0.0034184487803979265 0.004389909695191571 0 0.0034189224100810317 0.0043900930107152892 0 0.0032041432729480752 0.0043133494529203932 0 0.0031434960507643757 0.0042391950417457096 0 0.0034195636440947706 0.0043903470405870573 0 0.0034184487803979265 0.004389909695191571 0 0.0034189224100810317 0.0043900930107152892 0 0.0034206025663372115 0.0043911039909427267 0 0.0034195636440947706 0.0043903470405870573 0 0.0034230877508122978 0.0043929767552312766 0 0.0034195636440947706 0.0043903470405870573 0 0.0034230877508122978 0.0043929767552312766 0 0.0034213398064881105 0.0043922082055044562 0 0.0034195636440947706 0.0043903470405870573 0 0.0034213398064881105 0.0043922082055044562 0 0.0034184117238409794 0.0043898661899925548 0 0.0034213398064881105 0.0043922082055044562 0 0.0034216874012849997 0.0043936795880838882 0 0.0034184117238409794 0.0043898661899925548 0 0.0034173385690233408 0.0044020792724203265 0 0.0034150917239656542 0.0043926479050430105 0 0.0033928363103419793 0.0044043686736499835 0 0.0034260212537091262 0.0044048315117350646 0 0.0032659334286507134 0.0043407919566250831 0 0.0030927322892181216 0.0044569116960072389 0 0.0032659334286507134 0.0043407919566250831 0 0.0032659334286507134 0.0043407919566250831 0 0.003393652966891788 0.0044102780174344438 0 0.0033933555806132856 0.0045041949867344255 0 0.0032747351952032359 0.0044714526864320144 0 0.0033928363103419793 0.0044043686736499835 0 0.0032747351952032359 0.0044714526864320144 0 0.003172591316832988 0.0043861644366708016 0 0.0033928363103419793 0.0044043686736499835 0 0.0034173385690233408 0.0044020792724203265 0 0.0033928363103419793 0.0044043686736499835 0 0.0034295931291102675 0.0043934166493055449 0 0.0034860351687745041 0.0044246725215649485 0 0.0034864121552647055 0.0043815668258162348 0 0.0033928363103419793 0.0044043686736499835 0 0.0034864121552647055 0.0043815668258162348 0 0.0033928363103419793 0.0044043686736499835 0 0.0034295931291102675 0.0043934166493055449 0 0.0034860351687745041 0.0044246725215649485 0 0.0033933555806132856 0.0045041949867344255 0 0.0033928363103419793 0.0044043686736499835 0 0.0035427619459891366 0.00435933253859511 0 0.0034158235165601424 0.0044446366219151627 0 0.0034864121552647055 0.0043815668258162348 0 0.0034613708630464898 0.0043877569371793233 0 0.0034295931291102675 0.0043934166493055449 0 0.0034295931291102675 0.0043934166493055449 0 0.0034354007080761588 0.0043953283460161502 0 0.003427152799166592 0.0043972554546286629 0 0.0034613708630464898 0.0043877569371793233 0 0.0034295931291102675 0.0043934166493055449 0 0.0034354007080761588 0.0043953283460161502 0 0.0034613708630464898 0.0043877569371793233 0 0.0034354007080761588 0.0043953283460161502 0 0.0034319495663332313 0.0044009605360894226 0 0.0034354007080761588 0.0043953283460161502 0 0.003427152799166592 0.0043972554546286629 0 0.0034319495663332313 0.0044009605360894226 0 0.0034293742970627409 0.0044015597986184095 0 0.003427152799166592 0.0043972554546286629 0 0.0034256589763778313 0.004396063190545571 0 0.0034293742970627409 0.0044015597986184095 0 0.003427152799166592 0.0043972554546286629 0 0.0034319495663332313 0.0044009605360894226 0 0.0034173385690233408 0.0044020792724203265 0 0.0034295931291102675 0.0043934166493055449 0 0.003427152799166592 0.0043972554546286629 0 0.0034216874012849997 0.0043936795880838882 0 0.003427152799166592 0.0043972554546286629 0 0.0034256589763778313 0.004396063190545571 0 0.0034260212537091262 0.0044048315117350646 0 0.0034246885296381874 0.0043951061933507592 0 0.0034230877508122978 0.0043929767552312766 0 0.0034213398064881105 0.0043922082055044562 0 0.0034256589763778313 0.004396063190545571 0 0.0034230877508122978 0.0043929767552312766 0 0.0034256589763778313 0.004396063190545571 0 0.0034290556923461659 0.0043987418650495011 0 0.0034213398064881105 0.0043922082055044562 0 0.0034216874012849997 0.0043936795880838882 0 0.0034256589763778313 0.004396063190545571 0 0.0034293742970627409 0.0044015597986184095 0 0.0034256589763778313 0.004396063190545571 0 0.0034324834338556889 0.0044032369751809998 0 0.0034256589763778313 0.004396063190545571 0 0.0034324834338556889 0.0044032369751809998 0 0.0034290556923461659 0.0043987418650495011 0 0.0034324834338556889 0.0044032369751809998 0 0.0034378172962867388 0.0044107505610624315 0 0.003430836495760346 0.0044139726112759972 0 0.0034293742970627409 0.0044015597986184095 0 0.0034324834338556889 0.0044032369751809998 0 0.003430836495760346 0.0044139726112759972 0 0.003430836495760346 0.0044139726112759972 0 0.003446651924329996 0.0044165579264287148 0 0.003425012394770938 0.0044538870850191472 0 0.0034378172962867388 0.0044107505610624315 0 0.003430836495760346 0.0044139726112759972 0 0.003446651924329996 0.0044165579264287148 0 0.003430836495760346 0.0044139726112759972 0 0.0034226121163839856 0.0044236849919053814 0 0.003425012394770938 0.0044538870850191472 0 0.003430836495760346 0.0044139726112759972 0 0.0034319495663332313 0.0044009605360894226 0 0.0034226121163839856 0.0044236849919053814 0 0.0034293742970627409 0.0044015597986184095 0 0.003430836495760346 0.0044139726112759972 0 0.0034319495663332313 0.0044009605360894226 0 0.0034613708630464898 0.0043877569371793233 0 0.0034319495663332313 0.0044009605360894226 0 0.0034486492772675091 0.0044017374868046922 0 0.0034319495663332313 0.0044009605360894226 0 0.0034226121163839856 0.0044236849919053814 0 0.0034486492772675091 0.0044017374868046922 0 0.003440419203806333 0.0044283030904038083 0 0.0034226121163839856 0.0044236849919053814 0 0.0034486492772675091 0.0044017374868046922 0 0.0035130244009192982 0.0043772160181214026 0 0.0034613708630464898 0.0043877569371793233 0 0.0034486492772675091 0.0044017374868046922 0 0.0017898763248207824 0.0041716973469693259 0 0.0017288639773587716 0.0041976274672658707 0 0.0018123920289104215 0.0042294639825949066 0 0.0017898763248207824 0.0041716973469693259 0 0.0018123920289104215 0.0042294639825949066 0 0.0018328031269100791 0.0041829208814943 0 0.0017898763248207824 0.0041716973469693259 0 0.0018328031269100791 0.0041829208814943 0 0.0018227988708362215 0.004154805860509465 0 0.0017898763248207824 0.0041716973469693259 0 0.0018227988708362215 0.004154805860509465 0 0.0018046286467246185 0.0041301110857175655 0 0.0017898763248207824 0.0041716973469693259 0 0.0017288639773587716 0.0041976274672658707 0 0.0017364852180480153 0.0041356999743071693 0 0.0016681618345470196 0.0041723961270455669 0 0.0017288639773587716 0.0041976274672658707 0 0.0017364852180480153 0.0041356999743071693 0 0.0016435935938017285 0.004248002810505953 0 0.0016681618345470196 0.0041723961270455669 0 0.0017288639773587716 0.0041976274672658707 0 0.0016435935938017285 0.004248002810505953 0 0.0017288639773587716 0.0041976274672658707 0 0.0017410348234026224 0.0042637780777438176 0 0.0016435935938017285 0.004248002810505953 0 0.0016028816036092509 0.0043481638951871028 0 0.0017006205307387849 0.004328899413519432 0 0.0016435935938017285 0.004248002810505953 0 0.0017006205307387849 0.004328899413519432 0 0.0017410348234026224 0.0042637780777438176 0 0.0017635346342761743 0.0043109025793668741 0 0.0017006205307387849 0.004328899413519432 0 0.0017410348234026224 0.0042637780777438176 0 0.0017635346342761743 0.0043109025793668741 0 0.0017410348234026224 0.0042637780777438176 0 0.0018075069705679877 0.0042799613535639998 0 0.0017288639773587716 0.0041976274672658707 0 0.0017410348234026224 0.0042637780777438176 0 0.0018123920289104215 0.0042294639825949066 0 0.0017410348234026224 0.0042637780777438176 0 0.0018123920289104215 0.0042294639825949066 0 0.0018075069705679877 0.0042799613535639998 0 0.0018637027448986123 0.0042453718505184781 0 0.0019208308122886369 0.0042995004783952621 0 0.0018943415610918452 0.0041844649377679489 0 0.0018520649262295269 0.0043133885205557136 0 0.0018075069705679877 0.0042799613535639998 0 0.0018637027448986123 0.0042453718505184781 0 0.0018520649262295269 0.0043133885205557136 0 0.0018637027448986123 0.0042453718505184781 0 0.0019208308122886369 0.0042995004783952621 0 0.0018123920289104215 0.0042294639825949066 0 0.0018075069705679877 0.0042799613535639998 0 0.0018637027448986123 0.0042453718505184781 0 0.0034230877508122978 0.0043929767552312766 0 0.0034251052981960658 0.0043935065874276345 0 0.0034290556923461659 0.0043987418650495011 0 0.0034251052981960658 0.0043935065874276345 0 0.0034290556923461659 0.0043987418650495011 0 0.0034325655619549204 0.0044013286016985195 0 0.0026889828232590581 0.0043541605071062564 0 0.0025128004430081318 0.0043082820799463682 0 0.0034290556923461659 0.0043987418650495011 0 0.0034325655619549204 0.0044013286016985195 0 0.0034335109862810107 0.0044028887375267738 0 0.0034290556923461659 0.0043987418650495011 0 0.0034326368258170612 0.0044030907735418201 0 0.0034335109862810107 0.0044028887375267738 0 0.0034324834338556889 0.0044032369751809998 0 0.0034290556923461659 0.0043987418650495011 0 0.0034326368258170612 0.0044030907735418201 0 0.0018123920289104215 0.0042294639825949066 0 0.0018637027448986123 0.0042453718505184781 0 0.0018530995235110166 0.0042064139920030821 0 0.0018123920289104215 0.0042294639825949066 0 0.0018530995235110166 0.0042064139920030821 0 0.0018328031269100791 0.0041829208814943 0 0.0018637027448986123 0.0042453718505184781 0 0.0018530995235110166 0.0042064139920030821 0 0.0018943415610918452 0.0041844649377679489 0 0.0018943415610918452 0.0041844649377679489 0 0.0018887373959197208 0.0041680678767362185 0 0.0018639029486160017 0.00417781244386868 0 0.0018530995235110166 0.0042064139920030821 0 0.0018943415610918452 0.0041844649377679489 0 0.0018639029486160017 0.00417781244386868 0 0.0025128004430081318 0.0043082820799463682 0 0.0023749827710272237 0.0042708467459498202 0 0.0018887373959197208 0.0041680678767362185 0 0.0018694878416345084 0.0041603057367042432 0 0.0018639029486160017 0.00417781244386868 0 0.0018887373959197208 0.0041680678767362185 0 0.0018694878416345084 0.0041603057367042432 0 0.0018666801586719876 0.0041423239414935852 0 0.0018694878416345084 0.0041603057367042432 0 0.0018514151505751137 0.0041498139403554632 0 0.0018666801586719876 0.0041423239414935852 0 0.0018694878416345084 0.0041603057367042432 0 0.0018639029486160017 0.00417781244386868 0 0.0018514151505751137 0.0041498139403554632 0 0.0018639029486160017 0.00417781244386868 0 0.0018328031269100791 0.0041829208814943 0 0.0018514151505751137 0.0041498139403554632 0 0.0018530995235110166 0.0042064139920030821 0 0.0018639029486160017 0.00417781244386868 0 0.0018328031269100791 0.0041829208814943 0 0.0018328031269100791 0.0041829208814943 0 0.0018227988708362215 0.004154805860509465 0 0.0018514151505751137 0.0041498139403554632 0 0.0018227988708362215 0.004154805860509465 0 0.001834332681642475 0.00412409744591208 0 0.0018514151505751137 0.0041498139403554632 0 0.0034335109862810107 0.0044028887375267738 0 0.0034351122909425913 0.0044122136903668313 0 0.0034357093667285237 0.0044081231880959779 0 0.0018887373959197208 0.0041680678767362185 0 0.0018682984866403426 0.0041079365789381695 0 0.0018638354529913919 0.0040338579830407591 0 0.0019696956944714097 0.0042949299112906769 0 0.0019202663504210675 0.0041290068488660748 0 0.0018638354529913919 0.0040338579830407591 0 0.0023749827710272237 0.0042708467459498202 0 0.0026718249095286995 0.0042653087723866535 0 0.0023749827710272237 0.0042708467459498202 0 0.0017564271567471832 0.0040041128326153133 0 0.001855215753442911 0.0041251051553832614 0 0.0018682984866403426 0.0041079365789381695 0 0.0018461868279056777 0.0040990569236801664 0 0.001855215753442911 0.0041251051553832614 0 0.0018666801586719876 0.0041423239414935852 0 0.0018682984866403426 0.0041079365789381695 0 0.001834332681642475 0.00412409744591208 0 0.001855215753442911 0.0041251051553832614 0 0.0018461868279056777 0.0040990569236801664 0 0.001855215753442911 0.0041251051553832614 0 0.0018514151505751137 0.0041498139403554632 0 0.0018666801586719876 0.0041423239414935852 0 0.001834332681642475 0.00412409744591208 0 0.001855215753442911 0.0041251051553832614 0 0.0018514151505751137 0.0041498139403554632 0 0.0018887373959197208 0.0041680678767362185 0 0.0018666801586719876 0.0041423239414935852 0 0.0018682984866403426 0.0041079365789381695 0 0.0018682984866403426 0.0041079365789381695 0 0.0018601916124121856 0.0040862488891885889 0 0.0018638354529913919 0.0040338579830407591 0 0.0018601916124121856 0.0040862488891885889 0 0.0018543501318917014 0.0040764620085950703 0 0.0018461868279056777 0.0040990569236801664 0 0.0018331453770793185 0.0040716241222374045 0 0.0018461868279056777 0.0040990569236801664 0 0.0018190203397990613 0.0040943312851980532 0 0.0018543501318917014 0.0040764620085950703 0 0.0018331453770793185 0.0040716241222374045 0 0.0018461868279056777 0.0040990569236801664 0 0.001834332681642475 0.00412409744591208 0 0.0018461868279056777 0.0040990569236801664 0 0.0018190203397990613 0.0040943312851980532 0 0.0018682984866403426 0.0041079365789381695 0 0.0018601916124121856 0.0040862488891885889 0 0.0018461868279056777 0.0040990569236801664 0 0.0034324834338556889 0.0044032369751809998 0 0.0034378172962867388 0.0044107505610624315 0 0.0034357093667285237 0.0044081231880959779 0 0.0034324834338556889 0.0044032369751809998 0 0.0034326368258170612 0.0044030907735418201 0 0.0034357093667285237 0.0044081231880959779 0 0.0034326368258170612 0.0044030907735418201 0 0.0034335109862810107 0.0044028887375267738 0 0.0034357093667285237 0.0044081231880959779 0 0.0034351122909425913 0.0044122136903668313 0 0.0034357093667285237 0.0044081231880959779 0 0.0034389829126998104 0.0044125671688641883 0 0.0034378172962867388 0.0044107505610624315 0 0.0034357093667285237 0.0044081231880959779 0 0.0034389829126998104 0.0044125671688641883 0 0.003446651924329996 0.0044165579264287148 0 0.0034901687349685405 0.0044281696130585059 0 0.0034685046124812977 0.0044388418897582946 0 0.003446651924329996 0.0044165579264287148 0 0.0034362950957305392 0.0044114614016426143 0 0.0034278867297645585 0.0044049380557320767 0 0.0037099800036776097 0.0044807348120638702 0 0.0027111979757141712 0.004353791459736446 0 0.0034378172962867388 0.0044107505610624315 0 0.0034389829126998104 0.0044125671688641883 0 0.003446651924329996 0.0044165579264287148 0 0.0034389829126998104 0.0044125671688641883 0 0.003446651924329996 0.0044165579264287148 0 0.0034362950957305392 0.0044114614016426143 0 0.0026718249095286995 0.0042653087723866535 0 0.0027111979757141712 0.004353791459736446 0 0.0019202663504210675 0.0041290068488660748 0 0.0018638354529913919 0.0040338579830407591 0 0.0018753450575842725 0.0039678274231251852 0 0.0034351122909425913 0.0044122136903668313 0 0.0034362950957305392 0.0044114614016426143 0 0.0034278867297645585 0.0044049380557320767 0 0.0018543501318917014 0.0040764620085950703 0 0.0018638354529913919 0.0040338579830407591 0 0.001847201998205879 0.0040591935007536877 0 0.0018601916124121856 0.0040862488891885889 0 0.0018543501318917014 0.0040764620085950703 0 0.0018638354529913919 0.0040338579830407591 0 0.0018638354529913919 0.0040338579830407591 0 0.0018415218190448173 0.0040519087933278703 0 0.001847201998205879 0.0040591935007536877 0 0.0018415218190448173 0.0040519087933278703 0 0.0018084570588566195 0.0040297114779657035 0 0.0018212838494010351 0.0040554092941664311 0 0.0018331453770793185 0.0040716241222374045 0 0.0018415218190448173 0.0040519087933278703 0 0.0018212838494010351 0.0040554092941664311 0 0.0018331453770793185 0.0040716241222374045 0 0.0018415218190448173 0.0040519087933278703 0 0.001847201998205879 0.0040591935007536877 0 0.0018543501318917014 0.0040764620085950703 0 0.0018331453770793185 0.0040716241222374045 0 0.001847201998205879 0.0040591935007536877 0 0.0034351122909425913 0.0044122136903668313 0 0.0034389829126998104 0.0044125671688641883 0 0.0034362950957305392 0.0044114614016426143 0 0.0018638354529913919 0.0040338579830407591 0 0.0018415218190448173 0.0040519087933278703 0 0.001855804262652384 0.0039644689911019623 0 0.0027111979757141712 0.004353791459736446 0 0.0021452593827895597 0.0043409174701023977 0 0.001981356869889107 0.0040291264911628075 0 0.0021452593827895597 0.0043409174701023977 0 0.0018415218190448173 0.0040519087933278703 0 0.0018515421724902123 0.0039995323273314788 0 0.0018084570588566195 0.0040297114779657035 0 0.0018638354529913919 0.0040338579830407591 0 0.0018753450575842725 0.0039678274231251852 0 0.001855804262652384 0.0039644689911019623 0 0.0018084570588566195 0.0040297114779657035 0 0.0017713897361199867 0.0040322040703595447 0 0.0017660813370533027 0.003978640571979223 0 0.0018515421724902123 0.0039995323273314788 0 0.0018084570588566195 0.0040297114779657035 0 0.0017660813370533027 0.003978640571979223 0 0.0017713897361199867 0.0040322040703595447 0 0.0017225942379963416 0.004025017836441336 0 0.0017660813370533027 0.003978640571979223 0 0.0017713897361199867 0.0040322040703595447 0 0.0017610104667416234 0.0040658150905405407 0 0.0017225942379963416 0.004025017836441336 0 0.0017713897361199867 0.0040322040703595447 0 0.0017610104667416234 0.0040658150905405407 0 0.0017998417882547331 0.0040619901191452168 0 0.0018084570588566195 0.0040297114779657035 0 0.0017998417882547331 0.0040619901191452168 0 0.0018212838494010351 0.0040554092941664311 0 0.0018084570588566195 0.0040297114779657035 0 0.0017713897361199867 0.0040322040703595447 0 0.0017998417882547331 0.0040619901191452168 0 0.0018331453770793185 0.0040716241222374045 0 0.0017998417882547331 0.0040619901191452168 0 0.0018212838494010351 0.0040554092941664311 0 0.0018331453770793185 0.0040716241222374045 0 0.0017998417882547331 0.0040619901191452168 0 0.0018190203397990613 0.0040943312851980532 0 0.0018190203397990613 0.0040943312851980532 0 0.0017781132093046134 0.0040961966133899273 0 0.0018046286467246185 0.0041301110857175655 0 0.0017998417882547331 0.0040619901191452168 0 0.0018190203397990613 0.0040943312851980532 0 0.0017781132093046134 0.0040961966133899273 0 0.0017610104667416234 0.0040658150905405407 0 0.0017998417882547331 0.0040619901191452168 0 0.0017781132093046134 0.0040961966133899273 0 0.0017610104667416234 0.0040658150905405407 0 0.0017781132093046134 0.0040961966133899273 0 0.0017217990963845598 0.0040820967859747214 0 0.0017781132093046134 0.0040961966133899273 0 0.0017364852180480153 0.0041356999743071693 0 0.0017217990963845598 0.0040820967859747214 0 0.0017781132093046134 0.0040961966133899273 0 0.0018046286467246185 0.0041301110857175655 0 0.0017364852180480153 0.0041356999743071693 0 0.0017898763248207824 0.0041716973469693259 0 0.0018046286467246185 0.0041301110857175655 0 0.0017364852180480153 0.0041356999743071693 0 0.0018227988708362215 0.004154805860509465 0 0.001834332681642475 0.00412409744591208 0 0.0018046286467246185 0.0041301110857175655 0 0.001834332681642475 0.00412409744591208 0 0.0018190203397990613 0.0040943312851980532 0 0.0018046286467246185 0.0041301110857175655 0 0.0016681618345470196 0.0041723961270455669 0 0.0016639687304002375 0.0041103121688016346 0 0.0017364852180480153 0.0041356999743071693 0 0.0016639687304002375 0.0041103121688016346 0 0.0017364852180480153 0.0041356999743071693 0 0.0017217990963845598 0.0040820967859747214 0 0.0016639687304002375 0.0041103121688016346 0 0.0017217990963845598 0.0040820967859747214 0 0.001681924856910523 0.0040589939208381413 0 0.0016121741264346651 0.004043072250208439 0 0.0016639687304002375 0.0041103121688016346 0 0.001681924856910523 0.0040589939208381413 0 0.0016273038759401564 0.0040513700789508184 0 0.001681924856910523 0.0040589939208381413 0 0.0016744039124500459 0.0040108328990587369 0 0.0017610104667416234 0.0040658150905405407 0 0.0017217990963845598 0.0040820967859747214 0 0.0017225942379963416 0.004025017836441336 0 0.0017217990963845598 0.0040820967859747214 0 0.001681924856910523 0.0040589939208381413 0 0.0017225942379963416 0.004025017836441336 0 0.0017225942379963416 0.004025017836441336 0 0.0016744039124500459 0.0040108328990587369 0 0.0016874163143603058 0.0039645785146052784 0 0.001681924856910523 0.0040589939208381413 0 0.0017225942379963416 0.004025017836441336 0 0.0016744039124500459 0.0040108328990587369 0 0.0016744039124500459 0.0040108328990587369 0 0.0016874163143603058 0.0039645785146052784 0 0.0016546653499858741 0.0039580550277007499 0 0.0017225942379963416 0.004025017836441336 0 0.0016874163143603058 0.0039645785146052784 0 0.0017660813370533027 0.003978640571979223 0 0.0015393692187946554 0.0047848376087346375 0 0.0016890303252774892 0.0044658507269887222 0 0.0016935402939736342 0.0049745564186023314 0 0.0016922530017139191 0.0049782572422881113 0 0.0016913929505953111 0.0049695034357859422 0 0.0016935402939736342 0.0049745564186023314 0 0.0016933593605039424 0.0049776094054684505 0 0.0016922530017139191 0.0049782572422881113 0 0.0013447523820755152 0.0049813809675401492 0 0.0014476320549984608 0.0050137238604806306 0 0.0014332261057938922 0.0051074826075833864 0 0.0016935402939736342 0.0049745564186023314 0 0.0016933593605039424 0.0049776094054684505 0 0.0016940725610282246 0.0049790282438578254 0 0.0015393692187946554 0.0047848376087346375 0 0.0012917667771220407 0.0054363720164840364 0 0.0015393692187946554 0.0047848376087346375 0 0.0014239439554000247 0.0049182747306529525 0 0.0016922530017139191 0.0049782572422881113 0 0.0016918987447758764 0.0049842771048389132 0 0.0016940725610282246 0.0049790282438578254 0 0.0012335758662382977 0.0056760718032136444 0 0.0011571680928430957 0.0056496953820690176 0 0.0011203960044217944 0.005765564701103917 0 0.0016933593605039424 0.0049776094054684505 0 0.0016922530017139191 0.0049782572422881113 0 0.0016940725610282246 0.0049790282438578254 0 0.0011064518371027149 0.0057903219995670387 0 0.0012917667771220407 0.0054363720164840364 0 0.0014476686778346938 0.0053403184402712562 0 0.0012917667771220407 0.0054363720164840364 0 0.0016918987447758764 0.0049842771048389132 0 0.0016898510606767213 0.0049758454198745097 0 0.0016858618710324912 0.0049798599966505569 0 0.0016922530017139191 0.0049782572422881113 0 0.0016918987447758764 0.0049842771048389132 0 0.0016898510606767213 0.0049758454198745097 0 0.0016898510606767213 0.0049758454198745097 0 0.0016913929505953111 0.0049695034357859422 0 0.0016877035537901752 0.0049672569726727052 0 0.0016922530017139191 0.0049782572422881113 0 0.0016898510606767213 0.0049758454198745097 0 0.0016913929505953111 0.0049695034357859422 0 0.0021452593827895597 0.0043409174701023977 0 0.0016890303252774892 0.0044658507269887222 0 0.001688726995041187 0.0049640730861719015 0 0.0016913929505953111 0.0049695034357859422 0 0.0016877035537901752 0.0049672569726727052 0 0.0024830261556327178 0.0046082875604597671 0 0.0020398297212302031 0.0048686322224452804 0 0.0016898510606767213 0.0049758454198745097 0 0.0016877035537901752 0.0049672569726727052 0 0.0016858618710324912 0.0049798599966505569 0 0.0027111979757141712 0.004353791459736446 0 0.0024830261556327178 0.0046082875604597671 0 0.0024338843732791176 0.0041232147288546468 0 0.0026079033083434787 0.0041749420678278458 0 0.0025097631103845925 0.0046269861312230884 0 0.0021452593827895597 0.0043409174701023977 0 0.0024830261556327178 0.0046082875604597671 0 0.0034901687349685405 0.0044281696130585059 0 0.0034927994752670523 0.0044425597079222221 0 0.0034685046124812977 0.0044388418897582946 0 0.003446651924329996 0.0044165579264287148 0 0.0034576370172851641 0.004461112710722164 0 0.0034685046124812977 0.0044388418897582946 0 0.0034927994752670523 0.0044425597079222221 0 0.0034576370172851641 0.004461112710722164 0 0.0034685046124812977 0.0044388418897582946 0 0.0034576370172851641 0.004461112710722164 0 0.0034930244485239536 0.0045088582586126878 0 0.0034394387226990442 0.0044984229072741024 0 0.0023922546940803448 0.0046523056019239228 0 0.0024095090580858688 0.0047766249672271501 0 0.002354939471744527 0.0048242436454218798 0 0.0034927994752670523 0.0044425597079222221 0 0.0034576370172851641 0.004461112710722164 0 0.0034930244485239536 0.0045088582586126878 0 0.0024830261556327178 0.0046082875604597671 0 0.0030531550547796171 0.0045975125540058765 0 0.0024095090580858688 0.0047766249672271501 0 0.002354939471744527 0.0048242436454218798 0 0.0024246274480722654 0.0048996340960398626 0 0.0020398297212302031 0.0048686322224452804 0 0.0017555423129394518 0.0051835400091572439 0 0.002354939471744527 0.0048242436454218798 0 0.0024246274480722654 0.0048996340960398626 0 0.0023688386560688042 0.004931816817620097 0 0.0030531550547796171 0.0045975125540058765 0 0.002436324616542061 0.004989229650233378 0 0.0034930244485239536 0.0045088582586126878 0 0.0034866305373376493 0.0046016855982618007 0 0.0034332640953159909 0.0045620286464380056 0 0.0034930244485239536 0.0045088582586126878 0 0.0034394387226990442 0.0044984229072741024 0 0.0034332640953159909 0.0045620286464380056 0 0.0034866305373376493 0.0046016855982618007 0 0.0034332640953159909 0.0045620286464380056 0 0.0034286662272675255 0.0046748386906977201 0 0.002354939471744527 0.0048242436454218798 0 0.0023193226463004133 0.0049920753626006365 0 0.0023688386560688042 0.004931816817620097 0 0.0017810574292598568 0.0051909472347984415 0 0.0017693334650854592 0.0052012793486144121 0 0.0017845930941711363 0.0052221080130755134 0 0.0024246274480722654 0.0048996340960398626 0 0.0023688386560688042 0.004931816817620097 0 0.0023762656932498102 0.0049413864787131159 0 0.0017555423129394518 0.0051835400091572439 0 0.0020471962919483533 0.0051096412475415583 0 0.0023193226463004133 0.0049920753626006365 0 0.0023688386560688042 0.004931816817620097 0 0.0023766174655835354 0.0049414439179760261 0 0.0020657937010087504 0.0051087092822890293 0 0.0020471962919483533 0.0051096412475415583 0 0.001916092209077531 0.0052103281592032992 0 0.0018908140276525202 0.0052316593224664889 0 0.001887726716755797 0.0052046440857598806 0 0.002436324616542061 0.004989229650233378 0 0.0020471962919483533 0.0051096412475415583 0 0.0018908140276525202 0.0052316593224664889 0 0.001887726716755797 0.0052046440857598806 0 0.001859509999743424 0.0051982822301680299 0 0.0020471962919483533 0.0051096412475415583 0 0.0016167130639668527 0.0053160866891950511 0 0.0012163110816098711 0.0054472226516474017 0 0.0012347237635032887 0.0055601803488281283 0 0.001330585414688073 0.0054221715309066224 0 0.0017555423129394518 0.0051835400091572439 0 0.0016167130639668527 0.0053160866891950511 0 0.0013544686958070901 0.0055768473491522924 0 0.0012347237635032887 0.0055601803488281283 0 0.001330585414688073 0.0054221715309066224 0 0.0012347237635032887 0.0055601803488281283 0 0.0011060506432100526 0.0054619519831362821 0 0.0010767332127728723 0.0055633563355549209 0 0.0012163110816098711 0.0054472226516474017 0 0.0012347237635032887 0.0055601803488281283 0 0.0011060506432100526 0.0054619519831362821 0 0.0011571680928430957 0.0056496953820690176 0 0.0012347237635032887 0.0055601803488281283 0 0.0010767332127728723 0.0055633563355549209 0 0.0012335758662382977 0.0056760718032136444 0 0.0011571680928430957 0.0056496953820690176 0 0.0012347237635032887 0.0055601803488281283 0 0.0016918987447758764 0.0049842771048389132 0 0.0016858618710324912 0.0049798599966505569 0 0.0016863856341242335 0.0049922541280015293 0 0.0012335758662382977 0.0056760718032136444 0 0.0013544686958070901 0.0055768473491522924 0 0.0012347237635032887 0.0055601803488281283 0 0.0014476686778346938 0.0053403184402712562 0 0.0017555423129394518 0.0051835400091572439 0 0.0033673812941863788 0.0045013837142041328 0 0.0033908689758962857 0.0044714014628745476 0 0.0033292749947762238 0.0045419905318337507 0 0.003440419203806333 0.0044283030904038083 0 0.0034226121163839856 0.0044236849919053814 0 0.0033908689758962857 0.0044714014628745476 0 0.003440419203806333 0.0044283030904038083 0 0.0033673812941863788 0.0045013837142041328 0 0.0033908689758962857 0.0044714014628745476 0 0.0034226121163839856 0.0044236849919053814 0 0.0033908689758962857 0.0044714014628745476 0 0.003425012394770938 0.0044538870850191472 0 0.0033908689758962857 0.0044714014628745476 0 0.003425012394770938 0.0044538870850191472 0 0.0033884038083559481 0.0045182122082117679 0 0.003446651924329996 0.0044165579264287148 0 0.0034576370172851641 0.004461112710722164 0 0.003425012394770938 0.0044538870850191472 0 0.0034576370172851641 0.004461112710722164 0 0.003425012394770938 0.0044538870850191472 0 0.0034394387226990442 0.0044984229072741024 0 0.003425012394770938 0.0044538870850191472 0 0.0034394387226990442 0.0044984229072741024 0 0.0033884038083559481 0.0045182122082117679 0 0.0034394387226990442 0.0044984229072741024 0 0.0034332640953159909 0.0045620286464380056 0 0.0033884038083559481 0.0045182122082117679 0 0.0034332640953159909 0.0045620286464380056 0 0.0033884038083559481 0.0045182122082117679 0 0.0033407710388696204 0.0046135491991628674 0 0.0033908689758962857 0.0044714014628745476 0 0.0033884038083559481 0.0045182122082117679 0 0.0033292749947762238 0.0045419905318337507 0 0.0033884038083559481 0.0045182122082117679 0 0.0033292749947762238 0.0045419905318337507 0 0.0033407710388696204 0.0046135491991628674 0 0.0033292749947762238 0.0045419905318337507 0 0.0032400444131064216 0.0046292549141026765 0 0.0033407710388696204 0.0046135491991628674 0 0.0032843701815165383 0.0045734660028782506 0 0.0033292749947762238 0.0045419905318337507 0 0.0032400444131064216 0.0046292549141026765 0 0.0033673812941863788 0.0045013837142041328 0 0.0032843701815165383 0.0045734660028782506 0 0.0033292749947762238 0.0045419905318337507 0 0.0030682557311009825 0.0047591344656695497 0 0.0032400444131064216 0.0046292549141026765 0 0.0032362918541167726 0.0047108983500040317 0 0.0030682557311009825 0.0047591344656695497 0 0.0032362918541167726 0.0047108983500040317 0 0.0031180115935407348 0.0049091174573230936 0 0.0031618694178734757 0.0046740044907629258 0 0.0030682557311009825 0.0047591344656695497 0 0.0032400444131064216 0.0046292549141026765 0 0.0032400444131064216 0.0046292549141026765 0 0.0032362918541167726 0.0047108983500040317 0 0.0033407710388696204 0.0046135491991628674 0 0.0032362918541167726 0.0047108983500040317 0 0.0033302009574024717 0.0047775039321787055 0 0.0033407710388696204 0.0046135491991628674 0 0.0027200637881431354 0.0050383704782776418 0 0.0027385741535976152 0.0050258835644223518 0 0.0033302009574024717 0.0047775039321787055 0 0.0033407710388696204 0.0046135491991628674 0 0.0034286662272675255 0.0046748386906977201 0 0.0034332640953159909 0.0045620286464380056 0 0.0033407710388696204 0.0046135491991628674 0 0.0034286662272675255 0.0046748386906977201 0 0.0021270410074898764 0.0052944234877169679 0 0.0019423174981164 0.005322591534874006 0 0.0019805827456007229 0.0052279158487731417 0 0.0019664231596594316 0.0053919780074193164 0 0.0019423174981164 0.005322591534874006 0 0.0019008351100670705 0.0053722143109418115 0 0.0021270410074898764 0.0052944234877169679 0 0.0019664231596594316 0.0053919780074193164 0 0.0019423174981164 0.005322591534874006 0 0.0019805827456007229 0.0052279158487731417 0 0.0020709550963533608 0.0051377182575558173 0 0.0018749467061180303 0.0051371588551862328 0 0.0019423174981164 0.005322591534874006 0 0.0019805827456007229 0.0052279158487731417 0 0.0018792444576587772 0.0052630864377493057 0 0.0019805827456007229 0.0052279158487731417 0 0.0018792444576587772 0.0052630864377493057 0 0.0018749467061180303 0.0051371588551862328 0 0.0019248726618891032 0.0049999982605804794 0 0.0020709550963533608 0.0051377182575558173 0 0.0018749467061180303 0.0051371588551862328 0 0.0019248726618891032 0.0049999982605804794 0 0.0020709550963533608 0.0051377182575558173 0 0.0022204423300663852 0.0049999906128346087 0 0.0021270410074898764 0.0052944234877169679 0 0.0019805827456007229 0.0052279158487731417 0 0.0020709550963533608 0.0051377182575558173 0 0.0021270410074898764 0.0052944234877169679 0 0.0020709550963533608 0.0051377182575558173 0 0.002320706519398513 0.0051554757468784389 0 0.0027200637881431354 0.0050383704782776418 0 0.0027194935831208987 0.0050141736065595034 0 0.0032362918541167726 0.0047108983500040317 0 0.0033302009574024717 0.0047775039321787055 0 0.0031180115935407348 0.0049091174573230936 0 0.0020709550963533608 0.0051377182575558173 0 0.002320706519398513 0.0051554757468784389 0 0.0022204423300663852 0.0049999906128346087 0 0.0025161797280102921 0.0049999914696426803 0 0.0027194935831208987 0.0050141736065595034 0 0.0025175121270983904 0.0050000630008631506 0 0.0031180115935407348 0.0049091174573230936 0 0.0028874100236411931 0.0048748705507379144 0 0.0025160608139383942 0.004999999784901208 0 0.002320706519398513 0.0051554757468784389 0 0.0022204423300663852 0.0049999906128346087 0 0.0030682557311009825 0.0047591344656695497 0 0.0031180115935407348 0.0049091174573230936 0 0.0028874100236411931 0.0048748705507379144 0 0.0016167130639668527 0.0053160866891950511 0 0.0016235159214803112 0.0051518696592471585 0 0.0014074568355509161 0.0052682010952443074 0 0.0015107618451142286 0.0053900188093498284 0 0.0014764900536229498 0.0051578495028738666 0 0.001859509999743424 0.0051982822301680299 0 0.0018676716617280335 0.0051307567175140345 0 0.0018454472874002341 0.0051205326673312403 0 0.0017343432391157734 0.0052239410472940725 0 0.0016235159214803112 0.0051518696592471585 0 0.0014074568355509161 0.0052682010952443074 0 0.0013904420680319668 0.0051747348673912346 0 0.0014764900536229498 0.0051578495028738666 0 0.0013022719012726997 0.0052851108822777049 0 0.0012104671308349987 0.0051594424733533116 0 0.0014074568355509161 0.0052682010952443074 0 0.0013904420680319668 0.0051747348673912346 0 0.0013028825986458176 0.0051460316604159239 0 0.001227651642608065 0.0053016316324977367 0 0.0011235396496649002 0.005181994665359858 0 0.0011056306795589586 0.0053329164718484128 0 0.0012163110816098711 0.0054472226516474017 0 0.001227651642608065 0.0053016316324977367 0 0.0011056306795589586 0.0053329164718484128 0 0.0012163110816098711 0.0054472226516474017 0 0.0011056306795589586 0.0053329164718484128 0 0.0011060506432100526 0.0054619519831362821 0 0.0012163110816098711 0.0054472226516474017 0 0.001227651642608065 0.0053016316324977367 0 0.001330585414688073 0.0054221715309066224 0 0.0013022719012726997 0.0052851108822777049 0 0.0016167130639668527 0.0053160866891950511 0 0.001887726716755797 0.0052046440857598806 0 0.001859509999743424 0.0051982822301680299 0 0.0018874698561053558 0.0051710467041058434 0 0.001859509999743424 0.0051982822301680299 0 0.0018874698561053558 0.0051710467041058434 0 0.0018676716617280335 0.0051307567175140345 0 0.001916092209077531 0.0052103281592032992 0 0.001887726716755797 0.0052046440857598806 0 0.0018874698561053558 0.0051710467041058434 0 0.002436324616542061 0.004989229650233378 0 0.0027385741535976152 0.0050258835644223518 0 0.002436324616542061 0.004989229650233378 0 0.0018206232755826662 0.0053743259991612729 0 0.0018750157103377793 0.0054519487072645697 0 0.0019008351100670705 0.0053722143109418115 0 0.0018893842097781105 0.005366335856712875 0 0.001916092209077531 0.0052103281592032992 0 0.0018874698561053558 0.0051710467041058434 0 0.0019259918619179296 0.0051588919582033271 0 0.0018750157103377793 0.0054519487072645697 0 0.0019664231596594316 0.0053919780074193164 0 0.0019008351100670705 0.0053722143109418115 0 0.0018046117760113281 0.0054515172564376796 0 0.0015813430505969154 0.0053417041537590707 0 0.0018384533409641713 0.0052960867233027538 0 0.0019423174981164 0.005322591534874006 0 0.0019008351100670705 0.0053722143109418115 0 0.0018810042897643062 0.0053639671255874925 0 0.0018402337368731397 0.0053801750149598468 0 0.0018206232755826662 0.0053743259991612729 0 0.0019423174981164 0.005322591534874006 0 0.0018810042897643062 0.0053639671255874925 0 0.0018792444576587772 0.0052630864377493057 0 0.0018206232755826662 0.0053743259991612729 0 0.0018579503151636035 0.0052772992120287453 0 0.0018874698561053558 0.0051710467041058434 0 0.0019259918619179296 0.0051588919582033271 0 0.0018676716617280335 0.0051307567175140345 0 0.0018206232755826662 0.0053743259991612729 0 0.0017343432391157734 0.0052239410472940725 0 0.0015813430505969154 0.0053417041537590707 0 0.0016835092207130155 0.0051815124420153446 0 0.0018384533409641713 0.0052960867233027538 0 0.0015813430505969154 0.0053417041537590707 0 0.0016835092207130155 0.0051815124420153446 0 0.0015172731358778749 0.0051504765379305328 0 0.0016835092207130155 0.0051815124420153446 0 0.0018384533409641713 0.0052960867233027538 0 0.0018749467061180303 0.0051371588551862328 0 0.0018579503151636035 0.0052772992120287453 0 0.0018767996338023797 0.0051540162064118078 0 0.0016835092207130155 0.0051815124420153446 0 0.0018749467061180303 0.0051371588551862328 0 0.0016292354164563526 0.0049999945059188856 0 0.0019248726618891032 0.0049999982605804794 0 0.0018749467061180303 0.0051371588551862328 0 0.0016292354164563526 0.0049999945059188856 0 0.0016835092207130155 0.0051815124420153446 0 0.0016292354164563526 0.0049999945059188856 0 0.0015172731358778749 0.0051504765379305328 0 0.0016292354164563526 0.0049999945059188856 0 0.0015172731358778749 0.0051504765379305328 0 0.0013336227216794411 0.0050000005025870571 0 0.0015813430505969154 0.0053417041537590707 0 0.0015172731358778749 0.0051504765379305328 0 0.0014986329280452877 0.0053006771179794684 0 0.0015172731358778749 0.0051504765379305328 0 0.0014986329280452877 0.0053006771179794684 0 0.0013606329200988546 0.0052321806396679344 0 0.0013904420680319668 0.0051747348673912346 0 0.0014764900536229498 0.0051578495028738666 0 0.0013699405193619881 0.0051056346344708027 0 0.0016235159214803112 0.0051518696592471585 0 0.0013661360291300254 0.0051604791278018281 0 0.0013661360291300254 0.0051604791278018281 0 0.0011312663441304365 0.0050839215195968047 0 0.0013028825986458176 0.0051460316604159239 0 0.0013699405193619881 0.0051056346344708027 0 0.0011976175762116745 0.0050224029518484564 0 0.0013904420680319668 0.0051747348673912346 0 0.0013028825986458176 0.0051460316604159239 0 0.0013699405193619881 0.0051056346344708027 0 0.0013606329200988546 0.0052321806396679344 0 0.0013336227216794411 0.0050000005025870571 0 0.0011421361105544148 0.0051244848735547332 0 0.0015172731358778749 0.0051504765379305328 0 0.0013606329200988546 0.0052321806396679344 0 0.0013336227216794411 0.0050000005025870571 0 0.0013336227216794411 0.0050000005025870571 0 0.0011421361105544148 0.0051244848735547332 0 0.0010380122754292656 0.0049999990044044852 0 0.0011312663441304365 0.0050839215195968047 0 0.0010380715490906879 0.0050000702464347612 0 0.0011312663441304365 0.0050839215195968047 0 0.00093836903684821771 0.0050327408484354486 0 0.0010243684155861145 0.0050748097094051097 0 0.00093787392563890394 0.0050242048692179745 0 0.00092122791449366097 0.0051188663458540135 0 0.0011563702303678443 0.0051449944518302017 0 0.0010380198362088036 0.0049999586395391583 0 0.00093787392563890394 0.0050242048692179745 0 0.0010380198362088036 0.0049999586395391583 0 0.00093787392563890394 0.0050242048692179745 0 0.00091979360220568703 0.0050000149789293747 0 0.00092122791449366097 0.0051188663458540135 0 0.0010006262466928635 0.0051907287722140465 0 0.00081967909870912434 0.005237165774426217 0 0.0010243684155861145 0.0050748097094051097 0 0.00092122791449366097 0.0051188663458540135 0 0.0010006262466928635 0.0051907287722140465 0 0.0012104671308349987 0.0051594424733533116 0 0.0011312663441304365 0.0050839215195968047 0 0.0011235396496649002 0.005181994665359858 0 0.0010243684155861145 0.0050748097094051097 0 0.0010006262466928635 0.0051907287722140465 0 0.00064809492624678965 0.0051314437291030673 0 0.00071457925752781517 0.0049999873846501112 0 0.00078999759652695659 0.0051590739241140424 0 0.00064809492624678965 0.0051314437291030673 0 0.00071457925752781517 0.0049999873846501112 0 0.00050935562752034847 0.0050000038417372184 0 0.00093787392563890394 0.0050242048692179745 0 0.00091979360220568703 0.0050000149789293747 0 0.00078503860442445087 0.0051055507050136511 0 0.00071457925752781517 0.0049999873846501112 0 0.00091987208487838217 0.0049999981973348666 0 0.00078999759652695659 0.0051590739241140424 0 0.00093787392563890394 0.0050242048692179745 0 0.00092122791449366097 0.0051188663458540135 0 0.00078503860442445087 0.0051055507050136511 0 0.00091984658312250958 0.0050000319209009001 0 0.00078756439285954094 0.0051334689268866356 0 0.00078503860442445087 0.0051055507050136511 0 0.00065945380342158713 0.0052380098472492101 0 0.00081967909870912434 0.005237165774426217 0 0.00092122791449366097 0.0051188663458540135 0 0.00078503860442445087 0.0051055507050136511 0 0.00081967909870912434 0.005237165774426217 0 0.00064809492624678965 0.0051314437291030673 0 0.00078999759652695659 0.0051590739241140424 0 0.00066643994097183702 0.0052875412590147131 0 0.00064809492624678965 0.0051314437291030673 0 0.00066643994097183702 0.0052875412590147131 0 0.00055112898311449553 0.0052197330045104379 0 0.00078756439285954094 0.0051334689268866356 0 0.00066367248700774731 0.0052639823294455762 0 0.00065945380342158713 0.0052380098472492101 0 0.00081967909870912434 0.005237165774426217 0 0.000659301005128719 0.0053699508905465715 0 0.00066367248700774731 0.0052639823294455762 0 0.00057271981978874867 0.0053739967010511943 0 0.00081967909870912434 0.005237165774426217 0 0.0007661071167443757 0.0053783899880552408 0 0.00094022630607345614 0.005308122221777652 0 0.00081967909870912434 0.005237165774426217 0 0.0007661071167443757 0.0053783899880552408 0 0.000659301005128719 0.0053699508905465715 0 0.00065945380342158713 0.0052380098472492101 0 0.000659301005128719 0.0053699508905465715 0 0.00055942507837102289 0.0053837425673447349 0 0.000659301005128719 0.0053699508905465715 0 0.00066429396865484789 0.0054658367797725104 0 0.00055942507837102289 0.0053837425673447349 0 0.0007661071167443757 0.0053783899880552408 0 0.000659301005128719 0.0053699508905465715 0 0.00066429396865484789 0.0054658367797725104 0 0.0010006262466928635 0.0051907287722140465 0 0.00094022630607345614 0.005308122221777652 0 0.0011056306795589586 0.0053329164718484128 0 0.0011235396496649002 0.005181994665359858 0 0.0010006262466928635 0.0051907287722140465 0 0.0011056306795589586 0.0053329164718484128 0 0.0010006262466928635 0.0051907287722140465 0 0.00081967909870912434 0.005237165774426217 0 0.00094022630607345614 0.005308122221777652 0 0.0007661071167443757 0.0053783899880552408 0 0.00098714540135009512 0.0054289090170180207 0 0.00089466910327120263 0.0055218315443806686 0 0.0007661071167443757 0.0053783899880552408 0 0.00094022630607345614 0.005308122221777652 0 0.00098714540135009512 0.0054289090170180207 0 0.0011056306795589586 0.0053329164718484128 0 0.00098714540135009512 0.0054289090170180207 0 0.0011060506432100526 0.0054619519831362821 0 0.00094022630607345614 0.005308122221777652 0 0.0011056306795589586 0.0053329164718484128 0 0.00098714540135009512 0.0054289090170180207 0 0.00098714540135009512 0.0054289090170180207 0 0.0011060506432100526 0.0054619519831362821 0 0.0010767332127728723 0.0055633563355549209 0 0.00098714540135009512 0.0054289090170180207 0 0.0010767332127728723 0.0055633563355549209 0 0.00089466910327120263 0.0055218315443806686 0 0.0010064027890065292 0.0056534731684142418 0 0.0010767332127728723 0.0055633563355549209 0 0.00089466910327120263 0.0055218315443806686 0 0.0011571680928430957 0.0056496953820690176 0 0.0010064027890065292 0.0056534731684142418 0 0.0010767332127728723 0.0055633563355549209 0 0.00094967810313572232 0.0056849424874634404 0 0.00085416781426854709 0.0055024316361344822 0 0.00090931856556750266 0.0056322341373827378 0 0.0008198537188521429 0.0055047837350111232 0 0.00073301986230656861 0.0056264006259191309 0 0.00077139775218529934 0.0053886934523057154 0 0.00085416781426854709 0.0055024316361344822 0 0.0007661071167443757 0.0053783899880552408 0 0.0008198537188521429 0.0055047837350111232 0 0.00066429396865484789 0.0054658367797725104 0 0.0008198537188521429 0.0055047837350111232 0 0.00066429396865484789 0.0054658367797725104 0 0.00073301986230656861 0.0056264006259191309 0 0.00066429396865484789 0.0054658367797725104 0 0.00073301986230656861 0.0056264006259191309 0 0.00050306069723144841 0.0055511280716442042 0 0.00066429396865484789 0.0054658367797725104 0 0.00050306069723144841 0.0055511280716442042 0 0.00055942507837102289 0.0053837425673447349 0 0.00073301986230656861 0.0056264006259191309 0 0.00058891115914193066 0.0057191871761275307 0 0.00050306069723144841 0.0055511280716442042 0 0.00073301986230656861 0.0056264006259191309 0 0.00058891115914193066 0.0057191871761275307 0 0.0006790978012690248 0.0058158106010682354 0 0.00073301986230656861 0.0056264006259191309 0 0.0006790978012690248 0.0058158106010682354 0 0.00080398392203320085 0.0057565536448718046 0 0.00059627888952093011 0.005925494766217859 0 0.00058891115914193066 0.0057191871761275307 0 0.0006790978012690248 0.0058158106010682354 0 0.00059627888952093011 0.005925494766217859 0 0.00058891115914193066 0.0057191871761275307 0 0.00044823115104655851 0.0057713898221689987 0 0.00079728683508955146 0.0059609341531901916 0 0.0006790978012690248 0.0058158106010682354 0 0.00080398392203320085 0.0057565536448718046 0 0.0011292215065785028 0.0054287666674371149 0 0.00078230539685769575 0.0058133581750582884 0 0.0010455101809197494 0.0052854647100096241 0 0.0011292215065785028 0.0054287666674371149 0 0.00079728683508955146 0.0059609341531901916 0 0.00098157904455407527 0.0058031079126325408 0 0.00080398392203320085 0.0057565536448718046 0 0.0012166559048615827 0.0049305010746553517 0 0.0012098767651082312 0.0049561302466973435 0 0.0012147249399230167 0.0049582412211091539 0 0.0014239439554000247 0.0049182747306529525 0 0.0011292215065785028 0.0054287666674371149 0 0.0013583553985651291 0.0052878074838976609 0 0.0013669436177395865 0.0052908269876463946 0 0.0013566798560916778 0.0053005451493251749 0 0.0011292215065785028 0.0054287666674371149 0 0.0012917667771220407 0.0054363720164840364 0 0.0014239439554000247 0.0049182747306529525 0 0.0012917667771220407 0.0054363720164840364 0 0.00090931856556750266 0.0056322341373827378 0 0.00096531509636685591 0.0058008841024764371 0 0.00080398392203320085 0.0057565536448718046 0 0.00094967810313572232 0.0056849424874634404 0 0.0012917667771220407 0.0054363720164840364 0 0.00090931856556750266 0.0056322341373827378 0 0.00096531509636685591 0.0058008841024764371 0 0.0010081852442032431 0.0057640691210146906 0 0.0011571680928430957 0.0056496953820690176 0 0.0010064027890065292 0.0056534731684142418 0 0.0011108418482345919 0.0057887345925321859 0 0.00090931856556750266 0.0056322341373827378 0 0.00073301986230656861 0.0056264006259191309 0 0.00080398392203320085 0.0057565536448718046 0 0.00017660550583884345 0.005708359669914136 0 0.00010187658157344458 0.0057354412609488883 0 0.00016594156111325109 0.0057686167743295274 0 0.00010187658157344458 0.0057354412609488883 0 9.0113433315078096e-05 0.005784605241343172 0 0.00016594156111325109 0.0057686167743295274 0 0.00017660550583884345 0.005708359669914136 0 0.00016594156111325109 0.0057686167743295274 0 0.0002712985917611048 0.0057551856318359719 0 0.00017660550583884345 0.005708359669914136 0 0.0002712985917611048 0.0057551856318359719 0 0.00026730727517238455 0.0056610786610412347 0 0.00017660550583884345 0.005708359669914136 0 0.00010187658157344458 0.0057354412609488883 0 0.00010565365497198461 0.0056757074745191118 0 3.8922814515693355e-05 0.0057034650368720978 0 0.00010187658157344458 0.0057354412609488883 0 0.00010565365497198461 0.0056757074745191118 0 3.8922814515693355e-05 0.0057034650368720978 0 4.1373545558336197e-05 0.0057658604615664919 0 0.00010187658157344458 0.0057354412609488883 0 3.8922814515693355e-05 0.0057034650368720978 0 4.1373545558336197e-05 0.0057658604615664919 0 -3.1370368196309616e-05 0.0057624044069178974 0 4.1373545558336197e-05 0.0057658604615664919 0 0.00010187658157344458 0.0057354412609488883 0 9.0113433315078096e-05 0.005784605241343172 0 5.5890437703442591e-05 0.0058414868007173127 0 4.1373545558336197e-05 0.0057658604615664919 0 -3.1370368196309616e-05 0.0057624044069178974 0 5.5890437703442591e-05 0.0058414868007173127 0 -0.0001088312317738028 0.0057243179774976423 0 -0.00027125847659271052 0.0055688664689785804 0 4.3669739597336924e-05 0.0058379164275189103 0 -0.00014788624158029292 0.0056712347920608083 0 5.5890437703442591e-05 0.0058414868007173127 0 4.1373545558336197e-05 0.0057658604615664919 0 9.0113433315078096e-05 0.005784605241343172 0 5.5890437703442591e-05 0.0058414868007173127 0 9.0113433315078096e-05 0.005784605241343172 0 0.00014132541548995861 0.0058282120396391177 0 9.0113433315078096e-05 0.005784605241343172 0 0.00014132541548995861 0.0058282120396391177 0 0.00016594156111325109 0.0057686167743295274 0 0.00016594156111325109 0.0057686167743295274 0 0.00023089172025373276 0.0058387624003627351 0 0.0002712985917611048 0.0057551856318359719 0 0.00014132541548995861 0.0058282120396391177 0 0.00016594156111325109 0.0057686167743295274 0 0.00023089172025373276 0.0058387624003627351 0 0.00023089172025373276 0.0058387624003627351 0 0.00037904286714657173 0.0058628902712279229 0 0.0002712985917611048 0.0057551856318359719 0 0.00044823115104655851 0.0057713898221689987 0 0.00037904286714657173 0.0058628902712279229 0 0.0002712985917611048 0.0057551856318359719 0 0.00059627888952093011 0.005925494766217859 0 0.00044823115104655851 0.0057713898221689987 0 0.00037904286714657173 0.0058628902712279229 0 0.00044823115104655851 0.0057713898221689987 0 0.00039890727418500466 0.0056798131320100354 0 0.0002712985917611048 0.0057551856318359719 0 0.00058891115914193066 0.0057191871761275307 0 0.00044823115104655851 0.0057713898221689987 0 0.00039890727418500466 0.0056798131320100354 0 0.00039890727418500466 0.0056798131320100354 0 0.0002712985917611048 0.0057551856318359719 0 0.00026730727517238455 0.0056610786610412347 0 0.00039890727418500466 0.0056798131320100354 0 0.00026730727517238455 0.0056610786610412347 0 0.00034656863295242128 0.0055866189438126285 0 0.00026730727517238455 0.0056610786610412347 0 0.00034656863295242128 0.0055866189438126285 0 0.00024738944274515156 0.0055891581146039213 0 0.00034656863295242128 0.0055866189438126285 0 0.00030037194368413557 0.0055355915959165768 0 0.00024738944274515156 0.0055891581146039213 0 0.00058891115914193066 0.0057191871761275307 0 0.00039890727418500466 0.0056798131320100354 0 0.00050306069723144841 0.0055511280716442042 0 0.00039890727418500466 0.0056798131320100354 0 0.00034656863295242128 0.0055866189438126285 0 0.00050306069723144841 0.0055511280716442042 0 0.0005056856532241554 0.0055460557892761568 0 0.00050388492595769714 0.005386024927517251 0 0.00050306069723144841 0.0055511280716442042 0 0.00045835741950194295 0.0053892715106336414 0 0.00042328657370227561 0.0054504999612900156 0 0.00034656863295242128 0.0055866189438126285 0 0.00050306069723144841 0.0055511280716442042 0 0.00037431937605319706 0.0054928204669334423 0 0.00050306069723144841 0.0055511280716442042 0 0.00037431937605319706 0.0054928204669334423 0 0.00042328657370227561 0.0054504999612900156 0 0.00037431937605319706 0.0054928204669334423 0 0.00042328657370227561 0.0054504999612900156 0 0.00038467121111360365 0.0054328640036366647 0 0.00030037194368413557 0.0055355915959165768 0 0.00023313899613112659 0.005518066240507177 0 0.00024738944274515156 0.0055891581146039213 0 0.00034656863295242128 0.0055866189438126285 0 0.00030037194368413557 0.0055355915959165768 0 0.00037431937605319706 0.0054928204669334423 0 0.00030037194368413557 0.0055355915959165768 0 0.00037431937605319706 0.0054928204669334423 0 0.00030562885133719427 0.0054683821261754893 0 0.00037431937605319706 0.0054928204669334423 0 0.00030562885133719427 0.0054683821261754893 0 0.00035199784852136645 0.0054532243303942974 0 0.00030037194368413557 0.0055355915959165768 0 0.00030562885133719427 0.0054683821261754893 0 0.00023313899613112659 0.005518066240507177 0 0.00023313899613112659 0.005518066240507177 0 0.00018867249851894298 0.0054791978449259459 0 0.00024567858484678861 0.0054597596114977038 0 0.00030562885133719427 0.0054683821261754893 0 0.00023313899613112659 0.005518066240507177 0 0.00024567858484678861 0.0054597596114977038 0 0.00023313899613112659 0.005518066240507177 0 0.00018867249851894298 0.0054791978449259459 0 0.00016819643924920657 0.0055249579285170268 0 0.00018867249851894298 0.0054791978449259459 0 0.00016819643924920657 0.0055249579285170268 0 0.0001265260410305025 0.0055011387964513971 0 0.00016819643924920657 0.0055249579285170268 0 0.00011801576279396359 0.0055516952669492073 0 0.0001265260410305025 0.0055011387964513971 0 0.00017453467660562115 0.0055737676440753524 0 0.00011247247999188127 0.0056134142421719949 0 0.00011801576279396359 0.0055516952669492073 0 0.00023313899613112659 0.005518066240507177 0 0.00016819643924920657 0.0055249579285170268 0 0.00017453467660562115 0.0055737676440753524 0 0.00016819643924920657 0.0055249579285170268 0 0.00017453467660562115 0.0055737676440753524 0 0.00011801576279396359 0.0055516952669492073 0 0.00023313899613112659 0.005518066240507177 0 0.00017453467660562115 0.0055737676440753524 0 0.00024738944274515156 0.0055891581146039213 0 0.00017453467660562115 0.0055737676440753524 0 0.00024738944274515156 0.0055891581146039213 0 0.00018333821558017406 0.0056424052941052502 0 0.00017453467660562115 0.0055737676440753524 0 0.00018333821558017406 0.0056424052941052502 0 0.00011247247999188127 0.0056134142421719949 0 0.00017660550583884345 0.005708359669914136 0 0.00018333821558017406 0.0056424052941052502 0 0.00010565365497198461 0.0056757074745191118 0 0.00018333821558017406 0.0056424052941052502 0 0.00010565365497198461 0.0056757074745191118 0 0.00011247247999188127 0.0056134142421719949 0 0.00026730727517238455 0.0056610786610412347 0 0.00024738944274515156 0.0055891581146039213 0 0.00018333821558017406 0.0056424052941052502 0 0.00017660550583884345 0.005708359669914136 0 0.00026730727517238455 0.0056610786610412347 0 0.00018333821558017406 0.0056424052941052502 0 3.8922814515693355e-05 0.0057034650368720978 0 4.3826095272618262e-05 0.0056451050211538071 0 -1.5220453200368216e-05 0.0056787349239454466 0 3.8922814515693355e-05 0.0057034650368720978 0 4.3826095272618262e-05 0.0056451050211538071 0 0.00010565365497198461 0.0056757074745191118 0 4.3826095272618262e-05 0.0056451050211538071 0 0.00010565365497198461 0.0056757074745191118 0 0.00011247247999188127 0.0056134142421719949 0 4.3826095272618262e-05 0.0056451050211538071 0 0.00011247247999188127 0.0056134142421719949 0 4.8541841736942458e-05 0.0055731086390279913 0 4.3826095272618262e-05 0.0056451050211538071 0 4.8541841736942458e-05 0.0055731086390279913 0 -2.7884345608904396e-05 0.0056186572483510437 0 4.8541841736942458e-05 0.0055731086390279913 0 6.1763567797901901e-06 0.0055088189429509269 0 -3.4854725765195536e-05 0.0055561396898428294 0 0.00011247247999188127 0.0056134142421719949 0 4.8541841736942458e-05 0.0055731086390279913 0 0.00011801576279396359 0.0055516952669492073 0 4.8541841736942458e-05 0.0055731086390279913 0 0.00011801576279396359 0.0055516952669492073 0 6.9709713793786887e-05 0.0055190681073410183 0 0.0001265260410305025 0.0055011387964513971 0 6.9709713793786887e-05 0.0055190681073410183 0 6.4922802186101019e-05 0.0054616428319865639 0 0.00011801576279396359 0.0055516952669492073 0 0.0001265260410305025 0.0055011387964513971 0 6.9709713793786887e-05 0.0055190681073410183 0 4.8541841736942458e-05 0.0055731086390279913 0 6.1763567797901901e-06 0.0055088189429509269 0 6.9709713793786887e-05 0.0055190681073410183 0 6.1763567797901901e-06 0.0055088189429509269 0 6.9709713793786887e-05 0.0055190681073410183 0 6.4922802186101019e-05 0.0054616428319865639 0 6.1763567797901901e-06 0.0055088189429509269 0 6.4922802186101019e-05 0.0054616428319865639 0 -1.8579675289032628e-05 0.0054322674585307283 0 6.4922802186101019e-05 0.0054616428319865639 0 6.8990773321474987e-05 0.0053697029887194454 0 -1.8579675289032628e-05 0.0054322674585307283 0 6.4922802186101019e-05 0.0054616428319865639 0 6.8990773321474987e-05 0.0053697029887194454 0 0.0001384755079288814 0.0054346155931141362 0 6.8990773321474987e-05 0.0053697029887194454 0 0.0001384755079288814 0.0054346155931141362 0 0.00017111682292301846 0.0053665416228861965 0 0.0001265260410305025 0.0055011387964513971 0 6.4922802186101019e-05 0.0054616428319865639 0 0.0001384755079288814 0.0054346155931141362 0 0.00018867249851894298 0.0054791978449259459 0 0.0001384755079288814 0.0054346155931141362 0 0.00020700665891557562 0.0054248287962305125 0 0.00018867249851894298 0.0054791978449259459 0 0.0001265260410305025 0.0055011387964513971 0 0.0001384755079288814 0.0054346155931141362 0 0.00024567858484678861 0.0054597596114977038 0 0.00020700665891557562 0.0054248287962305125 0 0.00028736587207800338 0.005404865907459892 0 0.00018867249851894298 0.0054791978449259459 0 0.00024567858484678861 0.0054597596114977038 0 0.00020700665891557562 0.0054248287962305125 0 0.00020700665891557562 0.0054248287962305125 0 0.00017111682292301846 0.0053665416228861965 0 0.00025667736084820963 0.0053254846826934765 0 0.00020700665891557562 0.0054248287962305125 0 0.00025667736084820963 0.0053254846826934765 0 0.00028736587207800338 0.005404865907459892 0 0.0001384755079288814 0.0054346155931141362 0 0.00020700665891557562 0.0054248287962305125 0 0.00017111682292301846 0.0053665416228861965 0 0.00017111682292301846 0.0053665416228861965 0 0.00025667736084820963 0.0053254846826934765 0 0.00018162205914585707 0.0052688959827774081 0 0.00025667736084820963 0.0053254846826934765 0 0.00018162205914585707 0.0052688959827774081 0 0.00030593219871028051 0.0051887513881527878 0 6.8990773321474987e-05 0.0053697029887194454 0 0.00018162205914585707 0.0052688959827774081 0 3.9189648454384895e-05 0.0052542301748613159 0 6.8990773321474987e-05 0.0053697029887194454 0 3.9189648454384895e-05 0.0052542301748613159 0 -6.277512511719969e-05 0.0053396388223485016 0 6.8990773321474987e-05 0.0053697029887194454 0 0.00017111682292301846 0.0053665416228861965 0 0.00018162205914585707 0.0052688959827774081 0 0.00050306069723144841 0.0055511280716442042 0 0.00055942507837102289 0.0053837425673447349 0 0.00054726084674461826 0.0053732156800293911 0 0.00066643994097183702 0.0052875412590147131 0 0.00055942507837102289 0.0053837425673447349 0 0.00054726084674461826 0.0053732156800293911 0 0.00042328657370227561 0.0054504999612900156 0 0.00040128897959478183 0.0053913903176689157 0 0.00038467121111360365 0.0054328640036366647 0 0.00045835741950194295 0.0053892715106336414 0 0.00042328657370227561 0.0054504999612900156 0 0.00040128897959478183 0.0053913903176689157 0 0.00045835741950194295 0.0053892715106336414 0 0.00040128897959478183 0.0053913903176689157 0 0.00039788747452127908 0.0053509729138186898 0 0.00040128897959478183 0.0053913903176689157 0 0.00035296565519111957 0.0053675222682952094 0 0.00039788747452127908 0.0053509729138186898 0 0.00040128897959478183 0.0053913903176689157 0 0.00035296565519111957 0.0053675222682952094 0 0.00034286196863533337 0.0054187654888149823 0 0.00040128897959478183 0.0053913903176689157 0 0.00038467121111360365 0.0054328640036366647 0 0.00034286196863533337 0.0054187654888149823 0 0.00037431937605319706 0.0054928204669334423 0 0.00038467121111360365 0.0054328640036366647 0 0.00035199784852136645 0.0054532243303942974 0 0.00030562885133719427 0.0054683821261754893 0 0.00035199784852136645 0.0054532243303942974 0 0.00034286196863533337 0.0054187654888149823 0 0.00038467121111360365 0.0054328640036366647 0 0.00035199784852136645 0.0054532243303942974 0 0.00034286196863533337 0.0054187654888149823 0 0.00030562885133719427 0.0054683821261754893 0 0.00024567858484678861 0.0054597596114977038 0 0.00028736587207800338 0.005404865907459892 0 0.00030562885133719427 0.0054683821261754893 0 0.00034286196863533337 0.0054187654888149823 0 0.00028736587207800338 0.005404865907459892 0 0.00025667736084820963 0.0053254846826934765 0 0.00035296565519111957 0.0053675222682952094 0 0.00028736587207800338 0.005404865907459892 0 0.00035296565519111957 0.0053675222682952094 0 0.00034286196863533337 0.0054187654888149823 0 0.00028736587207800338 0.005404865907459892 0 0.00025667736084820963 0.0053254846826934765 0 0.00034281734586994806 0.0052995071390382464 0 0.00030593219871028051 0.0051887513881527878 0 0.00025667736084820963 0.0053254846826934765 0 0.00035296565519111957 0.0053675222682952094 0 0.00034281734586994806 0.0052995071390382464 0 0.00034281734586994806 0.0052995071390382464 0 0.00039788747452127908 0.0053509729138186898 0 0.00042404152957869248 0.0053041326244641987 0 0.00035296565519111957 0.0053675222682952094 0 0.00034281734586994806 0.0052995071390382464 0 0.00039788747452127908 0.0053509729138186898 0 0.00045835741950194295 0.0053892715106336414 0 0.00042404152957869248 0.0053041326244641987 0 0.00047326509851165381 0.0052102058118190884 0 0.00066643994097183702 0.0052875412590147131 0 0.00054726084674461826 0.0053732156800293911 0 0.00055112898311449553 0.0052197330045104379 0 0.00050388492595769714 0.005386024927517251 0 0.00051091798880148302 0.0052096689949391022 0 0.00045835741950194295 0.0053892715106336414 0 0.00039788747452127908 0.0053509729138186898 0 0.00042404152957869248 0.0053041326244641987 0 0.00034281734586994806 0.0052995071390382464 0 0.00042404152957869248 0.0053041326244641987 0 0.00047326509851165381 0.0052102058118190884 0 0.00047326509851165381 0.0052102058118190884 0 0.00030593219871028051 0.0051887513881527878 0 0.00050919872337511945 0.0049999942456571489 0 0.00034281734586994806 0.0052995071390382464 0 0.00047326509851165381 0.0052102058118190884 0 0.00030593219871028051 0.0051887513881527878 0 0.00030593219871028051 0.0051887513881527878 0 0.00050919872337511945 0.0049999942456571489 0 0.00023198093921436767 0.0049999774503136727 0 0.00051091798880148302 0.0052096689949391022 0 0.00050931381521548914 0.0050000308309431094 0 0.00064809492624678965 0.0051314437291030673 0 0.00055112898311449553 0.0052197330045104379 0 0.00050935562752034847 0.0050000038417372184 0 0.00018162205914585707 0.0052688959827774081 0 3.9189648454384895e-05 0.0052542301748613159 0 0.00014978406649346357 0.0051712522573121554 0 3.9189648454384895e-05 0.0052542301748613159 0 2.1475630068467719e-07 0.0051345405787797515 0 0.00014978406649346357 0.0051712522573121554 0 0.00018162205914585707 0.0052688959827774081 0 0.00030593219871028051 0.0051887513881527878 0 0.00014978406649346357 0.0051712522573121554 0 0.00030593219871028051 0.0051887513881527878 0 0.00014978406649346357 0.0051712522573121554 0 0.00023198093921436767 0.0049999774503136727 0 2.1475630068467719e-07 0.0051345405787797515 0 0.00023198093921436767 0.0049999774503136727 0 -4.5360600363587206e-05 0.0049999761742858207 0 2.1475630068467719e-07 0.0051345405787797515 0 0.00014978406649346357 0.0051712522573121554 0 0.00023198093921436767 0.0049999774503136727 0 2.1475630068467719e-07 0.0051345405787797515 0 -4.5360600363587206e-05 0.0049999761742858207 0 -0.00019935127678565056 0.0051596808224071387 0 2.1475630068467719e-07 0.0051345405787797515 0 -9.4390292989159202e-05 0.0052384555138323191 0 -0.00019935127678565056 0.0051596808224071387 0 3.9189648454384895e-05 0.0052542301748613159 0 2.1475630068467719e-07 0.0051345405787797515 0 -9.4390292989159202e-05 0.0052384555138323191 0 -9.4390292989159202e-05 0.0052384555138323191 0 -0.00019935127678565056 0.0051596808224071387 0 -0.0001945772310048862 0.005329426705069449 0 -0.00019935127678565056 0.0051596808224071387 0 -0.00032268866912731585 0.0049999686318886192 0 -0.00039943215147826078 0.0051213733366017328 0 -4.5360600363587206e-05 0.0049999761742858207 0 -0.00019935127678565056 0.0051596808224071387 0 -0.00032268866912731585 0.0049999686318886192 0 -0.00032268866912731585 0.0049999686318886192 0 -0.00060006383083354082 0.0049999486503400784 0 -0.00039943215147826078 0.0051213733366017328 0 -0.00060006383083354082 0.0049999486503400784 0 -0.00051971461205419 0.0051979407591058154 0 -0.00039943215147826078 0.0051213733366017328 0 -0.00060006383083354082 0.0049999486503400784 0 -0.00051971461205419 0.0051979407591058154 0 -0.0006725471904684546 0.0051747488047933308 0 -0.00051971461205419 0.0051979407591058154 0 -0.0006725471904684546 0.0051747488047933308 0 -0.00066739396083351167 0.0052959034783276494 0 -0.00019935127678565056 0.0051596808224071387 0 -0.00039943215147826078 0.0051213733366017328 0 -0.00034623070678498026 0.0052653999367680135 0 -0.00051971461205419 0.0051979407591058154 0 -0.00039943215147826078 0.0051213733366017328 0 -0.00034623070678498026 0.0052653999367680135 0 -0.00051971461205419 0.0051979407591058154 0 -0.00034623070678498026 0.0052653999367680135 0 -0.00044322837299356653 0.005337056296967937 0 -0.00034623070678498026 0.0052653999367680135 0 -0.00044322837299356653 0.005337056296967937 0 -0.00031801192214496243 0.0053966719752818115 0 -0.00051971461205419 0.0051979407591058154 0 -0.00044322837299356653 0.005337056296967937 0 -0.00066739396083351167 0.0052959034783276494 0 -0.00060555902415231468 0.0054188289626819651 0 -0.00053909992735634387 0.0054261566033938181 0 -0.00066739396083351167 0.0052959034783276494 0 -0.00044322837299356653 0.005337056296967937 0 -0.00041100398969307696 0.0055129718328169293 0 -0.00066739396083351167 0.0052959034783276494 0 -0.00047916692348465544 0.0054640509677839977 0 -0.00065571431387783112 0.005301002418661745 0 -0.00044322837299356653 0.005337056296967937 0 -0.00031801192214496243 0.0053966719752818115 0 -0.00041100398969307696 0.0055129718328169293 0 -0.00041100398969307696 0.0055129718328169293 0 -0.00029278742646047352 0.0054702711389984261 0 -0.00023529967593903026 0.0055263699040070365 0 -0.00031801192214496243 0.0053966719752818115 0 -0.00041100398969307696 0.0055129718328169293 0 -0.00029278742646047352 0.0054702711389984261 0 -0.00021021548836404382 0.0054441596972910544 0 -9.3478847742257186e-05 0.0055008830774559711 0 -0.00023529967593903026 0.0055263699040070365 0 -0.00029278742646047352 0.0054702711389984261 0 -0.00021021548836404382 0.0054441596972910544 0 -0.00023529967593903026 0.0055263699040070365 0 -0.00031801192214496243 0.0053966719752818115 0 -0.00021021548836404382 0.0054441596972910544 0 -0.0001945772310048862 0.005329426705069449 0 -0.00031801192214496243 0.0053966719752818115 0 -0.00029278742646047352 0.0054702711389984261 0 -0.00021021548836404382 0.0054441596972910544 0 -0.00021021548836404382 0.0054441596972910544 0 -0.0001143874792464673 0.0054118058321259059 0 -0.0001945772310048862 0.005329426705069449 0 -0.00021021548836404382 0.0054441596972910544 0 -0.0001143874792464673 0.0054118058321259059 0 -9.3478847742257186e-05 0.0055008830774559711 0 -1.8579675289032628e-05 0.0054322674585307283 0 -0.0001143874792464673 0.0054118058321259059 0 -9.3478847742257186e-05 0.0055008830774559711 0 6.1763567797901901e-06 0.0055088189429509269 0 -1.8579675289032628e-05 0.0054322674585307283 0 -9.3478847742257186e-05 0.0055008830774559711 0 6.8990773321474987e-05 0.0053697029887194454 0 -1.8579675289032628e-05 0.0054322674585307283 0 -6.277512511719969e-05 0.0053396388223485016 0 -1.8579675289032628e-05 0.0054322674585307283 0 -0.0001143874792464673 0.0054118058321259059 0 -6.277512511719969e-05 0.0053396388223485016 0 -0.0001143874792464673 0.0054118058321259059 0 -6.277512511719969e-05 0.0053396388223485016 0 -0.0001945772310048862 0.005329426705069449 0 3.9189648454384895e-05 0.0052542301748613159 0 -9.4390292989159202e-05 0.0052384555138323191 0 -6.277512511719969e-05 0.0053396388223485016 0 -9.4390292989159202e-05 0.0052384555138323191 0 -6.277512511719969e-05 0.0053396388223485016 0 -0.0001945772310048862 0.005329426705069449 0 -0.00019935127678565056 0.0051596808224071387 0 -0.00034623070678498026 0.0052653999367680135 0 -0.0001945772310048862 0.005329426705069449 0 -0.00034623070678498026 0.0052653999367680135 0 -0.00031801192214496243 0.0053966719752818115 0 -0.0001945772310048862 0.005329426705069449 0 -0.0010930662097723136 0.0051339531782106903 0 -0.0012135376637527682 0.0052268767556597588 0 -0.0012817900568120118 0.0051486291634044255 0 -0.0011547386036872935 0.0049999524673321957 0 -0.0010930662097723136 0.0051339531782106903 0 -0.0012817900568120118 0.0051486291634044255 0 -0.0011547386036872935 0.0049999524673321957 0 -0.0010930662097723136 0.0051339531782106903 0 -0.00087742415011399222 0.004999966226499084 0 -0.0010930662097723136 0.0051339531782106903 0 -0.00094824133047948422 0.0051473985651310436 0 -0.00087742415011399222 0.004999966226499084 0 -0.0010930662097723136 0.0051339531782106903 0 -0.00094824133047948422 0.0051473985651310436 0 -0.0010568283302278235 0.0052425563462201929 0 -0.00080688434749999743 0.0051335515334277118 0 -0.00080977067958953983 0.005257021687268007 0 -0.0009237247100459088 0.0052269275145731195 0 -0.00094824133047948422 0.0051473985651310436 0 -0.0009237247100459088 0.0052269275145731195 0 -0.0010568283302278235 0.0052425563462201929 0 -0.00094824133047948422 0.0051473985651310436 0 -0.00080688434749999743 0.0051335515334277118 0 -0.0009237247100459088 0.0052269275145731195 0 -0.00094824133047948422 0.0051473985651310436 0 -0.00087742415011399222 0.004999966226499084 0 -0.00080688434749999743 0.0051335515334277118 0 -0.00060006383083354082 0.0049999486503400784 0 -0.00087742415011399222 0.004999966226499084 0 -0.00080688434749999743 0.0051335515334277118 0 -0.00060006383083354082 0.0049999486503400784 0 -0.00080688434749999743 0.0051335515334277118 0 -0.0006725471904684546 0.0051747488047933308 0 -0.00080688434749999743 0.0051335515334277118 0 -0.0006725471904684546 0.0051747488047933308 0 -0.00080977067958953983 0.005257021687268007 0 -0.00070251849371829429 0.0053638135365637364 0 -0.00080682249242340143 0.0052584250819121296 0 -0.00060555902415231468 0.0054188289626819651 0 -0.00066739396083351167 0.0052959034783276494 0 -0.00080977067958953983 0.005257021687268007 0 -0.0006725471904684546 0.0051747488047933308 0 -0.00066739396083351167 0.0052959034783276494 0 -0.00080977067958953983 0.005257021687268007 0 -0.0007984966233063835 0.0053193999807578203 0 -0.00080977067958953983 0.005257021687268007 0 -0.00085988316063834841 0.005314636292277985 0 -0.0007984966233063835 0.0053193999807578203 0 -0.00085988316063834841 0.005314636292277985 0 -0.00085796830087764579 0.0053651023366884723 0 -0.00085988316063834841 0.005314636292277985 0 -0.00093735759206579623 0.0053482455390771785 0 -0.00085796830087764579 0.0053651023366884723 0 -0.00085988316063834841 0.005314636292277985 0 -0.00093735759206579623 0.0053482455390771785 0 -0.00093720648520671248 0.0052887486560723547 0 -0.00093735759206579623 0.0053482455390771785 0 -0.0010566056642271663 0.0053246388091405406 0 -0.0010383985551368565 0.0053817833305711783 0 -0.00093735759206579623 0.0053482455390771785 0 -0.00093720648520671248 0.0052887486560723547 0 -0.0010566056642271663 0.0053246388091405406 0 -0.00080977067958953983 0.005257021687268007 0 -0.00085988316063834841 0.005314636292277985 0 -0.00093720648520671248 0.0052887486560723547 0 -0.00080977067958953983 0.005257021687268007 0 -0.00093720648520671248 0.0052887486560723547 0 -0.0009237247100459088 0.0052269275145731195 0 -0.00093720648520671248 0.0052887486560723547 0 -0.0009237247100459088 0.0052269275145731195 0 -0.0010568283302278235 0.0052425563462201929 0 -0.0010930662097723136 0.0051339531782106903 0 -0.0010568283302278235 0.0052425563462201929 0 -0.0012135376637527682 0.0052268767556597588 0 -0.00093720648520671248 0.0052887486560723547 0 -0.0010568283302278235 0.0052425563462201929 0 -0.0010566056642271663 0.0053246388091405406 0 -0.0010568283302278235 0.0052425563462201929 0 -0.0010566056642271663 0.0053246388091405406 0 -0.0011852360068956506 0.0053027325954150941 0 -0.0010566056642271663 0.0053246388091405406 0 -0.0011852360068956506 0.0053027325954150941 0 -0.0011579587877539219 0.0053904265738088141 0 -0.0011852360068956506 0.0053027325954150941 0 -0.0012931691387277548 0.0053514703669655861 0 -0.0013517527258330622 0.0052656183396841234 0 -0.0011852360068956506 0.0053027325954150941 0 -0.0011579587877539219 0.0053904265738088141 0 -0.0012931691387277548 0.0053514703669655861 0 -0.0010568283302278235 0.0052425563462201929 0 -0.0011852360068956506 0.0053027325954150941 0 -0.0012135376637527682 0.0052268767556597588 0 -0.0011852360068956506 0.0053027325954150941 0 -0.0012135376637527682 0.0052268767556597588 0 -0.0013517527258330622 0.0052656183396841234 0 -0.0012585260452126529 0.005457972825544808 0 -0.0011388993866948706 0.0054622671240409744 0 -0.0011733917981155842 0.0055633671170330764 0 -0.0012585260452126529 0.005457972825544808 0 -0.0011733917981155842 0.0055633671170330764 0 -0.0013255880845995051 0.0055546901035092976 0 -0.0012585260452126529 0.005457972825544808 0 -0.0011579587877539219 0.0053904265738088141 0 -0.0011388993866948706 0.0054622671240409744 0 -0.0012585260452126529 0.005457972825544808 0 -0.0011579587877539219 0.0053904265738088141 0 -0.0012931691387277548 0.0053514703669655861 0 -0.0011579587877539219 0.0053904265738088141 0 -0.0010383985551368565 0.0053817833305711783 0 -0.0011388993866948706 0.0054622671240409744 0 -0.0010566056642271663 0.0053246388091405406 0 -0.0011579587877539219 0.0053904265738088141 0 -0.0010383985551368565 0.0053817833305711783 0 -0.0010383985551368565 0.0053817833305711783 0 -0.0011388993866948706 0.0054622671240409744 0 -0.0010374964713993548 0.0054499501331332243 0 -0.0011388993866948706 0.0054622671240409744 0 -0.0010446712264583031 0.0055215670366409019 0 -0.0010374964713993548 0.0054499501331332243 0 -0.0011388993866948706 0.0054622671240409744 0 -0.0010446712264583031 0.0055215670366409019 0 -0.0011733917981155842 0.0055633671170330764 0 -0.0010446712264583031 0.0055215670366409019 0 -0.00093656762755968978 0.0054310690307670844 0 -0.0009363469292271733 0.00551950882296971 0 -0.0010446712264583031 0.0055215670366409019 0 -0.0010374964713993548 0.0054499501331332243 0 -0.00093656762755968978 0.0054310690307670844 0 -0.00093735759206579623 0.0053482455390771785 0 -0.0010383985551368565 0.0053817833305711783 0 -0.00093656762755968978 0.0054310690307670844 0 -0.0010383985551368565 0.0053817833305711783 0 -0.0010374964713993548 0.0054499501331332243 0 -0.00093656762755968978 0.0054310690307670844 0 -0.00093735759206579623 0.0053482455390771785 0 -0.00093656762755968978 0.0054310690307670844 0 -0.00085796830087764579 0.0053651023366884723 0 -0.00093656762755968978 0.0054310690307670844 0 -0.00085796830087764579 0.0053651023366884723 0 -0.0008119310521823381 0.0054285195222286029 0 -0.00085796830087764579 0.0053651023366884723 0 -0.00079945489732078886 0.0053800703317356162 0 -0.0008119310521823381 0.0054285195222286029 0 -0.00093656762755968978 0.0054310690307670844 0 -0.0009363469292271733 0.00551950882296971 0 -0.0008119310521823381 0.0054285195222286029 0 -0.0009363469292271733 0.00551950882296971 0 -0.00083432895257773009 0.0055464242152418854 0 -0.0008119310521823381 0.0054285195222286029 0 -0.00083432895257773009 0.0055464242152418854 0 -0.00091365679720615644 0.005599722886170464 0 -0.00077313973882725334 0.005627554666952317 0 -0.0009363469292271733 0.00551950882296971 0 -0.00083432895257773009 0.0055464242152418854 0 -0.00091365679720615644 0.005599722886170464 0 -0.00091365679720615644 0.005599722886170464 0 -0.00096666541418571406 0.0057049462315068682 0 -0.00077313973882725334 0.005627554666952317 0 -0.00091365679720615644 0.005599722886170464 0 -0.00096666541418571406 0.0057049462315068682 0 -0.0010472448218900013 0.0056063466150081268 0 -0.00096666541418571406 0.0057049462315068682 0 -0.0010472448218900013 0.0056063466150081268 0 -0.0011752104377767954 0.0056630730680581757 0 -0.0009363469292271733 0.00551950882296971 0 -0.00091365679720615644 0.005599722886170464 0 -0.0010472448218900013 0.0056063466150081268 0 -0.0010446712264583031 0.0055215670366409019 0 -0.0009363469292271733 0.00551950882296971 0 -0.0010472448218900013 0.0056063466150081268 0 -0.0010446712264583031 0.0055215670366409019 0 -0.0010472448218900013 0.0056063466150081268 0 -0.0011733917981155842 0.0055633671170330764 0 -0.0010472448218900013 0.0056063466150081268 0 -0.0011733917981155842 0.0055633671170330764 0 -0.0011752104377767954 0.0056630730680581757 0 -0.00096666541418571406 0.0057049462315068682 0 -0.0011752104377767954 0.0056630730680581757 0 -0.0012060612829330117 0.005751819764750408 0 -0.0011752104377767954 0.0056630730680581757 0 -0.0012060612829330117 0.005751819764750408 0 -0.001294935413691101 0.0057115074444367584 0 -0.0011752104377767954 0.0056630730680581757 0 -0.0012441428068800337 0.0056255614748563637 0 -0.001294935413691101 0.0057115074444367584 0 -0.0011733917981155842 0.0055633671170330764 0 -0.0012441428068800337 0.0056255614748563637 0 -0.0013255880845995051 0.0055546901035092976 0 -0.0012441428068800337 0.0056255614748563637 0 -0.0013255880845995051 0.0055546901035092976 0 -0.001294935413691101 0.0057115074444367584 0 -0.0011733917981155842 0.0055633671170330764 0 -0.0011752104377767954 0.0056630730680581757 0 -0.0012441428068800337 0.0056255614748563637 0 -0.0004486938950726827 0.005478360782763367 0 -0.00050309896069341783 0.0054768091641607449 0 -0.0004008397521755232 0.0055724436196785392 0 -0.00020296571594735139 0.0056507367417687748 0 -0.00010190012427759598 0.0056509498438080214 0 -3.1370368196309616e-05 0.0057624044069178974 0 -0.00056688592534618167 0.0054470204451578597 0 -0.00041196128487434197 0.0055712508574529687 0 -0.00010190012427759598 0.0056509498438080214 0 -0.0001111575190424096 0.0055752219021476552 0 -0.000161784601995034 0.0056020801666864638 0 -0.00020296571594735139 0.0056507367417687748 0 -0.00010190012427759598 0.0056509498438080214 0 -0.000161784601995034 0.0056020801666864638 0 4.3826095272618262e-05 0.0056451050211538071 0 -1.5220453200368216e-05 0.0056787349239454466 0 -2.7884345608904396e-05 0.0056186572483510437 0 -1.5220453200368216e-05 0.0056787349239454466 0 -2.7884345608904396e-05 0.0056186572483510437 0 -0.00010190012427759598 0.0056509498438080214 0 -2.7884345608904396e-05 0.0056186572483510437 0 -0.00010190012427759598 0.0056509498438080214 0 -0.0001111575190424096 0.0055752219021476552 0 -2.7884345608904396e-05 0.0056186572483510437 0 -0.0001111575190424096 0.0055752219021476552 0 -3.4854725765195536e-05 0.0055561396898428294 0 4.8541841736942458e-05 0.0055731086390279913 0 -2.7884345608904396e-05 0.0056186572483510437 0 -3.4854725765195536e-05 0.0055561396898428294 0 6.1763567797901901e-06 0.0055088189429509269 0 -3.4854725765195536e-05 0.0055561396898428294 0 -9.3478847742257186e-05 0.0055008830774559711 0 -0.0001111575190424096 0.0055752219021476552 0 -3.4854725765195536e-05 0.0055561396898428294 0 -9.3478847742257186e-05 0.0055008830774559711 0 -0.0001111575190424096 0.0055752219021476552 0 -9.3478847742257186e-05 0.0055008830774559711 0 -0.00023529967593903026 0.0055263699040070365 0 -0.00020296571594735139 0.0056507367417687748 0 -0.000161784601995034 0.0056020801666864638 0 -0.00023529967593903026 0.0055263699040070365 0 -0.0001111575190424096 0.0055752219021476552 0 -0.000161784601995034 0.0056020801666864638 0 -0.00023529967593903026 0.0055263699040070365 0 -0.00047916692348465544 0.0054640509677839977 0 -0.00032487249578907503 0.0055636983749070288 0 -0.00041100398969307696 0.0055129718328169293 0 -0.00020296571594735139 0.0056507367417687748 0 -0.00023529967593903026 0.0055263699040070365 0 -0.00053909992735634387 0.0054261566033938181 0 -0.0004486938950726827 0.005478360782763367 0 -0.00050309896069341783 0.0054768091641607449 0 -0.00060555902415231468 0.0054188289626819651 0 -0.00053909992735634387 0.0054261566033938181 0 -0.00050309896069341783 0.0054768091641607449 0 -0.00070251849371829429 0.0053638135365637364 0 -0.00056688592534618167 0.0054470204451578597 0 -0.0007984966233063835 0.0053193999807578203 0 -0.00074670458808178851 0.0054044630616098422 0 -0.00079945489732078886 0.0053800703317356162 0 -0.0007984966233063835 0.0053193999807578203 0 -0.00074670458808178851 0.0054044630616098422 0 -0.00063982757550951725 0.0054068404882612105 0 -0.0007984966233063835 0.0053193999807578203 0 -0.00085796830087764579 0.0053651023366884723 0 -0.00079945489732078886 0.0053800703317356162 0 -0.00074670458808178851 0.0054044630616098422 0 -0.00079945489732078886 0.0053800703317356162 0 -0.0008119310521823381 0.0054285195222286029 0 -0.00083432895257773009 0.0055464242152418854 0 -0.0008119310521823381 0.0054285195222286029 0 -0.00073252580056713172 0.0054921436523503687 0 -0.00074670458808178851 0.0054044630616098422 0 -0.0008119310521823381 0.0054285195222286029 0 -0.00073252580056713172 0.0054921436523503687 0 -0.00074670458808178851 0.0054044630616098422 0 -0.00073252580056713172 0.0054921436523503687 0 -0.00063982757550951725 0.0054068404882612105 0 -0.00073252580056713172 0.0054921436523503687 0 -0.00063982757550951725 0.0054068404882612105 0 -0.0006250772267795226 0.0055554186297996841 0 -0.00063982757550951725 0.0054068404882612105 0 -0.0006250772267795226 0.0055554186297996841 0 -0.0004008397521755232 0.0055724436196785392 0 -0.0006250772267795226 0.0055554186297996841 0 -0.00057470317417043651 0.0056964632584796636 0 -0.0004008397521755232 0.0055724436196785392 0 -0.0006250772267795226 0.0055554186297996841 0 -0.00077313973882725334 0.005627554666952317 0 -0.00057470317417043651 0.0056964632584796636 0 -0.00083432895257773009 0.0055464242152418854 0 -0.00073252580056713172 0.0054921436523503687 0 -0.00077313973882725334 0.005627554666952317 0 -0.00073252580056713172 0.0054921436523503687 0 -0.0006250772267795226 0.0055554186297996841 0 -0.00077313973882725334 0.005627554666952317 0 -0.00077313973882725334 0.005627554666952317 0 -0.00057470317417043651 0.0056964632584796636 0 -0.00073902680059486628 0.0058003280983519624 0 -0.00096666541418571406 0.0057049462315068682 0 -0.00077313973882725334 0.005627554666952317 0 -0.00073902680059486628 0.0058003280983519624 0 -0.00057470317417043651 0.0056964632584796636 0 -0.00037002373569205201 0.0056854308807528179 0 -0.00045248399976243652 0.0058837766606267593 0 -0.00057470317417043651 0.0056964632584796636 0 -0.00037002373569205201 0.0056854308807528179 0 -0.0004008397521755232 0.0055724436196785392 0 -0.00032487249578907503 0.0055636983749070288 0 -0.00014788624158029292 0.0056712347920608083 0 -0.0004486938950726827 0.005478360782763367 0 -0.0004008397521755232 0.0055724436196785392 0 -0.00027125847659271052 0.0055688664689785804 0 -1.5220453200368216e-05 0.0056787349239454466 0 -0.00010190012427759598 0.0056509498438080214 0 -3.1370368196309616e-05 0.0057624044069178974 0 3.8922814515693355e-05 0.0057034650368720978 0 -1.5220453200368216e-05 0.0056787349239454466 0 -3.1370368196309616e-05 0.0057624044069178974 0 -0.00037002373569205201 0.0056854308807528179 0 -0.0004008397521755232 0.0055724436196785392 0 -0.00027125847659271052 0.0055688664689785804 0 -0.0001088312317738028 0.0057243179774976423 0 -0.00037002373569205201 0.0056854308807528179 0 -0.00027125847659271052 0.0055688664689785804 0 -0.0001088312317738028 0.0057243179774976423 0 -0.00037002373569205201 0.0056854308807528179 0 -0.00045248399976243652 0.0058837766606267593 0 -0.00011967318460915272 0.005726478561948762 0 -0.00035979819897364034 0.0058653680539085427 0 -0.0001088312317738028 0.0057243179774976423 0 -0.0001105137190622062 0.0058829276033070385 0 -0.00027586875091855539 0.0058563816506469182 0 -0.00027586875091855539 0.0058563816506469182 0 -0.00024437104185268577 0.0060250166828943862 0 -0.00054548448598947853 0.0059724838225113132 0 -2.2363940602354836e-05 0.0060077974842776454 0 -0.0001105137190622062 0.0058829276033070385 0 -0.00024437104185268577 0.0060250166828943862 0 -0.0001105137190622062 0.0058829276033070385 0 -0.00027586875091855539 0.0058563816506469182 0 -0.00024437104185268577 0.0060250166828943862 0 -0.00024437104185268577 0.0060250166828943862 0 -8.0400811924031062e-05 0.0061655436054336692 0 -0.00027474739963771728 0.0062247891124548689 0 -2.2363940602354836e-05 0.0060077974842776454 0 -0.00024437104185268577 0.0060250166828943862 0 -8.0400811924031062e-05 0.0061655436054336692 0 -0.00024437104185268577 0.0060250166828943862 0 -0.00027474739963771728 0.0062247891124548689 0 -0.00045400297680679849 0.0061376079864781316 0 -0.00067125863593973858 0.0050157757640529339 0 -0.00053747923692951485 0.0052420737679072238 0 -0.0007155237359431888 0.0051658251064411699 0 -0.00067125863593973858 0.0050157757640529339 0 -0.00089348456655742343 0.0050982956712572174 0 -0.0007155237359431888 0.0051658251064411699 0 -0.00047242545103671205 0.0058044837584463119 0 -0.00033616548081277049 0.0058067205385808384 0 -1.103755954520926e-05 0.0062609178825013562 0 -8.0400811924031062e-05 0.0061655436054336692 0 -0.00010082687912487422 0.0063175782710232463 0 -5.2364201713365699e-05 0.0061706504812962908 0 -0.00047242545103671205 0.0058044837584463119 0 -8.0400811924031062e-05 0.0061655436054336692 0 -0.00018572128594638524 0.0061928778705083853 0 -0.00010082687912487422 0.0063175782710232463 0 -0.00076747201203143829 0.0056715726755982767 0 -0.0010889844466012014 0.0057686054879468786 0 -0.00074480499573298538 0.0062320153293081567 0 -0.00063604799528840675 0.0061534529270098701 0 -0.0008801190936986394 0.0061291605020814917 0 -0.00074480499573298538 0.0062320153293081567 0 -0.00057136371347921784 0.0062994574325073724 0 -0.00089442189984157642 0.0063580602717541327 0 -0.00074480499573298538 0.0062320153293081567 0 -0.00057136371347921784 0.0062994574325073724 0 -0.00063604799528840675 0.0061534529270098701 0 -0.00089348456655742343 0.0050982956712572174 0 -0.00097261295128176937 0.0050910573205135423 0 -0.0010853058818504919 0.00523192936649188 0 -0.00047242545103671205 0.0058044837584463119 0 -0.00076747201203143829 0.0056715726755982767 0 -0.00067125863593973858 0.0050157757640529339 0 -0.00089348456655742343 0.0050982956712572174 0 -0.00097261295128176937 0.0050910573205135423 0 -0.00027474739963771728 0.0062247891124548689 0 -0.00057136371347921784 0.0062994574325073724 0 -0.00045400297680679849 0.0061376079864781316 0 -0.00057136371347921784 0.0062994574325073724 0 -0.00045400297680679849 0.0061376079864781316 0 -0.00063604799528840675 0.0061534529270098701 0 -0.00045400297680679849 0.0061376079864781316 0 -0.00063604799528840675 0.0061534529270098701 0 -0.00054548448598947853 0.0059724838225113132 0 -0.00024437104185268577 0.0060250166828943862 0 -0.00045400297680679849 0.0061376079864781316 0 -0.00054548448598947853 0.0059724838225113132 0 -0.00061798502485876082 0.0059865206488246524 0 -0.00086706989481952895 0.0061266372882951359 0 -0.00063604799528840675 0.0061534529270098701 0 -0.00054548448598947853 0.0059724838225113132 0 -0.0008801190936986394 0.0061291605020814917 0 -0.00067952196495057082 0.0059907726423461651 0 -0.00073902680059486628 0.0058003280983519624 0 -0.00095921865441805367 0.0059036285369788895 0 -0.00035979819897364034 0.0058653680539085427 0 -0.00061798502485876082 0.0059865206488246524 0 -0.00057470317417043651 0.0056964632584796636 0 -0.00045248399976243652 0.0058837766606267593 0 -0.00073902680059486628 0.0058003280983519624 0 -0.00045248399976243652 0.0058837766606267593 0 -0.00067952196495057082 0.0059907726423461651 0 -0.00073902680059486628 0.0058003280983519624 0 -0.00096666541418571406 0.0057049462315068682 0 -0.00073902680059486628 0.0058003280983519624 0 -0.00095921865441805367 0.0059036285369788895 0 -0.00096666541418571406 0.0057049462315068682 0 -0.00095921865441805367 0.0059036285369788895 0 -0.0012060612829330117 0.005751819764750408 0 -0.00095921865441805367 0.0059036285369788895 0 -0.0012060612829330117 0.005751819764750408 0 -0.0011665291476798797 0.005987837954386001 0 -0.00095921865441805367 0.0059036285369788895 0 -0.0011665291476798797 0.005987837954386001 0 -0.0010172352598965349 0.0060287634015682122 0 -0.00067952196495057082 0.0059907726423461651 0 -0.00095921865441805367 0.0059036285369788895 0 -0.0008801190936986394 0.0061291605020814917 0 -0.0012187687186791861 0.0057456245710820492 0 -0.0014010682622640669 0.0056462867888210757 0 -0.0012060612829330117 0.005751819764750408 0 -0.0015085868246214088 0.0058073107680865401 0 -0.0015163016922722665 0.0055848170943161397 0 -0.0012060612829330117 0.005751819764750408 0 -0.001418213878169528 0.0059518385489463659 0 -0.0011665291476798797 0.005987837954386001 0 -0.0012060612829330117 0.005751819764750408 0 -0.0015085868246214088 0.0058073107680865401 0 -0.001418213878169528 0.0059518385489463659 0 -0.001418213878169528 0.0059518385489463659 0 -0.0013018340111907252 0.0061525791765358667 0 -0.0015476860082560882 0.0061102047822520003 0 -0.001418213878169528 0.0059518385489463659 0 -0.0015476860082560882 0.0061102047822520003 0 -0.0016695170305493366 0.0059963935677854047 0 -0.001418213878169528 0.0059518385489463659 0 -0.0011665291476798797 0.005987837954386001 0 -0.0013018340111907252 0.0061525791765358667 0 -0.0011665291476798797 0.005987837954386001 0 -0.0013018340111907252 0.0061525791765358667 0 -0.0010737710748465127 0.0061763924388380459 0 -0.0013018340111907252 0.0061525791765358667 0 -0.0010737710748465127 0.0061763924388380459 0 -0.0011923851764087244 0.0064234845323877911 0 -0.0013018340111907252 0.0061525791765358667 0 -0.0013892153064041077 0.0063037291622235862 0 -0.0011923851764087244 0.0064234845323877911 0 -0.0013018340111907252 0.0061525791765358667 0 -0.0013892153064041077 0.0063037291622235862 0 -0.0015476860082560882 0.0061102047822520003 0 -0.00095921865441805367 0.0059036285369788895 0 -0.0008801190936986394 0.0061291605020814917 0 -0.0010172352598965349 0.0060287634015682122 0 -0.0011665291476798797 0.005987837954386001 0 -0.0010172352598965349 0.0060287634015682122 0 -0.0010737710748465127 0.0061763924388380459 0 -0.0008801190936986394 0.0061291605020814917 0 -0.0010172352598965349 0.0060287634015682122 0 -0.0010737710748465127 0.0061763924388380459 0 -0.0010737710748465127 0.0061763924388380459 0 -0.00089442189984157642 0.0063580602717541327 0 -0.0011923851764087244 0.0064234845323877911 0 -0.0008801190936986394 0.0061291605020814917 0 -0.0010737710748465127 0.0061763924388380459 0 -0.00089442189984157642 0.0063580602717541327 0 -0.00074480499573298538 0.0062320153293081567 0 -0.0008801190936986394 0.0061291605020814917 0 -0.00089442189984157642 0.0063580602717541327 0 -0.0012859720485870081 0.0051697324626522765 0 -0.0012483083545068107 0.0054138716890685052 0 -0.0010853058818504919 0.00523192936649188 0 -0.0012859720485870081 0.0051697324626522765 0 -0.0014368646392616655 0.0053951935565220094 0 -0.0012483083545068107 0.0054138716890685052 0 -0.0010889844466012014 0.0057686054879468786 0 -0.0013987636427268018 0.0058256703571874504 0 -0.0012859720485870081 0.0051697324626522765 0 -0.0014368646392616655 0.0053951935565220094 0 -0.0015928146577456408 0.0052531866048538432 0 -0.0014368646392616655 0.0053951935565220094 0 -0.0015936470061026075 0.0054798520077157849 0 -0.0014226122432969763 0.0056166066960979645 0 -0.0014368646392616655 0.0053951935565220094 0 -0.0012483083545068107 0.0054138716890685052 0 -0.0014226122432969763 0.0056166066960979645 0 -0.0014368646392616655 0.0053951935565220094 0 -0.0015928146577456408 0.0052531866048538432 0 -0.0015936470061026075 0.0054798520077157849 0 -0.0015363292816238342 0.0062468367914679159 0 -0.0016674650868024918 0.006064231858712789 0 -0.0013892153064041077 0.0063037291622235862 0 -0.0011923851764087244 0.0064234845323877911 0 -0.0015367955568831115 0.0065299197098458352 0 -0.0013892153064041077 0.0063037291622235862 0 -0.0015476860082560882 0.0061102047822520003 0 -0.0015367955568831115 0.0065299197098458352 0 -0.0013987636427268018 0.0058256703571874504 0 -0.0016674650868024918 0.006064231858712789 0 -0.0015928146577456408 0.0052531866048538432 0 -0.0017517688351193919 0.0054662501416896242 0 -0.0015936470061026075 0.0054798520077157849 0 -0.0015928146577456408 0.0052531866048538432 0 -0.0017517688351193919 0.0054662501416896242 0 -0.0018927768653824021 0.0053450893876184017 0 -0.0018931726645271989 0.0062319676485366078 0 -0.0018958567243776002 0.0061457357682738935 0 -0.0018558025073538487 0.0061788718765477483 0 -0.0016674650868024918 0.006064231858712789 0 -0.0019078891705950735 0.0058138497046670498 0 -0.0017517688351193919 0.0054662501416896242 0 -0.0018927768653824021 0.0053450893876184017 0 -0.0018853854981084534 0.0055968934170266948 0 -0.0018853854981084534 0.0055968934170266948 0 -0.0017429678307108697 0.0056504305388778665 0 -0.0018861716513369293 0.0058016987839922592 0 -0.0017517688351193919 0.0054662501416896242 0 -0.0018853854981084534 0.0055968934170266948 0 -0.0017429678307108697 0.0056504305388778665 0 -0.0017517688351193919 0.0054662501416896242 0 -0.0015936470061026075 0.0054798520077157849 0 -0.0017429678307108697 0.0056504305388778665 0 -0.0015936470061026075 0.0054798520077157849 0 -0.0017429678307108697 0.0056504305388778665 0 -0.0014226122432969763 0.0056166066960979645 0 -0.0017429678307108697 0.0056504305388778665 0 -0.0017404722326357096 0.0058035401472501334 0 -0.0016201090658112187 0.0058237069153594745 0 -0.0017312998188421761 0.0056657260431960902 0 -0.0015590109665037692 0.0058236130890207093 0 -0.0019078891705950735 0.0058138497046670498 0 -0.001895419873587332 0.0059545489004030156 0 -0.0017404722326357096 0.0058035401472501334 0 -0.0018861716513369293 0.0058016987839922592 0 -0.0018166647142685416 0.0058907361786062571 0 -0.0018958567243776002 0.0061457357682738935 0 -0.0019101997287617274 0.0060817945999484735 0 -0.0018806182104522218 0.0061160306215078293 0 -0.0017429678307108697 0.0056504305388778665 0 -0.0017404722326357096 0.0058035401472501334 0 -0.0018861716513369293 0.0058016987839922592 0 -0.0014226122432969763 0.0056166066960979645 0 -0.0013071532609439452 0.0057626302416895377 0 -0.0011446037956077534 0.0056681986572325151 0 -0.0012483083545068107 0.0054138716890685052 0 -0.0014226122432969763 0.0056166066960979645 0 -0.0011446037956077534 0.0056681986572325151 0 -0.0017429678307108697 0.0056504305388778665 0 -0.0014226122432969763 0.0056166066960979645 0 -0.0014757043832363842 0.0058703572419903623 0 -0.0014226122432969763 0.0056166066960979645 0 -0.0014757043832363842 0.0058703572419903623 0 -0.0013071532609439452 0.0057626302416895377 0 -0.0014757043832363842 0.0058703572419903623 0 -0.0013071532609439452 0.0057626302416895377 0 -0.001240742339992566 0.005935594835633968 0 -0.0011230882894529672 0.0056602435925089296 0 -0.0012330658452133826 0.0059216552675964282 0 -0.0013071532609439452 0.0057626302416895377 0 -0.0011446037956077534 0.0056681986572325151 0 -0.001240742339992566 0.005935594835633968 0 -0.0010413278536855752 0.0058479836980743372 0 -0.0010962922528406527 0.0056418832013872206 0 -0.00084736960241699319 0.0058353815997840841 0 -0.0010413278536855752 0.0058479836980743372 0 -0.0010962922528406527 0.0056418832013872206 0 -0.001240742339992566 0.005935594835633968 0 -0.0011230882894529672 0.0056602435925089296 0 -0.0010045240648439372 0.0053743471020031445 0 -0.0010962922528406527 0.0056418832013872206 0 -0.00082432496400708496 0.0055386921887474357 0 -0.0009887741513493406 0.0053754291268192271 0 -0.0010962922528406527 0.0056418832013872206 0 -0.00082432496400708496 0.0055386921887474357 0 -0.00084736960241699319 0.0058353815997840841 0 -0.00063186145311656223 0.0056254492049650582 0 -0.0001949146793027789 0.0052525751047241805 0 -0.0002703516085830673 0.0058392230812881517 0 -0.00074240925097519568 0.0057422537664706067 0 -0.00042174212748454805 0.0054046562850914321 0 0.00014867616173319697 0.0053656315005556534 0 -0.0001949146793027789 0.0052525751047241805 0 3.9887711249386352e-05 0.0057303824949435384 0 -0.0001949146793027789 0.0052525751047241805 0 -0.0002703516085830673 0.0058392230812881517 0 3.9887711249386352e-05 0.0057303824949435384 0 0.00034348241972034115 0.0056662607718579866 0 0.00014867616173319697 0.0053656315005556534 0 3.9887711249386352e-05 0.0057303824949435384 0 -0.00040220601215061374 0.005461579484057886 0 -0.00062513983893099112 0.0056466927265848149 0 -0.00062132770881259832 0.0054334155359500591 0 8.863085010365637e-05 0.005511953469509741 0 -0.00042174212748454805 0.0054046562850914321 0 0.00023469583798390185 0.0048898092052940831 0 0.00014867616173319697 0.0053656315005556534 0 -0.0001949146793027789 0.0052525751047241805 0 -0.00082432496400708496 0.0055386921887474357 0 -0.00062513983893099112 0.0056466927265848149 0 -0.00062132770881259832 0.0054334155359500591 0 -0.00082432496400708496 0.0055386921887474357 0 -0.00084736960241699319 0.0058353815997840841 0 -0.00062513983893099112 0.0056466927265848149 0 -0.00082432496400708496 0.0055386921887474357 0 -0.00062132770881259832 0.0054334155359500591 0 -0.00076494529439151318 0.0053048458770106671 0 8.863085010365637e-05 0.005511953469509741 0 -0.00033616548081277049 0.0058067205385808384 0 -0.00040220601215061374 0.005461579484057886 0 -0.00062132770881259832 0.0054334155359500591 0 -0.00053747923692951485 0.0052420737679072238 0 -0.00062132770881259832 0.0054334155359500591 0 -0.00053747923692951485 0.0052420737679072238 0 -0.00076494529439151318 0.0053048458770106671 0 -0.00053747923692951485 0.0052420737679072238 0 -0.0007155237359431888 0.0051658251064411699 0 -0.00076494529439151318 0.0053048458770106671 0 -0.00089348456655742343 0.0050982956712572174 0 -0.0007155237359431888 0.0051658251064411699 0 -0.00076494529439151318 0.0053048458770106671 0 -0.00089348456655742343 0.0050982956712572174 0 -0.00076494529439151318 0.0053048458770106671 0 -0.0009887741513493406 0.0053754291268192271 0 -0.0008999542521962808 0.0051131174958312939 0 -0.0010045240648439372 0.0053743471020031445 0 -0.00089348456655742343 0.0050982956712572174 0 -0.0010853058818504919 0.00523192936649188 0 -0.0010243476996557351 0.0053845526601217228 0 -0.00097261295128176937 0.0050910573205135423 0 -0.0012859720485870081 0.0051697324626522765 0 -0.0010853058818504919 0.00523192936649188 0 -0.0012483083545068107 0.0054138716890685052 0 -0.0010853058818504919 0.00523192936649188 0 -0.0010243476996557351 0.0053845526601217228 0 -0.0012483083545068107 0.0054138716890685052 0 -0.0011446037956077534 0.0056681986572325151 0 -0.0010243476996557351 0.0053845526601217228 0 -0.00082432496400708496 0.0055386921887474357 0 -0.00076494529439151318 0.0053048458770106671 0 -0.0009887741513493406 0.0053754291268192271 0 -0.0026948192407470549 0.0058807727147211931 0 -0.0027137260527364047 0.0059089808174882987 0 -0.002899221411875672 0.0054257676181977861 0 -0.0029369324724928996 0.0056028770080327941 0 -0.0031030479182868258 0.0053546427434429927 0 -0.002899221411875672 0.0054257676181977861 0 -0.0029369324724928996 0.0056028770080327941 0 -0.0027754025670518692 0.0055340574445785677 0 -0.0021908606901417317 0.0061796084766564769 0 -0.0024580384456859838 0.0061931116573645346 0 -0.0023266654764611235 0.0064230614733867238 0 -0.0021908606901417317 0.0061796084766564769 0 -0.0023266654764611235 0.0064230614733867238 0 -0.0020847715298477083 0.0064260713468416919 0 -0.0021908606901417317 0.0061796084766564769 0 -0.0023845198397484026 0.0059903053628995746 0 -0.0022433133637141268 0.0059844910995188053 0 -0.0021908606901417317 0.0061796084766564769 0 -0.0021017513468943624 0.0059980130296891868 0 -0.0022433133637141268 0.0059844910995188053 0 -0.0023845198397484026 0.0059903053628995746 0 -0.0024580384456859838 0.0061931116573645346 0 -0.0026417233852347975 0.0058426807236043017 0 -0.0021908606901417317 0.0061796084766564769 0 -0.0023845198397484026 0.0059903053628995746 0 -0.0024580384456859838 0.0061931116573645346 0 -0.0026948192407470549 0.0058807727147211931 0 -0.0026639031705264324 0.0058441468204644947 0 -0.0029369324724928996 0.0056028770080327941 0 -0.002693160682618398 0.0056719965569401792 0 -0.0027754025670518692 0.0055340574445785677 0 -0.0029369324724928996 0.0056028770080327941 0 -0.002693160682618398 0.0056719965569401792 0 -0.0026417233852347975 0.0058426807236043017 0 -0.002693160682618398 0.0056719965569401792 0 -0.0026609818053150948 0.0055442424409684419 0 -0.0027754025670518692 0.0055340574445785677 0 -0.002693160682618398 0.0056719965569401792 0 -0.0026112717597272773 0.005644373154766574 0 -0.0026403312460653826 0.0057720546007878513 0 -0.002693160682618398 0.0056719965569401792 0 -0.0026112717597272773 0.005644373154766574 0 -0.0026609818053150948 0.0055442424409684419 0 -0.0025822598978073939 0.0054314451007980366 0 -0.0026609818053150948 0.0055442424409684419 0 -0.0027434720598520455 0.0054321724071893498 0 -0.0026112717597272773 0.005644373154766574 0 -0.0025822598978073939 0.0054314451007980366 0 -0.0026609818053150948 0.0055442424409684419 0 -0.0025822598978073939 0.0054314451007980366 0 -0.0027434720598520455 0.0054321724071893498 0 -0.0026969825803239826 0.0052860904653306215 0 -0.0026609818053150948 0.0055442424409684419 0 -0.0027754025670518692 0.0055340574445785677 0 -0.0027434720598520455 0.0054321724071893498 0 -0.002899221411875672 0.0054257676181977861 0 -0.0027754025670518692 0.0055340574445785677 0 -0.0027434720598520455 0.0054321724071893498 0 -0.002899221411875672 0.0054257676181977861 0 -0.0027434720598520455 0.0054321724071893498 0 -0.0028725108576972578 0.0052118975139135394 0 -0.0027434720598520455 0.0054321724071893498 0 -0.0028725108576972578 0.0052118975139135394 0 -0.0026969825803239826 0.0052860904653306215 0 -0.0028725108576972578 0.0052118975139135394 0 -0.0026969825803239826 0.0052860904653306215 0 -0.0027211481849000346 0.0051244771362170182 0 -0.0025822598978073939 0.0054314451007980366 0 -0.0026969825803239826 0.0052860904653306215 0 -0.0025894396696411149 0.0052139509833978824 0 -0.0026969825803239826 0.0052860904653306215 0 -0.0025894396696411149 0.0052139509833978824 0 -0.0027211481849000346 0.0051244771362170182 0 -0.0026113802880283433 0.0049439432285714614 0 -0.0027211481849000346 0.0051244771362170182 0 -0.0027966186218239117 0.0049363578948021427 0 -0.0025894396696411149 0.0052139509833978824 0 -0.0026113802880283433 0.0049439432285714614 0 -0.0027211481849000346 0.0051244771362170182 0 -0.0028725108576972578 0.0052118975139135394 0 -0.0027211481849000346 0.0051244771362170182 0 -0.0027966186218239117 0.0049363578948021427 0 -0.0028725108576972578 0.0052118975139135394 0 -0.0027966186218239117 0.0049363578948021427 0 -0.0029581545396793877 0.004988840332429011 0 -0.0028725108576972578 0.0052118975139135394 0 -0.0030615836680744041 0.0051299207884058099 0 -0.0029581545396793877 0.004988840332429011 0 -0.0030615836680744041 0.0051299207884058099 0 -0.0029581545396793877 0.004988840332429011 0 -0.0031242850119783385 0.0048818851787030652 0 -0.0028725108576972578 0.0052118975139135394 0 -0.0030615836680744041 0.0051299207884058099 0 -0.0031030479182868258 0.0053546427434429927 0 -0.002899221411875672 0.0054257676181977861 0 -0.0028725108576972578 0.0052118975139135394 0 -0.0031030479182868258 0.0053546427434429927 0 -0.0027137260527364047 0.0059089808174882987 0 -0.0026244682370724606 0.0057110381196836266 0 -0.0023266654764611235 0.0064230614733867238 0 -0.0022175377729380902 0.0066420424747387716 0 -0.0020847715298477083 0.0064260713468416919 0 -0.0030615836680744041 0.0051299207884058099 0 -0.0031030479182868258 0.0053546427434429927 0 -0.0032346926168033831 0.005108897543607183 0 -0.0026244682370724606 0.0057110381196836266 0 -0.0019470704183784278 0.0063623796529589122 0 -0.0026244682370724606 0.0057110381196836266 0 -0.0031123157822925563 0.0048256203663281476 0 -0.0030615836680744041 0.0051299207884058099 0 -0.0032346926168033831 0.005108897543607183 0 -0.0031242850119783385 0.0048818851787030652 0 -0.0017872293467381549 0.0061151919922094108 0 -0.0018162214336825209 0.006082446811415408 0 -0.0018251450566876542 0.0061281633568352027 0 -0.0018162214336825209 0.006082446811415408 0 -0.0018387893838757428 0.0061097991221125848 0 -0.0018251450566876542 0.0061281633568352027 0 -0.0018162214336825209 0.006082446811415408 0 -0.0018387893838757428 0.0061097991221125848 0 -0.0018327907235651014 0.006071294061407469 0 -0.0018387893838757428 0.0061097991221125848 0 -0.0018463302981687063 0.0061002845439971885 0 -0.0018327907235651014 0.006071294061407469 0 -0.0018387893838757428 0.0061097991221125848 0 -0.0018463302981687063 0.0061002845439971885 0 -0.0018467821417797352 0.0061339713531230562 0 -0.0018387893838757428 0.0061097991221125848 0 -0.0018495468123326953 0.0061486481743909058 0 -0.0018251450566876542 0.0061281633568352027 0 -0.0018387893838757428 0.0061097991221125848 0 -0.0018495468123326953 0.0061486481743909058 0 -0.0018467821417797352 0.0061339713531230562 0 -0.0018495468123326953 0.0061486481743909058 0 -0.0018467821417797352 0.0061339713531230562 0 -0.0018444748314105453 0.0061757521371910888 0 -0.0018495468123326953 0.0061486481743909058 0 -0.0018444748314105453 0.0061757521371910888 0 -0.0018769710842828249 0.0061815986038010794 0 -0.0018495468123326953 0.0061486481743909058 0 -0.0018323120058956635 0.0061680720302314954 0 -0.0018769710842828249 0.0061815986038010794 0 -0.0017872293467381549 0.0061151919922094108 0 -0.0018323120058956635 0.0061680720302314954 0 -0.0018251450566876542 0.0061281633568352027 0 -0.0018495468123326953 0.0061486481743909058 0 -0.0018323120058956635 0.0061680720302314954 0 -0.0018251450566876542 0.0061281633568352027 0 -0.0018806182104522218 0.0061160306215078293 0 -0.0018580430977313891 0.0060958022818185078 0 -0.0018856405029879896 0.006046333726312695 0 -0.0019101997287617274 0.0060817945999484735 0 -0.0018806182104522218 0.0061160306215078293 0 -0.0018856405029879896 0.006046333726312695 0 -0.0018806182104522218 0.0061160306215078293 0 -0.0018580430977313891 0.0060958022818185078 0 -0.001846046683873629 0.0061514514497467455 0 -0.0018580430977313891 0.0060958022818185078 0 -0.0018463302981687063 0.0061002845439971885 0 -0.0018476297593285132 0.0060658377156575941 0 -0.0018580430977313891 0.0060958022818185078 0 -0.0018463302981687063 0.0061002845439971885 0 -0.0018467821417797352 0.0061339713531230562 0 -0.0018467821417797352 0.0061339713531230562 0 -0.0018444748314105453 0.0061757521371910888 0 -0.001846046683873629 0.0061514514497467455 0 -0.0018580430977313891 0.0060958022818185078 0 -0.0018467821417797352 0.0061339713531230562 0 -0.001846046683873629 0.0061514514497467455 0 -0.0018958567243776002 0.0061457357682738935 0 -0.0018806182104522218 0.0061160306215078293 0 -0.001846046683873629 0.0061514514497467455 0 -0.0018958567243776002 0.0061457357682738935 0 -0.001846046683873629 0.0061514514497467455 0 -0.0018558025073538487 0.0061788718765477483 0 -0.001846046683873629 0.0061514514497467455 0 -0.0018558025073538487 0.0061788718765477483 0 -0.0017964502275375632 0.006204990491127077 0 -0.0016674650868024918 0.006064231858712789 0 -0.0018363068826554197 0.0062293837196100831 0 -0.0018931726645271989 0.0062319676485366078 0 -0.0018558025073538487 0.0061788718765477483 0 -0.0017964502275375632 0.006204990491127077 0 -0.0018444748314105453 0.0061757521371910888 0 -0.0017964502275375632 0.006204990491127077 0 -0.0018448175733307268 0.0061780984695218111 0 -0.0018444748314105453 0.0061757521371910888 0 -0.001846046683873629 0.0061514514497467455 0 -0.0017964502275375632 0.006204990491127077 0 -0.0017964502275375632 0.006204990491127077 0 -0.0018448175733307268 0.0061780984695218111 0 -0.0017166598502019715 0.00614157113442105 0 -0.0018448175733307268 0.0061780984695218111 0 -0.0017166598502019715 0.00614157113442105 0 -0.0018213977404498687 0.0061016494010755432 0 -0.0016509900169183319 0.0062088738389267876 0 -0.0017964502275375632 0.006204990491127077 0 -0.0017166598502019715 0.00614157113442105 0 -0.0015476860082560882 0.0061102047822520003 0 -0.0016509900169183319 0.0062088738389267876 0 -0.0017166598502019715 0.00614157113442105 0 -0.0018323120058956635 0.0061680720302314954 0 -0.0018769710842828249 0.0061815986038010794 0 -0.0019402793791802265 0.0061849975728977147 0 -0.0021908606901417317 0.0061796084766564769 0 -0.0020847715298477083 0.0064260713468416919 0 -0.0019402793791802265 0.0061849975728977147 0 -0.0019470704183784278 0.0063623796529589122 0 -0.0019263536024896951 0.0061710548714909684 0 -0.0018444748314105453 0.0061757521371910888 0 -0.0018448175733307268 0.0061780984695218111 0 -0.0018769710842828249 0.0061815986038010794 0 -0.0018448175733307268 0.0061780984695218111 0 -0.0018769710842828249 0.0061815986038010794 0 -0.0019402793791802265 0.0061849975728977147 0 -0.0018448175733307268 0.0061780984695218111 0 -0.0019304745419464666 0.0060710371583846522 0 -0.0018213977404498687 0.0061016494010755432 0 -0.0018448175733307268 0.0061780984695218111 0 -0.0019402793791802265 0.0061849975728977147 0 -0.0019304745419464666 0.0060710371583846522 0 -0.0021908606901417317 0.0061796084766564769 0 -0.0019402793791802265 0.0061849975728977147 0 -0.0021017513468943624 0.0059980130296891868 0 -0.0019402793791802265 0.0061849975728977147 0 -0.0021017513468943624 0.0059980130296891868 0 -0.0019304745419464666 0.0060710371583846522 0 -0.0021017513468943624 0.0059980130296891868 0 -0.0019304745419464666 0.0060710371583846522 0 -0.001978936793828131 0.005929236162079396 0 -0.0019304745419464666 0.0060710371583846522 0 -0.001978936793828131 0.005929236162079396 0 -0.001813605967033675 0.006007839965329575 0 -0.0019304745419464666 0.0060710371583846522 0 -0.0018213977404498687 0.0061016494010755432 0 -0.001813605967033675 0.006007839965329575 0 -0.001978936793828131 0.005929236162079396 0 -0.001813605967033675 0.006007839965329575 0 -0.0018457996256578469 0.0058777604258529138 0 -0.001978936793828131 0.005929236162079396 0 -0.0018457996256578469 0.0058777604258529138 0 -0.0019479723110606233 0.0057950994954249421 0 -0.001978936793828131 0.005929236162079396 0 -0.0021095897454109429 0.0058955847780725341 0 -0.0020922411437390071 0.0057930928678434279 0 -0.0021017513468943624 0.0059980130296891868 0 -0.001978936793828131 0.005929236162079396 0 -0.0021095897454109429 0.0058955847780725341 0 -0.0015476860082560882 0.0061102047822520003 0 -0.0017166598502019715 0.00614157113442105 0 -0.0016695170305493366 0.0059963935677854047 0 -0.0017166598502019715 0.00614157113442105 0 -0.0018213977404498687 0.0061016494010755432 0 -0.001813605967033675 0.006007839965329575 0 -0.0017166598502019715 0.00614157113442105 0 -0.001813605967033675 0.006007839965329575 0 -0.0016695170305493366 0.0059963935677854047 0 -0.001813605967033675 0.006007839965329575 0 -0.0018457996256578469 0.0058777604258529138 0 -0.0016695170305493366 0.0059963935677854047 0 -0.0015085868246214088 0.0058073107680865401 0 -0.001418213878169528 0.0059518385489463659 0 -0.0016695170305493366 0.0059963935677854047 0 -0.0016625439726767072 0.0059996228324913272 0 -0.0017539147597411373 0.0057176922110529424 0 -0.0015085868246214088 0.0058073107680865401 0 -0.0016695170305493366 0.0059963935677854047 0 -0.0016897519889669743 0.0057625127369445748 0 -0.0018457996256578469 0.0058777604258529138 0 -0.0017662104456396533 0.005717946733834205 0 -0.0019479723110606233 0.0057950994954249421 0 -0.0018457996256578469 0.0058777604258529138 0 -0.0016695170305493366 0.0059963935677854047 0 -0.0017662104456396533 0.005717946733834205 0 -0.0015085868246214088 0.0058073107680865401 0 -0.0016897519889669743 0.0057625127369445748 0 -0.0015163016922722665 0.0055848170943161397 0 -0.0020922411437390071 0.0057930928678434279 0 -0.0019479723110606233 0.0057950994954249421 0 -0.0020100343073524477 0.0056720843128000888 0 -0.001978936793828131 0.005929236162079396 0 -0.0020922411437390071 0.0057930928678434279 0 -0.0019479723110606233 0.0057950994954249421 0 -0.0017662104456396533 0.005717946733834205 0 -0.0020100343073524477 0.0056720843128000888 0 -0.001947176957035765 0.0055751329279310575 0 -0.0017662104456396533 0.005717946733834205 0 -0.0019479723110606233 0.0057950994954249421 0 -0.0020100343073524477 0.0056720843128000888 0 -0.0020100343073524477 0.0056720843128000888 0 -0.0022291948560717164 0.0057123703958270799 0 -0.0020755050071538275 0.0055589810581324383 0 -0.0020922411437390071 0.0057930928678434279 0 -0.0020100343073524477 0.0056720843128000888 0 -0.0022291948560717164 0.0057123703958270799 0 -0.0023711496299736044 0.0056663164246027499 0 -0.0024718748255543113 0.0056913503239151009 0 -0.0024149229379327721 0.0055864767324026662 0 -0.0023711496299736044 0.0056663164246027499 0 -0.0024718748255543113 0.0056913503239151009 0 -0.0024361211708433133 0.0057297420240133437 0 -0.002296574557997616 0.0056792867276028742 0 -0.0023480596083780753 0.0058041201353898602 0 -0.0020922411437390071 0.0057930928678434279 0 -0.0022291948560717164 0.0057123703958270799 0 -0.0022609230347533553 0.0058580536434450596 0 -0.0021095897454109429 0.0058955847780725341 0 -0.0020922411437390071 0.0057930928678434279 0 -0.0022609230347533553 0.0058580536434450596 0 -0.0021017513468943624 0.0059980130296891868 0 -0.0021095897454109429 0.0058955847780725341 0 -0.0022609230347533553 0.0058580536434450596 0 -0.0024718748255543113 0.0056913503239151009 0 -0.0024361211708433133 0.0057297420240133437 0 -0.0025882117693038246 0.0057581368855305409 0 -0.0024361211708433133 0.0057297420240133437 0 -0.0026417233852347975 0.0058426807236043017 0 -0.0025882117693038246 0.0057581368855305409 0 -0.0023845198397484026 0.0059903053628995746 0 -0.0024361211708433133 0.0057297420240133437 0 -0.0026417233852347975 0.0058426807236043017 0 -0.0023821901536133028 0.005988608207310917 0 -0.0023480596083780753 0.0058041201353898602 0 -0.0023845198397484026 0.0059903053628995746 0 -0.0022609230347533553 0.0058580536434450596 0 -0.0022433133637141268 0.0059844910995188053 0 -0.0021017513468943624 0.0059980130296891868 0 -0.0022609230347533553 0.0058580536434450596 0 -0.0022433133637141268 0.0059844910995188053 0 -0.0026112717597272773 0.005644373154766574 0 -0.0026197774489788972 0.0057630574777274299 0 -0.0026403312460653826 0.0057720546007878513 0 -0.0026197774489788972 0.0057630574777274299 0 -0.0026403312460653826 0.0057720546007878513 0 -0.0025882117693038246 0.0057581368855305409 0 -0.0026112717597272773 0.005644373154766574 0 -0.0026197774489788972 0.0057630574777274299 0 -0.0025693709567694858 0.0057209310251048716 0 -0.0026403312460653826 0.0057720546007878513 0 -0.0026417233852347975 0.0058426807236043017 0 -0.0025882117693038246 0.0057581368855305409 0 -0.002693160682618398 0.0056719965569401792 0 -0.0026403312460653826 0.0057720546007878513 0 -0.0026417233852347975 0.0058426807236043017 0 -0.0026197774489788972 0.0057630574777274299 0 -0.0025882117693038246 0.0057581368855305409 0 -0.0026208185277023462 0.0057388610874944063 0 -0.0026197774489788972 0.0057630574777274299 0 -0.0026208185277023462 0.0057388610874944063 0 -0.0026087348289364717 0.00575013855275838 0 -0.0026208185277023462 0.0057388610874944063 0 -0.0025615348286169492 0.0056801723513433666 0 -0.0026967375977169929 0.0056556893425380702 0 -0.0025882117693038246 0.0057581368855305409 0 -0.0026208185277023462 0.0057388610874944063 0 -0.0025615348286169492 0.0056801723513433666 0 -0.0024718748255543113 0.0056913503239151009 0 -0.0025882117693038246 0.0057581368855305409 0 -0.0025615348286169492 0.0056801723513433666 0 -0.0025615348286169492 0.0056801723513433666 0 -0.0025744277571691063 0.0055508392569787301 0 -0.0024149229379327721 0.0055864767324026662 0 -0.0024718748255543113 0.0056913503239151009 0 -0.0025615348286169492 0.0056801723513433666 0 -0.0024149229379327721 0.0055864767324026662 0 -0.0025615348286169492 0.0056801723513433666 0 -0.0025744277571691063 0.0055508392569787301 0 -0.0026967375977169929 0.0056556893425380702 0 -0.0025744277571691063 0.0055508392569787301 0 -0.0025915299964880305 0.0053587315793635964 0 -0.0027489478878813837 0.0054638180331696568 0 -0.0025744277571691063 0.0055508392569787301 0 -0.0025915299964880305 0.0053587315793635964 0 -0.0024311197552880758 0.0053926517313343672 0 -0.0025744277571691063 0.0055508392569787301 0 -0.0024149229379327721 0.0055864767324026662 0 -0.0024311197552880758 0.0053926517313343672 0 -0.0024149229379327721 0.0055864767324026662 0 -0.0022310269856101114 0.005542534888633893 0 -0.0022689416166001351 0.0054357693124472608 0 -0.0023711496299736044 0.0056663164246027499 0 -0.0024149229379327721 0.0055864767324026662 0 -0.0022310269856101114 0.005542534888633893 0 -0.0022291948560717164 0.0057123703958270799 0 -0.0022310269856101114 0.005542534888633893 0 -0.0020755050071538275 0.0055589810581324383 0 -0.002296574557997616 0.0056792867276028742 0 -0.0022414770306358172 0.005543900806125315 0 -0.0022310269856101114 0.005542534888633893 0 -0.0020960297884745406 0.0054361047008080372 0 -0.0020755050071538275 0.0055589810581324383 0 -0.0022310269856101114 0.005542534888633893 0 -0.0022689416166001351 0.0054357693124472608 0 -0.0020960297884745406 0.0054361047008080372 0 -0.0024149229379327721 0.0055864767324026662 0 -0.0022689416166001351 0.0054357693124472608 0 -0.0024311197552880758 0.0053926517313343672 0 -0.0022689416166001351 0.0054357693124472608 0 -0.0022355717725430694 0.0052279371671739997 0 -0.0024311197552880758 0.0053926517313343672 0 -0.0022689416166001351 0.0054357693124472608 0 -0.0020960297884745406 0.0054361047008080372 0 -0.0022355717725430694 0.0052279371671739997 0 -0.0020960297884745406 0.0054361047008080372 0 -0.0022355717725430694 0.0052279371671739997 0 -0.0019378983248688497 0.0052249414809892782 0 -0.0022355717725430694 0.0052279371671739997 0 -0.0019378983248688497 0.0052249414809892782 0 -0.0020258977649018788 0.0050219270777544294 0 -0.0022355717725430694 0.0052279371671739997 0 -0.0024970136239660544 0.0051230658110343183 0 -0.0024311197552880758 0.0053926517313343672 0 -0.0024615735246530535 0.005239598118451658 0 -0.0027233443957857257 0.0053063831861390543 0 -0.0024378103935713416 0.0053619794497010102 0 -0.0027189999057840313 0.0052545700357245007 0 -0.0027403127462020597 0.0053851519576175394 0 -0.0024970136239660544 0.0051230658110343183 0 -0.0025915299964880305 0.0053587315793635964 0 -0.0027068131590114318 0.0052379656625280366 0 -0.0025915299964880305 0.0053587315793635964 0 -0.0027489478878813837 0.0054638180331696568 0 -0.0027068131590114318 0.0052379656625280366 0 -0.0024970136239660544 0.0051230658110343183 0 -0.0025915299964880305 0.0053587315793635964 0 -0.0024311197552880758 0.0053926517313343672 0 -0.0013255880845995051 0.0055546901035092976 0 -0.001466902861442645 0.0056524987428823977 0 -0.0014063289558632398 0.0054786872709809914 0 -0.0013255880845995051 0.0055546901035092976 0 -0.001294935413691101 0.0057115074444367584 0 -0.001466902861442645 0.0056524987428823977 0 -0.0014010682622640669 0.0056462867888210757 0 -0.001640787640116793 0.0055970965418723337 0 -0.0016897519889669743 0.0057625127369445748 0 -0.0015163016922722665 0.0055848170943161397 0 -0.0017610015117065418 0.0054661477111377305 0 -0.0017539147597411373 0.0057176922110529424 0 -0.001640787640116793 0.0055970965418723337 0 -0.0017662104456396533 0.005717946733834205 0 -0.0018413182961665938 0.0055225748403076981 0 -0.001947176957035765 0.0055751329279310575 0 -0.001640787640116793 0.0055970965418723337 0 -0.001488473480001487 0.0055474620835198702 0 -0.001466902861442645 0.0056524987428823977 0 -0.0015378176068432876 0.0054713011530269223 0 -0.0014063289558632398 0.0054786872709809914 0 -0.0018413182961665938 0.0055225748403076981 0 -0.0019930658304681058 0.0054704333168590202 0 -0.001947176957035765 0.0055751329279310575 0 -0.001461428164670637 0.0058155927593499203 0 -0.0017521073896774899 0.0056727996228330838 0 -0.0015378176068432876 0.0054713011530269223 0 -0.001640787640116793 0.0055970965418723337 0 -0.0018703572746084976 0.0055734485372816922 0 -0.0019930658304681058 0.0054704333168590202 0 -0.001947176957035765 0.0055751329279310575 0 -0.0020755050071538275 0.0055589810581324383 0 -0.0020100343073524477 0.0056720843128000888 0 -0.001947176957035765 0.0055751329279310575 0 -0.0020755050071538275 0.0055589810581324383 0 -0.0020771546034760607 0.0054512261482189718 0 -0.0018703572746084976 0.0055734485372816922 0 -0.0020960297884745406 0.0054361047008080372 0 -0.0019930658304681058 0.0054704333168590202 0 -0.0020755050071538275 0.0055589810581324383 0 -0.0020960297884745406 0.0054361047008080372 0 -0.0017521073896774899 0.0056727996228330838 0 -0.0017939139274215498 0.0054184997040421113 0 -0.0020960297884745406 0.0054361047008080372 0 -0.0019378983248688497 0.0052249414809892782 0 -0.0017939139274215498 0.0054184997040421113 0 -0.0019378983248688497 0.0052249414809892782 0 -0.0015628634520988068 0.0052960476130141741 0 -0.001761914009194337 0.0049664506879453906 0 -0.0019378983248688497 0.0052249414809892782 0 -0.0015628634520988068 0.0052960476130141741 0 -0.0017939139274215498 0.0054184997040421113 0 -0.0017521073896774899 0.0056727996228330838 0 -0.0017939139274215498 0.0054184997040421113 0 -0.0015378176068432876 0.0054713011530269223 0 -0.0015628634520988068 0.0052960476130141741 0 -0.0017939139274215498 0.0054184997040421113 0 -0.0015378176068432876 0.0054713011530269223 0 -0.0015378176068432876 0.0054713011530269223 0 -0.0014586852474021397 0.005380064239698351 0 -0.0014063289558632398 0.0054786872709809914 0 -0.0015628634520988068 0.0052960476130141741 0 -0.0015378176068432876 0.0054713011530269223 0 -0.0014586852474021397 0.005380064239698351 0 -0.0015628634520988068 0.0052960476130141741 0 -0.0014586852474021397 0.005380064239698351 0 -0.0014547714355979057 0.0053075216634859441 0 -0.0014586852474021397 0.005380064239698351 0 -0.0013571619146123357 0.0053973400923260787 0 -0.0014547714355979057 0.0053075216634859441 0 -0.0012585260452126529 0.005457972825544808 0 -0.0013571619146123357 0.0053973400923260787 0 -0.0012931691387277548 0.0053514703669655861 0 -0.0013571619146123357 0.0053973400923260787 0 -0.0012931691387277548 0.0053514703669655861 0 -0.0014547714355979057 0.0053075216634859441 0 -0.0012585260452126529 0.005457972825544808 0 -0.0013255880845995051 0.0055546901035092976 0 -0.0014063289558632398 0.0054786872709809914 0 -0.0012585260452126529 0.005457972825544808 0 -0.0013571619146123357 0.0053973400923260787 0 -0.0014063289558632398 0.0054786872709809914 0 -0.0014586852474021397 0.005380064239698351 0 -0.0013571619146123357 0.0053973400923260787 0 -0.0014063289558632398 0.0054786872709809914 0 -0.0012135376637527682 0.0052268767556597588 0 -0.0013517527258330622 0.0052656183396841234 0 -0.0012817900568120118 0.0051486291634044255 0 -0.0012931691387277548 0.0053514703669655861 0 -0.0013517527258330622 0.0052656183396841234 0 -0.0014547714355979057 0.0053075216634859441 0 -0.0014547714355979057 0.0053075216634859441 0 -0.0014975448324855705 0.005242170843400615 0 -0.0015809805071999618 0.0052750429787948097 0 -0.0013517527258330622 0.0052656183396841234 0 -0.0014547714355979057 0.0053075216634859441 0 -0.0014975448324855705 0.005242170843400615 0 -0.0013517527258330622 0.0052656183396841234 0 -0.0014975448324855705 0.005242170843400615 0 -0.0014506290442754691 0.0051649758382498155 0 -0.0015771458880795707 0.0052297843956732462 0 -0.0015809805071999618 0.0052750429787948097 0 -0.0016193842115187899 0.0052169990260508541 0 -0.0014975448324855705 0.005242170843400615 0 -0.0015771458880795707 0.0052297843956732462 0 -0.0015809805071999618 0.0052750429787948097 0 -0.0014975448324855705 0.005242170843400615 0 -0.0015771458880795707 0.0052297843956732462 0 -0.0015964971918218474 0.0051893548226810641 0 -0.0015771458880795707 0.0052297843956732462 0 -0.0016193842115187899 0.0052169990260508541 0 -0.0015964971918218474 0.0051893548226810641 0 -0.0015628634520988068 0.0052960476130141741 0 -0.0014547714355979057 0.0053075216634859441 0 -0.0015809805071999618 0.0052750429787948097 0 -0.0015705490146644535 0.0052878570292531242 0 -0.0016718401715920819 0.005105379228043036 0 -0.001761914009194337 0.0049664506879453906 0 -0.0020258977649018788 0.0050219270777544294 0 -0.0019180883342740068 0.0047227452098373085 0 -0.0019378983248688497 0.0052249414809892782 0 -0.001761914009194337 0.0049664506879453906 0 -0.0020258977649018788 0.0050219270777544294 0 -0.0016718401715920819 0.005105379228043036 0 -0.0018357243557461549 0.0051124178264141534 0 -0.0017637695293397963 0.0053056716005531364 0 -0.0015964971918218474 0.0051893548226810641 0 -0.0018736920167333455 0.0051429317982772211 0 -0.0018357243557461549 0.0051124178264141534 0 -0.0019337454897866192 0.00512076350625453 0 -0.0017093319401650551 0.0049999596811148512 0 -0.0018736920167333455 0.0051429317982772211 0 -0.0019867099026495863 0.0049999993588822284 0 -0.0017093319401650551 0.0049999596811148512 0 -0.0015964971918218474 0.0051893548226810641 0 -0.0018736920167333455 0.0051429317982772211 0 -0.0017093319401650551 0.0049999596811148512 0 -0.0015964971918218474 0.0051893548226810641 0 -0.0015435330796481734 0.0050886245445660129 0 -0.0017093319401650551 0.0049999596811148512 0 -0.0014320298948436133 0.0049999789841057235 0 -0.0015435330796481734 0.0050886245445660129 0 -0.0018357243557461549 0.0051124178264141534 0 -0.0015910926411868509 0.0051940983723103495 0 -0.0015964971918218474 0.0051893548226810641 0 -0.0014506290442754691 0.0051649758382498155 0 -0.0015435330796481734 0.0050886245445660129 0 -0.0014975448324855705 0.005242170843400615 0 -0.0015964971918218474 0.0051893548226810641 0 -0.0014506290442754691 0.0051649758382498155 0 -0.0014506290442754691 0.0051649758382498155 0 -0.0014320298948436133 0.0049999789841057235 0 -0.0015435330796481734 0.0050886245445660129 0 -0.0011547386036872935 0.0049999524673321957 0 -0.0014320298948436133 0.0049999789841057235 0 -0.0012817900568120118 0.0051486291634044255 0 -0.0014506290442754691 0.0051649758382498155 0 -0.0014320298948436133 0.0049999789841057235 0 -0.0012817900568120118 0.0051486291634044255 0 -0.0013517527258330622 0.0052656183396841234 0 -0.0014506290442754691 0.0051649758382498155 0 -0.0012817900568120118 0.0051486291634044255 0 -0.0023430312249050852 0.0052065781864050623 0 -0.0025556272953256333 0.0051923576848707607 0 -0.0024741393775475429 0.0050605154978082831 0 -0.0024378103935713416 0.0053619794497010102 0 -0.0025556272953256333 0.0051923576848707607 0 -0.0027189999057840313 0.0052545700357245007 0 -0.0024378103935713416 0.0053619794497010102 0 -0.0023430312249050852 0.0052065781864050623 0 -0.0025556272953256333 0.0051923576848707607 0 -0.0024378103935713416 0.0053619794497010102 0 -0.0023430312249050852 0.0052065781864050623 0 -0.0021576483100074328 0.0052786068154740727 0 -0.0022355717725430694 0.0052279371671739997 0 -0.0024970136239660544 0.0051230658110343183 0 -0.0022431643172019459 0.0049437395260572784 0 -0.0024615735246530535 0.005239598118451658 0 -0.0022122434858746444 0.0050861997090339128 0 -0.0022355717725430694 0.0052279371671739997 0 -0.0020258977649018788 0.0050219270777544294 0 -0.0022431643172019459 0.0049437395260572784 0 -0.001953544202770309 0.0051811247716387733 0 -0.0021576483100074328 0.0052786068154740727 0 -0.002088168104801346 0.0051703358688435673 0 -0.0018357243557461549 0.0051124178264141534 0 -0.0022122434858746444 0.0050861997090339128 0 -0.0020258977649018788 0.0050219270777544294 0 -0.0019180883342740068 0.0047227452098373085 0 -0.0022431643172019459 0.0049437395260572784 0 -0.0023430312249050852 0.0052065781864050623 0 -0.0021576483100074328 0.0052786068154740727 0 -0.0022004407818827921 0.00510959103958616 0 -0.0021576483100074328 0.0052786068154740727 0 -0.002088168104801346 0.0051703358688435673 0 -0.0022004407818827921 0.00510959103958616 0 -0.002088168104801346 0.0051703358688435673 0 -0.0022004407818827921 0.00510959103958616 0 -0.0020085212757380254 0.005069826855291489 0 -0.001953544202770309 0.0051811247716387733 0 -0.002088168104801346 0.0051703358688435673 0 -0.0020085212757380254 0.005069826855291489 0 -0.0022004407818827921 0.00510959103958616 0 -0.0020085212757380254 0.005069826855291489 0 -0.0019870204228077315 0.0049999624013420318 0 -0.0019337454897866192 0.00512076350625453 0 -0.0019867365619023829 0.0049999969133765233 0 -0.0022004407818827921 0.00510959103958616 0 -0.0019870204228077315 0.0049999624013420318 0 -0.0022168601165131535 0.0049999151467361473 0 -0.0022004407818827921 0.00510959103958616 0 -0.0022168601165131535 0.0049999151467361473 0 -0.0024741393775475429 0.0050605154978082831 0 -0.0023430312249050852 0.0052065781864050623 0 -0.0022004407818827921 0.00510959103958616 0 -0.0024741393775475429 0.0050605154978082831 0 -0.0025556272953256333 0.0051923576848707607 0 -0.0024741393775475429 0.0050605154978082831 0 -0.0027127268415615066 0.0050796982145471185 0 -0.0022168601165131535 0.0049999151467361473 0 -0.0024741393775475429 0.0050605154978082831 0 -0.0024470163817007957 0.0049999503230040267 0 -0.0024972982068527496 0.0050603445848522348 0 -0.0027406359777801823 0.0050049427925421275 0 -0.0024741393775475429 0.0050605154978082831 0 -0.0024470163817007957 0.0049999503230040267 0 -0.0026440674079151287 0.0050846324910954468 0 -0.0024470163817007957 0.0049999503230040267 0 -0.0026769739905920108 0.0049999786649077135 0 -0.0026440674079151287 0.0050846324910954468 0 -0.0027406359777801823 0.0050049427925421275 0 -0.0029071101426578457 0.0049999925299708927 0 -0.0028515533932481889 0.0049201619735891209 0 -0.0029076272133530187 0.0049997525427187949 0 -0.0029388771944078755 0.004982164482482049 0 -0.0026769739905920108 0.0049999786649077135 0 -0.0026440674079151287 0.0050846324910954468 0 -0.0029071730399325398 0.0050000127705257516 0 -0.0028515533932481889 0.0049201619735891209 0 -0.0028900420287193448 0.005028310233042896 0 -0.0029388771944078755 0.004982164482482049 0 -0.0028900420287193448 0.005028310233042896 0 -0.0030084404366140429 0.0050268011876332301 0 -0.0029388771944078755 0.004982164482482049 0 -0.0028900420287193448 0.005028310233042896 0 -0.0029798221420548015 0.0050963941884167255 0 -0.0030084404366140429 0.0050268011876332301 0 -0.0028515533932481889 0.0049201619735891209 0 -0.0028900420287193448 0.005028310233042896 0 -0.0027127268415615066 0.0050796982145471185 0 -0.0024741393775475429 0.0050605154978082831 0 -0.0028515533932481889 0.0049201619735891209 0 -0.0027127268415615066 0.0050796982145471185 0 -0.0028900420287193448 0.005028310233042896 0 -0.0027127268415615066 0.0050796982145471185 0 -0.0028008603021960191 0.0051469317804197796 0 -0.0025556272953256333 0.0051923576848707607 0 -0.0027127268415615066 0.0050796982145471185 0 -0.0028008603021960191 0.0051469317804197796 0 -0.0028900420287193448 0.005028310233042896 0 -0.0028008603021960191 0.0051469317804197796 0 -0.0029798221420548015 0.0050963941884167255 0 -0.0028008603021960191 0.0051469317804197796 0 -0.0029798221420548015 0.0050963941884167255 0 -0.0029334713892074076 0.0052137010966126973 0 -0.0025556272953256333 0.0051923576848707607 0 -0.0028008603021960191 0.0051469317804197796 0 -0.0027189999057840313 0.0052545700357245007 0 -0.0028008603021960191 0.0051469317804197796 0 -0.0029334713892074076 0.0052137010966126973 0 -0.0027189999057840313 0.0052545700357245007 0 -0.0033558871058539832 0.0050980581936804848 0 -0.003126479010037484 0.0051120420918734479 0 -0.0031348560042068342 0.0051791905805463508 0 -0.0033558871058539832 0.0050980581936804848 0 -0.003126479010037484 0.0051120420918734479 0 -0.0031529463204938899 0.0050553749040880003 0 -0.0029334713892074076 0.0052137010966126973 0 -0.003126479010037484 0.0051120420918734479 0 -0.0031348560042068342 0.0051791905805463508 0 -0.0029798221420548015 0.0050963941884167255 0 -0.0029334713892074076 0.0052137010966126973 0 -0.003126479010037484 0.0051120420918734479 0 -0.0029798221420548015 0.0050963941884167255 0 -0.003126479010037484 0.0051120420918734479 0 -0.0031529463204938899 0.0050553749040880003 0 -0.0029798221420548015 0.0050963941884167255 0 -0.0031529463204938899 0.0050553749040880003 0 -0.0030084404366140429 0.0050268011876332301 0 -0.0033558871058539832 0.0050980581936804848 0 -0.0031529463204938899 0.0050553749040880003 0 -0.0033215769032102619 0.005029661574453715 0 -0.0031529463204938899 0.0050553749040880003 0 -0.0030783769834433453 0.0050130088716415899 0 -0.0033215769032102619 0.005029661574453715 0 -0.0030783769834433453 0.0050130088716415899 0 -0.0030084404366140429 0.0050268011876332301 0 -0.0029388771944078755 0.004982164482482049 0 -0.0031529463204938899 0.0050553749040880003 0 -0.0030783769834433453 0.0050130088716415899 0 -0.0030084404366140429 0.0050268011876332301 0 -0.0030783769834433453 0.0050130088716415899 0 -0.0029076272133530187 0.0049997525427187949 0 -0.0029388771944078755 0.004982164482482049 0 -0.0030783769834433453 0.0050130088716415899 0 -0.0029076272133530187 0.0049997525427187949 0 -0.0031717403309079579 0.004999921757971878 0 -0.0030783769834433453 0.0050130088716415899 0 -0.0031717403309079579 0.004999921757971878 0 -0.0033215769032102619 0.005029661574453715 0 -0.0031717403309079579 0.004999921757971878 0 -0.0034363648092475248 0.0049999172053760439 0 -0.0034212655789464209 0.0050389942266659982 0 -0.0031717403309079579 0.004999921757971878 0 -0.0034212655789464209 0.0050389942266659982 0 -0.0033215769032102619 0.005029661574453715 0 -0.003701709448924226 0.004999732224831634 0 -0.0038698559860171392 0.0048571901994996338 0 -0.0039795935657193715 0.0049502096772739536 0 -0.0037008732411531204 0.0049999502095700414 0 -0.0036878724054443843 0.0049639580736236923 0 -0.0034363648092475248 0.0049999172053760439 0 -0.0037006572580903828 0.0049999789854915525 0 -0.003509109922806192 0.0050731868345015906 0 -0.0034363648092475248 0.0049999172053760439 0 -0.0034212655789464209 0.0050389942266659982 0 -0.003509109922806192 0.0050731868345015906 0 -0.0034212655789464209 0.0050389942266659982 0 -0.003509109922806192 0.0050731868345015906 0 -0.0036233302754717176 0.0049928586713329746 0 -0.0038698559860171392 0.0048571901994996338 0 -0.0039521864742836236 0.0049343125035681903 0 -0.004079138775242637 0.0048884733463777936 0 -0.0036878724054443843 0.0049639580736236923 0 -0.0036244480682618672 0.0050051530286291755 0 -0.0038698559860171392 0.0048571901994996338 0 -0.0039521864742836236 0.0049343125035681903 0 -0.0036233302754717176 0.0049928586713329746 0 -0.0039521864742836236 0.0049343125035681903 0 -0.0036233302754717176 0.0049928586713329746 0 -0.003887038887484756 0.0050567015681312203 0 -0.0039521864742836236 0.0049343125035681903 0 -0.003887038887484756 0.0050567015681312203 0 -0.004206368649213128 0.0049090635548676778 0 -0.0033558871058539832 0.0050980581936804848 0 -0.0033215769032102619 0.005029661574453715 0 -0.0036233302754717176 0.0049928586713329746 0 -0.0034212655789464209 0.0050389942266659982 0 -0.0033215769032102619 0.005029661574453715 0 -0.0036233302754717176 0.0049928586713329746 0 -0.0033558871058539832 0.0050980581936804848 0 -0.0036233302754717176 0.0049928586713329746 0 -0.003651708929030017 0.0051015966194276532 0 -0.0036233302754717176 0.0049928586713329746 0 -0.003651708929030017 0.0051015966194276532 0 -0.003887038887484756 0.0050567015681312203 0 -0.0033558871058539832 0.0050980581936804848 0 -0.003651708929030017 0.0051015966194276532 0 -0.0035700784921879193 0.0052068984333168465 0 -0.003651708929030017 0.0051015966194276532 0 -0.0038265384413291295 0.0051729167173111441 0 -0.003887038887484756 0.0050567015681312203 0 -0.003651708929030017 0.0051015966194276532 0 -0.0038265384413291295 0.0051729167173111441 0 -0.0035700784921879193 0.0052068984333168465 0 -0.003887038887484756 0.0050567015681312203 0 -0.004046024027922094 0.0051521803196464926 0 -0.004206368649213128 0.0049090635548676778 0 -0.0038265384413291295 0.0051729167173111441 0 -0.004046024027922094 0.0051521803196464926 0 -0.0040356563072122542 0.0051939840530747369 0 -0.0038265384413291295 0.0051729167173111441 0 -0.003887038887484756 0.0050567015681312203 0 -0.004046024027922094 0.0051521803196464926 0 -0.004046024027922094 0.0051521803196464926 0 -0.0040356563072122542 0.0051939840530747369 0 -0.004179101583304313 0.0051581542436704032 0 -0.004046024027922094 0.0051521803196464926 0 -0.004179101583304313 0.0051581542436704032 0 -0.0041758260864836064 0.0051465607274123219 0 -0.0040356563072122542 0.0051939840530747369 0 -0.004179101583304313 0.0051581542436704032 0 -0.0042565353944126159 0.0052815306366464391 0 -0.0040356563072122542 0.0051939840530747369 0 -0.0038544132046096379 0.0052658894785773307 0 -0.0042565353944126159 0.0052815306366464391 0 -0.0035700784921879193 0.0052068984333168465 0 -0.0035483855223024325 0.005309400705073907 0 -0.0038544132046096379 0.0052658894785773307 0 -0.0038265384413291295 0.0051729167173111441 0 -0.0035700784921879193 0.0052068984333168465 0 -0.0038544132046096379 0.0052658894785773307 0 -0.0038265384413291295 0.0051729167173111441 0 -0.0040356563072122542 0.0051939840530747369 0 -0.0038544132046096379 0.0052658894785773307 0 -0.0038544132046096379 0.0052658894785773307 0 -0.003484010271409232 0.0054672350734328926 0 -0.0036713645356647399 0.0056068563040888838 0 -0.0035483855223024325 0.005309400705073907 0 -0.0038544132046096379 0.0052658894785773307 0 -0.003484010271409232 0.0054672350734328926 0 -0.003484010271409232 0.0054672350734328926 0 -0.0032580706385240041 0.0053362187930290185 0 -0.003210120639616898 0.0055576672877890787 0 -0.0035483855223024325 0.005309400705073907 0 -0.003484010271409232 0.0054672350734328926 0 -0.0032580706385240041 0.0053362187930290185 0 -0.0035700784921879193 0.0052068984333168465 0 -0.0035483855223024325 0.005309400705073907 0 -0.0032580706385240041 0.0053362187930290185 0 -0.0032580706385240041 0.0053362187930290185 0 -0.0029270325017998729 0.0055355977356675631 0 -0.0029756288526098323 0.0053491384660659469 0 -0.0032580706385240041 0.0053362187930290185 0 -0.003210120639616898 0.0055576672877890787 0 -0.0029270325017998729 0.0055355977356675631 0 -0.0029270325017998729 0.0055355977356675631 0 -0.0027489478878813837 0.0054638180331696568 0 -0.0026967375977169929 0.0056556893425380702 0 -0.0025744277571691063 0.0055508392569787301 0 -0.0027489478878813837 0.0054638180331696568 0 -0.0026967375977169929 0.0056556893425380702 0 -0.0027489478878813837 0.0054638180331696568 0 -0.0029756288526098323 0.0053491384660659469 0 -0.0027068131590114318 0.0052379656625280366 0 -0.0029270325017998729 0.0055355977356675631 0 -0.0027489478878813837 0.0054638180331696568 0 -0.0029756288526098323 0.0053491384660659469 0 -0.0029756288526098323 0.0053491384660659469 0 -0.0027403127462020597 0.0053851519576175394 0 -0.003034259440009306 0.0052678408489711037 0 -0.0029534106855760517 0.0053552234563693001 0 -0.0027233443957857257 0.0053063831861390543 0 -0.0029334713892074076 0.0052137010966126973 0 -0.0027189999057840313 0.0052545700357245007 0 -0.0027403127462020597 0.0053851519576175394 0 -0.0029334713892074076 0.0052137010966126973 0 -0.0027403127462020597 0.0053851519576175394 0 -0.003034259440009306 0.0052678408489711037 0 -0.0031348560042068342 0.0051791905805463508 0 -0.0032845882864269687 0.0052101736994582034 0 -0.003034259440009306 0.0052678408489711037 0 -0.0029334713892074076 0.0052137010966126973 0 -0.0031348560042068342 0.0051791905805463508 0 -0.003034259440009306 0.0052678408489711037 0 -0.0033558871058539832 0.0050980581936804848 0 -0.0035700784921879193 0.0052068984333168465 0 -0.0032845882864269687 0.0052101736994582034 0 -0.0033558871058539832 0.0050980581936804848 0 -0.0031348560042068342 0.0051791905805463508 0 -0.0032845882864269687 0.0052101736994582034 0 -0.0035700784921879193 0.0052068984333168465 0 -0.0032580706385240041 0.0053362187930290185 0 -0.0032845882864269687 0.0052101736994582034 0 -0.0032580706385240041 0.0053362187930290185 0 -0.0029756288526098323 0.0053491384660659469 0 -0.003034259440009306 0.0052678408489711037 0 -0.0032580706385240041 0.0053362187930290185 0 -0.0032845882864269687 0.0052101736994582034 0 -0.003034259440009306 0.0052678408489711037 0 -0.0049999262434061 0.004412683522125942 0 -0.0048684616780321462 0.0045216506906237443 0 -0.0049995178463486884 0.0044136986644204117 0 -0.0048359040294021754 0.0046182131872831876 0 -0.0047724880485296413 0.0047732560707447269 0 -0.0049995178463486884 0.0044136986644204117 0 -0.0047724880485296413 0.0047732560707447269 0 -0.0049997031507479778 0.0049995296548410451 0 -0.0047724880485296413 0.0047732560707447269 0 -0.0049997031507479778 0.0049995296548410451 0 -0.00443171256268831 0.0049996243767393214 0 -0.0047724880485296413 0.0047732560707447269 0 -0.00443171256268831 0.0049996243767393214 0 -0.0045071346973416197 0.0048380655380659797 0 -0.0045071346973416197 0.0048380655380659797 0 -0.0047196660322273735 0.0046237130442108101 0 -0.0044557969784378912 0.0047599854623192484 0 -0.0047724880485296413 0.0047732560707447269 0 -0.0045071346973416197 0.0048380655380659797 0 -0.0047196660322273735 0.0046237130442108101 0 -0.0048359040294021754 0.0046182131872831876 0 -0.0047724880485296413 0.0047732560707447269 0 -0.0047196660322273735 0.0046237130442108101 0 -0.0048684616780321462 0.0045216506906237443 0 -0.0047517570311190957 0.004597875580909635 0 -0.0049151611285152622 0.0044227586146869894 0 -0.0047196660322273735 0.0046237130442108101 0 -0.0048158296199778561 0.0044897776902360284 0 -0.0047196660322273735 0.0046237130442108101 0 -0.0044557969784378912 0.0047599854623192484 0 -0.0045187806573554245 0.0046157301976433628 0 -0.0044557969784378912 0.0047599854623192484 0 -0.0043330679023104281 0.0048075429221254721 0 -0.0045187806573554245 0.0046157301976433628 0 -0.0044557969784378912 0.0047599854623192484 0 -0.0043330679023104281 0.0048075429221254721 0 -0.0042817769057144246 0.004865977250431669 0 -0.0045071346973416197 0.0048380655380659797 0 -0.0044557969784378912 0.0047599854623192484 0 -0.0042817769057144246 0.004865977250431669 0 -0.0045071346973416197 0.0048380655380659797 0 -0.0042817769057144246 0.004865977250431669 0 -0.0042767437442724236 0.0049387784010069963 0 -0.00443171256268831 0.0049996243767393214 0 -0.0042767437442724236 0.0049387784010069963 0 -0.0040112598213813983 0.004999798693448681 0 -0.0042817769057144246 0.004865977250431669 0 -0.0042767437442724236 0.0049387784010069963 0 -0.0039795935657193715 0.0049502096772739536 0 -0.00443171256268831 0.0049996243767393214 0 -0.0045071346973416197 0.0048380655380659797 0 -0.0042767437442724236 0.0049387784010069963 0 -0.0042817769057144246 0.004865977250431669 0 -0.0039795935657193715 0.0049502096772739536 0 -0.004079138775242637 0.0048884733463777936 0 -0.0042767437442724236 0.0049387784010069963 0 -0.0040112598213813983 0.004999798693448681 0 -0.0039795935657193715 0.0049502096772739536 0 -0.0038698559860171392 0.0048571901994996338 0 -0.0039795935657193715 0.0049502096772739536 0 -0.004079138775242637 0.0048884733463777936 0 -0.003701709448924226 0.004999732224831634 0 -0.0040112598213813983 0.004999798693448681 0 -0.0039795935657193715 0.0049502096772739536 0 -0.0043330679023104281 0.0048075429221254721 0 -0.0042817769057144246 0.004865977250431669 0 -0.004079138775242637 0.0048884733463777936 0 -0.0043330679023104281 0.0048075429221254721 0 -0.004079138775242637 0.0048884733463777936 0 -0.004206368649213128 0.0049090635548676778 0 -0.0039521864742836236 0.0049343125035681903 0 -0.004079138775242637 0.0048884733463777936 0 -0.004206368649213128 0.0049090635548676778 0 -0.0043690399725364298 0.0047000961054768633 0 -0.0044132936602990667 0.0046048252907606039 0 -0.0044567883206469523 0.0044494659108510219 0 -0.0042237892557360065 0.004888782492900509 0 -0.0042797186143367187 0.0048668866934566323 0 -0.004206368649213128 0.0049090635548676778 0 -0.0043690399725364298 0.0047000961054768633 0 -0.0044132936602990667 0.0046048252907606039 0 -0.0043330679023104281 0.0048075429221254721 0 -0.004206368649213128 0.0049090635548676778 0 -0.0043690399725364298 0.0047000961054768633 0 -0.004046024027922094 0.0051521803196464926 0 -0.004206368649213128 0.0049090635548676778 0 -0.0041758260864836064 0.0051465607274123219 0 -0.0042797186143367187 0.0048668866934566323 0 -0.004264889863457101 0.0047982258650735785 0 -0.0044132936602990667 0.0046048252907606039 0 -0.0043804607209967693 0.0044644500952401482 0 -0.0044567883206469523 0.0044494659108510219 0 -0.004179101583304313 0.0051581542436704032 0 -0.0041758260864836064 0.0051465607274123219 0 -0.0041369911448578493 0.0051204624242317193 0 -0.004179101583304313 0.0051581542436704032 0 -0.0041369911448578493 0.0051204624242317193 0 -0.0042344766007187153 0.0049573608188878552 0 -0.0043804607209967693 0.0044644500952401482 0 -0.0044567883206469523 0.0044494659108510219 0 -0.0044507423260576337 0.0044266273168766159 0 -0.0044567883206469523 0.0044494659108510219 0 -0.0045639910980148054 0.0042738938408125185 0 -0.0044507423260576337 0.0044266273168766159 0 -0.0044567883206469523 0.0044494659108510219 0 -0.0045458869580840911 0.0043216371080640132 0 -0.0045639910980148054 0.0042738938408125185 0 -0.0044567883206469523 0.0044494659108510219 0 -0.0045187806573554245 0.0046157301976433628 0 -0.0045458869580840911 0.0043216371080640132 0 -0.0043690399725364298 0.0047000961054768633 0 -0.0044567883206469523 0.0044494659108510219 0 -0.0045187806573554245 0.0046157301976433628 0 -0.0043330679023104281 0.0048075429221254721 0 -0.0043690399725364298 0.0047000961054768633 0 -0.0045187806573554245 0.0046157301976433628 0 -0.0045187806573554245 0.0046157301976433628 0 -0.0048158296199778561 0.0044897776902360284 0 -0.004847513841595168 0.0044625884852840299 0 -0.0047196660322273735 0.0046237130442108101 0 -0.0045187806573554245 0.0046157301976433628 0 -0.0048158296199778561 0.0044897776902360284 0 -0.0048158296199778561 0.0044897776902360284 0 -0.004847513841595168 0.0044625884852840299 0 -0.0049604166511761742 0.0043378577123782116 0 -0.0045454790354763361 0.0045780248232090322 0 -0.004695120917531978 0.0043847722447636177 0 -0.0045187806573554245 0.0046157301976433628 0 -0.004550539166083961 0.0043117806655394728 0 -0.0045458869580840911 0.0043216371080640132 0 -0.004550539166083961 0.0043117806655394728 0 -0.0045458869580840911 0.0043216371080640132 0 -0.0046489998531598683 0.0041542909524654682 0 -0.0045639910980148054 0.0042738938408125185 0 -0.0046489998531598683 0.0041542909524654682 0 -0.0046963412902657495 0.0041117080342824158 0 -0.0045458869580840911 0.0043216371080640132 0 -0.0045639910980148054 0.0042738938408125185 0 -0.0046489998531598683 0.0041542909524654682 0 -0.004695120917531978 0.0043847722447636177 0 -0.0048797310787014178 0.004080400715806197 0 -0.004550539166083961 0.0043117806655394728 0 -0.0046489998531598683 0.0041542909524654682 0 -0.004735564585813098 0.0040344836682839127 0 -0.0046489998531598683 0.0041542909524654682 0 -0.004735564585813098 0.0040344836682839127 0 -0.0048021418936954911 0.0039708165597940343 0 -0.004735564585813098 0.0040344836682839127 0 -0.0048969757004705787 0.0038481227477345 0 -0.0048021418936954911 0.0039708165597940343 0 -0.0050248380779712087 0.0041190432550649225 0 -0.0050000239210764704 0.00377075024947463 0 -0.0049998929137521127 0.003984825185082177 0 -0.004735564585813098 0.0040344836682839127 0 -0.0049997171918606158 0.0037708061220001125 0 -0.0048969757004705787 0.0038481227477345 0 -0.0048797310787014178 0.004080400715806197 0 -0.0049999648125414733 0.0037707541318289101 0 -0.0050248380779712087 0.0041190432550649225 0 -0.0049998929137521127 0.003984825185082177 0 -0.0049604166511761742 0.0043378577123782116 0 -0.0049998929137521127 0.003984825185082177 0 -0.004999850567447164 0.0041988774289656965 0 -0.0049604166511761742 0.0043378577123782116 0 -0.004847513841595168 0.0044625884852840299 0 -0.0050248380779712087 0.0041190432550649225 0 -0.0049604166511761742 0.0043378577123782116 0 -0.0049151611285152622 0.0044227586146869894 0 -0.0048158296199778561 0.0044897776902360284 0 -0.0049604166511761742 0.0043378577123782116 0 -0.004999946039490292 0.0044123294975632974 0 -0.0049151611285152622 0.0044227586146869894 0 -0.0049604166511761742 0.0043378577123782116 0 -0.004999946039490292 0.0044123294975632974 0 -0.004999850567447164 0.0041988774289656965 0 -0.0049604166511761742 0.0043378577123782116 0 -0.0050785001917709608 0.0032567886499335146 0 -0.0049999937598154435 0.0031649597036514173 0 -0.0050671162129383588 0.0030951580503059983 0 -0.0049882461929569005 0.0036166061943146829 0 -0.0050226591827829481 0.0033031298950772156 0 -0.0050785001917709608 0.0032567886499335146 0 -0.0051543351240834739 0.0030513606822540015 0 -0.0050671162129383588 0.0030951580503059983 0 -0.0049295612153231532 0.003911553272687115 0 -0.0048333417562140876 0.0039410096272432041 0 -0.0048702990381615744 0.0039795570256280083 0 -0.0049295612153231532 0.003911553272687115 0 -0.0048333417562140876 0.0039410096272432041 0 -0.0048290699598927183 0.0038502859527027797 0 -0.0048333417562140876 0.0039410096272432041 0 -0.0048290699598927183 0.0038502859527027797 0 -0.0048083263938346922 0.0039129179045766004 0 -0.0048290699598927183 0.0038502859527027797 0 -0.0047996815968766203 0.0040541524551251026 0 -0.0048083263938346922 0.0039129179045766004 0 -0.0049882461929569005 0.0036166061943146829 0 -0.0050000186988832214 0.0034607939924547774 0 -0.0049295612153231532 0.003911553272687115 0 -0.0048290699598927183 0.0038502859527027797 0 -0.0049999259692111216 0.0034619659135699875 0 -0.0050785001917709608 0.0032567886499335146 0 -0.0049999937598154435 0.0031649597036514173 0 -0.0050000017640400149 0.0034607803522772483 0 -0.0049999259692111216 0.0034619659135699875 0 -0.0049999179216635575 0.0036156805530284729 0 -0.004883915827645564 0.0038018151035154467 0 -0.0048290699598927183 0.0038502859527027797 0 -0.0049999259692111216 0.0034619659135699875 0 -0.004883915827645564 0.0038018151035154467 0 -0.0049999179216635575 0.0036156805530284729 0 -0.0048969757004705787 0.0038481227477345 0 -0.004883915827645564 0.0038018151035154467 0 -0.0049997171918606158 0.0037708061220001125 0 -0.0049999179216635575 0.0036156805530284729 0 -0.0048969757004705787 0.0038481227477345 0 -0.0048021418936954911 0.0039708165597940343 0 -0.004883915827645564 0.0038018151035154467 0 -0.0048100478946344069 0.0039721936396433172 0 -0.0048969757004705787 0.0038481227477345 0 -0.0048021418936954911 0.0039708165597940343 0 -0.004883915827645564 0.0038018151035154467 0 -0.0048290699598927183 0.0038502859527027797 0 -0.004883915827645564 0.0038018151035154467 0 -0.0047996815968766203 0.0040541524551251026 0 -0.004883915827645564 0.0038018151035154467 0 -0.0048100478946344069 0.0039721936396433172 0 -0.0047996815968766203 0.0040541524551251026 0 -0.0048100478946344069 0.0039721936396433172 0 -0.0047996815968766203 0.0040541524551251026 0 -0.0046963412902657495 0.0041117080342824158 0 -0.0047996815968766203 0.0040541524551251026 0 -0.0046963412902657495 0.0041117080342824158 0 -0.0046651091317626544 0.0041906470909770285 0 -0.0047996815968766203 0.0040541524551251026 0 -0.0046651091317626544 0.0041906470909770285 0 -0.0046575741979156676 0.0042780673488874207 0 -0.0048021418936954911 0.0039708165597940343 0 -0.0048100478946344069 0.0039721936396433172 0 -0.0046963412902657495 0.0041117080342824158 0 -0.0046489998531598683 0.0041542909524654682 0 -0.0048021418936954911 0.0039708165597940343 0 -0.0046963412902657495 0.0041117080342824158 0 -0.0045639910980148054 0.0042738938408125185 0 -0.0046963412902657495 0.0041117080342824158 0 -0.0045562218431535774 0.004310277847502977 0 -0.0046963412902657495 0.0041117080342824158 0 -0.0046651091317626544 0.0041906470909770285 0 -0.0045562218431535774 0.004310277847502977 0 -0.0046651091317626544 0.0041906470909770285 0 -0.0045940170991893596 0.0043184793078244526 0 -0.0045562218431535774 0.004310277847502977 0 -0.0045940170991893596 0.0043184793078244526 0 -0.0045834011344994601 0.0044144214705459945 0 -0.0045252422290079034 0.0044015822538839167 0 -0.0046575741979156676 0.0042780673488874207 0 -0.0047004375043503714 0.004473524918049563 0 -0.0045834011344994601 0.0044144214705459945 0 -0.0045940170991893596 0.0043184793078244526 0 -0.0046575741979156676 0.0042780673488874207 0 -0.0045834011344994601 0.0044144214705459945 0 -0.0046651091317626544 0.0041906470909770285 0 -0.0045940170991893596 0.0043184793078244526 0 -0.0046575741979156676 0.0042780673488874207 0 -0.0047996815968766203 0.0040541524551251026 0 -0.0048083263938346922 0.0039129179045766004 0 -0.0049037750917070291 0.0038348076362913026 0 -0.0047952335517650324 0.0040781232195291253 0 -0.004825312388869088 0.0041236943514620468 0 -0.0047996815968766203 0.0040541524551251026 0 -0.0046575741979156676 0.0042780673488874207 0 -0.0047004375043503714 0.004473524918049563 0 -0.0048206083359330423 0.0038837980745213552 0 -0.0048184125966338849 0.0039301574206785745 0 -0.0048333417562140876 0.0039410096272432041 0 -0.0048083263938346922 0.0039129179045766004 0 -0.0048082888767871359 0.0039579511495395183 0 -0.0048083263938346922 0.0039129179045766004 0 -0.0049037750917070291 0.0038348076362913026 0 -0.0048689049997982332 0.0037669683768742379 0 -0.0047004375043503714 0.004473524918049563 0 -0.0045989987700408713 0.004491619013406961 0 -0.0046098364673693194 0.00462657833244503 0 -0.0045989987700408713 0.004491619013406961 0 -0.0045164967227278559 0.0044453688270438803 0 -0.0046098364673693194 0.00462657833244503 0 -0.0045989987700408713 0.004491619013406961 0 -0.0045834011344994601 0.0044144214705459945 0 -0.0045164967227278559 0.0044453688270438803 0 -0.0047004375043503714 0.004473524918049563 0 -0.0045989987700408713 0.004491619013406961 0 -0.0045834011344994601 0.0044144214705459945 0 -0.004454451643078631 0.0046412459924753948 0 -0.0043644214260069912 0.0046437432185628316 0 -0.0044364422642271407 0.004670039790767389 0 -0.0041296029613399551 0.0044046911711616548 0 -0.0041360572294723225 0.0041380909804758477 0 -0.0039664144002246214 0.0041743420118989681 0 -0.0042472683039054132 0.0045240820175084118 0 -0.004181528754778752 0.004449758519962232 0 -0.0044869031337175479 0.0046290901223435422 0 -0.0044063710084742413 0.0044739530126738673 0 -0.004454451643078631 0.0046412459924753948 0 -0.0044104818049639158 0.0045176402976379454 0 -0.0043644214260069912 0.0046437432185628316 0 -0.0045164967227278559 0.0044453688270438803 0 -0.0045252422290079034 0.0044015822538839167 0 -0.0044104818049639158 0.0045176402976379454 0 -0.0045834011344994601 0.0044144214705459945 0 -0.0045164967227278559 0.0044453688270438803 0 -0.0045252422290079034 0.0044015822538839167 0 -0.0045252422290079034 0.0044015822538839167 0 -0.0045562218431535774 0.004310277847502977 0 -0.0044104818049639158 0.0045176402976379454 0 -0.0045940170991893596 0.0043184793078244526 0 -0.0045252422290079034 0.0044015822538839167 0 -0.0045562218431535774 0.004310277847502977 0 -0.0045639910980148054 0.0042738938408125185 0 -0.0045562218431535774 0.004310277847502977 0 -0.0044507423260576337 0.0044266273168766159 0 -0.0044507423260576337 0.0044266273168766159 0 -0.0044104818049639158 0.0045176402976379454 0 -0.0042558959761249049 0.0046746054862158055 0 -0.0045562218431535774 0.004310277847502977 0 -0.0044507423260576337 0.0044266273168766159 0 -0.0044104818049639158 0.0045176402976379454 0 -0.0044104818049639158 0.0045176402976379454 0 -0.0042558959761249049 0.0046746054862158055 0 -0.0042675262765805994 0.0046451566730419435 0 -0.0043804607209967693 0.0044644500952401482 0 -0.0044507423260576337 0.0044266273168766159 0 -0.0042558959761249049 0.0046746054862158055 0 -0.004264889863457101 0.0047982258650735785 0 -0.0042558300266516795 0.0047009599687673487 0 -0.0041369911448578493 0.0051204624242317193 0 -0.0042558959761249049 0.0046746054862158055 0 -0.0042344766007187153 0.0049573608188878552 0 -0.0042558959761249049 0.0046746054862158055 0 -0.0042344766007187153 0.0049573608188878552 0 -0.0042751043476173143 0.0049507040364867453 0 -0.0042472353349990652 0.0046731402649293511 0 -0.0042897450040454213 0.0049085371294095067 0 -0.0042558959761249049 0.0046746054862158055 0 -0.0042675262765805994 0.0046451566730419435 0 -0.0042751043476173143 0.0049507040364867453 0 -0.0042352244180887486 0.0046697874154287217 0 -0.0042885691546339115 0.0044241074869774844 0 -0.0043780366322937695 0.0045236025541084326 0 -0.0042472353349990652 0.0046731402649293511 0 -0.0042472683039054132 0.0045240820175084118 0 -0.0042352244180887486 0.0046697874154287217 0 -0.0041296029613399551 0.0044046911711616548 0 -0.0042885691546339115 0.0044241074869774844 0 -0.0044104818049639158 0.0045176402976379454 0 -0.0042675262765805994 0.0046451566730419435 0 -0.0043644214260069912 0.0046437432185628316 0 -0.0041296029613399551 0.0044046911711616548 0 -0.0042521527589181743 0.0042403715458213566 0 -0.0041360572294723225 0.0041380909804758477 0 -0.0041296029613399551 0.0044046911711616548 0 -0.0042885691546339115 0.0044241074869774844 0 -0.0042521527589181743 0.0042403715458213566 0 -0.0042885691546339115 0.0044241074869774844 0 -0.0042521527589181743 0.0042403715458213566 0 -0.0044691989925454917 0.0042535999316339048 0 -0.0042885691546339115 0.0044241074869774844 0 -0.0043780366322937695 0.0045236025541084326 0 -0.0044691989925454917 0.0042535999316339048 0 -0.0043931666895645734 0.0040775684893755021 0 -0.0044691989925454917 0.0042535999316339048 0 -0.0045493926319951526 0.0039637928401285629 0 -0.0043931666895645734 0.0040775684893755021 0 -0.0042521527589181743 0.0042403715458213566 0 -0.0044691989925454917 0.0042535999316339048 0 -0.0042521527589181743 0.0042403715458213566 0 -0.0042690731975823411 0.0040372092998110344 0 -0.0041360572294723225 0.0041380909804758477 0 -0.0042690731975823411 0.0040372092998110344 0 -0.0041600131802354886 0.0039457409939520965 0 -0.0041360572294723225 0.0041380909804758477 0 -0.0043931666895645734 0.0040775684893755021 0 -0.0042521527589181743 0.0042403715458213566 0 -0.0042690731975823411 0.0040372092998110344 0 -0.0042690731975823411 0.0040372092998110344 0 -0.0044291174436636221 0.0038842474807057217 0 -0.0042979317414864006 0.0037643598844552279 0 -0.0042690731975823411 0.0040372092998110344 0 -0.0042979317414864006 0.0037643598844552279 0 -0.0041600131802354886 0.0039457409939520965 0 -0.0043931666895645734 0.0040775684893755021 0 -0.0042690731975823411 0.0040372092998110344 0 -0.0044291174436636221 0.0038842474807057217 0 -0.0043931666895645734 0.0040775684893755021 0 -0.0044291174436636221 0.0038842474807057217 0 -0.0045493926319951526 0.0039637928401285629 0 -0.0044291174436636221 0.0038842474807057217 0 -0.0045493926319951526 0.0039637928401285629 0 -0.0045818363660006627 0.0037777005435781011 0 -0.0045077539079821779 0.0036615701618762258 0 -0.0046272439108511355 0.0034131772117451781 0 -0.0046772807961527017 0.0036220763331844888 0 -0.0044291174436636221 0.0038842474807057217 0 -0.0045077539079821779 0.0036615701618762258 0 -0.0045818363660006627 0.0037777005435781011 0 -0.0045077539079821779 0.0036615701618762258 0 -0.0046772807961527017 0.0036220763331844888 0 -0.0045818363660006627 0.0037777005435781011 0 -0.0046272439108511355 0.0034131772117451781 0 -0.0044157219070466141 0.003473770053665315 0 -0.0045901968295277542 0.0032287715625188996 0 -0.0045077539079821779 0.0036615701618762258 0 -0.0046272439108511355 0.0034131772117451781 0 -0.0044157219070466141 0.003473770053665315 0 -0.0044157219070466141 0.003473770053665315 0 -0.0042979317414864006 0.0037643598844552279 0 -0.0041880914910389011 0.003581908828745109 0 -0.0045077539079821779 0.0036615701618762258 0 -0.0044157219070466141 0.003473770053665315 0 -0.0042979317414864006 0.0037643598844552279 0 -0.0044291174436636221 0.0038842474807057217 0 -0.0045077539079821779 0.0036615701618762258 0 -0.0042979317414864006 0.0037643598844552279 0 -0.0042979317414864006 0.0037643598844552279 0 -0.0041880914910389011 0.003581908828745109 0 -0.004069284803090093 0.0037997765039931948 0 -0.0044157219070466141 0.003473770053665315 0 -0.0041880914910389011 0.003581908828745109 0 -0.0042179363869734518 0.003382549235223813 0 -0.0041880914910389011 0.003581908828745109 0 -0.0042179363869734518 0.003382549235223813 0 -0.0040716266328241586 0.0034926613928989098 0 -0.0044157219070466141 0.003473770053665315 0 -0.0042179363869734518 0.003382549235223813 0 -0.004388936734865791 0.0032332548972394946 0 -0.004013900155188088 0.003459335812597174 0 -0.0043782932566683013 0.0030573281590929205 0 -0.0042179363869734518 0.003382549235223813 0 -0.0038938906759754623 0.0033575786996455103 0 -0.0040711767392089563 0.0032281990190537596 0 -0.0042179363869734518 0.003382549235223813 0 -0.0040716266328241586 0.0034926613928989098 0 -0.0039514821875134927 0.0034224214363640184 0 -0.0041880914910389011 0.003581908828745109 0 -0.004069284803090093 0.0037997765039931948 0 -0.003729121036514192 0.0037938638677331282 0 -0.0041117102339653863 0.0035812537722292805 0 -0.0040344942996178917 0.003777827328200293 0 -0.0040758639619936305 0.003458180228810359 0 -0.0040344942996178917 0.003777827328200293 0 -0.0041880914910389011 0.003581908828745109 0 -0.0040716266328241586 0.0034926613928989098 0 -0.0040102445294861533 0.0036451074866659262 0 -0.0038974106999590161 0.0039434907526823167 0 -0.004069284803090093 0.0037997765039931948 0 -0.003729121036514192 0.0037938638677331282 0 -0.0038974106999590161 0.0039434907526823167 0 -0.0036882812447753851 0.0039257462227065857 0 -0.003729121036514192 0.0037938638677331282 0 -0.0038974106999590161 0.0039434907526823167 0 -0.0039664144002246214 0.0041743420118989681 0 -0.0036882812447753851 0.0039257462227065857 0 -0.0038974106999590161 0.0039434907526823167 0 -0.004069284803090093 0.0037997765039931948 0 -0.004029661215768891 0.0039916446539409603 0 -0.0042979317414864006 0.0037643598844552279 0 -0.004069284803090093 0.0037997765039931948 0 -0.0041600131802354886 0.0039457409939520965 0 -0.004069284803090093 0.0037997765039931948 0 -0.0041600131802354886 0.0039457409939520965 0 -0.004029661215768891 0.0039916446539409603 0 -0.004029661215768891 0.0039916446539409603 0 -0.0041360572294723225 0.0041380909804758477 0 -0.0039664144002246214 0.0041743420118989681 0 -0.0041600131802354886 0.0039457409939520965 0 -0.004029661215768891 0.0039916446539409603 0 -0.0041360572294723225 0.0041380909804758477 0 -0.004181528754778752 0.004449758519962232 0 -0.0042373017633229992 0.004088541311906709 0 -0.004454451643078631 0.0046412459924753948 0 -0.0044364422642271407 0.004670039790767389 0 -0.0044638150608149506 0.0046746191931427809 0 -0.0038974106999590161 0.0039434907526823167 0 -0.004029661215768891 0.0039916446539409603 0 -0.0039664144002246214 0.0041743420118989681 0 -0.0044364422642271407 0.004670039790767389 0 -0.0044638150608149506 0.0046746191931427809 0 -0.0044600517215693169 0.0046797942443979976 0 -0.0044869031337175479 0.0046290901223435422 0 -0.0045943553300186561 0.0042473162436882867 0 -0.004825312388869088 0.0041236943514620468 0 -0.0045943553300186561 0.0042473162436882867 0 -0.0049037750917070291 0.0038348076362913026 0 -0.0049472351964555293 0.0036981882840505221 0 -0.0048689049997982332 0.0037669683768742379 0 -0.0048082888767871359 0.0039579511495395183 0 -0.0048042645519491773 0.0039875211960875697 0 -0.004826117220076873 0.0039816019530674518 0 -0.0049472351964555293 0.0036981882840505221 0 -0.0048689049997982332 0.0037669683768742379 0 -0.0048999727193521385 0.0036570742716654785 0 -0.0048184125966338849 0.0039301574206785745 0 -0.0049239453584383292 0.0035019830139227893 0 -0.0048082888767871359 0.0039579511495395183 0 -0.004826117220076873 0.0039816019530674518 0 -0.0048320905248374407 0.0039649504479567022 0 -0.0053618465728627399 0.0028879343579282942 0 -0.0053083649212207042 0.0028530093337061448 0 -0.0052494847196296159 0.0029475921030358136 0 -0.0049239453584383292 0.0035019830139227893 0 -0.0050481482691862173 0.0034586653058935064 0 -0.0053083649212207042 0.0028530093337061448 0 -0.005258572449449943 0.0028365175775988188 0 -0.0052494847196296159 0.0029475921030358136 0 -0.0053618465728627399 0.0028879343579282942 0 -0.0053083649212207042 0.0028530093337061448 0 -0.0053730741555038453 0.0028530400095701349 0 -0.0049239453584383292 0.0035019830139227893 0 -0.0048820079348204223 0.0032707742258041108 0 -0.0039159307168400827 0.0036485207340623423 0 -0.0039285271291193986 0.0036675945157630878 0 -0.004008949353205467 0.003629358869980366 0 -0.0048611122887289903 0.0035720537025298879 0 -0.0048894029675081814 0.0034741452107478832 0 -0.0049289555759512811 0.0035375005071508112 0 -0.0048820079348204223 0.0032707742258041108 0 -0.0046334233302458136 0.0035649012890688124 0 -0.0045943553300186561 0.0042473162436882867 0 -0.0046334233302458136 0.0035649012890688124 0 -0.0043848229848690171 0.0038749019750502658 0 -0.0043842715903231362 0.0038721938793714462 0 -0.0043838879045548481 0.0038731132113363708 0 -0.0049239453584383292 0.0035019830139227893 0 -0.0046334233302458136 0.0035649012890688124 0 -0.0049472351964555293 0.0036981882840505221 0 -0.0048999727193521385 0.0036570742716654785 0 -0.0049155153185211362 0.0036491757412314254 0 -0.0045943553300186561 0.0042473162436882867 0 -0.0042373017633229992 0.004088541311906709 0 -0.0042373017633229992 0.004088541311906709 0 -0.0040344942996178917 0.003777827328200293 0 -0.0046334233302458136 0.0035649012890688124 0 -0.0040344942996178917 0.003777827328200293 0 -0.0043842715903231362 0.0038721938793714462 0 -0.0043838879045548481 0.0038731132113363708 0 -0.0043823530267796664 0.0038722133946019555 0 -0.0053689790372251122 0.0027316100336252083 0 -0.0053915097033684122 0.0026416971972925986 0 -0.0052977058634986621 0.0027368013153674948 0 -0.0040716266328241586 0.0034926613928989098 0 -0.004008949353205467 0.003629358869980366 0 -0.0039360687237266602 0.003545581998353507 0 -0.0039159307168400827 0.0036485207340623423 0 -0.004008949353205467 0.003629358869980366 0 -0.0039360687237266602 0.003545581998353507 0 -0.0048820079348204223 0.0032707742258041108 0 -0.0046538856939911926 0.0031261201609709861 0 -0.0040716266328241586 0.0034926613928989098 0 -0.0039360687237266602 0.003545581998353507 0 -0.0039514821875134927 0.0034224214363640184 0 -0.0046538856939911926 0.0031261201609709861 0 -0.0043782932566683013 0.0030573281590929205 0 -0.0043782932566683013 0.0030573281590929205 0 -0.0047969773414321482 0.002569556586418666 0 -0.0053915097033684122 0.0026416971972925986 0 -0.0052977058634986621 0.0027368013153674948 0 -0.0052456310586162062 0.002627158223939666 0 -0.0052977058634986621 0.0027368013153674948 0 -0.0052103113221822024 0.0026897092572348174 0 -0.0052456310586162062 0.002627158223939666 0 -0.0053083649212207042 0.0028530093337061448 0 -0.0053730741555038453 0.0028530400095701349 0 -0.0052977058634986621 0.0027368013153674948 0 -0.0048820079348204223 0.0032707742258041108 0 -0.0052629654731307903 0.0027346605907513765 0 -0.0053422049485577824 0.0028213342718159226 0 -0.0053689790372251122 0.0027316100336252083 0 -0.0052977058634986621 0.0027368013153674948 0 -0.005258572449449943 0.0028365175775988188 0 -0.0052977058634986621 0.0027368013153674948 0 -0.0052286943195949944 0.0027663986909298179 0 -0.0053083649212207042 0.0028530093337061448 0 -0.005258572449449943 0.0028365175775988188 0 -0.0052977058634986621 0.0027368013153674948 0 -0.0052286943195949944 0.0027663986909298179 0 -0.0051672272163880671 0.0027889170617496832 0 -0.0051905619268770844 0.0028728817807986097 0 -0.0051672272163880671 0.0027889170617496832 0 -0.0051398868458392387 0.002708503625525994 0 -0.0050956670175363898 0.0027647298389207519 0 -0.0052286943195949944 0.0027663986909298179 0 -0.0051672272163880671 0.0027889170617496832 0 -0.0051398868458392387 0.002708503625525994 0 -0.0051672272163880671 0.0027889170617496832 0 -0.0050956670175363898 0.0027647298389207519 0 -0.0051905619268770844 0.0028728817807986097 0 -0.0052286943195949944 0.0027663986909298179 0 -0.0051398868458392387 0.002708503625525994 0 -0.0052103113221822024 0.0026897092572348174 0 -0.0052977058634986621 0.0027368013153674948 0 -0.0052286943195949944 0.0027663986909298179 0 -0.0052103113221822024 0.0026897092572348174 0 -0.0052103113221822024 0.0026897092572348174 0 -0.0052456310586162062 0.002627158223939666 0 -0.0050526105239288317 0.0025848426466775543 0 -0.0051398868458392387 0.002708503625525994 0 -0.0052103113221822024 0.0026897092572348174 0 -0.0050526105239288317 0.0025848426466775543 0 -0.0047969773414321482 0.002569556586418666 0 -0.0047046978073854119 0.0025459910616946685 0 -0.0050526105239288317 0.0025848426466775543 0 -0.0049999931024076556 0.0025734150788908595 0 -0.0050956670175363898 0.0027647298389207519 0 -0.0047046978073854119 0.0025459910616946685 0 -0.0049998901878782476 0.0025732789363892132 0 -0.0049999931024076556 0.0025734150788908595 0 -0.0050956670175363898 0.0027647298389207519 0 -0.0049999824367887363 0.0028691189602320405 0 -0.0051398868458392387 0.002708503625525994 0 -0.0050526105239288317 0.0025848426466775543 0 -0.0050956670175363898 0.0027647298389207519 0 -0.0050956670175363898 0.0027647298389207519 0 -0.0049999824367887363 0.0028691189602320405 0 -0.0051018488831063745 0.0029161506937328361 0 -0.0050956670175363898 0.0027647298389207519 0 -0.0051018488831063745 0.0029161506937328361 0 -0.0051905619268770844 0.0028728817807986097 0 -0.0049999824367887363 0.0028691189602320405 0 -0.0051018488831063745 0.0029161506937328361 0 -0.0050635052719192998 0.0030176194269930256 0 -0.0051018488831063745 0.0029161506937328361 0 -0.0051905619268770844 0.0028728817807986097 0 -0.0051475071028614251 0.0030447559144847979 0 -0.0052252227003357285 0.0027931590293377257 0 -0.0050226591827829481 0.0033031298950772156 0 -0.005258572449449943 0.0028365175775988188 0 -0.0052286943195949944 0.0027663986909298179 0 -0.0051905619268770844 0.0028728817807986097 0 -0.005258572449449943 0.0028365175775988188 0 -0.0051905619268770844 0.0028728817807986097 0 -0.0052494847196296159 0.0029475921030358136 0 -0.0051905619268770844 0.0028728817807986097 0 -0.0052494847196296159 0.0029475921030358136 0 -0.0051336501770708155 0.0030100950510651772 0 -0.0050481482691862173 0.0034586653058935064 0 -0.0050226591827829481 0.0033031298950772156 0 -0.004826117220076873 0.0039816019530674518 0 -0.0048320905248374407 0.0039649504479567022 0 -0.0048702990381615744 0.0039795570256280083 0 -0.0048333417562140876 0.0039410096272432041 0 -0.0048082888767871359 0.0039579511495395183 0 -0.0048320905248374407 0.0039649504479567022 0 -0.0048333417562140876 0.0039410096272432041 0 -0.0048320905248374407 0.0039649504479567022 0 -0.0048702990381615744 0.0039795570256280083 0 -0.0049999937598154435 0.0031649597036514173 0 -0.0049999824367887363 0.0028691189602320405 0 -0.0050635052719192998 0.0030176194269930256 0 -0.0050226591827829481 0.0033031298950772156 0 -0.00513731815868298 0.0031337062679944482 0 -0.0051475071028614251 0.0030447559144847979 0 -0.0050671162129383588 0.0030951580503059983 0 -0.0050635052719192998 0.0030176194269930256 0 -0.0049999937598154435 0.0031649597036514173 0 -0.0050671162129383588 0.0030951580503059983 0 -0.0050635052719192998 0.0030176194269930256 0 -0.0051018488831063745 0.0029161506937328361 0 -0.0051475071028614251 0.0030447559144847979 0 -0.0050635052719192998 0.0030176194269930256 0 -0.0026675099892033908 0.0057241300585153315 0 -0.002634924166405604 0.0057620453016718051 0 -0.0026040887300703094 0.005740010329509832 0 -0.0029043733199838953 0.0059156507409495098 0 -0.0029423701532365564 0.0056900237895340204 0 -0.0031122746440764688 0.0059900922043363844 0 -0.0033407363382228286 0.006097097475338837 0 -0.0031840825996082562 0.0063023427040619457 0 -0.0033407363382228286 0.006097097475338837 0 -0.0034591606399751846 0.005879080406731148 0 -0.003617803032420628 0.006223119610560328 0 -0.0033407363382228286 0.006097097475338837 0 -0.0031840825996082562 0.0063023427040619457 0 -0.003617803032420628 0.006223119610560328 0 -0.0031122746440764688 0.0059900922043363844 0 -0.0033407363382228286 0.006097097475338837 0 -0.0034591606399751846 0.005879080406731148 0 -0.0038901874010026974 0.0051021256015603336 0 -0.0036058332355592185 0.0049607334286997703 0 -0.0040770088103826499 0.004856235373323632 0 -0.0029423701532365564 0.0056900237895340204 0 -0.0043811529399437237 0.0050902412736780036 0 -0.0047814597476544948 0.0044976291635050744 0 -0.0043811529399437237 0.0050902412736780036 0 -0.0022432314587085209 0.0058186923634317997 0 -0.0025161112328720156 0.0057482562859953153 0 -0.0023166053356376034 0.0056339615306395157 0 -0.0029423701532365564 0.0056900237895340204 0 -0.0023478607254657645 0.0057944396019948439 0 -0.002634924166405604 0.0057620453016718051 0 -0.0025161112328720156 0.0057482562859953153 0 -0.0026040887300703094 0.005740010329509832 0 -0.0025161112328720156 0.0057482562859953153 0 -0.0026205102068518229 0.0057474846859350065 0 -0.0026040887300703094 0.005740010329509832 0 -0.0025161112328720156 0.0057482562859953153 0 -0.0025693709567694858 0.0057209310251048716 0 -0.0025054018292761508 0.0056601659968904296 0 -0.0025161112328720156 0.0057482562859953153 0 -0.0025693709567694858 0.0057209310251048716 0 -0.0026205102068518229 0.0057474846859350065 0 -0.0025693709567694858 0.0057209310251048716 0 -0.0026087348289364717 0.00575013855275838 0 -0.0026205102068518229 0.0057474846859350065 0 -0.0026197774489788972 0.0057630574777274299 0 -0.0025693709567694858 0.0057209310251048716 0 -0.0026087348289364717 0.00575013855275838 0 -0.0026208185277023462 0.0057388610874944063 0 -0.0026087348289364717 0.00575013855275838 0 -0.0026205102068518229 0.0057474846859350065 0 -0.0026675099892033908 0.0057241300585153315 0 -0.0026205102068518229 0.0057474846859350065 0 -0.0026040887300703094 0.005740010329509832 0 -0.0026675099892033908 0.0057241300585153315 0 -0.0026205102068518229 0.0057474846859350065 0 -0.0026873616714522285 0.0057135703757276732 0 -0.0026675099892033908 0.0057241300585153315 0 -0.0026873616714522285 0.0057135703757276732 0 -0.0027893636722067941 0.0056765230410760975 0 -0.0026208185277023462 0.0057388610874944063 0 -0.0026873616714522285 0.0057135703757276732 0 -0.0026967375977169929 0.0056556893425380702 0 -0.0026208185277023462 0.0057388610874944063 0 -0.0026205102068518229 0.0057474846859350065 0 -0.0026873616714522285 0.0057135703757276732 0 -0.0029156122755065023 0.0055419109586077675 0 -0.0029099413050554007 0.0056731838689285229 0 -0.0026873616714522285 0.0057135703757276732 0 -0.0026967375977169929 0.0056556893425380702 0 -0.0027893636722067941 0.0056765230410760975 0 -0.0029270325017998729 0.0055355977356675631 0 -0.0026967375977169929 0.0056556893425380702 0 -0.0027893636722067941 0.0056765230410760975 0 -0.003210120639616898 0.0055576672877890787 0 -0.0029270325017998729 0.0055355977356675631 0 -0.0030472133141769106 0.0057234148390667714 0 -0.003210120639616898 0.0055576672877890787 0 -0.0032663307543957967 0.0057273192998901256 0 -0.0030472133141769106 0.0057234148390667714 0 -0.0031122746440764688 0.0059900922043363844 0 -0.0032663307543957967 0.0057273192998901256 0 -0.0030472133141769106 0.0057234148390667714 0 -0.0029043733199838953 0.0059156507409495098 0 -0.0029099413050554007 0.0056731838689285229 0 -0.0032663307543957967 0.0057273192998901256 0 -0.0034591606399751846 0.005879080406731148 0 -0.0036713645356647399 0.0056068563040888838 0 -0.0031122746440764688 0.0059900922043363844 0 -0.0032663307543957967 0.0057273192998901256 0 -0.0034591606399751846 0.005879080406731148 0 -0.003484010271409232 0.0054672350734328926 0 -0.0032663307543957967 0.0057273192998901256 0 -0.0036713645356647399 0.0056068563040888838 0 -0.003484010271409232 0.0054672350734328926 0 -0.003210120639616898 0.0055576672877890787 0 -0.0032663307543957967 0.0057273192998901256 0 -0.0038544132046096379 0.0052658894785773307 0 -0.0036713645356647399 0.0056068563040888838 0 -0.0042565353944126159 0.0052815306366464391 0 -0.0047507059406518178 0.004847118717611518 0 -0.0042565353944126159 0.0052815306366464391 0 -0.0044247959776901463 0.0049207116785010968 0 -0.0036713645356647399 0.0056068563040888838 0 -0.0038971844671210451 0.0058896954993647921 0 -0.0042565353944126159 0.0052815306366464391 0 -0.0042761033924365484 0.0054267649963410129 0 -0.0042943292616283209 0.0052670770979088115 0 -0.0034591606399751846 0.005879080406731148 0 -0.0036713645356647399 0.0056068563040888838 0 -0.0038971844671210451 0.0058896954993647921 0 -0.004179101583304313 0.0051581542436704032 0 -0.0042344766007187153 0.0049573608188878552 0 -0.0042751043476173143 0.0049507040364867453 0 -0.004179101583304313 0.0051581542436704032 0 -0.0042751043476173143 0.0049507040364867453 0 -0.0042565353944126159 0.0052815306366464391 0 -0.0042751043476173143 0.0049507040364867453 0 -0.0042565353944126159 0.0052815306366464391 0 -0.0044247959776901463 0.0049207116785010968 0 -0.0047507059406518178 0.004847118717611518 0 -0.0044247959776901463 0.0049207116785010968 0 -0.0045683224002187718 0.0046609877836062 0 -0.0042352244180887486 0.0046697874154287217 0 -0.0042751043476173143 0.0049507040364867453 0 -0.0043928241788322251 0.0047307041246481716 0 -0.0042751043476173143 0.0049507040364867453 0 -0.0044247959776901463 0.0049207116785010968 0 -0.0043928241788322251 0.0047307041246481716 0 -0.0042352244180887486 0.0046697874154287217 0 -0.0043928241788322251 0.0047307041246481716 0 -0.0043780366322937695 0.0045236025541084326 0 -0.0043928241788322251 0.0047307041246481716 0 -0.0043780366322937695 0.0045236025541084326 0 -0.0045509107901348959 0.004469718638280446 0 -0.0043928241788322251 0.0047307041246481716 0 -0.0045683224002187718 0.0046609877836062 0 -0.0045509107901348959 0.004469718638280446 0 -0.0044247959776901463 0.0049207116785010968 0 -0.0043928241788322251 0.0047307041246481716 0 -0.0045683224002187718 0.0046609877836062 0 -0.0045683224002187718 0.0046609877836062 0 -0.0045509107901348959 0.004469718638280446 0 -0.0048524126331619139 0.004378143431268855 0 -0.0045509107901348959 0.004469718638280446 0 -0.0048524126331619139 0.004378143431268855 0 -0.0047148612677243591 0.0042435937886474238 0 -0.0045509107901348959 0.004469718638280446 0 -0.0044691989925454917 0.0042535999316339048 0 -0.0047148612677243591 0.0042435937886474238 0 -0.0043780366322937695 0.0045236025541084326 0 -0.0045509107901348959 0.004469718638280446 0 -0.0044691989925454917 0.0042535999316339048 0 -0.0047507059406518178 0.004847118717611518 0 -0.0047284670544275398 0.0046626920507024062 0 -0.0049080706076453148 0.0046265264711736935 0 -0.0034591606399751846 0.005879080406731148 0 -0.0038971844671210451 0.0058896954993647921 0 -0.003617803032420628 0.006223119610560328 0 -0.0042761033924365484 0.0054267649963410129 0 -0.0043811529399437237 0.0050902412736780036 0 -0.004977934612577231 0.004589631213969967 0 -0.0043811529399437237 0.0050902412736780036 0 -0.0047507059406518178 0.004847118717611518 0 -0.0045683224002187718 0.0046609877836062 0 -0.0047284670544275398 0.0046626920507024062 0 -0.0045563104792562511 0.0046723540245552425 0 -0.004977934612577231 0.004589631213969967 0 -0.0045683224002187718 0.0046609877836062 0 -0.0049760684326703424 0.0045853708791248234 0 -0.0048524126331619139 0.004378143431268855 0 -0.0049760684326703424 0.0045853708791248234 0 -0.0048524126331619139 0.004378143431268855 0 -0.0051085477121857997 0.0043251320755216729 0 -0.0048524126331619139 0.004378143431268855 0 -0.0051085477121857997 0.0043251320755216729 0 -0.005005983153767251 0.0041067927894102817 0 -0.0053926245686874404 0.0042764102379946991 0 -0.0051085477121857997 0.0043251320755216729 0 -0.0052478197963813419 0.0045023408621046694 0 -0.0049760684326703424 0.0045853708791248234 0 -0.0051085477121857997 0.0043251320755216729 0 -0.0052478197963813419 0.0045023408621046694 0 -0.0052195952267816296 0.0041417704974031624 0 -0.005005983153767251 0.0041067927894102817 0 -0.0052655144082274907 0.0039245344326634879 0 -0.0053926245686874404 0.0042764102379946991 0 -0.0051085477121857997 0.0043251320755216729 0 -0.0052195952267816296 0.0041417704974031624 0 -0.0052195952267816296 0.0041417704974031624 0 -0.0052655144082274907 0.0039245344326634879 0 -0.0053498981411738353 0.0041031651138754123 0 -0.0051085477121857997 0.0043251320755216729 0 -0.0052195952267816296 0.0041417704974031624 0 -0.005005983153767251 0.0041067927894102817 0 -0.0048524126331619139 0.004378143431268855 0 -0.005005983153767251 0.0041067927894102817 0 -0.0047148612677243591 0.0042435937886474238 0 -0.005005983153767251 0.0041067927894102817 0 -0.0049986938016321654 0.0038066976088374071 0 -0.0048479551265163271 0.0039791970457500802 0 -0.005005983153767251 0.0041067927894102817 0 -0.0049986938016321654 0.0038066976088374071 0 -0.0052655144082274907 0.0039245344326634879 0 -0.0049986938016321654 0.0038066976088374071 0 -0.0052655144082274907 0.0039245344326634879 0 -0.0052068376475177848 0.0036817269173882246 0 -0.0044691989925454917 0.0042535999316339048 0 -0.0046776072172826323 0.0040445781208880774 0 -0.0047148612677243591 0.0042435937886474238 0 -0.0044691989925454917 0.0042535999316339048 0 -0.0046776072172826323 0.0040445781208880774 0 -0.0045493926319951526 0.0039637928401285629 0 -0.005005983153767251 0.0041067927894102817 0 -0.0047148612677243591 0.0042435937886474238 0 -0.0048479551265163271 0.0039791970457500802 0 -0.0046776072172826323 0.0040445781208880774 0 -0.0047148612677243591 0.0042435937886474238 0 -0.0048479551265163271 0.0039791970457500802 0 -0.0049986938016321654 0.0038066976088374071 0 -0.0048479551265163271 0.0039791970457500802 0 -0.0047440524203541 0.0038205823967505477 0 -0.0046776072172826323 0.0040445781208880774 0 -0.0048479551265163271 0.0039791970457500802 0 -0.0047440524203541 0.0038205823967505477 0 -0.0047440524203541 0.0038205823967505477 0 -0.0045493926319951526 0.0039637928401285629 0 -0.0045818363660006627 0.0037777005435781011 0 -0.0046776072172826323 0.0040445781208880774 0 -0.0047440524203541 0.0038205823967505477 0 -0.0045493926319951526 0.0039637928401285629 0 -0.0047440524203541 0.0038205823967505477 0 -0.0046772807961527017 0.0036220763331844888 0 -0.0045818363660006627 0.0037777005435781011 0 -0.0047440524203541 0.0038205823967505477 0 -0.0046772807961527017 0.0036220763331844888 0 -0.0048664919180101181 0.0036041732778763977 0 -0.0049986938016321654 0.0038066976088374071 0 -0.0047440524203541 0.0038205823967505477 0 -0.0048664919180101181 0.0036041732778763977 0 -0.0048664919180101181 0.0036041732778763977 0 -0.004943639275126136 0.0034176952559032466 0 -0.0047744489133708101 0.0034507802195254686 0 -0.0046272439108511355 0.0034131772117451781 0 -0.0046772807961527017 0.0036220763331844888 0 -0.0047744489133708101 0.0034507802195254686 0 -0.0046272439108511355 0.0034131772117451781 0 -0.0047744489133708101 0.0034507802195254686 0 -0.0047304757343001195 0.0033285306478112926 0 -0.0046772807961527017 0.0036220763331844888 0 -0.0048664919180101181 0.0036041732778763977 0 -0.0047744489133708101 0.0034507802195254686 0 -0.0052655144082274907 0.0039245344326634879 0 -0.0052068376475177848 0.0036817269173882246 0 -0.0054162277734691117 0.0036861298521715089 0 -0.0049986938016321654 0.0038066976088374071 0 -0.0048664919180101181 0.0036041732778763977 0 -0.0050680015413497054 0.0035309514802192767 0 -0.0049986938016321654 0.0038066976088374071 0 -0.0052068376475177848 0.0036817269173882246 0 -0.0050680015413497054 0.0035309514802192767 0 -0.004943639275126136 0.0034176952559032466 0 -0.0050680015413497054 0.0035309514802192767 0 -0.0050793384412137123 0.0033362871862766684 0 -0.0048664919180101181 0.0036041732778763977 0 -0.004943639275126136 0.0034176952559032466 0 -0.0050680015413497054 0.0035309514802192767 0 -0.0052068376475177848 0.0036817269173882246 0 -0.0050680015413497054 0.0035309514802192767 0 -0.0053154266311368995 0.0033430587416325313 0 -0.0052068376475177848 0.0036817269173882246 0 -0.0054162277734691117 0.0036861298521715089 0 -0.0053154266311368995 0.0033430587416325313 0 -0.0021311530170137461 0.0050625217199236515 0 -0.00199515192352948 0.005202263266103885 0 -0.0018780725342072834 0.0048316342819508485 0 -0.0037661016988275084 0.0044124683723209181 0 -0.0035878947178077979 0.0041124391640838063 0 -0.0021311530170137461 0.0050625217199236515 0 -0.0023026804731632795 0.0052361053034954358 0 -0.0023041813030863691 0.0050183955578078912 0 -0.0021311530170137461 0.0050625217199236515 0 -0.0023041813030863691 0.0050183955578078912 0 -0.0021291137660787917 0.0048193173807977033 0 -0.0021311530170137461 0.0050625217199236515 0 -0.0021481433521840202 0.0052833856283057258 0 -0.0023026804731632795 0.0052361053034954358 0 -0.0021481433521840202 0.0052833856283057258 0 -0.0023418403124945302 0.0054308486302572963 0 -0.0023026804731632795 0.0052361053034954358 0 -0.0021311530170137461 0.0050625217199236515 0 -0.0021481433521840202 0.0052833856283057258 0 -0.00199515192352948 0.005202263266103885 0 -0.0037661016988275084 0.0044124683723209181 0 -0.0033795684137260412 0.004975381629361275 0 -0.0052655144082274907 0.0039245344326634879 0 -0.0054162277734691117 0.0036861298521715089 0 -0.0055200179462790962 0.0040745956804497663 0 -0.0021481433521840202 0.0052833856283057258 0 -0.00199515192352948 0.005202263266103885 0 -0.0021279004636415143 0.0055579802030274027 0 -0.0021481433521840202 0.0052833856283057258 0 -0.0022089500589339821 0.0054405461660027386 0 -0.0021279004636415143 0.0055579802030274027 0 -0.0021481433521840202 0.0052833856283057258 0 -0.0022089500589339821 0.0054405461660027386 0 -0.0023418403124945302 0.0054308486302572963 0 -0.0022089500589339821 0.0054405461660027386 0 -0.0022794298247791138 0.0055278348611027305 0 -0.0023418403124945302 0.0054308486302572963 0 -0.0022089500589339821 0.0054405461660027386 0 -0.0021610666090400772 0.0055360439502462992 0 -0.0022794298247791138 0.0055278348611027305 0 -0.0022198064993600645 0.0057454093511125548 0 -0.0033795684137260412 0.004975381629361275 0 -0.0022432314587085209 0.0058186923634317997 0 -0.0021610666090400772 0.0055360439502462992 0 -0.0023166053356376034 0.0056339615306395157 0 -0.0029423701532365564 0.0056900237895340204 0 -0.0033795684137260412 0.004975381629361275 0 -0.0022794298247791138 0.0055278348611027305 0 -0.0023166053356376034 0.0056339615306395157 0 -0.0023996669956562024 0.0055660544340609538 0 -0.0021610666090400772 0.0055360439502462992 0 -0.0022794298247791138 0.0055278348611027305 0 -0.0023166053356376034 0.0056339615306395157 0 -0.0052655144082274907 0.0039245344326634879 0 -0.0055200179462790962 0.0040745956804497663 0 -0.0053498981411738353 0.0041031651138754123 0 -0.0038901874010026974 0.0051021256015603336 0 -0.0036058332355592185 0.0049607334286997703 0 -0.0037038057736719383 0.0053467782668206601 0 -0.0047814597476544948 0.0044976291635050744 0 -0.0033795684137260412 0.004975381629361275 0 -0.0053926245686874404 0.0042764102379946991 0 -0.0055200179462790962 0.0040745956804497663 0 -0.0053498981411738353 0.0041031651138754123 0 -0.0053926245686874404 0.0042764102379946991 0 -0.0052195952267816296 0.0041417704974031624 0 -0.0053498981411738353 0.0041031651138754123 0 -0.0026112717597272773 0.005644373154766574 0 -0.0025822598978073939 0.0054314451007980366 0 -0.0025226808974864539 0.0055829820627704436 0 -0.0025693709567694858 0.0057209310251048716 0 -0.0025226808974864539 0.0055829820627704436 0 -0.0025054018292761508 0.0056601659968904296 0 -0.0026112717597272773 0.005644373154766574 0 -0.0025693709567694858 0.0057209310251048716 0 -0.0025226808974864539 0.0055829820627704436 0 -0.0025161112328720156 0.0057482562859953153 0 -0.0025054018292761508 0.0056601659968904296 0 -0.0023996669956562024 0.0055660544340609538 0 -0.0025161112328720156 0.0057482562859953153 0 -0.0023166053356376034 0.0056339615306395157 0 -0.0023996669956562024 0.0055660544340609538 0 -0.0025226808974864539 0.0055829820627704436 0 -0.0025054018292761508 0.0056601659968904296 0 -0.0023996669956562024 0.0055660544340609538 0 -0.0025226808974864539 0.0055829820627704436 0 -0.0023996669956562024 0.0055660544340609538 0 -0.0024387376824564102 0.0054003476107548432 0 -0.0023418403124945302 0.0054308486302572963 0 -0.0024387376824564102 0.0054003476107548432 0 -0.0023026804731632795 0.0052361053034954358 0 -0.0023996669956562024 0.0055660544340609538 0 -0.0023418403124945302 0.0054308486302572963 0 -0.0024387376824564102 0.0054003476107548432 0 -0.0022794298247791138 0.0055278348611027305 0 -0.0023996669956562024 0.0055660544340609538 0 -0.0023418403124945302 0.0054308486302572963 0 -0.0025822598978073939 0.0054314451007980366 0 -0.0024387376824564102 0.0054003476107548432 0 -0.00251061786110294 0.0053156748983876848 0 -0.0025822598978073939 0.0054314451007980366 0 -0.0025226808974864539 0.0055829820627704436 0 -0.0024387376824564102 0.0054003476107548432 0 -0.0025822598978073939 0.0054314451007980366 0 -0.0025894396696411149 0.0052139509833978824 0 -0.00251061786110294 0.0053156748983876848 0 -0.0024387376824564102 0.0054003476107548432 0 -0.00251061786110294 0.0053156748983876848 0 -0.0024371342449719269 0.0052084696889703784 0 -0.0025894396696411149 0.0052139509833978824 0 -0.0024371342449719269 0.0052084696889703784 0 -0.0024628283793739149 0.0050393836246557383 0 -0.0025894396696411149 0.0052139509833978824 0 -0.00251061786110294 0.0053156748983876848 0 -0.0024371342449719269 0.0052084696889703784 0 -0.0024371342449719269 0.0052084696889703784 0 -0.0023026804731632795 0.0052361053034954358 0 -0.0023041813030863691 0.0050183955578078912 0 -0.0024387376824564102 0.0054003476107548432 0 -0.0024371342449719269 0.0052084696889703784 0 -0.0023026804731632795 0.0052361053034954358 0 -0.0023041813030863691 0.0050183955578078912 0 -0.0024628283793739149 0.0050393836246557383 0 -0.0024013491035864312 0.0048237013974664449 0 -0.0024371342449719269 0.0052084696889703784 0 -0.0023041813030863691 0.0050183955578078912 0 -0.0024628283793739149 0.0050393836246557383 0 -0.0026113802880283433 0.0049439432285714614 0 -0.0024628283793739149 0.0050393836246557383 0 -0.0024013491035864312 0.0048237013974664449 0 -0.0025894396696411149 0.0052139509833978824 0 -0.0026113802880283433 0.0049439432285714614 0 -0.0024628283793739149 0.0050393836246557383 0 -0.0026113802880283433 0.0049439432285714614 0 -0.0024013491035864312 0.0048237013974664449 0 -0.0025674578642922367 0.0046858189563008688 0 -0.0024013491035864312 0.0048237013974664449 0 -0.0022050145359371418 0.0046028188295756658 0 -0.0021291137660787917 0.0048193173807977033 0 -0.0023041813030863691 0.0050183955578078912 0 -0.0024013491035864312 0.0048237013974664449 0 -0.0021291137660787917 0.0048193173807977033 0 -0.0024013491035864312 0.0048237013974664449 0 -0.0024313936030244594 0.0045676550007163448 0 -0.0022050145359371418 0.0046028188295756658 0 -0.0024313936030244594 0.0045676550007163448 0 -0.0022980821156488584 0.0044109953681808244 0 -0.0022050145359371418 0.0046028188295756658 0 -0.0025674578642922367 0.0046858189563008688 0 -0.0024313936030244594 0.0045676550007163448 0 -0.0026409246914200673 0.0044614028180881135 0 -0.0024013491035864312 0.0048237013974664449 0 -0.0025674578642922367 0.0046858189563008688 0 -0.0024313936030244594 0.0045676550007163448 0 -0.0024313936030244594 0.0045676550007163448 0 -0.0024960454726768969 0.0043929676243317679 0 -0.0026409246914200673 0.0044614028180881135 0 -0.0024960454726768969 0.0043929676243317679 0 -0.0026409246914200673 0.0044614028180881135 0 -0.0026189532429328208 0.0042217682190474181 0 -0.0024960454726768969 0.0043929676243317679 0 -0.0024335065321334499 0.0042590522042205148 0 -0.0026189532429328208 0.0042217682190474181 0 -0.0024960454726768969 0.0043929676243317679 0 -0.0022980821156488584 0.0044109953681808244 0 -0.0024335065321334499 0.0042590522042205148 0 -0.0024313936030244594 0.0045676550007163448 0 -0.0024960454726768969 0.0043929676243317679 0 -0.0022980821156488584 0.0044109953681808244 0 -0.0022980821156488584 0.0044109953681808244 0 -0.0022418568871868322 0.0042252694917979897 0 -0.0024335065321334499 0.0042590522042205148 0 -0.0022418568871868322 0.0042252694917979897 0 -0.0025258947562702295 0.0040132390964047106 0 -0.0024335065321334499 0.0042590522042205148 0 -0.002380711902310212 0.0040705305963690385 0 -0.0024906963747351406 0.0040260636544603556 0 -0.0023586093317430833 0.0039803274827484936 0 -0.0025258947562702295 0.0040132390964047106 0 -0.0023825514574070104 0.0038868478348131332 0 -0.0025258947562702295 0.0040132390964047106 0 -0.0026189532429328208 0.0042217682190474181 0 -0.0026271908498742055 0.0039140045704288062 0 -0.0025258947562702295 0.0040132390964047106 0 -0.0024335065321334499 0.0042590522042205148 0 -0.0026189532429328208 0.0042217682190474181 0 -0.0020695538813656385 0.0039328132286600131 0 -0.0022161009638306675 0.0038781194658967315 0 -0.0020488877184347666 0.0037376861937647959 0 -0.0020695538813656385 0.0039328132286600131 0 -0.0022161009638306675 0.0038781194658967315 0 -0.0021726591372346377 0.0040407177892689541 0 -0.0023586093317430833 0.0039803274827484936 0 -0.0022161009638306675 0.0038781194658967315 0 -0.0021726591372346377 0.0040407177892689541 0 -0.002380711902310212 0.0040705305963690385 0 -0.0017659568791307547 0.004336336668210314 0 -0.0023586093317430833 0.0039803274827484936 0 -0.0022161009638306675 0.0038781194658967315 0 -0.0023825514574070104 0.0038868478348131332 0 -0.0022980821156488584 0.0044109953681808244 0 -0.0022418568871868322 0.0042252694917979897 0 -0.0020179096935780271 0.0043609671092791459 0 -0.0022980821156488584 0.0044109953681808244 0 -0.0020179096935780271 0.0043609671092791459 0 -0.0022050145359371418 0.0046028188295756658 0 -0.0020695538813656385 0.0039328132286600131 0 -0.0021726591372346377 0.0040407177892689541 0 -0.0019916938780263852 0.0041192577894003509 0 -0.0020179096935780271 0.0043609671092791459 0 -0.0020016942961441145 0.0046145360946765381 0 -0.0017909831182704205 0.0044692910304972994 0 -0.0017659568791307547 0.004336336668210314 0 -0.0035326536908840624 0.0036843008176354005 0 -0.0020016942961441145 0.0046145360946765381 0 -0.0018780725342072834 0.0048316342819508485 0 -0.0017909831182704205 0.0044692910304972994 0 -0.0020179096935780271 0.0043609671092791459 0 -0.0020016942961441145 0.0046145360946765381 0 -0.0022050145359371418 0.0046028188295756658 0 -0.0020016942961441145 0.0046145360946765381 0 -0.0022050145359371418 0.0046028188295756658 0 -0.0021291137660787917 0.0048193173807977033 0 -0.0020016942961441145 0.0046145360946765381 0 -0.0021291137660787917 0.0048193173807977033 0 -0.0018780725342072834 0.0048316342819508485 0 -0.0021311530170137461 0.0050625217199236515 0 -0.0021291137660787917 0.0048193173807977033 0 -0.0018780725342072834 0.0048316342819508485 0 -0.0050680015413497054 0.0035309514802192767 0 -0.0053154266311368995 0.0033430587416325313 0 -0.0050793384412137123 0.0033362871862766684 0 -0.0053154266311368995 0.0033430587416325313 0 -0.0050793384412137123 0.0033362871862766684 0 -0.0051499395076845273 0.0032215890835448203 0 -0.004943639275126136 0.0034176952559032466 0 -0.0050793384412137123 0.0033362871862766684 0 -0.0049723503217417196 0.0032889355386274415 0 -0.0050793384412137123 0.0033362871862766684 0 -0.0050520715528464561 0.0032299826449518607 0 -0.0049723503217417196 0.0032889355386274415 0 -0.0050793384412137123 0.0033362871862766684 0 -0.0050520715528464561 0.0032299826449518607 0 -0.0051499395076845273 0.0032215890835448203 0 -0.0054837915944936652 0.0029545093631332319 0 -0.0048915893889562986 0.0032114590348039148 0 -0.0050520715528464561 0.0032299826449518607 0 -0.0050881522418005113 0.0031391725277409546 0 -0.0049735561120585886 0.0031739613033563339 0 -0.0050520715528464561 0.0032299826449518607 0 -0.0050881522418005113 0.0031391725277409546 0 -0.0051499395076845273 0.0032215890835448203 0 -0.0053154266311368995 0.0033430587416325313 0 -0.0051499395076845273 0.0032215890835448203 0 -0.0052227472821665668 0.0030742139900934882 0 -0.0050881522418005113 0.0031391725277409546 0 -0.0051499395076845273 0.0032215890835448203 0 -0.0052227472821665668 0.0030742139900934882 0 -0.0035878947178077979 0.0041124391640838063 0 -0.0035326536908840624 0.0036843008176354005 0 -0.0054837915944936652 0.0029545093631332319 0 -0.0035326536908840624 0.0036843008176354005 0 -0.0047304757343001195 0.0033285306478112926 0 -0.0047549218768205281 0.003215166015255662 0 -0.0046635155447040501 0.0032213978579553435 0 -0.0047744489133708101 0.0034507802195254686 0 -0.0047304757343001195 0.0033285306478112926 0 -0.0048494310156142577 0.0032918460122111181 0 -0.0047549218768205281 0.003215166015255662 0 -0.0048494310156142577 0.0032918460122111181 0 -0.004838938398124137 0.003126154875915711 0 -0.0047304757343001195 0.0033285306478112926 0 -0.0047549218768205281 0.003215166015255662 0 -0.0048494310156142577 0.0032918460122111181 0 -0.004943639275126136 0.0034176952559032466 0 -0.0047744489133708101 0.0034507802195254686 0 -0.0048494310156142577 0.0032918460122111181 0 -0.004943639275126136 0.0034176952559032466 0 -0.0048494310156142577 0.0032918460122111181 0 -0.0049723503217417196 0.0032889355386274415 0 -0.0050520715528464561 0.0032299826449518607 0 -0.0049723503217417196 0.0032889355386274415 0 -0.0049735561120585886 0.0031739613033563339 0 -0.0048494310156142577 0.0032918460122111181 0 -0.0049723503217417196 0.0032889355386274415 0 -0.0049735561120585886 0.0031739613033563339 0 -0.005261912428678372 0.0030432279764259483 0 -0.0049735561120585886 0.0031739613033563339 0 -0.0049520422568753077 0.0029501892775057989 0 -0.0049735561120585886 0.0031739613033563339 0 -0.004838938398124137 0.003126154875915711 0 -0.0049520422568753077 0.0029501892775057989 0 -0.0048494310156142577 0.0032918460122111181 0 -0.0049735561120585886 0.0031739613033563339 0 -0.004838938398124137 0.003126154875915711 0 -0.0048309652220364999 0.0031026382999297486 0 -0.0047280782414040089 0.0029515814613645629 0 -0.004838938398124137 0.003126154875915711 0 -0.0047165871743011251 0.0031182574400630317 0 -0.0047286013875089032 0.0030036465860826663 0 -0.0047549218768205281 0.003215166015255662 0 -0.004838938398124137 0.003126154875915711 0 -0.0047165871743011251 0.0031182574400630317 0 -0.0047549218768205281 0.003215166015255662 0 -0.0047165871743011251 0.0031182574400630317 0 -0.0046635155447040501 0.0032213978579553435 0 -0.0047115499615203137 0.0028389614919699562 0 -0.0049520422568753077 0.0029501892775057989 0 -0.0049522918978849471 0.0026937468107838644 0 -0.004838938398124137 0.003126154875915711 0 -0.0047115499615203137 0.0028389614919699562 0 -0.0049520422568753077 0.0029501892775057989 0 -0.0049520422568753077 0.0029501892775057989 0 -0.0049522918978849471 0.0026937468107838644 0 -0.0051069844371770239 0.0028212265919040328 0 -0.0049522918978849471 0.0026937468107838644 0 -0.0047888993670245879 0.0025217553447587516 0 -0.0050159803335671381 0.0024400670154321059 0 -0.0049522918978849471 0.0026937468107838644 0 -0.0051478801464130376 0.0026064565359012891 0 -0.0050159803335671381 0.0024400670154321059 0 -0.0049522918978849471 0.0026937468107838644 0 -0.0051069844371770239 0.0028212265919040328 0 -0.0051478801464130376 0.0026064565359012891 0 -0.0047115499615203137 0.0028389614919699562 0 -0.0047888993670245879 0.0025217553447587516 0 -0.0045755655667763535 0.0025834529268756699 0 -0.0047115499615203137 0.0028389614919699562 0 -0.0049522918978849471 0.0026937468107838644 0 -0.0047888993670245879 0.0025217553447587516 0 -0.0035326536908840624 0.0036843008176354005 0 -0.0036820464583771045 0.0031777843666147602 0 -0.005261912428678372 0.0030432279764259483 0 -0.0054957812836762404 0.0029345215021410447 0 -0.0052843375154245182 0.0027885821680985862 0 -0.0054957812836762404 0.0029345215021410447 0 -0.0052843375154245182 0.0027885821680985862 0 -0.0054072566568412524 0.0025456896023995121 0 -0.005261912428678372 0.0030432279764259483 0 -0.0049520422568753077 0.0029501892775057989 0 -0.0051069844371770239 0.0028212265919040328 0 -0.005261912428678372 0.0030432279764259483 0 -0.0051069844371770239 0.0028212265919040328 0 -0.0052843375154245182 0.0027885821680985862 0 -0.0051069844371770239 0.0028212265919040328 0 -0.0052843375154245182 0.0027885821680985862 0 -0.0051478801464130376 0.0026064565359012891 0 -0.0052843375154245182 0.0027885821680985862 0 -0.0051478801464130376 0.0026064565359012891 0 -0.0054072566568412524 0.0025456896023995121 0 -0.0051478801464130376 0.0026064565359012891 0 -0.0054072566568412524 0.0025456896023995121 0 -0.0051967008465050096 0.0023942977808257288 0 -0.0020695538813656385 0.0039328132286600131 0 -0.0019140896394115455 0.0038699882899699838 0 -0.0020488877184347666 0.0037376861937647959 0 -0.0020695538813656385 0.0039328132286600131 0 -0.0019916938780263852 0.0041192577894003509 0 -0.0019140896394115455 0.0038699882899699838 0 -0.0036820464583771045 0.0031777843666147602 0 -0.0035779449527818812 0.0028906003872340618 0 -0.0019140896394115455 0.0038699882899699838 0 -0.0018439748861052011 0.0035798518749868536 0 -0.0020488877184347666 0.0037376861937647959 0 -0.0054072566568412524 0.0025456896023995121 0 -0.0051967008465050096 0.0023942977808257288 0 -0.005315187752845855 0.002183243763109678 0 -0.005315187752845855 0.002183243763109678 0 -0.0051014259275673265 0.0022112361467773009 0 -0.0051432436168851996 0.0020126155767976944 0 -0.0051967008465050096 0.0023942977808257288 0 -0.005315187752845855 0.002183243763109678 0 -0.0051014259275673265 0.0022112361467773009 0 -0.0018439748861052011 0.0035798518749868536 0 -0.0019855217820134836 0.0034855722382921271 0 -0.0020488877184347666 0.0037376861937647959 0 -0.0047888993670245879 0.0025217553447587516 0 -0.0048993923293345377 0.0022236395372467448 0 -0.0046541166869576737 0.0023499981057723838 0 -0.0047888993670245879 0.0025217553447587516 0 -0.0050159803335671381 0.0024400670154321059 0 -0.0048993923293345377 0.0022236395372467448 0 -0.0050159803335671381 0.0024400670154321059 0 -0.0051014259275673265 0.0022112361467773009 0 -0.0048993923293345377 0.0022236395372467448 0 -0.0051967008465050096 0.0023942977808257288 0 -0.0050159803335671381 0.0024400670154321059 0 -0.0051014259275673265 0.0022112361467773009 0 -0.0051478801464130376 0.0026064565359012891 0 -0.0051967008465050096 0.0023942977808257288 0 -0.0050159803335671381 0.0024400670154321059 0 -0.0051014259275673265 0.0022112361467773009 0 -0.0048993923293345377 0.0022236395372467448 0 -0.0050239598698271406 0.0020433331626275373 0 -0.0051014259275673265 0.0022112361467773009 0 -0.0050239598698271406 0.0020433331626275373 0 -0.0051432436168851996 0.0020126155767976944 0 -0.0048993923293345377 0.0022236395372467448 0 -0.0046541166869576737 0.0023499981057723838 0 -0.0047704344808800602 0.0021174423327722067 0 -0.0048993923293345377 0.0022236395372467448 0 -0.0048837205638096988 0.0019863516128538149 0 -0.0050239598698271406 0.0020433331626275373 0 -0.0048993923293345377 0.0022236395372467448 0 -0.0048837205638096988 0.0019863516128538149 0 -0.0047704344808800602 0.0021174423327722067 0 -0.0048837205638096988 0.0019863516128538149 0 -0.0047704344808800602 0.0021174423327722067 0 -0.0047875084234248674 0.0019084601572590869 0 -0.0048837205638096988 0.0019863516128538149 0 -0.0049338853546483062 0.0018343029342396664 0 -0.0047875084234248674 0.0019084601572590869 0 -0.0048837205638096988 0.0019863516128538149 0 -0.0049704299698531849 0.001937808148950363 0 -0.0050239598698271406 0.0020433331626275373 0 -0.0048837205638096988 0.0019863516128538149 0 -0.0049704299698531849 0.001937808148950363 0 -0.0049338853546483062 0.0018343029342396664 0 -0.0049704299698531849 0.001937808148950363 0 -0.0050434813341573665 0.0018941508310797463 0 -0.0049338853546483062 0.0018343029342396664 0 -0.0049704299698531849 0.001937808148950363 0 -0.0050434813341573665 0.0018941508310797463 0 -0.0050239598698271406 0.0020433331626275373 0 -0.0050434813341573665 0.0018941508310797463 0 -0.0050239598698271406 0.0020433331626275373 0 -0.0051432436168851996 0.0020126155767976944 0 -0.0050434813341573665 0.0018941508310797463 0 -0.0051144902125893933 0.001869426082287946 0 -0.0051432436168851996 0.0020126155767976944 0 -0.0051144902125893933 0.001869426082287946 0 -0.0050499412051119357 0.0017462738728944527 0 -0.0052262256784992829 0.0018742511144392438 0 -0.0050499412051119357 0.0017462738728944527 0 -0.0052262256784992829 0.0018742511144392438 0 -0.0051526865417041278 0.0016188458571004037 0 -0.0050434813341573665 0.0018941508310797463 0 -0.0051144902125893933 0.001869426082287946 0 -0.0050499412051119357 0.0017462738728944527 0 -0.0050434813341573665 0.0018941508310797463 0 -0.0050499412051119357 0.0017462738728944527 0 -0.0049338853546483062 0.0018343029342396664 0 -0.0049338853546483062 0.0018343029342396664 0 -0.0047875084234248674 0.0019084601572590869 0 -0.004887628191344898 0.0016456030849319816 0 -0.0050499412051119357 0.0017462738728944527 0 -0.0049338853546483062 0.0018343029342396664 0 -0.004887628191344898 0.0016456030849319816 0 -0.0018439748861052011 0.0035798518749868536 0 -0.0019855217820134836 0.0034855722382921271 0 -0.0019291199777374988 0.0033233193443534125 0 -0.0018439748861052011 0.0035798518749868536 0 -0.0019291199777374988 0.0033233193443534125 0 -0.0018524024341197963 0.0032904862870958011 0 -0.0019855217820134836 0.0034855722382921271 0 -0.0019291199777374988 0.0033233193443534125 0 -0.0020211339945934576 0.0033245634784822872 0 -0.0018439748861052011 0.0035798518749868536 0 -0.0018524024341197963 0.0032904862870958011 0 -0.0017955474507539485 0.0032934216265154506 0 -0.005315187752845855 0.002183243763109678 0 -0.0051432436168851996 0.0020126155767976944 0 -0.0052262256784992829 0.0018742511144392438 0 -0.0035779449527818812 0.0028906003872340618 0 -0.0035190405079227323 0.002575834951848609 0 -0.0051144902125893933 0.001869426082287946 0 -0.0051432436168851996 0.0020126155767976944 0 -0.0052262256784992829 0.0018742511144392438 0 -0.0017955474507539485 0.0032934216265154506 0 -0.0019647117273298479 0.0028904363607351819 0 -0.0016698102688615637 0.0026647843020542834 0 -0.0018524024341197963 0.0032904862870958011 0 -0.0017955474507539485 0.0032934216265154506 0 -0.0019647117273298479 0.0028904363607351819 0 -0.0035190405079227323 0.002575834951848609 0 -0.0033363218675443078 0.0021731562247001499 0 -0.0018955782483304786 0.0032640038359317966 0 -0.0021092068989574087 0.0029311922514997269 0 -0.0019291199777374988 0.0033233193443534125 0 -0.0018524024341197963 0.0032904862870958011 0 -0.0019990804786655819 0.0031111606029262471 0 -0.0019291199777374988 0.0033233193443534125 0 -0.0020415549523043089 0.0032149351104229858 0 -0.0019884248997869745 0.0030398882386575661 0 -0.0018936555849395117 0.0033735554048733686 0 -0.0021092068989574087 0.0029311922514997269 0 -0.0018524024341197963 0.0032904862870958011 0 -0.0023656722427202507 0.0027273366165440067 0 -0.0019647117273298479 0.0028904363607351819 0 -0.0019291199777374988 0.0033233193443534125 0 -0.0020415549523043089 0.0032149351104229858 0 -0.0020211339945934576 0.0033245634784822872 0 -0.0021162509058190236 0.0032909967105599898 0 -0.0022179612673549499 0.0032580185623845249 0 -0.0021713965019770028 0.0030999576319506415 0 -0.0020415549523043089 0.0032149351104229858 0 -0.0021162509058190236 0.0032909967105599898 0 -0.0021713965019770028 0.0030999576319506415 0 -0.0020415549523043089 0.0032149351104229858 0 -0.0021713965019770028 0.0030999576319506415 0 -0.0019884248997869745 0.0030398882386575661 0 -0.0020415549523043089 0.0032149351104229858 0 -0.0020211339945934576 0.0033245634784822872 0 -0.0021162509058190236 0.0032909967105599898 0 -0.0020211339945934576 0.0033245634784822872 0 -0.0021162509058190236 0.0032909967105599898 0 -0.0020810854539008864 0.0034018816930491643 0 -0.0021162509058190236 0.0032909967105599898 0 -0.0021789417045060856 0.0033812777370087759 0 -0.0022179612673549499 0.0032580185623845249 0 -0.0021162509058190236 0.0032909967105599898 0 -0.0020810854539008864 0.0034018816930491643 0 -0.0021789417045060856 0.0033812777370087759 0 -0.0020810854539008864 0.0034018816930491643 0 -0.0021789417045060856 0.0033812777370087759 0 -0.0021397732829089538 0.0035459661886904962 0 -0.0019855217820134836 0.0034855722382921271 0 -0.0020211339945934576 0.0033245634784822872 0 -0.0020810854539008864 0.0034018816930491643 0 -0.0022485088402854486 0.0034622478266847375 0 -0.0022742674357019918 0.0033359836117198209 0 -0.0023829072701744007 0.0033661586705987737 0 -0.0022485088402854486 0.0034622478266847375 0 -0.0023829072701744007 0.0033661586705987737 0 -0.0023332015454163046 0.0034954741348369933 0 -0.0021789417045060856 0.0033812777370087759 0 -0.0022485088402854486 0.0034622478266847375 0 -0.0021397732829089538 0.0035459661886904962 0 -0.0021789417045060856 0.0033812777370087759 0 -0.0022485088402854486 0.0034622478266847375 0 -0.0022742674357019918 0.0033359836117198209 0 -0.0021789417045060856 0.0033812777370087759 0 -0.0022742674357019918 0.0033359836117198209 0 -0.0022179612673549499 0.0032580185623845249 0 -0.0022742674357019918 0.0033359836117198209 0 -0.0023283592242164136 0.0031918748864978603 0 -0.0023829072701744007 0.0033661586705987737 0 -0.0022742674357019918 0.0033359836117198209 0 -0.0023283592242164136 0.0031918748864978603 0 -0.0022179612673549499 0.0032580185623845249 0 -0.0023283592242164136 0.0031918748864978603 0 -0.0022179612673549499 0.0032580185623845249 0 -0.0021713965019770028 0.0030999576319506415 0 -0.0023283592242164136 0.0031918748864978603 0 -0.0024893359738515325 0.0031897833818808827 0 -0.0024225753925497945 0.0030589912731060981 0 -0.0023283592242164136 0.0031918748864978603 0 -0.0024893359738515325 0.0031897833818808827 0 -0.0023829072701744007 0.0033661586705987737 0 -0.0024893359738515325 0.0031897833818808827 0 -0.002544819567279726 0.00340235118498382 0 -0.0026683805603023966 0.0031489699413373988 0 -0.0024893359738515325 0.0031897833818808827 0 -0.0025646371640539994 0.0029760683639303265 0 -0.0026683805603023966 0.0031489699413373988 0 -0.002544819567279726 0.00340235118498382 0 -0.002711848168610705 0.0033664702108671218 0 -0.0026683805603023966 0.0031489699413373988 0 -0.0024893359738515325 0.0031897833818808827 0 -0.002544819567279726 0.00340235118498382 0 -0.0023829072701744007 0.0033661586705987737 0 -0.002544819567279726 0.00340235118498382 0 -0.0023829072701744007 0.0033661586705987737 0 -0.0024174878078625207 0.0035376155826291078 0 -0.0023829072701744007 0.0033661586705987737 0 -0.0024174878078625207 0.0035376155826291078 0 -0.0023332015454163046 0.0034954741348369933 0 -0.0024174878078625207 0.0035376155826291078 0 -0.0023332015454163046 0.0034954741348369933 0 -0.0022802382342998403 0.0036253343302095138 0 -0.002544819567279726 0.00340235118498382 0 -0.0024174878078625207 0.0035376155826291078 0 -0.0024917061684001222 0.0035947286234598095 0 -0.0024174878078625207 0.0035376155826291078 0 -0.0025334697144559072 0.0036402222524223285 0 -0.0023935315786484646 0.003748748646235524 0 -0.0023834055727118761 0.0036706742995755749 0 -0.0024094974458913555 0.0037023996129304628 0 -0.0024109017045228272 0.0036065047775281195 0 -0.0023834055727118761 0.0036706742995755749 0 -0.0024174878078625207 0.0035376155826291078 0 -0.0023935315786484646 0.003748748646235524 0 -0.0022802382342998403 0.0036253343302095138 0 -0.0023834055727118761 0.0036706742995755749 0 -0.002553689961011477 0.0034053552022634856 0 -0.0020999153709592359 0.0037109011686248341 0 -0.0023507420545717224 0.0036825283156561614 0 -0.0024311193628540726 0.0034407462228507719 0 -0.002544819567279726 0.00340235118498382 0 -0.0024917061684001222 0.0035947286234598095 0 -0.002711848168610705 0.0033664702108671218 0 -0.0024506298905580337 0.003706063066343003 0 -0.0025160072291373846 0.0038648535617803624 0 -0.0026271908498742055 0.0039140045704288062 0 -0.0020999153709592359 0.0037109011686248341 0 -0.0023507420545717224 0.0036825283156561614 0 -0.0023623225096683718 0.0039403786810475174 0 -0.0023834055727118761 0.0036706742995755749 0 -0.002476431491749244 0.0039255546396390235 0 -0.0024506298905580337 0.003706063066343003 0 -0.0025160072291373846 0.0038648535617803624 0 -0.0024578906799987742 0.0038472242492201205 0 -0.0025258947562702295 0.0040132390964047106 0 -0.0025160072291373846 0.0038648535617803624 0 -0.0024578906799987742 0.0038472242492201205 0 -0.0025258947562702295 0.0040132390964047106 0 -0.0025160072291373846 0.0038648535617803624 0 -0.0026271908498742055 0.0039140045704288062 0 -0.0025258947562702295 0.0040132390964047106 0 -0.0024578906799987742 0.0038472242492201205 0 -0.0023825514574070104 0.0038868478348131332 0 -0.0023935315786484646 0.003748748646235524 0 -0.0023825514574070104 0.0038868478348131332 0 -0.0022933932440923994 0.0037717440455525722 0 -0.0024506298905580337 0.003706063066343003 0 -0.0023935315786484646 0.003748748646235524 0 -0.0024578906799987742 0.0038472242492201205 0 -0.0023935315786484646 0.003748748646235524 0 -0.0024578906799987742 0.0038472242492201205 0 -0.0023825514574070104 0.0038868478348131332 0 -0.0022161009638306675 0.0038781194658967315 0 -0.0023825514574070104 0.0038868478348131332 0 -0.0022933932440923994 0.0037717440455525722 0 -0.0022933932440923994 0.0037717440455525722 0 -0.0021946590637193886 0.0037146616164995434 0 -0.0022802382342998403 0.0036253343302095138 0 -0.0023935315786484646 0.003748748646235524 0 -0.0022933932440923994 0.0037717440455525722 0 -0.0022802382342998403 0.0036253343302095138 0 -0.0022161009638306675 0.0038781194658967315 0 -0.0022933932440923994 0.0037717440455525722 0 -0.0021946590637193886 0.0037146616164995434 0 -0.0022161009638306675 0.0038781194658967315 0 -0.0021946590637193886 0.0037146616164995434 0 -0.0020488877184347666 0.0037376861937647959 0 -0.0019855217820134836 0.0034855722382921271 0 -0.0020810854539008864 0.0034018816930491643 0 -0.0021397732829089538 0.0035459661886904962 0 -0.0019855217820134836 0.0034855722382921271 0 -0.0020488877184347666 0.0037376861937647959 0 -0.0021397732829089538 0.0035459661886904962 0 -0.0021946590637193886 0.0037146616164995434 0 -0.0020488877184347666 0.0037376861937647959 0 -0.0021397732829089538 0.0035459661886904962 0 -0.0022485088402854486 0.0034622478266847375 0 -0.0021397732829089538 0.0035459661886904962 0 -0.0022802382342998403 0.0036253343302095138 0 -0.0022485088402854486 0.0034622478266847375 0 -0.0023332015454163046 0.0034954741348369933 0 -0.0022802382342998403 0.0036253343302095138 0 -0.0021946590637193886 0.0037146616164995434 0 -0.0021397732829089538 0.0035459661886904962 0 -0.0022802382342998403 0.0036253343302095138 0 -0.0050919069531224926 0.001883329948199116 0 -0.0049999387266940268 0.0020628354583350759 0 -0.0049999568579767268 0.0018077591098597889 0 -0.0050919069531224926 0.001883329948199116 0 -0.0050853044086423922 0.0021137280809166159 0 -0.0051693211488890575 0.0020306243416210977 0 -0.0049999387266940268 0.0020628354583350759 0 -0.0050853044086423922 0.0021137280809166159 0 -0.0049999467699850869 0.0023180690775297776 0 -0.0050919069531224926 0.001883329948199116 0 -0.0049999387266940268 0.0020628354583350759 0 -0.0050853044086423922 0.0021137280809166159 0 -0.0050853044086423922 0.0021137280809166159 0 -0.0049999467699850869 0.0023180690775297776 0 -0.0051517831018335755 0.0023184277160686884 0 -0.0047046978073854119 0.0025459910616946685 0 -0.0046387547811787676 0.0024399304205325119 0 -0.0050535988356620425 0.0025645678112877724 0 -0.0049999467699850869 0.0023180690775297776 0 -0.0051517831018335755 0.0023184277160686884 0 -0.0050535988356620425 0.0025645678112877724 0 -0.0050000046918250631 0.0025733066591164516 0 -0.0049999467699850869 0.0023180690775297776 0 -0.0042052043517209949 0.0025976993955450348 0 -0.0041486130931502746 0.00259423655371358 0 -0.0041706803729642363 0.0025377073140971295 0 -0.0050853044086423922 0.0021137280809166159 0 -0.0051517831018335755 0.0023184277160686884 0 -0.0051693211488890575 0.0020306243416210977 0 -0.0046387547811787676 0.0024399304205325119 0 -0.0046729950966002947 0.0022422243152778608 0 -0.0041706803729642363 0.0025377073140971295 0 -0.0042337565270398397 0.0025386286210011999 0 -0.0041850360688776116 0.0024544272678657824 0 -0.0042337565270398397 0.0025386286210011999 0 -0.0042681159862344937 0.0024762143323372675 0 -0.0041850360688776116 0.0024544272678657824 0 -0.0042052043517209949 0.0025976993955450348 0 -0.0041706803729642363 0.0025377073140971295 0 -0.0042337565270398397 0.0025386286210011999 0 -0.0042764686426948343 0.0026040805319899841 0 -0.0042052043517209949 0.0025976993955450348 0 -0.0042337565270398397 0.0025386286210011999 0 -0.0043782932566683013 0.0030573281590929205 0 -0.0041363623774342516 0.0027483443431321176 0 -0.0038938906759754623 0.0033575786996455103 0 -0.004012000435955879 0.0029798873481078829 0 -0.0040711767392089563 0.0032281990190537596 0 -0.0042764686426948343 0.0026040805319899841 0 -0.0042337565270398397 0.0025386286210011999 0 -0.0043002998446434902 0.0025308506184425271 0 -0.0042337565270398397 0.0025386286210011999 0 -0.0042681159862344937 0.0024762143323372675 0 -0.0043002998446434902 0.0025308506184425271 0 -0.0042681159862344937 0.0024762143323372675 0 -0.0043323394850447346 0.0024734060611258336 0 -0.0043002998446434902 0.0025308506184425271 0 -0.0042681159862344937 0.0024762143323372675 0 -0.0042489574736772678 0.002270739257702355 0 -0.0043323394850447346 0.0024734060611258336 0 -0.0042681159862344937 0.0024762143323372675 0 -0.0041850360688776116 0.0024544272678657824 0 -0.0042489574736772678 0.002270739257702355 0 -0.0046729950966002947 0.0022422243152778608 0 -0.0046457169665567672 0.0020484118310053045 0 -0.0050919069531224926 0.001883329948199116 0 -0.0051693211488890575 0.0020306243416210977 0 -0.0050500448394337994 0.0017939820562580544 0 -0.0042489574736772678 0.002270739257702355 0 -0.0044929352455353802 0.0021923220982468855 0 -0.0043323394850447346 0.0024734060611258336 0 -0.0044929352455353802 0.0021923220982468855 0 -0.0045608226181249704 0.0023414212891901612 0 -0.0043323394850447346 0.0024734060611258336 0 -0.0044929352455353802 0.0021923220982468855 0 -0.0045608226181249704 0.0023414212891901612 0 -0.004633349343808487 0.0020512927969088633 0 -0.0045608226181249704 0.0023414212891901612 0 -0.0047231942870134026 0.0022269670006985882 0 -0.004633349343808487 0.0020512927969088633 0 -0.0045608226181249704 0.0023414212891901612 0 -0.0043323394850447346 0.0024734060611258336 0 -0.0044502511410729169 0.0028497913616399029 0 -0.0045608226181249704 0.0023414212891901612 0 -0.0044502511410729169 0.0028497913616399029 0 -0.0047513281228425564 0.0024640665674645727 0 -0.0043323394850447346 0.0024734060611258336 0 -0.004012000435955879 0.0029798873481078829 0 -0.0044502511410729169 0.0028497913616399029 0 -0.004012000435955879 0.0029798873481078829 0 -0.0042497169246780708 0.0031503473900554879 0 -0.0044502511410729169 0.0028497913616399029 0 -0.004310979131333775 0.0024982580467533063 0 -0.0041363623774342516 0.0027483443431321176 0 -0.004012000435955879 0.0029798873481078829 0 -0.0040711767392089563 0.0032281990190537596 0 -0.0042497169246780708 0.0031503473900554879 0 -0.0042179363869734518 0.003382549235223813 0 -0.0040711767392089563 0.0032281990190537596 0 -0.0042497169246780708 0.0031503473900554879 0 -0.004388936734865791 0.0032332548972394946 0 -0.0042497169246780708 0.0031503473900554879 0 -0.0044502511410729169 0.0028497913616399029 0 -0.0042179363869734518 0.003382549235223813 0 -0.004388936734865791 0.0032332548972394946 0 -0.0042497169246780708 0.0031503473900554879 0 -0.0044502511410729169 0.0028497913616399029 0 -0.0045901968295277542 0.0032287715625188996 0 -0.0048659319099858787 0.0027107323384859792 0 -0.0046104772689809599 0.0031933960536563093 0 -0.0047294449756116455 0.0029047788063734379 0 -0.0044157219070466141 0.003473770053665315 0 -0.004388936734865791 0.0032332548972394946 0 -0.0045901968295277542 0.0032287715625188996 0 -0.004388936734865791 0.0032332548972394946 0 -0.0044502511410729169 0.0028497913616399029 0 -0.0045901968295277542 0.0032287715625188996 0 -0.0046272439108511355 0.0034131772117451781 0 -0.0045901968295277542 0.0032287715625188996 0 -0.0046635155447040501 0.0032213978579553435 0 -0.0046272439108511355 0.0034131772117451781 0 -0.0047304757343001195 0.0033285306478112926 0 -0.0046635155447040501 0.0032213978579553435 0 -0.0047165871743011251 0.0031182574400630317 0 -0.0046635155447040501 0.0032213978579553435 0 -0.0045927513499534715 0.003075675004792586 0 -0.0045901968295277542 0.0032287715625188996 0 -0.0046635155447040501 0.0032213978579553435 0 -0.0045927513499534715 0.003075675004792586 0 -0.0047294449756116455 0.0029047788063734379 0 -0.0047181203433615381 0.002511801513309491 0 -0.0047286013875089032 0.0030036465860826663 0 -0.0045927513499534715 0.003075675004792586 0 -0.0046315551954125957 0.002862268428407224 0 -0.0048659319099858787 0.0027107323384859792 0 -0.0047513281228425564 0.0024640665674645727 0 -0.0049710357616472795 0.0022945814690934398 0 -0.0047165871743011251 0.0031182574400630317 0 -0.0047286013875089032 0.0030036465860826663 0 -0.0045927513499534715 0.003075675004792586 0 -0.0044502511410729169 0.0028497913616399029 0 -0.0048659319099858787 0.0027107323384859792 0 -0.0047513281228425564 0.0024640665674645727 0 -0.0047513281228425564 0.0024640665674645727 0 -0.0047231942870134026 0.0022269670006985882 0 -0.0049710357616472795 0.0022945814690934398 0 -0.0045608226181249704 0.0023414212891901612 0 -0.0047513281228425564 0.0024640665674645727 0 -0.0047231942870134026 0.0022269670006985882 0 -0.0047280782414040089 0.0029515814613645629 0 -0.0047181203433615381 0.002511801513309491 0 -0.0047888993670245879 0.0025217553447587516 0 -0.0045755655667763535 0.0025834529268756699 0 -0.0046541166869576737 0.0023499981057723838 0 -0.0047556533425246331 0.0022180156496862152 0 -0.0046249978522027906 0.0021850841960274034 0 -0.0047085227055328523 0.0021437590863678593 0 -0.0047181203433615381 0.002511801513309491 0 -0.0047060606544988498 0.002089395884748125 0 -0.0047317673992650928 0.0023322025921486394 0 -0.0047556533425246331 0.0022180156496862152 0 -0.0046249978522027906 0.0021850841960274034 0 -0.0047181203433615381 0.002511801513309491 0 -0.004710925358370548 0.0022798009915435862 0 -0.0047231942870134026 0.0022269670006985882 0 -0.0047679310938008928 0.002046599117315345 0 -0.004633349343808487 0.0020512927969088633 0 -0.0047231942870134026 0.0022269670006985882 0 -0.0049710357616472795 0.0022945814690934398 0 -0.0047679310938008928 0.002046599117315345 0 -0.0047060606544988498 0.002089395884748125 0 -0.0045811961908755455 0.0019853840800866632 0 -0.0046249978522027906 0.0021850841960274034 0 -0.004672142583016267 0.0020538567048381745 0 -0.0044959253107839416 0.0020107953675323415 0 -0.0046249978522027906 0.0021850841960274034 0 -0.004672142583016267 0.0020538567048381745 0 -0.0047085227055328523 0.0021437590863678593 0 -0.004672142583016267 0.0020538567048381745 0 -0.0047085227055328523 0.0021437590863678593 0 -0.0047704344808800602 0.0021174423327722067 0 -0.004710925358370548 0.0022798009915435862 0 -0.0047531547388929762 0.0021468011986240073 0 -0.0047556533425246331 0.0022180156496862152 0 -0.0047085227055328523 0.0021437590863678593 0 -0.0047704344808800602 0.0021174423327722067 0 -0.004672142583016267 0.0020538567048381745 0 -0.0047875084234248674 0.0019084601572590869 0 -0.0046891684594802755 0.0017575718327672407 0 -0.004672142583016267 0.0020538567048381745 0 -0.0047704344808800602 0.0021174423327722067 0 -0.0047875084234248674 0.0019084601572590869 0 -0.0047875084234248674 0.0019084601572590869 0 -0.0046891684594802755 0.0017575718327672407 0 -0.004887628191344898 0.0016456030849319816 0 -0.0046891684594802755 0.0017575718327672407 0 -0.0045060148772359913 0.0017751287405630303 0 -0.0045507240846754489 0.0015941208569437558 0 -0.0046891684594802755 0.0017575718327672407 0 -0.0044959253107839416 0.0020107953675323415 0 -0.0045060148772359913 0.0017751287405630303 0 -0.004672142583016267 0.0020538567048381745 0 -0.0046891684594802755 0.0017575718327672407 0 -0.0044959253107839416 0.0020107953675323415 0 -0.0045811961908755455 0.0019853840800866632 0 -0.0044980775104907873 0.0019034931955404725 0 -0.0044959253107839416 0.0020107953675323415 0 -0.0045060148772359913 0.0017751287405630303 0 -0.0043268639799343145 0.0017942600818628672 0 -0.0045060148772359913 0.0017751287405630303 0 -0.0043268639799343145 0.0017942600818628672 0 -0.0042846309525374797 0.0016009380236699778 0 -0.0046895154926851123 0.0020288483406648147 0 -0.0047752658262089206 0.0020539532749817928 0 -0.004785192272330846 0.0021199229136973463 0 -0.0046895154926851123 0.0020288483406648147 0 -0.0046954105741830879 0.0019561029591591496 0 -0.0048134840479968355 0.0020005595980922058 0 -0.0046589027952837932 0.001941213491455083 0 -0.0046895154926851123 0.0020288483406648147 0 -0.0046954105741830879 0.0019561029591591496 0 -0.0046954105741830879 0.0019561029591591496 0 -0.0046485405004834139 0.0019597444388424401 0 -0.0046522972690163766 0.001903839326902529 0 -0.0046589027952837932 0.001941213491455083 0 -0.0046954105741830879 0.0019561029591591496 0 -0.0046485405004834139 0.0019597444388424401 0 -0.0046485405004834139 0.0019597444388424401 0 -0.004633349343808487 0.0020512927969088633 0 -0.0046522972690163766 0.001903839326902529 0 -0.0046589027952837932 0.001941213491455083 0 -0.0046485405004834139 0.0019597444388424401 0 -0.004633349343808487 0.0020512927969088633 0 -0.0047679310938008928 0.002046599117315345 0 -0.0046589027952837932 0.001941213491455083 0 -0.004633349343808487 0.0020512927969088633 0 -0.0044929352455353802 0.0021923220982468855 0 -0.004633349343808487 0.0020512927969088633 0 -0.0046522972690163766 0.001903839326902529 0 -0.0046457169665567672 0.0020484118310053045 0 -0.0046465234153612615 0.0019329006744546967 0 -0.0042489574736772678 0.002270739257702355 0 -0.0044929352455353802 0.0021923220982468855 0 -0.0046522972690163766 0.001903839326902529 0 -0.0050500448394337994 0.0017939820562580544 0 -0.0050401235801517908 0.0017999217615627336 0 -0.0046522972690163766 0.001903839326902529 0 -0.0050919069531224926 0.001883329948199116 0 -0.0050500448394337994 0.0017939820562580544 0 -0.0050401235801517908 0.0017999217615627336 0 -0.0050401235801517908 0.0017999217615627336 0 -0.0050604234441122102 0.0017375231206330347 0 -0.004889876927641713 0.0018848612968721597 0 -0.0046954105741830879 0.0019561029591591496 0 -0.004889876927641713 0.0018848612968721597 0 -0.0046522972690163766 0.001903839326902529 0 -0.0050401235801517908 0.0017999217615627336 0 -0.004889876927641713 0.0018848612968721597 0 -0.0046522972690163766 0.001903839326902529 0 -0.0046954105741830879 0.0019561029591591496 0 -0.004889876927641713 0.0018848612968721597 0 -0.0048134840479968355 0.0020005595980922058 0 -0.0048134840479968355 0.0020005595980922058 0 -0.0047752658262089206 0.0020539532749817928 0 -0.0048520249974850207 0.0020550080790149717 0 -0.0047752658262089206 0.0020539532749817928 0 -0.0048520249974850207 0.0020550080790149717 0 -0.0048072006823419626 0.0020842006757253147 0 -0.0046895154926851123 0.0020288483406648147 0 -0.0048134840479968355 0.0020005595980922058 0 -0.0047752658262089206 0.0020539532749817928 0 -0.0048134840479968355 0.0020005595980922058 0 -0.0048520249974850207 0.0020550080790149717 0 -0.0048909207904129044 0.0020011291509934395 0 -0.0048520249974850207 0.0020550080790149717 0 -0.0048909207904129044 0.0020011291509934395 0 -0.0049151244056754853 0.0020640090843487527 0 -0.004889876927641713 0.0018848612968721597 0 -0.0048134840479968355 0.0020005595980922058 0 -0.0048909207904129044 0.0020011291509934395 0 -0.0050604234441122102 0.0017375231206330347 0 -0.004889876927641713 0.0018848612968721597 0 -0.0051099673585136614 0.0016208894889604278 0 -0.004906354529042525 0.0018480283269778426 0 -0.0049704417880045773 0.0017900518445167193 0 -0.0050604234441122102 0.0017375231206330347 0 -0.0051099673585136614 0.0016208894889604278 0 -0.0050583383037829917 0.0015634682629896951 0 -0.0050604234441122102 0.0017375231206330347 0 -0.0050583383037829917 0.0015634682629896951 0 -0.005064861530682226 0.0017264704538737571 0 -0.0051099673585136614 0.0016208894889604278 0 -0.0050583383037829917 0.0015634682629896951 0 -0.0050853905192156613 0.0013785919625317431 0 -0.0049704417880045773 0.0017900518445167193 0 -0.0050295861085129876 0.0017826494769395658 0 -0.0050583383037829917 0.0015634682629896951 0 -0.0049999017266702094 0.0012978114470936859 0 -0.0050853905192156613 0.0013785919625317431 0 -0.0050583383037829917 0.0015634682629896951 0 -0.004999922276088223 0.0015525933870622285 0 -0.005064861530682226 0.0017264704538737571 0 -0.0050583383037829917 0.0015634682629896951 0 -0.0049999017266702094 0.0012978114470936859 0 -0.004999922276088223 0.0015525933870622285 0 -0.004999922276088223 0.0015525933870622285 0 -0.005064861530682226 0.0017264704538737571 0 -0.0049999568579767268 0.0018077591098597889 0 -0.0050401235801517908 0.0017999217615627336 0 -0.0050604234441122102 0.0017375231206330347 0 -0.005064861530682226 0.0017264704538737571 0 -0.0050919069531224926 0.001883329948199116 0 -0.0050401235801517908 0.0017999217615627336 0 -0.005064861530682226 0.0017264704538737571 0 -0.0050919069531224926 0.001883329948199116 0 -0.005064861530682226 0.0017264704538737571 0 -0.0049999568579767268 0.0018077591098597889 0 -0.0049999994415773916 0.00073616947874851789 0 -0.0052331927471716373 0.00082295540500273187 0 -0.0051755968995214653 0.00057670089256737828 0 -0.0052331927471716373 0.00082295540500273187 0 -0.0053450204767235346 0.00059806607888851114 0 -0.0051755968995214653 0.00057670089256737828 0 -0.0036584987845821289 0.001063516552672507 0 -0.0036933590752039869 0.0012840256898916859 0 -0.0038165240782258732 0.0012403979253939141 0 -0.0052331927471716373 0.00082295540500273187 0 -0.0049999846017294023 0.00092519032531046617 0 -0.0051146961165731341 0.0010530070830738288 0 -0.0049999994415773916 0.00073616947874851789 0 -0.0052331927471716373 0.00082295540500273187 0 -0.0049999846017294023 0.00092519032531046617 0 -0.0049999846017294023 0.00092519032531046617 0 -0.005088492346509068 0.0010485674294083967 0 -0.0051146961165731341 0.0010530070830738288 0 -0.005000000905665946 0.0009252099501337478 0 -0.0050964276069841155 0.0010562353103135973 0 -0.0049999975832940328 0.0010398503149598535 0 -0.004999999690037899 0.00092523838070988321 0 -0.0049160694301314959 0.0012243709151786863 0 -0.0049160694301314959 0.0012243709151786863 0 -0.0046545080470894711 0.001302277600572239 0 -0.0049110461541531049 0.0012424624709234651 0 -0.0048473561320579502 0.0011574365283213092 0 -0.0049475640092794008 0.0011736946114463986 0 -0.0048985315634747775 0.0013514787942325542 0 -0.0049160694301314959 0.0012243709151786863 0 -0.0048985315634747775 0.0013514787942325542 0 -0.0046545080470894711 0.001302277600572239 0 -0.0049160694301314959 0.0012243709151786863 0 -0.0050000512527746538 0.0010399930947007515 0 -0.0051145213726927928 0.0010806283394242191 0 -0.005096602268371467 0.00105664895966378 0 -0.0049999971030024789 0.0010398564316340181 0 -0.0050000002281562345 0.0012973453887102761 0 -0.0051145213726927928 0.0010806283394242191 0 -0.0049999971030024789 0.0010398564316340181 0 -0.0049999017266702094 0.0012978114470936859 0 -0.0050433445518759936 0.0013016534664627244 0 -0.0050853905192156613 0.0013785919625317431 0 -0.0050001982694248409 0.0012970668991047181 0 -0.0048985315634747775 0.0013514787942325542 0 -0.0049407360863784958 0.0021109026813314362 0 -0.0049151244056754853 0.0020640090843487527 0 -0.0048768802058117046 0.0021138870429750537 0 -0.0049434635396086437 0.0021055627311191163 0 -0.0049407360863784958 0.0021109026813314362 0 -0.0049151244056754853 0.0020640090843487527 0 -0.0048985315634747775 0.0013514787942325542 0 -0.0050295861085129876 0.0017826494769395658 0 -0.0036584987845821289 0.001063516552672507 0 -0.0035036773983216389 0.0013879136070777602 0 -0.0036933590752039869 0.0012840256898916859 0 -0.0046545080470894711 0.001302277600572239 0 -0.0042452704434389867 0.001808365114386325 0 -0.0035036773983216389 0.0013879136070777602 0 -0.0036933590752039869 0.0012840256898916859 0 -0.0037950535995890226 0.0014428128836978251 0 -0.0043876574850333794 0.00095297015904397073 0 -0.0046545080470894711 0.001302277600572239 0 -0.0036933590752039869 0.0012840256898916859 0 -0.0038165240782258732 0.0012403979253939141 0 -0.0037950535995890226 0.0014428128836978251 0 -0.003947638126528011 0.0013855138278430908 0 -0.0037950535995890226 0.0014428128836978251 0 -0.0041053809629631004 0.001520045241859123 0 -0.0038165240782258732 0.0012403979253939141 0 -0.0039386467699789136 0.0012696362434694982 0 -0.003947638126528011 0.0013855138278430908 0 -0.0038165240782258732 0.0012403979253939141 0 -0.003947638126528011 0.0013855138278430908 0 -0.0037950535995890226 0.0014428128836978251 0 -0.0048520249974850207 0.0020550080790149717 0 -0.0048768802058117046 0.0021138870429750537 0 -0.0048072006823419626 0.0020842006757253147 0 -0.0048520249974850207 0.0020550080790149717 0 -0.0049151244056754853 0.0020640090843487527 0 -0.0048768802058117046 0.0021138870429750537 0 -0.0042452704434389867 0.001808365114386325 0 -0.0045117842313263899 0.0018323249761582261 0 -0.0048768802058117046 0.0021138870429750537 0 -0.0048072006823419626 0.0020842006757253147 0 -0.004785192272330846 0.0021199229136973463 0 -0.0047752658262089206 0.0020539532749817928 0 -0.0048072006823419626 0.0020842006757253147 0 -0.004785192272330846 0.0021199229136973463 0 -0.0041053809629631004 0.001520045241859123 0 -0.0041268593889218462 0.001460401787631387 0 -0.0040712773074477737 0.0014172603748277119 0 -0.0041053809629631004 0.001520045241859123 0 -0.0041268593889218462 0.001460401787631387 0 -0.004191032609289715 0.001492386598504352 0 -0.0041268593889218462 0.001460401787631387 0 -0.0041718513015432434 0.0014432860191200805 0 -0.004191032609289715 0.001492386598504352 0 -0.0041268593889218462 0.001460401787631387 0 -0.0041383341603351961 0.0013739660727347934 0 -0.0041718513015432434 0.0014432860191200805 0 -0.0041268593889218462 0.001460401787631387 0 -0.0040712773074477737 0.0014172603748277119 0 -0.0041383341603351961 0.0013739660727347934 0 -0.0040712773074477737 0.0014172603748277119 0 -0.0041383341603351961 0.0013739660727347934 0 -0.0040508997585820957 0.001324404434276681 0 -0.003947638126528011 0.0013855138278430908 0 -0.0040712773074477737 0.0014172603748277119 0 -0.0040508997585820957 0.001324404434276681 0 -0.003947638126528011 0.0013855138278430908 0 -0.0041053809629631004 0.001520045241859123 0 -0.0040712773074477737 0.0014172603748277119 0 -0.0039386467699789136 0.0012696362434694982 0 -0.0040508997585820957 0.001324404434276681 0 -0.003999806701114589 0.0011472388635607521 0 -0.0039386467699789136 0.0012696362434694982 0 -0.003947638126528011 0.0013855138278430908 0 -0.0040508997585820957 0.001324404434276681 0 -0.0040508997585820957 0.001324404434276681 0 -0.003999806701114589 0.0011472388635607521 0 -0.0041774681746200217 0.0013031972708834032 0 -0.0041383341603351961 0.0013739660727347934 0 -0.0040508997585820957 0.001324404434276681 0 -0.0041774681746200217 0.0013031972708834032 0 -0.003999806701114589 0.0011472388635607521 0 -0.0042235770281124673 0.0011688415200647518 0 -0.0041601566683437934 0.00099681375748356571 0 -0.003999806701114589 0.0011472388635607521 0 -0.0042235770281124673 0.0011688415200647518 0 -0.0041774681746200217 0.0013031972708834032 0 -0.003999806701114589 0.0011472388635607521 0 -0.0039854520414512509 0.00090081913963378074 0 -0.0041601566683437934 0.00099681375748356571 0 -0.0036584987845821289 0.001063516552672507 0 -0.0038165240782258732 0.0012403979253939141 0 -0.003999806701114589 0.0011472388635607521 0 -0.0036584987845821289 0.001063516552672507 0 -0.003999806701114589 0.0011472388635607521 0 -0.0039854520414512509 0.00090081913963378074 0 -0.0038165240782258732 0.0012403979253939141 0 -0.0039386467699789136 0.0012696362434694982 0 -0.003999806701114589 0.0011472388635607521 0 -0.0036584987845821289 0.001063516552672507 0 -0.0039854520414512509 0.00090081913963378074 0 -0.0038285991586076073 0.00072722959095113452 0 -0.0043876574850333794 0.00095297015904397073 0 -0.0046657399673000867 0.00061256109270776916 0 -0.0039854520414512509 0.00090081913963378074 0 -0.0041601566683437934 0.00099681375748356571 0 -0.0041917514178459797 0.00074507339306564705 0 -0.0039854520414512509 0.00090081913963378074 0 -0.0041917514178459797 0.00074507339306564705 0 -0.0038285991586076073 0.00072722959095113452 0 -0.0044087454083416534 0.0010222734558849513 0 -0.0041601566683437934 0.00099681375748356571 0 -0.0041917514178459797 0.00074507339306564705 0 -0.0048737446523818943 0.00062972041572986834 0 -0.0043851382175430264 0.00061558186441681116 0 -0.0046032689982942552 0.00071291696258735614 0 -0.0044087454083416534 0.0010222734558849513 0 -0.0048133958177419044 0.00098650199790857335 0 -0.0046032689982942552 0.00071291696258735614 0 -0.0044087454083416534 0.0010222734558849513 0 -0.0041917514178459797 0.00074507339306564705 0 -0.0046166894506082202 0.001238005108283284 0 -0.0044087454083416534 0.0010222734558849513 0 -0.0048133958177419044 0.00098650199790857335 0 -0.0046166894506082202 0.001238005108283284 0 -0.0044087454083416534 0.0010222734558849513 0 -0.004410236525456291 0.0013277803927961422 0 -0.0044087454083416534 0.0010222734558849513 0 -0.0042235770281124673 0.0011688415200647518 0 -0.0041601566683437934 0.00099681375748356571 0 -0.0044087454083416534 0.0010222734558849513 0 -0.0042235770281124673 0.0011688415200647518 0 -0.004410236525456291 0.0013277803927961422 0 -0.0042235770281124673 0.0011688415200647518 0 -0.0041774681746200217 0.0013031972708834032 0 -0.004410236525456291 0.0013277803927961422 0 -0.0041774681746200217 0.0013031972708834032 0 -0.0042524185497595027 0.0014394464893869336 0 -0.004410236525456291 0.0013277803927961422 0 -0.0042524185497595027 0.0014394464893869336 0 -0.0043991503290048053 0.0015031035186596465 0 -0.004410236525456291 0.0013277803927961422 0 -0.0041383341603351961 0.0013739660727347934 0 -0.0041774681746200217 0.0013031972708834032 0 -0.0042524185497595027 0.0014394464893869336 0 -0.0041383341603351961 0.0013739660727347934 0 -0.0042524185497595027 0.0014394464893869336 0 -0.0041718513015432434 0.0014432860191200805 0 -0.0042524185497595027 0.0014394464893869336 0 -0.0041718513015432434 0.0014432860191200805 0 -0.004191032609289715 0.001492386598504352 0 -0.0042524185497595027 0.0014394464893869336 0 -0.004191032609289715 0.001492386598504352 0 -0.0042846309525374797 0.0016009380236699778 0 -0.0043268639799343145 0.0017942600818628672 0 -0.0041053809629631004 0.001520045241859123 0 -0.0042846309525374797 0.0016009380236699778 0 -0.0044980775104907873 0.0019034931955404725 0 -0.0045117842313263899 0.0018323249761582261 0 -0.0041053809629631004 0.001520045241859123 0 -0.004191032609289715 0.001492386598504352 0 -0.0042846309525374797 0.0016009380236699778 0 -0.0042524185497595027 0.0014394464893869336 0 -0.0042846309525374797 0.0016009380236699778 0 -0.0043991503290048053 0.0015031035186596465 0 -0.0042846309525374797 0.0016009380236699778 0 -0.0045507240846754489 0.0015941208569437558 0 -0.0043991503290048053 0.0015031035186596465 0 -0.0045060148772359913 0.0017751287405630303 0 -0.0042846309525374797 0.0016009380236699778 0 -0.0045507240846754489 0.0015941208569437558 0 -0.0045507240846754489 0.0015941208569437558 0 -0.0043991503290048053 0.0015031035186596465 0 -0.004410236525456291 0.0013277803927961422 0 -0.0046166894506082202 0.001238005108283284 0 -0.0045507240846754489 0.0015941208569437558 0 -0.004410236525456291 0.0013277803927961422 0 -0.0046166894506082202 0.001238005108283284 0 -0.0045507240846754489 0.0015941208569437558 0 -0.0047966373739282168 0.0014213053129847569 0 -0.0046891684594802755 0.0017575718327672407 0 -0.0045507240846754489 0.0015941208569437558 0 -0.0047966373739282168 0.0014213053129847569 0 -0.0046891684594802755 0.0017575718327672407 0 -0.0047966373739282168 0.0014213053129847569 0 -0.004887628191344898 0.0016456030849319816 0 -0.0046932979955658033 0.0014506248855765383 0 -0.0054689305463399944 0.0013080645003409447 0 -0.0047966373739282168 0.0014213053129847569 0 -0.004887628191344898 0.0016456030849319816 0 -0.004922786750795256 0.0014383772872719486 0 -0.0047966373739282168 0.0014213053129847569 0 -0.0052123830423955733 0.001000778226308649 0 -0.0048133958177419044 0.00098650199790857335 0 -0.0047966373739282168 0.0014213053129847569 0 -0.0052123830423955733 0.001000778226308649 0 -0.0053889495827385784 0.0013085248695899037 0 -0.0046166894506082202 0.001238005108283284 0 -0.0047966373739282168 0.0014213053129847569 0 -0.0048133958177419044 0.00098650199790857335 0 -0.0046032689982942552 0.00071291696258735614 0 -0.0048133958177419044 0.00098650199790857335 0 -0.0052329604658442937 0.00065606319936976237 0 -0.0048737446523818943 0.00062972041572986834 0 -0.0052115407404317781 0.00065498052366903413 0 -0.0052123830423955733 0.001000778226308649 0 -0.0048133958177419044 0.00098650199790857335 0 -0.0052329604658442937 0.00065606319936976237 0 -0.0052329604658442937 0.00065606319936976237 0 -0.005333888594694078 0.00049844921339262289 0 -0.00541012287152006 0.00070934587422061713 0 -0.0052123830423955733 0.001000778226308649 0 -0.0052329604658442937 0.00065606319936976237 0 -0.00541012287152006 0.00070934587422061713 0 -0.0052329604658442937 0.00065606319936976237 0 -0.0052181170614475124 0.00041728816286596158 0 -0.005333888594694078 0.00049844921339262289 0 -0.0052181170614475124 0.00041728816286596158 0 -0.0053566505878562274 0.00037824550964681529 0 -0.005333888594694078 0.00049844921339262289 0 -0.0050654950106649981 0.00053479164165727957 0 -0.0052181170614475124 0.00041728816286596158 0 -0.0050883872551677435 0.00035639898631754913 0 -0.0050654950106649981 0.00053479164165727957 0 -0.0052329604658442937 0.00065606319936976237 0 -0.0052181170614475124 0.00041728816286596158 0 -0.0052181170614475124 0.00041728816286596158 0 -0.0051914222299113541 0.00025806204552024202 0 -0.0050883872551677435 0.00035639898631754913 0 -0.0051914222299113541 0.00025806204552024202 0 -0.0050650324075305212 0.00018771653985933339 0 -0.0050883872551677435 0.00035639898631754913 0 -0.0052181170614475124 0.00041728816286596158 0 -0.0051914222299113541 0.00025806204552024202 0 -0.0053473562911139578 0.00023846409234423699 0 -0.0051914222299113541 0.00025806204552024202 0 -0.0053473562911139578 0.00023846409234423699 0 -0.0052467347717414653 8.9881247518929942e-05 0 -0.0052181170614475124 0.00041728816286596158 0 -0.0053566505878562274 0.00037824550964681529 0 -0.0053473562911139578 0.00023846409234423699 0 -0.0053629298451370287 0.00019074770304544433 0 -0.0053695881775914327 5.1551581758672948e-05 0 -0.0052467347717414653 8.9881247518929942e-05 0 -0.0053695881775914327 5.1551581758672948e-05 0 -0.0052999191696067949 -6.2372303615496885e-05 0 -0.0052467347717414653 8.9881247518929942e-05 0 -0.0053701458079310161 0.00021055598332197635 0 -0.0052478118353293359 0.00010044653223656757 0 -0.0053695881775914327 5.1551581758672948e-05 0 -0.0052999191696067949 -6.2372303615496885e-05 0 -0.0054188937777155752 -8.3182224413102255e-05 0 -0.0053439725388817064 -0.00016628826601667421 0 -0.0052999191696067949 -6.2372303615496885e-05 0 -0.0054188937777155752 -8.3182224413102255e-05 0 -0.0052999191696067949 -6.2372303615496885e-05 0 -0.0051853034082550613 -1.7896249492678781e-05 0 -0.0052467347717414653 8.9881247518929942e-05 0 -0.0052309688619609192 -0.00017413819720619905 0 -0.0052999191696067949 -6.2372303615496885e-05 0 -0.0051853034082550613 -1.7896249492678781e-05 0 -0.0051914222299113541 0.00025806204552024202 0 -0.0052467347717414653 8.9881247518929942e-05 0 -0.0050650324075305212 0.00018771653985933339 0 -0.0051853034082550613 -1.7896249492678781e-05 0 -0.0052467347717414653 8.9881247518929942e-05 0 -0.0050650324075305212 0.00018771653985933339 0 -0.0051853034082550613 -1.7896249492678781e-05 0 -0.0050831207144569172 1.6850567751978399e-05 0 -0.0050650324075305212 0.00018771653985933339 0 -0.0050831207144569172 1.6850567751978399e-05 0 -0.0050078571533016293 0.00013296968024470622 0 -0.0050650324075305212 0.00018771653985933339 0 -0.0052309688619609192 -0.00017413819720619905 0 -0.0051853034082550613 -1.7896249492678781e-05 0 -0.0051319398937492589 -0.00010475359137375239 0 -0.0051853034082550613 -1.7896249492678781e-05 0 -0.0050831207144569172 1.6850567751978399e-05 0 -0.0051319398937492589 -0.00010475359137375239 0 -0.0050831207144569172 1.6850567751978399e-05 0 -0.005027950027798646 -9.1843551674830555e-05 0 -0.0050041810679675282 4.0102954107652317e-05 0 -0.0050831207144569172 1.6850567751978399e-05 0 -0.0051319398937492589 -0.00010475359137375239 0 -0.005027950027798646 -9.1843551674830555e-05 0 -0.005027950027798646 -9.1843551674830555e-05 0 -0.0050041810679675282 4.0102954107652317e-05 0 -0.0048826758217322425 0.00010556517609920519 0 -0.0050041810679675282 4.0102954107652317e-05 0 -0.0050078571533016293 0.00013296968024470622 0 -0.0048826758217322425 0.00010556517609920519 0 -0.0049112148370229168 0.00014189116537890369 0 -0.0049587396057870162 0.00019756463996345827 0 -0.0050831207144569172 1.6850567751978399e-05 0 -0.0050041810679675282 4.0102954107652317e-05 0 -0.0050078571533016293 0.00013296968024470622 0 -0.0048689830818226315 0.00015450825208402415 0 -0.0047755845540096761 0.00028854361672093652 0 -0.0046956424499095453 0.00012126088770651093 0 -0.0048689830818226315 0.00015450825208402415 0 -0.0047755845540096761 0.00028854361672093652 0 -0.0049141866554603935 0.00035447042036932134 0 -0.0050650324075305212 0.00018771653985933339 0 -0.0050883872551677435 0.00035639898631754913 0 -0.0049141866554603935 0.00035447042036932134 0 -0.0048689830818226315 0.00015450825208402415 0 -0.0050650324075305212 0.00018771653985933339 0 -0.0049141866554603935 0.00035447042036932134 0 -0.0049112148370229168 0.00014189116537890369 0 -0.005063561065781633 0.0001817623063974008 0 -0.0050654950106649981 0.00053479164165727957 0 -0.0050883872551677435 0.00035639898631754913 0 -0.0049141866554603935 0.00035447042036932134 0 -0.0050654950106649981 0.00053479164165727957 0 -0.0049141866554603935 0.00035447042036932134 0 -0.0047998086165284386 0.00050392181360521158 0 -0.0047755845540096761 0.00028854361672093652 0 -0.0049141866554603935 0.00035447042036932134 0 -0.0047998086165284386 0.00050392181360521158 0 -0.0043851382175430264 0.00061558186441681116 0 -0.0046657399673000867 0.00061256109270776916 0 -0.0047755845540096761 0.00028854361672093652 0 -0.0047998086165284386 0.00050392181360521158 0 -0.0046035377360114267 0.00029996259999857987 0 -0.0047998086165284386 0.00050392181360521158 0 -0.0045112806339264785 0.00047466653937993357 0 -0.0046035377360114267 0.00029996259999857987 0 -0.0046657399673000867 0.00061256109270776916 0 -0.004968721047851064 0.00036066285180269602 0 -0.0052682040337137907 0.00053925702510714154 0 -0.0052544754361989569 0.00049130789806465418 0 -0.0052977490268377751 0.00046829748733784082 0 -0.0052682040337137907 0.00053925702510714154 0 -0.0052544754361989569 0.00049130789806465418 0 -0.0052109832854201248 0.00051070270837114118 0 -0.0052977490268377751 0.00046829748733784082 0 -0.0052399492185343666 0.00044791233203452706 0 -0.0052679654612375606 0.00038735665473809062 0 -0.0052544754361989569 0.00049130789806465418 0 -0.0052977490268377751 0.00046829748733784082 0 -0.0052399492185343666 0.00044791233203452706 0 -0.0047755845540096761 0.00028854361672093652 0 -0.0046035377360114267 0.00029996259999857987 0 -0.0046956424499095453 0.00012126088770651093 0 -0.004968721047851064 0.00036066285180269602 0 -0.0049587396057870162 0.00019756463996345827 0 -0.0049629478152825529 3.4219019018859423e-05 0 -0.0049288634822215807 -8.6682700047427058e-05 0 -0.0048800907430689641 1.5789369107133398e-05 0 -0.0049587396057870162 0.00019756463996345827 0 -0.0051996622803627207 0.00015955580387320926 0 -0.0052977490268377751 0.00046829748733784082 0 -0.0053294119079837958 0.00040092006180033647 0 -0.0052679654612375606 0.00038735665473809062 0 -0.0050194143979422935 -0.00012900178752626469 0 -0.0049587396057870162 0.00019756463996345827 0 -0.005027950027798646 -9.1843551674830555e-05 0 -0.0049629478152825529 3.4219019018859423e-05 0 -0.0049288634822215807 -8.6682700047427058e-05 0 -0.0050933389032840771 -8.9640351634135508e-05 0 -0.0051996622803627207 0.00015955580387320926 0 -0.0052789705464901934 -7.0846356833837075e-05 0 -0.0051822517535851853 -4.6606259798766119e-05 0 -0.0052293841196260522 7.6954080420264248e-05 0 -0.0052566995518693784 0.00042232329531791872 0 -0.0051996622803627207 0.00015955580387320926 0 -0.0052945196977392459 0.00037265136655803625 0 -0.0051834841029142443 0.0001906880039306751 0 -0.0051281229556634058 0.00031553376939111994 0 -0.0052945196977392459 0.00037265136655803625 0 -0.0053652250441711116 0.00023343983879419949 0 -0.0051834841029142443 0.0001906880039306751 0 -0.0051996622803627207 0.00015955580387320926 0 -0.0051602312506236073 0.00013729165574753033 0 -0.0051822517535851853 -4.6606259798766119e-05 0 -0.0052293841196260522 7.6954080420264248e-05 0 -0.0051133303955613616 7.3140245492409395e-05 0 -0.0051822517535851853 -4.6606259798766119e-05 0 -0.0051133303955613616 7.3140245492409395e-05 0 -0.0050966393333243647 -2.6120526976787257e-05 0 -0.0051133303955613616 7.3140245492409395e-05 0 -0.0050966393333243647 -2.6120526976787257e-05 0 -0.0049999647138885628 0.0001387290479955528 0 -0.0049999611365385832 -0.000112492882398715 0 -0.0050966393333243647 -2.6120526976787257e-05 0 -0.0049999647138885628 0.0001387290479955528 0 -0.0049999984654704255 0.00013896770557528384 0 -0.0049999902647101671 0.00034303872977992019 0 -0.0051281229556634058 0.00031553376939111994 0 -0.0051602312506236073 0.00013729165574753033 0 -0.0050000007121842206 0.00013892901893815314 0 -0.0051834841029142443 0.0001906880039306751 0 -0.0049999984654704255 0.00013896770557528384 0 -0.0051281229556634058 0.00031553376939111994 0 -0.0049999902647101671 0.00034303872977992019 0 -0.0051034619473479372 0.00041871047333952408 0 -0.0050000048186451332 0.00054709817029468242 0 -0.0051034619473479372 0.00041871047333952408 0 -0.0051820166848145456 0.00042069375644440639 0 -0.0051390232469341541 0.00048737820056673174 0 -0.0049999902647101671 0.00034303872977992019 0 -0.0051034619473479372 0.00041871047333952408 0 -0.0051281229556634058 0.00031553376939111994 0 -0.0051034619473479372 0.00041871047333952408 0 -0.0051281229556634058 0.00031553376939111994 0 -0.0051820166848145456 0.00042069375644440639 0 -0.0052945196977392459 0.00037265136655803625 0 -0.0051281229556634058 0.00031553376939111994 0 -0.0051820166848145456 0.00042069375644440639 0 -0.0052945196977392459 0.00037265136655803625 0 -0.0051820166848145456 0.00042069375644440639 0 -0.0052109832854201248 0.00051070270837114118 0 -0.0052566995518693784 0.00042232329531791872 0 -0.0052214882123721579 0.00049326952922713007 0 -0.0052544754361989569 0.00049130789806465418 0 -0.0052399492185343666 0.00044791233203452706 0 -0.0052109832854201248 0.00051070270837114118 0 -0.0052682040337137907 0.00053925702510714154 0 -0.0052109832854201248 0.00051070270837114118 0 -0.0051769664633017094 0.0005436378907689738 0 -0.0046657399673000867 0.00061256109270776916 0 -0.0052854219157098536 0.00056822335790924214 0 -0.0051820166848145456 0.00042069375644440639 0 -0.0052109832854201248 0.00051070270837114118 0 -0.0051390232469341541 0.00048737820056673174 0 -0.0052109832854201248 0.00051070270837114118 0 -0.0051769664633017094 0.0005436378907689738 0 -0.0051390232469341541 0.00048737820056673174 0 -0.0051769664633017094 0.0005436378907689738 0 -0.0050000048186451332 0.00054709817029468242 0 -0.0051390232469341541 0.00048737820056673174 0 -0.0049999994415773916 0.00073616947874851789 0 -0.0051755968995214653 0.00057670089256737828 0 -0.0049999913484417829 0.00054714650383786464 0 -0.0052854219157098536 0.00056822335790924214 0 -0.0049999286597931418 0.00054711434907127061 0 -0.0051034619473479372 0.00041871047333952408 0 -0.0050000048186451332 0.00054709817029468242 0 -0.0051390232469341541 0.00048737820056673174 0 -0.0022302538775978548 0.0027265985388202009 0 -0.0024791147838396465 0.0027730445310959377 0 -0.0022636088998848778 0.0027651530661080654 0 -0.0023644821617738294 0.0022092086995599718 0 -0.0024087464866799418 0.0016498541448884271 0 -0.0028053114432162619 0.0013095284617457843 0 -0.0028105310625409978 0.001279737637742873 0 -0.0027568664327742879 0.0013268845058107186 0 -0.0028257907375114823 0.0013103968099858587 0 -0.0028053114432162619 0.0013095284617457843 0 -0.0028151441928932755 0.0013386112250490276 0 -0.0028189470051268452 0.0012955700423923403 0 -0.0028053114432162619 0.0013095284617457843 0 -0.0028105310625409978 0.001279737637742873 0 -0.0028189470051268452 0.0012955700423923403 0 -0.0028257907375114823 0.0013103968099858587 0 -0.0028317579625785666 0.0012975708706173821 0 -0.0028189470051268452 0.0012955700423923403 0 -0.0028257907375114823 0.0013103968099858587 0 -0.0028053114432162619 0.0013095284617457843 0 -0.0023644821617738294 0.0022092086995599718 0 -0.0024240755204706053 0.0024118115168009183 0 -0.0026033998154945241 0.0022182234073702119 0 -0.0025278083005607311 0.002204891256188197 0 -0.0023909923011301189 0.0023349370015335732 0 -0.0028189470051268452 0.0012955700423923403 0 -0.0028105310625409978 0.001279737637742873 0 -0.0028216806608092797 0.0012815325155186171 0 -0.0028189470051268452 0.0012955700423923403 0 -0.0028216806608092797 0.0012815325155186171 0 -0.0028317579625785666 0.0012975708706173821 0 -0.0023644821617738294 0.0022092086995599718 0 -0.0025394215230307594 0.0020066717625715348 0 -0.0025278083005607311 0.002204891256188197 0 -0.002309213506198309 0.002165454738291796 0 -0.0023909923011301189 0.0023349370015335732 0 -0.002560102063993088 0.0018752252609763116 0 -0.0026676333267087885 0.0018938183243766159 0 -0.0026543543178941952 0.0019350003607384991 0 -0.0026041061177068331 0.0019835430582131035 0 -0.0024986517055355772 0.0019646085850278912 0 -0.0024855577455802896 0.0023518043690503418 0 -0.0025394215230307594 0.0020066717625715348 0 -0.0025154912129004663 0.0019969118227977914 0 -0.0025394215230307594 0.0020066717625715348 0 -0.0026967879446968589 0.0016171616287975737 0 -0.0028216806608092797 0.0012815325155186171 0 -0.0028317579625785666 0.0012975708706173821 0 -0.0028513774960899508 0.0012991996000166987 0 -0.0025154912129004663 0.0019969118227977914 0 -0.0026967879446968589 0.0016171616287975737 0 -0.0025154912129004663 0.0019969118227977914 0 -0.0025228910546784907 0.0019932764731735134 0 -0.0026035628034955767 0.0019828012052048407 0 -0.0024986517055355772 0.0019646085850278912 0 -0.0026328442363391827 0.0018926691985963321 0 -0.0028392219103235954 0.0013944428164615744 0 -0.0026967879446968589 0.0016171616287975737 0 -0.0024986517055355772 0.0019646085850278912 0 -0.0025233729666973739 0.0018218102014400806 0 -0.0026328442363391827 0.0018926691985963321 0 -0.0029864421540039192 0.0011337859573245989 0 -0.00293476009065715 0.0011450786291672759 0 -0.0029626173667125261 0.0011777034377379661 0 -0.0028257907375114823 0.0013103968099858587 0 -0.0028317579625785666 0.0012975708706173821 0 -0.0028355228480073944 0.0013072160376285244 0 -0.0028418050817890388 0.0013056016235275818 0 -0.0028317579625785666 0.0012975708706173821 0 -0.0028513774960899508 0.0012991996000166987 0 -0.0028418050817890388 0.0013056016235275818 0 -0.0028317579625785666 0.0012975708706173821 0 -0.0028355228480073944 0.0013072160376285244 0 -0.0027944494543729304 0.0014361449710420541 0 -0.002739457958449037 0.0014009121367445383 0 -0.002722994363647539 0.0014519224606390668 0 -0.0028418050817890388 0.0013056016235275818 0 -0.0028513774960899508 0.0012991996000166987 0 -0.0028471854232347419 0.0013127574841796542 0 -0.0026967879446968589 0.0016171616287975737 0 -0.0028496919361907466 0.0013367507067633987 0 -0.0028392219103235954 0.0013944428164615744 0 -0.0028496919361907466 0.0013367507067633987 0 -0.0028496919361907466 0.0013367507067633987 0 -0.0028495845874371888 0.0013361857009708638 0 -0.0028257907375114823 0.0013103968099858587 0 -0.0028427694670923698 0.0013135663004125908 0 -0.0028355228480073944 0.0013072160376285244 0 -0.0028418050817890388 0.0013056016235275818 0 -0.0028427694670923698 0.0013135663004125908 0 -0.0028355228480073944 0.0013072160376285244 0 -0.0028418050817890388 0.0013056016235275818 0 -0.0028471854232347419 0.0013127574841796542 0 -0.0028427694670923698 0.0013135663004125908 0 -0.0028496919361907466 0.0013367507067633987 0 -0.0028689703619146022 0.0013053171775388095 0 -0.0028479874562552976 0.0013122457513221103 0 -0.0028427694670923698 0.0013135663004125908 0 -0.0028389332881021837 0.0013671342849291091 0 -0.00293476009065715 0.0011450786291672759 0 -0.0029626173667125261 0.0011777034377379661 0 -0.0028902897006407272 0.0012688610340840921 0 -0.002977322684769565 0.0012153074238211499 0 -0.0028902897006407272 0.0012688610340840921 0 -0.0029681471735560762 0.0013618433283079177 0 -0.002977322684769565 0.0012153074238211499 0 -0.0030485807500381834 0.0012688677766151252 0 -0.0029681471735560762 0.0013618433283079177 0 -0.002977322684769565 0.0012153074238211499 0 -0.0029626173667125261 0.0011777034377379661 0 -0.0028902897006407272 0.0012688610340840921 0 -0.0029864421540039192 0.0011337859573245989 0 -0.002977322684769565 0.0012153074238211499 0 -0.0030485807500381834 0.0012688677766151252 0 -0.0029864421540039192 0.0011337859573245989 0 -0.002977322684769565 0.0012153074238211499 0 -0.0029626173667125261 0.0011777034377379661 0 -0.0028389332881021837 0.0013671342849291091 0 -0.0028151441928932755 0.0013386112250490276 0 -0.0027695912181114504 0.0013930525720284661 0 -0.0028257907375114823 0.0013103968099858587 0 -0.0028427694670923698 0.0013135663004125908 0 -0.0028151441928932755 0.0013386112250490276 0 -0.0028427694670923698 0.0013135663004125908 0 -0.0028389332881021837 0.0013671342849291091 0 -0.0028151441928932755 0.0013386112250490276 0 -0.0028053114432162619 0.0013095284617457843 0 -0.0028151441928932755 0.0013386112250490276 0 -0.0027568664327742879 0.0013268845058107186 0 -0.0028151441928932755 0.0013386112250490276 0 -0.0027568664327742879 0.0013268845058107186 0 -0.0027695912181114504 0.0013930525720284661 0 -0.0027568664327742879 0.0013268845058107186 0 -0.0026661366883259994 0.0014130241880113902 0 -0.0027695912181114504 0.0013930525720284661 0 -0.0024087464866799418 0.0016498541448884271 0 -0.0024169465750120758 0.0016445642048470931 0 -0.0020097094000227833 0.0020833795962508419 0 -0.002295915232714405 0.0019880862969145498 0 -0.0021837173602394957 0.0018495583323912628 0 -0.0020097094000227833 0.0020833795962508419 0 -0.002295915232714405 0.0019880862969145498 0 -0.0023254056826244665 0.0021774291974581803 0 -0.002295915232714405 0.0019880862969145498 0 -0.0023254056826244665 0.0021774291974581803 0 -0.002526818699586611 0.0019956787435103508 0 -0.0023254056826244665 0.0021774291974581803 0 -0.0021600498185024523 0.0023558953990980547 0 -0.0024648548775891982 0.0024324580006305436 0 -0.0018465091916483268 0.0022925735452309689 0 -0.0020097094000227833 0.0020833795962508419 0 -0.0021600498185024523 0.0023558953990980547 0 -0.0023644821617738294 0.0022092086995599718 0 -0.0022572737343354967 0.0025893660912914666 0 -0.0020097094000227833 0.0020833795962508419 0 -0.0023254056826244665 0.0021774291974581803 0 -0.0021600498185024523 0.0023558953990980547 0 -0.0024791147838396465 0.0027730445310959377 0 -0.0023808963789425123 0.002898500560726199 0 -0.0022636088998848778 0.0027651530661080654 0 -0.0024791147838396465 0.0027730445310959377 0 -0.0023808963789425123 0.002898500560726199 0 -0.0025646371640539994 0.0029760683639303265 0 -0.0022572737343354967 0.0025893660912914666 0 -0.0026045658580502438 0.0026195711613934023 0 -0.0024791147838396465 0.0027730445310959377 0 -0.0025646371640539994 0.0029760683639303265 0 -0.0027165751667968144 0.0028064829306600684 0 -0.0024893359738515325 0.0031897833818808827 0 -0.0025646371640539994 0.0029760683639303265 0 -0.0024225753925497945 0.0030589912731060981 0 -0.0023808963789425123 0.002898500560726199 0 -0.0025646371640539994 0.0029760683639303265 0 -0.0024225753925497945 0.0030589912731060981 0 -0.0023808963789425123 0.002898500560726199 0 -0.0024225753925497945 0.0030589912731060981 0 -0.0023138139664442342 0.003020392911852477 0 -0.0023283592242164136 0.0031918748864978603 0 -0.0024225753925497945 0.0030589912731060981 0 -0.0023138139664442342 0.003020392911852477 0 -0.0022408541174665396 0.0028926167025153421 0 -0.0021032382797435208 0.0028850043917518138 0 -0.0021713965019770028 0.0030999576319506415 0 -0.0023138139664442342 0.003020392911852477 0 -0.0022408541174665396 0.0028926167025153421 0 -0.0021713965019770028 0.0030999576319506415 0 -0.0023283592242164136 0.0031918748864978603 0 -0.0023138139664442342 0.003020392911852477 0 -0.0021713965019770028 0.0030999576319506415 0 -0.0023808963789425123 0.002898500560726199 0 -0.0023138139664442342 0.003020392911852477 0 -0.0022408541174665396 0.0028926167025153421 0 -0.0023808963789425123 0.002898500560726199 0 -0.0022408541174665396 0.0028926167025153421 0 -0.0022636088998848778 0.0027651530661080654 0 -0.0022289557725953227 0.002725096751608899 0 -0.0022408541174665396 0.0028926167025153421 0 -0.0021032382797435208 0.0028850043917518138 0 -0.0022289557725953227 0.002725096751608899 0 -0.0022408541174665396 0.0028926167025153421 0 -0.0022636088998848778 0.0027651530661080654 0 -0.0024986517055355772 0.0019646085850278912 0 -0.0024855577455802896 0.0023518043690503418 0 -0.0022475492808357997 0.0021496931301667743 0 -0.0025154912129004663 0.0019969118227977914 0 -0.0023435778523442662 0.0024215174587280878 0 -0.002309213506198309 0.002165454738291796 0 -0.0023909923011301189 0.0023349370015335732 0 -0.0021969335736586383 0.0025122935250280719 0 -0.0023644821617738294 0.0022092086995599718 0 -0.0021976820024811458 0.0027522270203901296 0 -0.0023909923011301189 0.0023349370015335732 0 -0.0023356658235652965 0.0025506352735611133 0 -0.0021969335736586383 0.0025122935250280719 0 -0.0026033998154945241 0.0022182234073702119 0 -0.0023909923011301189 0.0023349370015335732 0 -0.0023356658235652965 0.0025506352735611133 0 -0.0023356658235652965 0.0025506352735611133 0 -0.0021969335736586383 0.0025122935250280719 0 -0.0020852019210617122 0.0028620992385869157 0 -0.0021032382797435208 0.0028850043917518138 0 -0.0021713965019770028 0.0030999576319506415 0 -0.0019884248997869745 0.0030398882386575661 0 -0.0023435778523442662 0.0024215174587280878 0 -0.0021092068989574087 0.0029311922514997269 0 -0.0021976820024811458 0.0027522270203901296 0 -0.0021092068989574087 0.0029311922514997269 0 -0.0023656722427202507 0.0027273366165440067 0 -0.0019647117273298479 0.0028904363607351819 0 -0.0021319411688219005 0.0024651938771387623 0 -0.0024855577455802896 0.0023518043690503418 0 -0.0023656722427202507 0.0027273366165440067 0 -0.0021319411688219005 0.0024651938771387623 0 -0.0019647117273298479 0.0028904363607351819 0 -0.0016698102688615637 0.0026647843020542834 0 -0.0021319411688219005 0.0024651938771387623 0 -0.0018502975158016489 0.0023309711485853158 0 -0.0020038450655734939 0.0021646027039224297 0 -0.0021319411688219005 0.0024651938771387623 0 -0.0016698102688615637 0.0026647843020542834 0 -0.0018502975158016489 0.0023309711485853158 0 -0.0015474880084282933 0.0020438622708269221 0 -0.0016698102688615637 0.0026647843020542834 0 -0.0018502975158016489 0.0023309711485853158 0 -0.0021319411688219005 0.0024651938771387623 0 -0.0018502975158016489 0.0023309711485853158 0 -0.0020038450655734939 0.0021646027039224297 0 -0.0015474880084282933 0.0020438622708269221 0 -0.0020038450655734939 0.0021646027039224297 0 -0.0022475492808357997 0.0021496931301667743 0 -0.0021319411688219005 0.0024651938771387623 0 -0.0024855577455802896 0.0023518043690503418 0 -0.0022475492808357997 0.0021496931301667743 0 -0.0021319411688219005 0.0024651938771387623 0 -0.0050499412051119357 0.0017462738728944527 0 -0.004887628191344898 0.0016456030849319816 0 -0.0050284163707482819 0.0015300322729664873 0 -0.0050499412051119357 0.0017462738728944527 0 -0.0051526865417041278 0.0016188458571004037 0 -0.0050284163707482819 0.0015300322729664873 0 -0.0033363218675443078 0.0021731562247001499 0 -0.0039970857921627139 0.0015181917948850895 0 -0.0051526865417041278 0.0016188458571004037 0 -0.0050284163707482819 0.0015300322729664873 0 -0.0050909973794601273 0.0014047248366904051 0 -0.0050284163707482819 0.0015300322729664873 0 -0.004922786750795256 0.0014383772872719486 0 -0.0050909973794601273 0.0014047248366904051 0 -0.004887628191344898 0.0016456030849319816 0 -0.0050284163707482819 0.0015300322729664873 0 -0.004922786750795256 0.0014383772872719486 0 -0.0054689305463399944 0.0013080645003409447 0 -0.0039970857921627139 0.0015181917948850895 0 -0.0053889495827385784 0.0013085248695899037 0 -0.0055478398071685904 0.0010092901280008013 0 -0.0058656836376986292 0.0011843897227140506 0 -0.0052123830423955733 0.001000778226308649 0 -0.0053889495827385784 0.0013085248695899037 0 -0.0055478398071685904 0.0010092901280008013 0 -0.0034458542600064278 0.0011175193572490827 0 -0.0034049474901923279 0.0012797599772062483 0 -0.0035088887588516776 0.0013576680789904936 0 -0.0055478398071685904 0.0010092901280008013 0 -0.0058656836376986292 0.0011843897227140506 0 -0.0057682400852023209 0.00077811618378489141 0 -0.0039970857921627139 0.0015181917948850895 0 -0.0046679667710311503 0.0010348961879208746 0 -0.0034458542600064278 0.0011175193572490827 0 -0.0034049474901923279 0.0012797599772062483 0 -0.0033297221887464029 0.0012403907628444029 0 -0.0035088887588516776 0.0013576680789904936 0 -0.0033359533707377886 0.0014023391746131571 0 -0.0035777377498006201 0.0015979309747403468 0 -0.0046679667710311503 0.0010348961879208746 0 -0.0042444469310010842 0.0010418057094301991 0 -0.0057682400852023209 0.00077811618378489141 0 -0.0056006655757209313 0.00060990181858079802 0 -0.0056634173256824459 0.0004051119837382908 0 -0.0034049474901923279 0.0012797599772062483 0 -0.0035088887588516776 0.0013576680789904936 0 -0.0033359533707377886 0.0014023391746131571 0 -0.0057682400852023209 0.00077811618378489141 0 -0.0055776506918634797 0.00080425200268919412 0 -0.0056006655757209313 0.00060990181858079802 0 -0.0055478398071685904 0.0010092901280008013 0 -0.0055776506918634797 0.00080425200268919412 0 -0.00541012287152006 0.00070934587422061713 0 -0.0055478398071685904 0.0010092901280008013 0 -0.0057682400852023209 0.00077811618378489141 0 -0.0055776506918634797 0.00080425200268919412 0 -0.0055776506918634797 0.00080425200268919412 0 -0.0056006655757209313 0.00060990181858079802 0 -0.00541012287152006 0.00070934587422061713 0 -0.0052123830423955733 0.001000778226308649 0 -0.0055478398071685904 0.0010092901280008013 0 -0.00541012287152006 0.00070934587422061713 0 -0.0024986517055355772 0.0019646085850278912 0 -0.0025233729666973739 0.0018218102014400806 0 -0.0020271748217796201 0.0019362500827378715 0 -0.0028392219103235954 0.0013944428164615744 0 -0.002303274647505087 0.0016156256123354429 0 -0.0024986517055355772 0.0019646085850278912 0 -0.0022475492808357997 0.0021496931301667743 0 -0.0020271748217796201 0.0019362500827378715 0 -0.0029771612249477816 0.0012293462864522988 0 -0.0031172196451734204 0.0012038248723823782 0 -0.0031701247035259262 0.001181624962296558 0 -0.0020038450655734939 0.0021646027039224297 0 -0.0022475492808357997 0.0021496931301667743 0 -0.0020271748217796201 0.0019362500827378715 0 -0.0031701247035259262 0.001181624962296558 0 -0.0033297221887464029 0.0012403907628444029 0 -0.0033359533707377886 0.0014023391746131571 0 -0.0031172196451734204 0.0012038248723823782 0 -0.0031701247035259262 0.001181624962296558 0 -0.0033359533707377886 0.0014023391746131571 0 -0.0020038450655734939 0.0021646027039224297 0 -0.0015474880084282933 0.0020438622708269221 0 -0.0020271748217796201 0.0019362500827378715 0 -0.0034458542600064278 0.0011175193572490827 0 -0.0031701247035259262 0.001181624962296558 0 -0.0033297221887464029 0.0012403907628444029 0 -0.0039970857921627139 0.0015181917948850895 0 -0.002303274647505087 0.0016156256123354429 0 -0.0031172196451734204 0.0012038248723823782 0 -0.0032260204328668526 0.0013213932616767071 0 -0.0031759959357167624 0.0013327242970162388 0 -0.0031565924000625397 0.001224388558668804 0 -0.0031772599373507929 0.0013698068705745505 0 -0.0034049474901923279 0.0012797599772062483 0 -0.0033297221887464029 0.0012403907628444029 0 -0.0033359533707377886 0.0014023391746131571 0 -0.0028392219103235954 0.0013944428164615744 0 -0.0031937204535007319 0.001275883655902703 0 -0.0029864421540039192 0.0011337859573245989 0 -0.0031817966735562301 0.0012732536284586835 0 -0.0030485807500381834 0.0012688677766151252 0 -0.0029771612249477816 0.0012293462864522988 0 -0.0031172196451734204 0.0012038248723823782 0 -0.0031759959357167624 0.0013327242970162388 0 -0.0031817966735562301 0.0012732536284586835 0 -0.0030485807500381834 0.0012688677766151252 0 -0.0031219060666572919 0.0013590647450191058 0 -0.0030485807500381834 0.0012688677766151252 0 -0.0031219060666572919 0.0013590647450191058 0 -0.0029681471735560762 0.0013618433283079177 0 -0.0031219060666572919 0.0013590647450191058 0 -0.0030454350428414704 0.0014616078550291898 0 -0.0029681471735560762 0.0013618433283079177 0 -0.0031817966735562301 0.0012732536284586835 0 -0.0031219060666572919 0.0013590647450191058 0 -0.0032166543850414165 0.0013650166167674166 0 -0.0031937204535007319 0.001275883655902703 0 -0.0032721018182795356 0.0013903266718801313 0 -0.0032260204328668526 0.0013213932616767071 0 -0.0031759959357167624 0.0013327242970162388 0 -0.0032821198942289756 0.0013911709165276033 0 -0.0031817966735562301 0.0012732536284586835 0 -0.0032166543850414165 0.0013650166167674166 0 -0.0032821198942289756 0.0013911709165276033 0 -0.003243533079282779 0.0014007275453783846 0 -0.0032166543850414165 0.0013650166167674166 0 -0.0032176486379101037 0.0014046408469095893 0 -0.0031219060666572919 0.0013590647450191058 0 -0.0032166543850414165 0.0013650166167674166 0 -0.0032176486379101037 0.0014046408469095893 0 -0.0031219060666572919 0.0013590647450191058 0 -0.0032176486379101037 0.0014046408469095893 0 -0.0032391042443946222 0.0014749979435614788 0 -0.003243533079282779 0.0014007275453783846 0 -0.0032176486379101037 0.0014046408469095893 0 -0.0032467366957526114 0.0014327817490619283 0 -0.0032176486379101037 0.0014046408469095893 0 -0.0032391042443946222 0.0014749979435614788 0 -0.0032467366957526114 0.0014327817490619283 0 -0.0032391042443946222 0.0014749979435614788 0 -0.0032467366957526114 0.0014327817490619283 0 -0.0032373150201625146 0.0014233671508118719 0 -0.0031219060666572919 0.0013590647450191058 0 -0.0032391042443946222 0.0014749979435614788 0 -0.0030454350428414704 0.0014616078550291898 0 -0.0054775405366871864 0.00060113003441825336 0 -0.0052699915239286261 0.00051611732030212496 0 -0.005333888594694078 0.00049844921339262289 0 -0.00541012287152006 0.00070934587422061713 0 -0.005515671601739886 0.00038445720170884808 0 -0.0056006655757209313 0.00060990181858079802 0 -0.0055445347941067797 0.00030188381865855297 0 -0.0056634173256824459 0.0004051119837382908 0 -0.0056006655757209313 0.00060990181858079802 0 -0.00541012287152006 0.00070934587422061713 0 -0.0055445347941067797 0.00030188381865855297 0 -0.0053566505878562274 0.00037824550964681529 0 -0.005333888594694078 0.00049844921339262289 0 -0.005515671601739886 0.00038445720170884808 0 -0.0046012569655692493 0.00079469688217005739 0 -0.0046602738135635849 0.00084877503732943638 0 -0.0046287907346950086 0.00071221523581619945 0 -0.0052699915239286261 0.00051611732030212496 0 -0.0042444469310010842 0.0010418057094301991 0 -0.003243533079282779 0.0014007275453783846 0 -0.0032166543850414165 0.0013650166167674166 0 -0.0032821198942289756 0.0013911709165276033 0 -0.0032260204328668526 0.0013213932616767071 0 -0.0032821198942289756 0.0013911709165276033 0 -0.0032954585569886178 0.0013867289254909378 0 -0.0031772599373507929 0.0013698068705745505 0 -0.0042444469310010842 0.0010418057094301991 0 -0.0032821198942289756 0.0013911709165276033 0 -0.0032954585569886178 0.0013867289254909378 0 -0.0032661197425236728 0.0014171803853634541 0 -0.003243533079282779 0.0014007275453783846 0 -0.0032821198942289756 0.0013911709165276033 0 -0.0032661197425236728 0.0014171803853634541 0 -0.003243533079282779 0.0014007275453783846 0 -0.0032467366957526114 0.0014327817490619283 0 -0.0032661197425236728 0.0014171803853634541 0 -0.0032456840488447442 0.0014220979487796135 0 -0.0032467366957526114 0.0014327817490619283 0 -0.0032373150201625146 0.0014233671508118719 0 -0.0032456840488447442 0.0014220979487796135 0 -0.0032467366957526114 0.0014327817490619283 0 -0.0032661197425236728 0.0014171803853634541 0 -0.0032456840488447442 0.0014220979487796135 0 -0.0032661197425236728 0.0014171803853634541 0 -0.003267855393037348 0.0014274267509636776 0 -0.0032954585569886178 0.0013867289254909378 0 -0.0032661197425236728 0.0014171803853634541 0 -0.003267855393037348 0.0014274267509636776 0 -0.0042444469310010842 0.0010418057094301991 0 -0.0047692971164239638 0.00070659909766770479 0 -0.0053629298451370287 0.00019074770304544433 0 -0.0055055338943587086 0.00023064090608022525 0 -0.0054466304190973844 0.00016115837592256909 0 -0.0053629298451370287 0.00019074770304544433 0 -0.0054819094603827034 0.00030179670785246941 0 -0.0055055338943587086 0.00023064090608022525 0 -0.0052699915239286261 0.00051611732030212496 0 -0.0047692971164239638 0.00070659909766770479 0 -0.0053566505878562274 0.00037824550964681529 0 -0.0053473562911139578 0.00023846409234423699 0 -0.005515671601739886 0.00038445720170884808 0 -0.0053701458079310161 0.00021055598332197635 0 -0.0052699915239286261 0.00051611732030212496 0 -0.0053629298451370287 0.00019074770304544433 0 -0.0053695881775914327 5.1551581758672948e-05 0 -0.0054466304190973844 0.00016115837592256909 0 -0.0055055338943587086 0.00023064090608022525 0 -0.0054466304190973844 0.00016115837592256909 0 -0.0054686701298578954 7.2149910357442631e-05 0 -0.0054586887014603427 0.00022832288232939256 0 -0.005428100700576163 6.5418596683235986e-05 0 -0.0055280145086194213 9.1443493910658729e-06 0 -0.0047692971164239638 0.00070659909766770479 0 -0.0054571507497098064 8.3019152849034556e-06 0 -0.0053695881775914327 5.1551581758672948e-05 0 -0.0054466304190973844 0.00016115837592256909 0 -0.0054686701298578954 7.2149910357442631e-05 0 -0.0032456840488447442 0.0014220979487796135 0 -0.0032004853161035048 0.0013718307487377479 0 -0.0032373150201625146 0.0014233671508118719 0 -0.0047692971164239638 0.00070659909766770479 0 -0.0043200248661042131 0.0007096455656259435 0 -0.0032456840488447442 0.0014220979487796135 0 -0.003267855393037348 0.0014274267509636776 0 -0.0032004853161035048 0.0013718307487377479 0 -0.0043576519024483944 0.00056379054856156813 0 -0.0043200248661042131 0.0007096455656259435 0 -0.0055728316425472726 -0.00017391413732783324 0 -0.0055280145086194213 9.1443493910658729e-06 0 -0.0054188937777155752 -8.3182224413102255e-05 0 -0.0054571507497098064 8.3019152849034556e-06 0 -0.0054245893179974873 -4.5109383123194544e-05 0 -0.0053695881775914327 5.1551581758672948e-05 0 -0.0054686701298578954 7.2149910357442631e-05 0 -0.0054188937777155752 -8.3182224413102255e-05 0 -0.005428100700576163 6.5418596683235986e-05 0 -0.0055280145086194213 9.1443493910658729e-06 0 -0.0054188937777155752 -8.3182224413102255e-05 0 -0.0032391042443946222 0.0014749979435614788 0 -0.0030454350428414704 0.0014616078550291898 0 -0.0030265874606330762 0.0016328463780856425 0 -0.0032391042443946222 0.0014749979435614788 0 -0.0034271442460709753 0.0013995317743271747 0 -0.0032927677504566997 0.0013436425555611827 0 -0.0032272678155623566 0.0014874074207602635 0 -0.0032662706445306276 0.0015029291404564404 0 -0.0032391042443946222 0.0014749979435614788 0 -0.0032373150201625146 0.0014233671508118719 0 -0.0032927677504566997 0.0013436425555611827 0 -0.0032004853161035048 0.0013718307487377479 0 -0.0032373150201625146 0.0014233671508118719 0 -0.0032927677504566997 0.0013436425555611827 0 -0.0032308933137507752 0.0011852090116611722 0 -0.0032004853161035048 0.0013718307487377479 0 -0.0032927677504566997 0.0013436425555611827 0 -0.0033439053842686996 0.0011737966842922975 0 -0.0032927677504566997 0.0013436425555611827 0 -0.0034022875140466702 0.0012627329579290715 0 -0.0034271442460709753 0.0013995317743271747 0 -0.0032927677504566997 0.0013436425555611827 0 -0.0034022875140466702 0.0012627329579290715 0 -0.0034891405478528841 0.0012449110107537419 0 -0.0034271442460709753 0.0013995317743271747 0 -0.0035744693260317882 0.0013097346704603881 0 -0.0034891405478528841 0.0012449110107537419 0 -0.0034271442460709753 0.0013995317743271747 0 -0.0034022875140466702 0.0012627329579290715 0 -0.0032662706445306276 0.0015029291404564404 0 -0.00298136605744424 0.0014892153006189079 0 -0.0027734256106010189 0.0016028345500472185 0 -0.0027693565777175506 0.001600288960393523 0 -0.0027598627254653077 0.0015910022547839298 0 -0.00298136605744424 0.0014892153006189079 0 -0.0028263922779109539 0.0016357511432870877 0 -0.0027734256106010189 0.0016028345500472185 0 -0.0027968955120754981 0.0016034339991770213 0 -0.0027693565777175506 0.001600288960393523 0 -0.0027968955120754981 0.0016034339991770213 0 -0.0028738106355410313 0.0015109843956444271 0 -0.0027612685143423923 0.0015387956526804498 0 -0.0030265874606330762 0.0016328463780856425 0 -0.0027968955120754981 0.0016034339991770213 0 -0.0028738106355410313 0.0015109843956444271 0 -0.0030265874606330762 0.0016328463780856425 0 -0.0028430327086450954 0.0017370994129957712 0 -0.0027968955120754981 0.0016034339991770213 0 -0.0030454350428414704 0.0014616078550291898 0 -0.0030265874606330762 0.0016328463780856425 0 -0.0028738106355410313 0.0015109843956444271 0 -0.0030454350428414704 0.0014616078550291898 0 -0.0028738106355410313 0.0015109843956444271 0 -0.0029681471735560762 0.0013618433283079177 0 -0.0028738106355410313 0.0015109843956444271 0 -0.0028000092627937716 0.0014834379812478531 0 -0.0027612685143423923 0.0015387956526804498 0 -0.0028738106355410313 0.0015109843956444271 0 -0.0028000092627937716 0.0014834379812478531 0 -0.002838246768991992 0.0014164030524259818 0 -0.0028389332881021837 0.0013671342849291091 0 -0.002838246768991992 0.0014164030524259818 0 -0.0027695912181114504 0.0013930525720284661 0 -0.002838246768991992 0.0014164030524259818 0 -0.0027695912181114504 0.0013930525720284661 0 -0.0027420900950300663 0.0014757858000546567 0 -0.0028000092627937716 0.0014834379812478531 0 -0.002838246768991992 0.0014164030524259818 0 -0.0027420900950300663 0.0014757858000546567 0 -0.0028689703619146022 0.0013053171775388095 0 -0.0028388763208894471 0.0014079177708909297 0 -0.0028738106355410313 0.0015109843956444271 0 -0.002838246768991992 0.0014164030524259818 0 -0.0029681471735560762 0.0013618433283079177 0 -0.0028902897006407272 0.0012688610340840921 0 -0.002838246768991992 0.0014164030524259818 0 -0.0029681471735560762 0.0013618433283079177 0 -0.0024232548945425638 0.0018136355290357582 0 -0.0021837173602394957 0.0018495583323912628 0 -0.0024556353790328713 0.0015883990366858251 0 -0.0026111017245093473 0.0014792674843313166 0 -0.0026661366883259994 0.0014130241880113902 0 -0.0024556353790328713 0.0015883990366858251 0 -0.0024169465750120758 0.0016445642048470931 0 -0.0024516722001046974 0.001594318700083731 0 -0.002295915232714405 0.0019880862969145498 0 -0.0024232548945425638 0.0018136355290357582 0 -0.0021837173602394957 0.0018495583323912628 0 -0.0026661366883259994 0.0014130241880113902 0 -0.0027695912181114504 0.0013930525720284661 0 -0.0026988043114573464 0.0014566031951078451 0 -0.0026111017245093473 0.0014792674843313166 0 -0.0026661366883259994 0.0014130241880113902 0 -0.0026988043114573464 0.0014566031951078451 0 -0.0027695912181114504 0.0013930525720284661 0 -0.0027420900950300663 0.0014757858000546567 0 -0.0026988043114573464 0.0014566031951078451 0 -0.0027420900950300663 0.0014757858000546567 0 -0.0026988043114573464 0.0014566031951078451 0 -0.002689424361718578 0.001486370362116296 0 -0.0026111017245093473 0.0014792674843313166 0 -0.002689424361718578 0.001486370362116296 0 -0.0026889081465720369 0.0015260186883699425 0 -0.0026111017245093473 0.0014792674843313166 0 -0.0026988043114573464 0.0014566031951078451 0 -0.002689424361718578 0.001486370362116296 0 -0.0027420900950300663 0.0014757858000546567 0 -0.002689424361718578 0.001486370362116296 0 -0.0026889081465720369 0.0015260186883699425 0 -0.0026889081465720369 0.0015260186883699425 0 -0.0027612685143423923 0.0015387956526804498 0 -0.002738335785310042 0.0015787521550914463 0 -0.0028000092627937716 0.0014834379812478531 0 -0.0027420900950300663 0.0014757858000546567 0 -0.0027612685143423923 0.0015387956526804498 0 -0.0027420900950300663 0.0014757858000546567 0 -0.0026889081465720369 0.0015260186883699425 0 -0.0027612685143423923 0.0015387956526804498 0 -0.0026111017245093473 0.0014792674843313166 0 -0.0026889081465720369 0.0015260186883699425 0 -0.0027059052065258097 0.0015670937766026239 0 -0.0026111017245093473 0.0014792674843313166 0 -0.0024556353790328713 0.0015883990366858251 0 -0.0024649718353994083 0.0015992173263809654 0 -0.002608901001860342 0.0014745056589922881 0 -0.0025925237329100783 0.0015695634786740305 0 -0.0024556353790328713 0.0015883990366858251 0 -0.0024649718353994083 0.0015992173263809654 0 -0.0025064182740138176 0.001576744252764237 0 -0.0024649718353994083 0.0015992173263809654 0 -0.002517122860317324 0.0014225471964810642 0 -0.0025480184456357219 0.0015097484938808681 0 -0.0024649718353994083 0.0015992173263809654 0 -0.0025480184456357219 0.0015097484938808681 0 -0.0025064182740138176 0.001576744252764237 0 -0.0026889081465720369 0.0015260186883699425 0 -0.0027059052065258097 0.0015670937766026239 0 -0.002738335785310042 0.0015787521550914463 0 -0.0025925237329100783 0.0015695634786740305 0 -0.0026322901903593466 0.0015114712666539831 0 -0.0027059052065258097 0.0015670937766026239 0 -0.002738335785310042 0.0015787521550914463 0 -0.0027428540216967176 0.0015863053205512378 0 -0.0027968955120754981 0.0016034339991770213 0 -0.002738335785310042 0.0015787521550914463 0 -0.0027693565777175506 0.001600288960393523 0 -0.0027968955120754981 0.0016034339991770213 0 -0.0027612685143423923 0.0015387956526804498 0 -0.002738335785310042 0.0015787521550914463 0 -0.002738335785310042 0.0015787521550914463 0 -0.0027537842770321581 0.0015915523694260596 0 -0.0027428540216967176 0.0015863053205512378 0 -0.002738335785310042 0.0015787521550914463 0 -0.0027693565777175506 0.001600288960393523 0 -0.0027537842770321581 0.0015915523694260596 0 -0.0027632078230714306 0.0015770729899313872 0 -0.0027734256106010189 0.0016028345500472185 0 -0.0027598627254653077 0.0015910022547839298 0 -0.0027693565777175506 0.001600288960393523 0 -0.0027537842770321581 0.0015915523694260596 0 -0.0027598627254653077 0.0015910022547839298 0 -0.0027537842770321581 0.0015915523694260596 0 -0.0027598627254653077 0.0015910022547839298 0 -0.0027428540216967176 0.0015863053205512378 0 -0.0027604909757520842 0.0015819850775623413 0 -0.0027598627254653077 0.0015910022547839298 0 -0.0027527031736449279 0.0015899607022111209 0 -0.0027598627254653077 0.0015910022547839298 0 -0.0027428540216967176 0.0015863053205512378 0 -0.0027527031736449279 0.0015899607022111209 0 -0.0027059052065258097 0.0015670937766026239 0 -0.0027428540216967176 0.0015863053205512378 0 -0.0027527031736449279 0.0015899607022111209 0 -0.002517122860317324 0.0014225471964810642 0 -0.0025899944205083156 0.0014256265072546343 0 -0.0025480184456357219 0.0015097484938808681 0 -0.0025899944205083156 0.0014256265072546343 0 -0.0026136403176580734 0.0014774947195137073 0 -0.0025480184456357219 0.0015097484938808681 0 -0.0026575121145888374 0.0014199565295858474 0 -0.0026136403176580734 0.0014774947195137073 0 -0.0026699467098904618 0.0014958429593923193 0 -0.0025899944205083156 0.0014256265072546343 0 -0.0026575121145888374 0.0014199565295858474 0 -0.0026136403176580734 0.0014774947195137073 0 -0.0026575121145888374 0.0014199565295858474 0 -0.0026699467098904618 0.0014958429593923193 0 -0.0027454519601832609 0.0014660460609239414 0 -0.0026136403176580734 0.0014774947195137073 0 -0.0026699467098904618 0.0014958429593923193 0 -0.0026016102324777353 0.0015462983776863835 0 -0.0026699467098904618 0.0014958429593923193 0 -0.0026016102324777353 0.0015462983776863835 0 -0.0027032489905495999 0.0015911073641621187 0 -0.0026016102324777353 0.0015462983776863835 0 -0.0025480184456357219 0.0015097484938808681 0 -0.0025064182740138176 0.001576744252764237 0 -0.0026136403176580734 0.0014774947195137073 0 -0.0026016102324777353 0.0015462983776863835 0 -0.0025480184456357219 0.0015097484938808681 0 -0.0027049103184898487 0.0013760535363786027 0 -0.0027706608608411543 0.0013664217895723938 0 -0.0027454519601832609 0.0014660460609239414 0 -0.0027049103184898487 0.0013760535363786027 0 -0.0026575121145888374 0.0014199565295858474 0 -0.0027454519601832609 0.0014660460609239414 0 -0.0026699467098904618 0.0014958429593923193 0 -0.0027454519601832609 0.0014660460609239414 0 -0.0027032489905495999 0.0015911073641621187 0 -0.0027454519601832609 0.0014660460609239414 0 -0.0028535273736815816 0.0015161792146585148 0 -0.0028568915920383956 0.001606155151453164 0 -0.0027706608608411543 0.0013664217895723938 0 -0.0027454519601832609 0.0014660460609239414 0 -0.0028535273736815816 0.0015161792146585148 0 -0.0028453826493491747 0.0015977219588484244 0 -0.0032230263804706306 0.0016110048755374759 0 -0.0028535273736815816 0.0015161792146585148 0 -0.0028568915920383956 0.001606155151453164 0 -0.0029329585899074491 0.0015900031140866798 0 -0.0028568915920383956 0.001606155151453164 0 -0.0027748220196006008 0.001900148474398616 0 -0.0027032489905495999 0.0015911073641621187 0 -0.0027454519601832609 0.0014660460609239414 0 -0.0028568915920383956 0.001606155151453164 0 -0.0027032489905495999 0.0015911073641621187 0 -0.0028568915920383956 0.001606155151453164 0 -0.0027748220196006008 0.001900148474398616 0 -0.0029718768623098911 0.00190869406049113 0 -0.0028568915920383956 0.001606155151453164 0 -0.0029718768623098911 0.00190869406049113 0 -0.0032637226489577475 0.0019313268887893018 0 -0.0028568915920383956 0.001606155151453164 0 -0.0032637226489577475 0.0019313268887893018 0 -0.0033881446490429826 0.0015963499388704301 0 -0.0024556353790328713 0.0015883990366858251 0 -0.0025064182740138176 0.001576744252764237 0 -0.0025668233651040965 0.0016928675829236508 0 -0.0026016102324777353 0.0015462983776863835 0 -0.0025064182740138176 0.001576744252764237 0 -0.0025668233651040965 0.0016928675829236508 0 -0.0026016102324777353 0.0015462983776863835 0 -0.0027032489905495999 0.0015911073641621187 0 -0.0025668233651040965 0.0016928675829236508 0 -0.0027748220196006008 0.001900148474398616 0 -0.0025668233651040965 0.0016928675829236508 0 -0.002526818699586611 0.0019956787435103508 0 -0.0027748220196006008 0.001900148474398616 0 -0.0027032489905495999 0.0015911073641621187 0 -0.0025668233651040965 0.0016928675829236508 0 -0.0024232548945425638 0.0018136355290357582 0 -0.0024556353790328713 0.0015883990366858251 0 -0.0025668233651040965 0.0016928675829236508 0 -0.0024232548945425638 0.0018136355290357582 0 -0.0025668233651040965 0.0016928675829236508 0 -0.002526818699586611 0.0019956787435103508 0 -0.002295915232714405 0.0019880862969145498 0 -0.0024232548945425638 0.0018136355290357582 0 -0.002526818699586611 0.0019956787435103508 0 -0.0023254056826244665 0.0021774291974581803 0 -0.002526818699586611 0.0019956787435103508 0 -0.0025039400179477484 0.0022150495145585969 0 -0.0025039400179477484 0.0022150495145585969 0 -0.0026965600377670445 0.0022447312572122231 0 -0.0024648548775891982 0.0024324580006305436 0 -0.002526818699586611 0.0019956787435103508 0 -0.0025039400179477484 0.0022150495145585969 0 -0.0026965600377670445 0.0022447312572122231 0 -0.0023254056826244665 0.0021774291974581803 0 -0.0025039400179477484 0.0022150495145585969 0 -0.0024648548775891982 0.0024324580006305436 0 -0.0027748220196006008 0.001900148474398616 0 -0.002526818699586611 0.0019956787435103508 0 -0.0026965600377670445 0.0022447312572122231 0 -0.0027748220196006008 0.001900148474398616 0 -0.0026965600377670445 0.0022447312572122231 0 -0.0030071473695267377 0.0022064040982050868 0 -0.0027748220196006008 0.001900148474398616 0 -0.0029718768623098911 0.00190869406049113 0 -0.0030071473695267377 0.0022064040982050868 0 -0.0029718768623098911 0.00190869406049113 0 -0.0030071473695267377 0.0022064040982050868 0 -0.0032637226489577475 0.0019313268887893018 0 -0.0030071473695267377 0.0022064040982050868 0 -0.0033249557544369041 0.0022665989178950077 0 -0.0032637226489577475 0.0019313268887893018 0 -0.0030071473695267377 0.0022064040982050868 0 -0.0031619975611598709 0.0024308640843792046 0 -0.0033249557544369041 0.0022665989178950077 0 -0.0030071473695267377 0.0022064040982050868 0 -0.0031619975611598709 0.0024308640843792046 0 -0.0029507252999876094 0.0024238197693331942 0 -0.0026965600377670445 0.0022447312572122231 0 -0.0030071473695267377 0.0022064040982050868 0 -0.0029507252999876094 0.0024238197693331942 0 -0.0026965600377670445 0.0022447312572122231 0 -0.0029507252999876094 0.0024238197693331942 0 -0.0027669884520584651 0.0025552995831280186 0 -0.0031653260220904427 0.0027367594335447978 0 -0.0028625946530119769 0.0026829132070353544 0 -0.0029507252999876094 0.0024238197693331942 0 -0.0031739573176789416 0.0027373366749878542 0 -0.0027669884520584651 0.0025552995831280186 0 -0.0031739573176789416 0.0027373366749878542 0 -0.0030878369995033733 0.0028956373136644759 0 -0.0029329361828662431 0.0028097111968684346 0 -0.0031739573176789416 0.0027373366749878542 0 -0.0030878369995033733 0.0028956373136644759 0 -0.0033793295943075285 0.0025618399700368375 0 -0.0030773612288948209 0.0028844588508980611 0 -0.0033671851850555793 0.0025860442549643244 0 -0.0031619975611598709 0.0024308640843792046 0 -0.0031739573176789416 0.0027373366749878542 0 -0.0033793295943075285 0.0025618399700368375 0 -0.0031619975611598709 0.0024308640843792046 0 -0.0029507252999876094 0.0024238197693331942 0 -0.0031739573176789416 0.0027373366749878542 0 -0.0030618467100836898 0.0028839694498653378 0 -0.0032230131394081962 0.0030199848560069102 0 -0.003309241430165998 0.0028527135398322342 0 -0.0030618467100836898 0.0028839694498653378 0 -0.003309241430165998 0.0028527135398322342 0 -0.0033793295943075285 0.0025618399700368375 0 -0.0030618467100836898 0.0028839694498653378 0 -0.0032230131394081962 0.0030199848560069102 0 -0.0030337028086670033 0.0031165745406629181 0 -0.0030773612288948209 0.0028844588508980611 0 -0.0028307133749741475 0.0031516874373144674 0 -0.0030878369995033733 0.0028956373136644759 0 -0.0029329361828662431 0.0028097111968684346 0 -0.0029099148262516157 0.0031336295809073142 0 -0.0027728362253465135 0.0029710024049302906 0 -0.0029329361828662431 0.0028097111968684346 0 -0.0029099148262516157 0.0031336295809073142 0 -0.0025646371640539994 0.0029760683639303265 0 -0.0027728362253465135 0.0029710024049302906 0 -0.0026683805603023966 0.0031489699413373988 0 -0.0025646371640539994 0.0029760683639303265 0 -0.0027728362253465135 0.0029710024049302906 0 -0.0027165751667968144 0.0028064829306600684 0 -0.0027728362253465135 0.0029710024049302906 0 -0.0027165751667968144 0.0028064829306600684 0 -0.0029329361828662431 0.0028097111968684346 0 -0.0026045658580502438 0.0026195711613934023 0 -0.0028625946530119769 0.0026829132070353544 0 -0.0026965600377670445 0.0022447312572122231 0 -0.0024648548775891982 0.0024324580006305436 0 -0.0027669884520584651 0.0025552995831280186 0 -0.0038265317234153903 0.0025072861729634422 0 -0.0040273661983753666 0.0027686073106567032 0 -0.0041281449725614492 0.0023636826027421706 0 -0.0038265317234153903 0.0025072861729634422 0 -0.0040273661983753666 0.0027686073106567032 0 -0.003649872923554964 0.0026788630601369038 0 -0.0030863839785724274 0.0027912225357123277 0 -0.0032743215315919386 0.0023563423857535458 0 -0.002157031163149639 0.0028151634692021197 0 -0.0022984709798652223 0.0023201536613432017 0 -0.0026213537341584292 0.0026846455158139877 0 -0.0023407069151730724 0.0030576307891647865 0 -0.002157031163149639 0.0028151634692021197 0 -0.0020423987173137097 0.0033004762426429167 0 -0.0023407069151730724 0.0030576307891647865 0 -0.002157031163149639 0.0028151634692021197 0 -0.0026213537341584292 0.0026846455158139877 0 -0.0040273661983753666 0.0027686073106567032 0 -0.0036664386043610904 0.0029733510246297869 0 -0.0039239592518691586 0.0031679902499454761 0 -0.0030863839785724274 0.0027912225357123277 0 -0.0029884463074673824 0.0032325816972527573 0 -0.0040273661983753666 0.0027686073106567032 0 -0.0036664386043610904 0.0029733510246297869 0 -0.003649872923554964 0.0026788630601369038 0 -0.0036664386043610904 0.0029733510246297869 0 -0.0034929882712928413 0.0028207320873479247 0 -0.003649872923554964 0.0026788630601369038 0 -0.0036664386043610904 0.0029733510246297869 0 -0.0034929882712928413 0.0028207320873479247 0 -0.0034579200919232955 0.0030272728095705071 0 -0.0032230131394081962 0.0030199848560069102 0 -0.003309241430165998 0.0028527135398322342 0 -0.0034579200919232955 0.0030272728095705071 0 -0.0034929882712928413 0.0028207320873479247 0 -0.003309241430165998 0.0028527135398322342 0 -0.0034579200919232955 0.0030272728095705071 0 -0.0034929882712928413 0.0028207320873479247 0 -0.003309241430165998 0.0028527135398322342 0 -0.0033793295943075285 0.0025618399700368375 0 -0.0034929882712928413 0.0028207320873479247 0 -0.0033793295943075285 0.0025618399700368375 0 -0.003649872923554964 0.0026788630601369038 0 -0.0033793295943075285 0.0025618399700368375 0 -0.003649872923554964 0.0026788630601369038 0 -0.0036028483070374775 0.0023889102910460507 0 -0.0038265317234153903 0.0025072861729634422 0 -0.003649872923554964 0.0026788630601369038 0 -0.0036028483070374775 0.0023889102910460507 0 -0.0038265317234153903 0.0025072861729634422 0 -0.0036028483070374775 0.0023889102910460507 0 -0.0038150944459815501 0.0022528835147133893 0 -0.0036028483070374775 0.0023889102910460507 0 -0.0036166362312436491 0.0020694377000605836 0 -0.0038150944459815501 0.0022528835147133893 0 -0.0036028483070374775 0.0023889102910460507 0 -0.0033249557544369041 0.0022665989178950077 0 -0.0036166362312436491 0.0020694377000605836 0 -0.0033793295943075285 0.0025618399700368375 0 -0.0036028483070374775 0.0023889102910460507 0 -0.0033249557544369041 0.0022665989178950077 0 -0.0031619975611598709 0.0024308640843792046 0 -0.0033793295943075285 0.0025618399700368375 0 -0.0033249557544369041 0.0022665989178950077 0 -0.0033249557544369041 0.0022665989178950077 0 -0.0036166362312436491 0.0020694377000605836 0 -0.0032637226489577475 0.0019313268887893018 0 -0.0036166362312436491 0.0020694377000605836 0 -0.0039727056047447196 0.0020638655025599704 0 -0.0038150944459815501 0.0022528835147133893 0 -0.0036166362312436491 0.0020694377000605836 0 -0.0039727056047447196 0.0020638655025599704 0 -0.0038567756338165784 0.0018945609324880549 0 -0.0039727056047447196 0.0020638655025599704 0 -0.004219422228124819 0.0019256816430889311 0 -0.0038567756338165784 0.0018945609324880549 0 -0.0039727056047447196 0.0020638655025599704 0 -0.0038150944459815501 0.0022528835147133893 0 -0.0041281449725614492 0.0023636826027421706 0 -0.0038265317234153903 0.0025072861729634422 0 -0.0038150944459815501 0.0022528835147133893 0 -0.0041281449725614492 0.0023636826027421706 0 -0.0022984709798652223 0.0023201536613432017 0 -0.0024421752215015528 0.0018260746009008627 0 -0.0025329464008426688 0.0022559697913378533 0 -0.0022984709798652223 0.0023201536613432017 0 -0.0025329464008426688 0.0022559697913378533 0 -0.0026213537341584292 0.0026846455158139877 0 -0.0039727056047447196 0.0020638655025599704 0 -0.0042277380829760574 0.0019609773060194351 0 -0.004219422228124819 0.0019256816430889311 0 -0.0039727056047447196 0.0020638655025599704 0 -0.0041281449725614492 0.0023636826027421706 0 -0.0042277380829760574 0.0019609773060194351 0 -0.0032743215315919386 0.0023563423857535458 0 -0.0027342683486592219 0.00174233424349043 0 -0.0027342683486592219 0.00174233424349043 0 -0.0022795614916929796 0.0020987840845576281 0 -0.0027342683486592219 0.00174233424349043 0 -0.0027132722019526847 0.0014746800210059376 0 -0.0022686397187148349 0.00096122219367501859 0 -0.002287240385931037 0.0010419030278161869 0 -0.0022431211892872294 0.0010180031212914567 0 -0.0027132722019526847 0.0014746800210059376 0 -0.0031956288334178571 0.0014995098891084399 0 -0.0027132722019526847 0.0014746800210059376 0 -0.0023752677081907061 0.00096392051222683197 0 -0.0027132722019526847 0.0014746800210059376 0 -0.0023925500369225495 0.0011306366403875203 0 -0.0026947676931459823 0.0012594958398250786 0 -0.0029407942606107778 0.00145653174864038 0 -0.0027383330913471138 0.0014487499295883417 0 -0.0038567756338165784 0.0018945609324880549 0 -0.0038518147083721733 0.0016193855371981962 0 -0.0036171369480393137 0.0017939835976401356 0 -0.004219422228124819 0.0019256816430889311 0 -0.0038567756338165784 0.0018945609324880549 0 -0.0038518147083721733 0.0016193855371981962 0 -0.0031956288334178571 0.0014995098891084399 0 -0.0023925500369225495 0.0011306366403875203 0 -0.0024611937013304429 0.001040597806146717 0 -0.002329658865875015 0.0010934791300910218 0 -0.0024620601896817819 0.0011982267337553184 0 -0.0024611937013304429 0.001040597806146717 0 -0.002329658865875015 0.0010934791300910218 0 -0.002317145053506818 0.0010335625299549294 0 -0.002329658865875015 0.0010934791300910218 0 -0.002263186497300312 0.0011757805574530691 0 -0.0022396986305466505 0.0011001327922980678 0 -0.002329658865875015 0.0010934791300910218 0 -0.002313863441925921 0.0010378509939170421 0 -0.0022396986305466505 0.0011001327922980678 0 -0.002287240385931037 0.0010419030278161869 0 -0.0022431211892872294 0.0010180031212914567 0 -0.0022191966847118529 0.0010400665501408026 0 -0.0023925500369225495 0.0011306366403875203 0 -0.0022138688089973755 0.0010577930102759218 0 -0.0023543612738884455 0.0010717188501998306 0 -0.0023925500369225495 0.0011306366403875203 0 -0.0032637226489577475 0.0019313268887893018 0 -0.0036171369480393137 0.0017939835976401356 0 -0.0033881446490429826 0.0015963499388704301 0 -0.0036166362312436491 0.0020694377000605836 0 -0.0032637226489577475 0.0019313268887893018 0 -0.0036171369480393137 0.0017939835976401356 0 -0.0036166362312436491 0.0020694377000605836 0 -0.0038567756338165784 0.0018945609324880549 0 -0.0036171369480393137 0.0017939835976401356 0 -0.0030932738843144287 0.0015958581403452143 0 -0.0029329585899074491 0.0015900031140866798 0 -0.0029717882045607732 0.0014979613286158543 0 -0.0038518147083721733 0.0016193855371981962 0 -0.0036171369480393137 0.0017939835976401356 0 -0.0033881446490429826 0.0015963499388704301 0 -0.0031956288334178571 0.0014995098891084399 0 -0.0027029228628222992 0.0012856776528307207 0 -0.0031956288334178571 0.0014995098891084399 0 -0.0032230263804706306 0.0016110048755374759 0 -0.0028535273736815816 0.0015161792146585148 0 -0.0029329585899074491 0.0015900031140866798 0 -0.0029717882045607732 0.0014979613286158543 0 -0.0027706608608411543 0.0013664217895723938 0 -0.002623689160706631 0.0011749316456165244 0 -0.0026547805247790421 0.001227246114734108 0 -0.0028119523453306555 0.0013848526857277764 0 -0.0027029228628222992 0.0012856776528307207 0 -0.0027706608608411543 0.0013664217895723938 0 -0.0028535273736815816 0.0015161792146585148 0 -0.0029717882045607732 0.0014979613286158543 0 -0.0024611937013304429 0.001040597806146717 0 -0.002623689160706631 0.0011749316456165244 0 -0.0024620601896817819 0.0011982267337553184 0 -0.0026433997457518069 0.0012212018445153159 0 -0.0024800754248387783 0.001188622511706696 0 -0.0026547805247790421 0.001227246114734108 0 -0.0025723782863511552 0.0012733113868289301 0 -0.0024960709922916043 0.0011758327334758761 0 -0.002623689160706631 0.0011749316456165244 0 -0.0026547805247790421 0.001227246114734108 0 -0.0024620601896817819 0.0011982267337553184 0 -0.0025618870501993578 0.0013582693711112531 0 -0.0025723782863511552 0.0012733113868289301 0 -0.0026563085615916508 0.0013361008434996688 0 -0.0025618870501993578 0.0013582693711112531 0 -0.0025723782863511552 0.0012733113868289301 0 -0.0024992865385626488 0.0013013916201581733 0 -0.0027057259735598564 0.0013694972830453102 0 -0.0027706608608411543 0.0013664217895723938 0 -0.0026563085615916508 0.0013361008434996688 0 -0.0026547805247790421 0.001227246114734108 0 -0.0025723782863511552 0.0012733113868289301 0 -0.0026563085615916508 0.0013361008434996688 0 -0.0027706608608411543 0.0013664217895723938 0 -0.0026547805247790421 0.001227246114734108 0 -0.0026563085615916508 0.0013361008434996688 0 -0.0022847012076933435 0.0011580702243330096 0 -0.0024800754248387783 0.001188622511706696 0 -0.0023111272705476126 0.0011383656656370044 0 -0.0024960709922916043 0.0011758327334758761 0 -0.0024040070688139451 0.0012326477314432763 0 -0.002329658865875015 0.0010934791300910218 0 -0.002263186497300312 0.0011757805574530691 0 -0.0024620601896817819 0.0011982267337553184 0 -0.0025723782863511552 0.0012733113868289301 0 -0.0024960709922916043 0.0011758327334758761 0 -0.0024992865385626488 0.0013013916201581733 0 -0.0024960709922916043 0.0011758327334758761 0 -0.0024992865385626488 0.0013013916201581733 0 -0.0024040070688139451 0.0012326477314432763 0 -0.0023953845068934525 0.0013056313150880384 0 -0.0024992865385626488 0.0013013916201581733 0 -0.0024040070688139451 0.0012326477314432763 0 -0.0023009083396098623 0.0013530917249880701 0 -0.0023953845068934525 0.0013056313150880384 0 -0.0023173973132472997 0.0012548559824441241 0 -0.0023953845068934525 0.0013056313150880384 0 -0.0024040070688139451 0.0012326477314432763 0 -0.0023173973132472997 0.0012548559824441241 0 -0.0023111272705476126 0.0011383656656370044 0 -0.0024040070688139451 0.0012326477314432763 0 -0.0023173973132472997 0.0012548559824441241 0 -0.0023111272705476126 0.0011383656656370044 0 -0.0023173973132472997 0.0012548559824441241 0 -0.0021915239939105792 0.0012596972785099067 0 -0.0023009083396098623 0.0013530917249880701 0 -0.0023173973132472997 0.0012548559824441241 0 -0.0021915239939105792 0.0012596972785099067 0 -0.002263186497300312 0.0011757805574530691 0 -0.002094063105232183 0.0011413657918775092 0 -0.0022396986305466505 0.0011001327922980678 0 -0.0023111272705476126 0.0011383656656370044 0 -0.0021915239939105792 0.0012596972785099067 0 -0.002094063105232183 0.0011413657918775092 0 -0.0022847012076933435 0.0011580702243330096 0 -0.0021083355690164856 0.0011422302803381582 0 -0.0020980713900139 0.0014004464802724519 0 -0.0021915239939105792 0.0012596972785099067 0 -0.0020449230128313334 0.0012683551994987514 0 -0.0021915239939105792 0.0012596972785099067 0 -0.002094063105232183 0.0011413657918775092 0 -0.0020449230128313334 0.0012683551994987514 0 -0.0020449230128313334 0.0012683551994987514 0 -0.0018854550843557083 0.0013159596649868772 0 -0.0018820177021395617 0.0011363973613691234 0 -0.0018854550843557083 0.0013159596649868772 0 -0.0018820177021395617 0.0011363973613691234 0 -0.0016898086829980493 0.0012269640443683867 0 -0.002094063105232183 0.0011413657918775092 0 -0.0020449230128313334 0.0012683551994987514 0 -0.0018820177021395617 0.0011363973613691234 0 -0.002094063105232183 0.0011413657918775092 0 -0.0018820177021395617 0.0011363973613691234 0 -0.0019818548280648731 0.0010467482942242493 0 -0.0018820177021395617 0.0011363973613691234 0 -0.0018401381545425713 0.0010393008769053762 0 -0.0017211330229924295 0.0010700908267268607 0 -0.0018820177021395617 0.0011363973613691234 0 -0.0019818548280648731 0.0010467482942242493 0 -0.0018401381545425713 0.0010393008769053762 0 -0.0018401381545425713 0.0010393008769053762 0 -0.0019127232481587508 0.00095997951859925947 0 -0.0017431765630064714 0.00095633537340900966 0 -0.0019818548280648731 0.0010467482942242493 0 -0.0018401381545425713 0.0010393008769053762 0 -0.0019127232481587508 0.00095997951859925947 0 -0.0019127232481587508 0.00095997951859925947 0 -0.0020320272266408103 0.00097359603655908949 0 -0.0020313150453691925 0.00088761843942127266 0 -0.0019818548280648731 0.0010467482942242493 0 -0.0019127232481587508 0.00095997951859925947 0 -0.0020320272266408103 0.00097359603655908949 0 -0.0020320272266408103 0.00097359603655908949 0 -0.0021217642297959999 0.00094602155170394134 0 -0.0020313150453691925 0.00088761843942127266 0 -0.0019818548280648731 0.0010467482942242493 0 -0.0020320272266408103 0.00097359603655908949 0 -0.0021107497009596548 0.0010264967591316753 0 -0.0020320272266408103 0.00097359603655908949 0 -0.0021217642297959999 0.00094602155170394134 0 -0.0021107497009596548 0.0010264967591316753 0 -0.0021217642297959999 0.00094602155170394134 0 -0.0021832193575194131 0.00099273747488498078 0 -0.0021107497009596548 0.0010264967591316753 0 -0.0021832193575194131 0.00099273747488498078 0 -0.0022191966847118529 0.0010400665501408026 0 -0.0021107497009596548 0.0010264967591316753 0 -0.0021217642297959999 0.00094602155170394134 0 -0.0021937480941143475 0.00094535672280054788 0 -0.0021832193575194131 0.00099273747488498078 0 -0.0022752593532512837 0.00093640580459687845 0 -0.0021937480941143475 0.00094535672280054788 0 -0.0022431211892872294 0.0010180031212914567 0 -0.0022431211892872294 0.0010180031212914567 0 -0.0021832193575194131 0.00099273747488498078 0 -0.0022191966847118529 0.0010400665501408026 0 -0.0021937480941143475 0.00094535672280054788 0 -0.0022431211892872294 0.0010180031212914567 0 -0.0021832193575194131 0.00099273747488498078 0 -0.002094063105232183 0.0011413657918775092 0 -0.0022191966847118529 0.0010400665501408026 0 -0.0022396986305466505 0.0011001327922980678 0 -0.002313863441925921 0.0010378509939170421 0 -0.0022191966847118529 0.0010400665501408026 0 -0.0022396986305466505 0.0011001327922980678 0 -0.002094063105232183 0.0011413657918775092 0 -0.0022191966847118529 0.0010400665501408026 0 -0.0021107497009596548 0.0010264967591316753 0 -0.002094063105232183 0.0011413657918775092 0 -0.0019818548280648731 0.0010467482942242493 0 -0.0021107497009596548 0.0010264967591316753 0 -0.0014536930129689944 -0.00096194452408043319 0 -0.0014124497255447741 -0.0010179132736558784 0 -0.0014111464853368389 -0.00096469932234365759 0 -0.0014242096241905593 -0.0010591144247081466 0 -0.0014791426934030927 -0.0010014948124585073 0 -0.0014124497255447741 -0.0010179132736558784 0 -0.0014791426934030927 -0.0010014948124585073 0 -0.0014536930129689944 -0.00096194452408043319 0 -0.0014124497255447741 -0.0010179132736558784 0 -0.0014124497255447741 -0.0010179132736558784 0 -0.0014111464853368389 -0.00096469932234365759 0 -0.0013961331266334242 -0.0010020396288322984 0 -0.0016898086829980493 0.0012269640443683867 0 -0.0017211330229924295 0.0010700908267268607 0 -0.0016130710433077049 0.0010809467019463547 0 -0.001517352799772098 0.0011364799287195842 0 -0.0016898086829980493 0.0012269640443683867 0 -0.0016130710433077049 0.0010809467019463547 0 -0.0014562843686338211 8.3479815724473827e-05 0 -0.0015454494484066867 0.00011419497417354191 0 -0.0014030840311892489 -0.001031814114460099 0 -0.0014124497255447741 -0.0010179132736558784 0 -0.0013961331266334242 -0.0010020396288322984 0 -0.0016305485713813269 0.00015412690976123787 0 -0.0015454494484066867 0.00011419497417354191 0 -0.0014030840311892489 -0.001031814114460099 0 -0.0013800819924167079 -0.0010059581952566203 0 -0.0013961331266334242 -0.0010020396288322984 0 -0.0018820177021395617 0.0011363973613691234 0 -0.0016898086829980493 0.0012269640443683867 0 -0.0017211330229924295 0.0010700908267268607 0 -0.0018401381545425713 0.0010393008769053762 0 -0.0017211330229924295 0.0010700908267268607 0 -0.0017431765630064714 0.00095633537340900966 0 -0.0017211330229924295 0.0010700908267268607 0 -0.0017431765630064714 0.00095633537340900966 0 -0.0016053934403847268 0.00097925849117042247 0 -0.0017431765630064714 0.00095633537340900966 0 -0.0016053934403847268 0.00097925849117042247 0 -0.0016324056525553305 0.00092093471947787072 0 -0.0017211330229924295 0.0010700908267268607 0 -0.0016053934403847268 0.00097925849117042247 0 -0.0016130710433077049 0.0010809467019463547 0 -0.001517352799772098 0.0011364799287195842 0 -0.0016130710433077049 0.0010809467019463547 0 -0.0015348554483671198 0.0010068454004373735 0 -0.0016053934403847268 0.00097925849117042247 0 -0.0016130710433077049 0.0010809467019463547 0 -0.0015348554483671198 0.0010068454004373735 0 -0.0016053934403847268 0.00097925849117042247 0 -0.0015348554483671198 0.0010068454004373735 0 -0.0015448954777983206 0.0009543804123244528 0 -0.0015348554483671198 0.0010068454004373735 0 -0.0015010094192518032 0.00096831298658635833 0 -0.0015448954777983206 0.0009543804123244528 0 -0.0015348554483671198 0.0010068454004373735 0 -0.0014774294447366773 0.0010066196596311926 0 -0.0015010094192518032 0.00096831298658635833 0 -0.0015205850684910454 0.0010031608051420025 0 -0.0014620317764596675 0.00098697065035988226 0 -0.0014568312437074076 8.2810381107692674e-05 0 -0.0014562843686338211 8.3479815724473827e-05 0 -0.0013471303744289761 0.0010403472587804674 0 -0.001517352799772098 0.0011364799287195842 0 -0.0014352827037188516 0.00096394165710601213 0 -0.001517352799772098 0.0011364799287195842 0 -0.0015348554483671198 0.0010068454004373735 0 -0.0014352827037188516 0.00096394165710601213 0 -0.0014536930129689944 -0.00096194452408043319 0 -0.0014751042099141077 -0.00089639027663980715 0 -0.0014111464853368389 -0.00096469932234365759 0 -0.001483084918099888 0.00092138559541358339 0 -0.0015010094192518032 0.00096831298658635833 0 -0.0015368183669801684 0.00091376469029839729 0 -0.001483084918099888 0.00092138559541358339 0 -0.0014572979377424403 0.00097015564995549676 0 -0.0015010094192518032 0.00096831298658635833 0 -0.0014774294447366773 0.0010066196596311926 0 -0.0014572979377424403 0.00097015564995549676 0 -0.0015010094192518032 0.00096831298658635833 0 -0.0015010094192518032 0.00096831298658635833 0 -0.0015448954777983206 0.0009543804123244528 0 -0.0015368183669801684 0.00091376469029839729 0 -0.0016053934403847268 0.00097925849117042247 0 -0.0015448954777983206 0.0009543804123244528 0 -0.0015770989313629135 0.00092595822983701861 0 -0.0015368183669801684 0.00091376469029839729 0 -0.0015680852539201279 0.00090164603574289539 0 -0.0015770989313629135 0.00092595822983701861 0 -0.0015448954777983206 0.0009543804123244528 0 -0.0015368183669801684 0.00091376469029839729 0 -0.0015770989313629135 0.00092595822983701861 0 -0.0015368183669801684 0.00091376469029839729 0 -0.0015454695606395927 0.00089043817196882635 0 -0.0015145777186979738 0.00088432877300771056 0 -0.001483084918099888 0.00092138559541358339 0 -0.0015368183669801684 0.00091376469029839729 0 -0.0015145777186979738 0.00088432877300771056 0 -0.0015368183669801684 0.00091376469029839729 0 -0.0015680852539201279 0.00090164603574289539 0 -0.0015454695606395927 0.00089043817196882635 0 -0.0015861480825684357 0.00089271135521219519 0 -0.0015680852539201279 0.00090164603574289539 0 -0.0016324056525553305 0.00092093471947787072 0 -0.0015636255870909441 0.00089971316719028409 0 -0.0015680852539201279 0.00090164603574289539 0 -0.0015454695606395927 0.00089043817196882635 0 -0.0017960973138235897 0.001080042887665465 0 -0.0016555240350895892 0.0010344145703601682 0 -0.0017960973138235897 0.001080042887665465 0 -0.0016203967114443317 0.0008307392726487336 0 -0.001638154767183134 0.0007727457601561465 0 -0.0016324056525553305 0.00092093471947787072 0 -0.0017158271314007103 0.00084114383855020251 0 -0.0015680852539201279 0.00090164603574289539 0 -0.0015770989313629135 0.00092595822983701861 0 -0.0016324056525553305 0.00092093471947787072 0 -0.0016053934403847268 0.00097925849117042247 0 -0.0015770989313629135 0.00092595822983701861 0 -0.0016324056525553305 0.00092093471947787072 0 -0.0017431765630064714 0.00095633537340900966 0 -0.0017158271314007103 0.00084114383855020251 0 -0.0018218619359771562 0.000855886600857221 0 -0.0017431765630064714 0.00095633537340900966 0 -0.0016324056525553305 0.00092093471947787072 0 -0.0017158271314007103 0.00084114383855020251 0 -0.0017960973138235897 0.001080042887665465 0 -0.001814114439381471 0.001162522000189869 0 -0.001638154767183134 0.0007727457601561465 0 -0.0017158271314007103 0.00084114383855020251 0 -0.0017767604529529437 0.00070727069010077706 0 -0.0017158271314007103 0.00084114383855020251 0 -0.0017767604529529437 0.00070727069010077706 0 -0.0018218619359771562 0.000855886600857221 0 -0.0018156307744983441 0.0016748016140513747 0 -0.0019141352864431218 0.0019690876195864724 0 -0.0021340258368045917 0.0019467708844095239 0 -0.0018156307744983441 0.0016748016140513747 0 -0.0019141352864431218 0.0019690876195864724 0 -0.0017359681990116534 0.0020320627934180373 0 -0.0019141352864431218 0.0019690876195864724 0 -0.0021340258368045917 0.0019467708844095239 0 -0.0019701724915159526 0.0022205669061012329 0 -0.0018344086407925959 0.0021329744827124548 0 -0.0019701724915159526 0.0022205669061012329 0 -0.0018490228797486423 0.0022435260952904422 0 -0.0019141352864431218 0.0019690876195864724 0 -0.0017359681990116534 0.0020320627934180373 0 -0.0019701724915159526 0.0022205669061012329 0 -0.0017890217444231666 0.00207761131816588 0 -0.0019482310637227731 0.0022070086271256239 0 -0.001910576886401153 0.001330044287951199 0 -0.001114742396426095 0.0021355810149990876 0 -0.0015421627918030354 0.00087708460389040956 0 -0.0015058673816796702 0.00086164213120271279 0 -0.0015289753101497357 0.00087512570270790904 0 -0.0021340258368045917 0.0019467708844095239 0 -0.002114195079289144 0.0023443261717031086 0 -0.0019701724915159526 0.0022205669061012329 0 -0.0021286840821551399 0.0015015843993847733 0 -0.0018156307744983441 0.0016748016140513747 0 -0.0021340258368045917 0.0019467708844095239 0 -0.0015636255870909441 0.00089971316719028409 0 -0.0015421627918030354 0.00087708460389040956 0 -0.0015454695606395927 0.00089043817196882635 0 -0.0017960973138235897 0.001080042887665465 0 -0.001910576886401153 0.001330044287951199 0 -0.0015421627918030354 0.00087708460389040956 0 -0.0015145777186979738 0.00088432877300771056 0 -0.0015058673816796702 0.00086164213120271279 0 -0.0015421627918030354 0.00087708460389040956 0 -0.0015454695606395927 0.00089043817196882635 0 -0.0015145777186979738 0.00088432877300771056 0 -0.00021297611638311249 0.0025346913157218206 0 -0.0001184392394662834 0.0026219093207139449 0 -0.000177046749399945 0.0026084972062962418 0 -0.0001184392394662834 0.0026219093207139449 0 -0.000177046749399945 0.0026084972062962418 0 -0.00010735542576507851 0.0026943917194190187 0 0.0006083687041044505 0.0031632029086555223 0 0.00081120995085544139 0.0033387434283256752 0 -0.00098387764654390324 0.0015895447098927006 0 -0.00071793208742626806 0.0017226650290377524 0 -0.0014242304082929212 0.0008672229124684302 0 -0.0015145777186979738 0.00088432877300771056 0 -0.0015058673816796702 0.00086164213120271279 0 -0.0014242304082929212 0.0008672229124684302 0 -0.001483084918099888 0.00092138559541358339 0 -0.0015145777186979738 0.00088432877300771056 0 -0.0021501157299981953 0.00083701770205333367 0 -0.0020313150453691925 0.00088761843942127266 0 -0.0020280981308396957 0.00074307930924992092 0 -0.0020568094299806125 0.0013086849932656185 0 -0.0021882784410739522 0.0013384927662063817 0 -0.0021674929944309781 0.0019781823363521421 0 -0.0021620727796011828 0.0018745159648486016 0 -0.0022647535274732777 0.0019647143196127211 0 -0.0021674929944309781 0.0019781823363521421 0 -0.0020831937961312335 0.0019231776088122789 0 -0.0021620727796011828 0.0018745159648486016 0 -0.0027132722019526847 0.0014746800210059376 0 -0.0020568094299806125 0.0013086849932656185 0 -0.0020632027681465382 0.001796541318221907 0 -0.0020610444466363613 0.0017838366228308622 0 -0.0021620727796011828 0.0018745159648486016 0 -0.0022752593532512837 0.00093640580459687845 0 -0.0021937480941143475 0.00094535672280054788 0 -0.0021501157299981953 0.00083701770205333367 0 -0.0021217642297959999 0.00094602155170394134 0 -0.0021937480941143475 0.00094535672280054788 0 -0.0021501157299981953 0.00083701770205333367 0 -0.0020632027681465382 0.001796541318221907 0 -0.0020831937961312335 0.0019231776088122789 0 -0.0021620727796011828 0.0018745159648486016 0 -0.0021217642297959999 0.00094602155170394134 0 -0.0021501157299981953 0.00083701770205333367 0 -0.0020313150453691925 0.00088761843942127266 0 -0.0019127232481587508 0.00095997951859925947 0 -0.0020313150453691925 0.00088761843942127266 0 -0.0019238082423553306 0.00085869003242422623 0 -0.0020313150453691925 0.00088761843942127266 0 -0.0019238082423553306 0.00085869003242422623 0 -0.0020280981308396957 0.00074307930924992092 0 -0.0019127232481587508 0.00095997951859925947 0 -0.0019238082423553306 0.00085869003242422623 0 -0.0018218619359771562 0.000855886600857221 0 -0.0019127232481587508 0.00095997951859925947 0 -0.0017431765630064714 0.00095633537340900966 0 -0.0018218619359771562 0.000855886600857221 0 -0.0017767604529529437 0.00070727069010077706 0 -0.0018218619359771562 0.000855886600857221 0 -0.0018907814355079969 0.00076320703129246137 0 -0.0019238082423553306 0.00085869003242422623 0 -0.0018218619359771562 0.000855886600857221 0 -0.0018907814355079969 0.00076320703129246137 0 -0.0019238082423553306 0.00085869003242422623 0 -0.0018907814355079969 0.00076320703129246137 0 -0.0020280981308396957 0.00074307930924992092 0 -0.0018907814355079969 0.00076320703129246137 0 -0.0020280981308396957 0.00074307930924992092 0 -0.0019039304262520695 0.00064754673025999249 0 -0.0021882784410739522 0.0013384927662063817 0 -0.0018276861280072292 0.0017066545568936843 0 -0.0022647535274732777 0.0019647143196127211 0 -0.0023604605595772578 0.0020488102872637361 0 -0.0022201127089158099 0.0020758305996224843 0 -0.001814114439381471 0.001162522000189869 0 -0.0018276861280072292 0.0017066545568936843 0 -0.0018156307744983441 0.0016748016140513747 0 -0.0015076528275343925 0.0018418255758873851 0 -0.0017359681990116534 0.0020320627934180373 0 -0.0017767604529529437 0.00070727069010077706 0 -0.0018907814355079969 0.00076320703129246137 0 -0.0019039304262520695 0.00064754673025999249 0 -0.0017084105451267107 0.0020191079176066829 0 -0.0018344086407925959 0.0021329744827124548 0 -0.0017495754619396228 0.0022085916324298383 0 -0.0017084105451267107 0.0020191079176066829 0 -0.0017495754619396228 0.0022085916324298383 0 -0.0016346388267577355 0.0022227976957552163 0 -0.0018276861280072292 0.0017066545568936843 0 -0.0017890217444231666 0.00207761131816588 0 -0.0018344086407925959 0.0021329744827124548 0 -0.0017495754619396228 0.0022085916324298383 0 -0.0018490228797486423 0.0022435260952904422 0 -0.0017084105451267107 0.0020191079176066829 0 -0.0016346388267577355 0.0022227976957552163 0 -0.0014681859936856436 0.0021328131004515688 0 -0.0023604605595772578 0.0020488102872637361 0 -0.0022469381774219191 0.0021165697200401456 0 -0.0022201127089158099 0.0020758305996224843 0 -0.0016346388267577355 0.0022227976957552163 0 -0.0014681859936856436 0.0021328131004515688 0 -0.0016254242140110215 0.0024132689615078071 0 -0.0018276861280072292 0.0017066545568936843 0 -0.0022049160506570431 0.0023810116153831396 0 -0.0025548829500223126 0.0030575964886273353 0 -0.002363245021970621 0.0031592110863135564 0 -0.0025214205938716549 0.0032401920199734017 0 -0.0022551141136166928 0.0021289668110213277 0 -0.0022201127089158099 0.0020758305996224843 0 -0.0021342872148271421 0.0021985978982910735 0 -0.0022049160506570431 0.0023810116153831396 0 -0.0023710792290456638 0.002944992248694967 0 -0.0022049160506570431 0.0023810116153831396 0 -0.0021552122206225997 0.0021374992702652439 0 -0.0021674929944309781 0.0019781823363521421 0 -0.0022647535274732777 0.0019647143196127211 0 -0.0022201127089158099 0.0020758305996224843 0 -0.0022795614916929796 0.0020987840845576281 0 -0.0023608940343253096 0.0023168497800174883 0 -0.0021674929944309781 0.0019781823363521421 0 -0.0020831937961312335 0.0019231776088122789 0 -0.0021061870774680119 0.0020556993627365711 0 -0.0021674929944309781 0.0019781823363521421 0 -0.0022201127089158099 0.0020758305996224843 0 -0.0021061870774680119 0.0020556993627365711 0 -0.0022201127089158099 0.0020758305996224843 0 -0.0021061870774680119 0.0020556993627365711 0 -0.0021342872148271421 0.0021985978982910735 0 -0.0023407069151730724 0.0030576307891647865 0 -0.0026213537341584292 0.0026846455158139877 0 -0.002710721772728757 0.0031100509279402785 0 -0.0023608940343253096 0.0023168497800174883 0 -0.0023710792290456638 0.002944992248694967 0 -0.0023710792290456638 0.002944992248694967 0 -0.0024632794970690136 0.0034967853897479805 0 -0.0024352512870756344 0.0032534636391116632 0 -0.0023937603177941404 0.0034003664429024198 0 -0.0024860200080294168 0.0034763330003534094 0 -0.0024352512870756344 0.0032534636391116632 0 -0.0023937603177941404 0.0034003664429024198 0 -0.0023219314639309572 0.0033981679680333567 0 -0.0023937603177941404 0.0034003664429024198 0 -0.0023219314639309572 0.0033981679680333567 0 -0.0023240578186699014 0.0034924176313657312 0 -0.0023937603177941404 0.0034003664429024198 0 -0.002399975557977193 0.0035170772132642053 0 -0.0023240578186699014 0.0034924176313657312 0 -0.0023937603177941404 0.0034003664429024198 0 -0.002399975557977193 0.0035170772132642053 0 -0.0024860200080294168 0.0034763330003534094 0 -0.002399975557977193 0.0035170772132642053 0 -0.0024860200080294168 0.0034763330003534094 0 -0.0024319583148785188 0.0036101450336675752 0 -0.002399975557977193 0.0035170772132642053 0 -0.0023510796104806403 0.0035903808293012355 0 -0.0024319583148785188 0.0036101450336675752 0 -0.002399975557977193 0.0035170772132642053 0 -0.0023510796104806403 0.0035903808293012355 0 -0.0023240578186699014 0.0034924176313657312 0 -0.0025207212252645627 0.0033828355014867318 0 -0.0026444741833392365 0.0034095881813182992 0 -0.0025521823268552114 0.0036184654543858744 0 -0.0024171685498032653 0.0033986369726673889 0 -0.0025207212252645627 0.0033828355014867318 0 -0.0025174451437864902 0.0037056572776979105 0 -0.0024171685498032653 0.0033986369726673889 0 -0.0025207212252645627 0.0033828355014867318 0 -0.0025214205938716549 0.0032401920199734017 0 -0.0025207212252645627 0.0033828355014867318 0 -0.0025214205938716549 0.0032401920199734017 0 -0.0025927648741712913 0.0033275579536128294 0 -0.002363245021970621 0.0031592110863135564 0 -0.0024171685498032653 0.0033986369726673889 0 -0.0025214205938716549 0.0032401920199734017 0 -0.0025214205938716549 0.0032401920199734017 0 -0.0026819435951899355 0.0032707609185399652 0 -0.0025927648741712913 0.0033275579536128294 0 -0.0022049160506570431 0.0023810116153831396 0 -0.0021771587610967228 0.0028230157894773966 0 -0.0025548829500223126 0.0030575964886273353 0 -0.0025214205938716549 0.0032401920199734017 0 -0.0026819435951899355 0.0032707609185399652 0 -0.0016346388267577355 0.0022227976957552163 0 -0.0016254242140110215 0.0024132689615078071 0 -0.0018497010652043231 0.0023944443708538939 0 -0.0017495754619396228 0.0022085916324298383 0 -0.0017658401402239981 0.0023215772339479006 0 -0.0018490228797486423 0.0022435260952904422 0 -0.0017495754619396228 0.0022085916324298383 0 -0.0016346388267577355 0.0022227976957552163 0 -0.0017658401402239981 0.0023215772339479006 0 -0.0016482659874916161 0.0022320964251368214 0 -0.0018239461398013525 0.002369601955801296 0 -0.0021771587610967228 0.0028230157894773966 0 -0.001851678001292667 0.0035147872121886379 0 -0.0016254242140110215 0.0024132689615078071 0 -0.0018497010652043231 0.0023944443708538939 0 -0.0018305463084761051 0.0027451041639390177 0 -0.0018497010652043231 0.0023944443708538939 0 -0.0018305463084761051 0.0027451041639390177 0 -0.0020722128032957051 0.0025822143861329427 0 -0.001851678001292667 0.0035147872121886379 0 -0.0015466161267026462 0.0028715391387904802 0 -0.0027882785861017409 0.0034597053617311906 0 -0.0026444741833392365 0.0034095881813182992 0 -0.0026711163447163985 0.003538754301238952 0 -0.0026819435951899355 0.0032707609185399652 0 -0.0027882785861017409 0.0034597053617311906 0 -0.0026444741833392365 0.0034095881813182992 0 -0.0025207212252645627 0.0033828355014867318 0 -0.0025927648741712913 0.0033275579536128294 0 -0.0026444741833392365 0.0034095881813182992 0 -0.0026819435951899355 0.0032707609185399652 0 -0.0025927648741712913 0.0033275579536128294 0 -0.0026444741833392365 0.0034095881813182992 0 -0.0026444741833392365 0.0034095881813182992 0 -0.0026711163447163985 0.003538754301238952 0 -0.0025521823268552114 0.0036184654543858744 0 -0.0017812764791484874 0.0041642826680767719 0 -0.0017960069863995462 0.0041814776784192247 0 -0.0017791364054816933 0.0041873157307405345 0 -0.0022156290395989619 0.0038417064635007667 0 -0.0023630054726074979 0.0037895267831781002 0 -0.0017812764791484874 0.0041642826680767719 0 -0.0017791364054816933 0.0041873157307405345 0 -0.0017631813115808819 0.0041784517750816938 0 -0.001851678001292667 0.0035147872121886379 0 -0.0015242300696604813 0.004062716345319105 0 -0.0017997546850837683 0.0041484947234420796 0 -0.0017960069863995462 0.0041814776784192247 0 -0.0018146798674525168 0.0041842041624338064 0 -0.0017997546850837683 0.0041484947234420796 0 -0.0017812764791484874 0.0041642826680767719 0 -0.0017960069863995462 0.0041814776784192247 0 -0.001851678001292667 0.0035147872121886379 0 -0.0022156290395989619 0.0038417064635007667 0 -0.0017960069863995462 0.0041814776784192247 0 -0.0018060896511931125 0.0042040497131544431 0 -0.0018146798674525168 0.0041842041624338064 0 -0.0017960069863995462 0.0041814776784192247 0 -0.0017891933452622707 0.0042003215522524208 0 -0.0017791364054816933 0.0041873157307405345 0 -0.0017960069863995462 0.0041814776784192247 0 -0.0017891933452622707 0.0042003215522524208 0 -0.0018060896511931125 0.0042040497131544431 0 -0.0017891933452622707 0.0042003215522524208 0 -0.0017791364054816933 0.0041873157307405345 0 -0.0017683871012039892 0.0042268442273208926 0 -0.0017791364054816933 0.0041873157307405345 0 -0.0017631813115808819 0.0041784517750816938 0 -0.0017683871012039892 0.0042268442273208926 0 -0.0023630054726074979 0.0037895267831781002 0 -0.0020921155982464613 0.004708023938539258 0 -0.0026036712428279848 0.0037550664283434901 0 -0.0025183234684534894 0.0038117605426755538 0 -0.0026478100580934875 0.0040574039862159945 0 -0.0023630054726074979 0.0037895267831781002 0 -0.0025373928455564346 0.0037484451307934442 0 -0.0026229505538442042 0.0037502841118765085 0 -0.0025183234684534894 0.0038117605426755538 0 -0.0025174451437864902 0.0037056572776979105 0 -0.0025183234684534894 0.0038117605426755538 0 -0.0024493811171766174 0.0037617227738963002 0 -0.0025174451437864902 0.0037056572776979105 0 -0.0025183234684534894 0.0038117605426755538 0 -0.0023829452664996193 0.0038345040325021935 0 -0.0024232238811218048 0.0039891822917160463 0 -0.0023829452664996193 0.0038345040325021935 0 -0.0023918166244149028 0.0037562361016462761 0 -0.0022917422661475743 0.0037669606551814631 0 -0.0025183234684534894 0.0038117605426755538 0 -0.0023829452664996193 0.0038345040325021935 0 -0.0024493811171766174 0.0037617227738963002 0 -0.0023829452664996193 0.0038345040325021935 0 -0.0023918166244149028 0.0037562361016462761 0 -0.0024493811171766174 0.0037617227738963002 0 -0.0024493811171766174 0.0037617227738963002 0 -0.0024366685725325304 0.0037011529087919077 0 -0.0025174451437864902 0.0037056572776979105 0 -0.0024366685725325304 0.0037011529087919077 0 -0.0024319583148785188 0.0036101450336675752 0 -0.0025174451437864902 0.0037056572776979105 0 -0.0024366685725325304 0.0037011529087919077 0 -0.0023698113364819667 0.0036796482132284364 0 -0.0024319583148785188 0.0036101450336675752 0 -0.0023918166244149028 0.0037562361016462761 0 -0.0024366685725325304 0.0037011529087919077 0 -0.0023698113364819667 0.0036796482132284364 0 -0.0023918166244149028 0.0037562361016462761 0 -0.0024493811171766174 0.0037617227738963002 0 -0.0024366685725325304 0.0037011529087919077 0 -0.0023698113364819667 0.0036796482132284364 0 -0.0023007926985900182 0.0036673993083246093 0 -0.0022917422661475743 0.0037669606551814631 0 -0.0023918166244149028 0.0037562361016462761 0 -0.0023698113364819667 0.0036796482132284364 0 -0.0022917422661475743 0.0037669606551814631 0 -0.0023698113364819667 0.0036796482132284364 0 -0.0023510796104806403 0.0035903808293012355 0 -0.0023007926985900182 0.0036673993083246093 0 -0.0023698113364819667 0.0036796482132284364 0 -0.0023510796104806403 0.0035903808293012355 0 -0.0024319583148785188 0.0036101450336675752 0 -0.0025787507805939288 0.003362949174040683 0 -0.0023630054726074979 0.0037895267831781002 0 -0.0024860200080294168 0.0034763330003534094 0 -0.0024319583148785188 0.0036101450336675752 0 -0.0025174451437864902 0.0037056572776979105 0 -0.0025207212252645627 0.0033828355014867318 0 -0.0026229505538442042 0.0037502841118765085 0 -0.0025174451437864902 0.0037056572776979105 0 -0.0024632794970690136 0.0034967853897479805 0 -0.0025062141246871149 0.0036600408044359313 0 0.0015091794226172745 0.0040732810221570086 0 0.0015906596806734071 0.0039333262699238029 0 0.0016131645328902897 0.0040869616982530414 0 0.0014276528768360401 0.0040462792365870736 0 0.0015091794226172745 0.0040732810221570086 0 0.0014759904378247406 0.0039407261313260528 0 0.0014224329321621725 0.0041408327214879298 0 0.0015091794226172745 0.0040732810221570086 0 0.0014761102573833333 0.0041818698271155683 0 0.0015091794226172745 0.0040732810221570086 0 0.0016131645328902897 0.0040869616982530414 0 0.0015559414314533326 0.0041812840259471233 0 0.0015091794226172745 0.0040732810221570086 0 0.0014759904378247406 0.0039407261313260528 0 0.0015906596806734071 0.0039333262699238029 0 0.0014747595231495107 0.0037887733435387084 0 0.0014759904378247406 0.0039407261313260528 0 0.0015906596806734071 0.0039333262699238029 0 0.00081120995085544139 0.0033387434283256752 0 0.0004243775299645876 0.0034559324451663835 0 -0.0001184392394662834 0.0026219093207139449 0 -0.00010735542576507851 0.0026943917194190187 0 -1.3296276348814862e-06 0.002711951941174007 0 -0.00010735542576507851 0.0026943917194190187 0 -1.9541004140103819e-05 0.0027292662202835737 0 -1.3296276348814862e-06 0.002711951941174007 0 -0.00010735542576507851 0.0026943917194190187 0 -2.4295933164592951e-05 0.0027826222466103786 0 -1.9541004140103819e-05 0.0027292662202835737 0 -0.00071793208742626806 0.0017226650290377524 0 -0.001114742396426095 0.0021355810149990876 0 0.0015906596806734071 0.0039333262699238029 0 0.0016131645328902897 0.0040869616982530414 0 0.0017129644105626069 0.0040577538903547906 0 0.0016131645328902897 0.0040869616982530414 0 0.0017129644105626069 0.0040577538903547906 0 0.001697934337604021 0.0041915235448784158 0 0.00016882746264580147 0.0034334673876158352 0 0.00027956098892422554 0.0036912119656057878 0 0.0001144776849076967 0.0038281521814676404 0 -0.00099913245891098757 0.0030729057940601756 0 -0.0010539147914757586 0.0030232417740210628 0 -0.00076161779876960853 0.0028997683603781492 0 -0.0010539147914757586 0.0030232417740210628 0 -0.0010511774375900505 0.002702434788206645 0 -0.00076161779876960853 0.0028997683603781492 0 -1.3779583449840433e-06 0.0028194279016415468 0 -1.9541004140103819e-05 0.0027292662202835737 0 -1.3296276348814862e-06 0.002711951941174007 0 -0.00099913245891098757 0.0030729057940601756 0 -0.00076161779876960853 0.0028997683603781492 0 -0.0010539920879430911 0.003146533786671778 0 -0.0003963340771394311 0.0031903296149298631 0 -0.001114742396426095 0.0021355810149990876 0 0.0004243775299645876 0.0034559324451663835 0 0.00058228156603649147 0.003993065334586818 0 0.00028230168866772142 0.0035359270995004911 0 0.00016882746264580147 0.0034334673876158352 0 0.00027956098892422554 0.0036912119656057878 0 -0.0003963340771394311 0.0031903296149298631 0 0.0004243775299645876 0.0034559324451663835 0 -0.00099913245891098757 0.0030729057940601756 0 -0.0010501381458720431 0.0030263186841079336 0 -0.0010539920879430911 0.003146533786671778 0 -0.0003963340771394311 0.0031903296149298631 0 -0.00058005658985630661 0.003693529766298163 0 -0.00060075969003600986 0.0030648397784272621 0 -0.0003963340771394311 0.0031903296149298631 0 0.0004243775299645876 0.0034559324451663835 0 0.0002095746307322866 0.0027344987604010751 0 -1.3779583449840433e-06 0.0028194279016415468 0 -3.0137597873420164e-05 0.002792462132326715 0 -1.9541004140103819e-05 0.0027292662202835737 0 -0.0017658401402239981 0.0023215772339479006 0 -0.0018490228797486423 0.0022435260952904422 0 -0.0019085294910896845 0.0024600871350168763 0 -0.002114195079289144 0.0023443261717031086 0 -0.0019701724915159526 0.0022205669061012329 0 -0.0019085294910896845 0.0024600871350168763 0 -0.0019701724915159526 0.0022205669061012329 0 -0.0018490228797486423 0.0022435260952904422 0 -0.0019085294910896845 0.0024600871350168763 0 -0.001114742396426095 0.0021355810149990876 0 -0.0015466161267026462 0.0028715391387904802 0 -0.0018239461398013525 0.002369601955801296 0 -0.0015466161267026462 0.0028715391387904802 0 -0.0012357360671190569 0.0035957925549705552 0 -0.0012449168322190751 0.0037447397299465728 0 -0.0013878402390968035 0.0037258989752269669 0 -0.0015466161267026462 0.0028715391387904802 0 -0.00058005658985630661 0.003693529766298163 0 -0.0010930228236544375 0.003693822083238406 0 -0.0012357360671190569 0.0035957925549705552 0 -0.0012449168322190751 0.0037447397299465728 0 -0.0010930228236544375 0.003693822083238406 0 -0.0012449168322190751 0.0037447397299465728 0 -0.0012139182937744195 0.0038924920603866562 0 -0.0012449168322190751 0.0037447397299465728 0 -0.0012139182937744195 0.0038924920603866562 0 -0.0013907607111710374 0.0038977036833166448 0 -0.0015242300696604813 0.004062716345319105 0 -0.0011543802002315134 0.0044247325808957809 0 -0.0018060896511931125 0.0042040497131544431 0 -0.0018146798674525168 0.0041842041624338064 0 -0.0018255748452071544 0.0042158453179363979 0 -0.00014646823430024164 0.0041264203641295221 0 -0.00025135310854498594 0.0039463513646662259 0 -0.00030466741174487469 0.0043315215894950817 0 -0.00076640124965083993 0.0039984784782861943 0 -0.00068919235733769289 0.0044200492891603273 0 -0.0012139182937744195 0.0038924920603866562 0 -0.0013907607111710374 0.0038977036833166448 0 -0.0013384617115073307 0.0040958931767489694 0 -0.0013907607111710374 0.0038977036833166448 0 -0.0013918554735676777 0.0040731107164189533 0 -0.0013384617115073307 0.0040958931767489694 0 -0.00014646823430024164 0.0041264203641295221 0 -0.00030466741174487469 0.0043315215894950817 0 -0.00015248842053343172 0.0043971372080766971 0 -0.0012449168322190751 0.0037447397299465728 0 -0.0013907607111710374 0.0038977036833166448 0 -0.0013878402390968035 0.0037258989752269669 0 -0.00014646823430024164 0.0041264203641295221 0 -0.00014235074519063291 0.0038550759594756633 0 -0.00025135310854498594 0.0039463513646662259 0 -0.00076640124965083993 0.0039984784782861943 0 -0.00058005658985630661 0.003693529766298163 0 -0.00058005658985630661 0.003693529766298163 0 0.00058228156603649147 0.003993065334586818 0 0.00058228156603649147 0.003993065334586818 0 0.0014874993562036221 0.0043310059321427716 0 0.001697934337604021 0.0041915235448784158 0 0.0015343568298173916 0.0043377776271377724 0 0.0015559414314533326 0.0041812840259471233 0 0.0016131645328902897 0.0040869616982530414 0 0.001697934337604021 0.0041915235448784158 0 0.0015559414314533326 0.0041812840259471233 0 0.00039933244162760576 0.0045480737175766445 0 0.0014874993562036221 0.0043310059321427716 0 0.00058228156603649147 0.003993065334586818 0 0.00039933244162760576 0.0045480737175766445 0 0.0016116903616030995 0.0044103257314931357 0 0.0015082914467541115 0.0043604136151573804 0 0.0015245873913863125 0.0044107327325514636 0 0.00079102584859896507 0.0043457597719695632 0 0.00081079364736423587 0.0042135440318544623 0 0.00091126720996577914 0.0042542843311811403 0 0.0015343568298173916 0.0043377776271377724 0 0.0014978585782983859 0.0043253299860492962 0 0.001494849288353028 0.0042512560766456093 0 0.0014874993562036221 0.0043310059321427716 0 0.0014975334304012245 0.0043334405196534809 0 0.001535774866239397 0.0043423742824701163 0 0.0014872930416893841 0.0043770299193976242 0 0.0014978585782983859 0.0043253299860492962 0 0.0014874993562036221 0.0043310059321427716 0 0.001485973285305529 0.0043443803760742031 0 0.0015082914467541115 0.0043604136151573804 0 0.0014872930416893841 0.0043770299193976242 0 0.0015245873913863125 0.0044107327325514636 0 0.0014412311389019148 0.0043976947732221189 0 0.0014872930416893841 0.0043770299193976242 0 0.0014566513610037488 0.0043518983390479753 0 0.0014872930416893841 0.0043770299193976242 0 0.0014566513610037488 0.0043518983390479753 0 0.0014978585782983859 0.0043253299860492962 0 0.0014120319550600916 0.0043510768455902061 0 0.0014412311389019148 0.0043976947732221189 0 0.0014566513610037488 0.0043518983390479753 0 0.0014120319550600916 0.0043510768455902061 0 0.0014566513610037488 0.0043518983390479753 0 0.001449318752785261 0.0043036929641836049 0 0.001449318752785261 0.0043036929641836049 0 0.0014978585782983859 0.0043253299860492962 0 0.001494849288353028 0.0042512560766456093 0 0.0014566513610037488 0.0043518983390479753 0 0.001449318752785261 0.0043036929641836049 0 0.0014978585782983859 0.0043253299860492962 0 0.0014265990628603406 0.0042469441810325456 0 0.001494849288353028 0.0042512560766456093 0 0.0014761102573833333 0.0041818698271155683 0 0.0015343568298173916 0.0043377776271377724 0 0.001494849288353028 0.0042512560766456093 0 0.0015559414314533326 0.0041812840259471233 0 0.0014265990628603406 0.0042469441810325456 0 0.001449318752785261 0.0043036929641836049 0 0.001494849288353028 0.0042512560766456093 0 0.001494849288353028 0.0042512560766456093 0 0.0015559414314533326 0.0041812840259471233 0 0.0014761102573833333 0.0041818698271155683 0 0.0015091794226172745 0.0040732810221570086 0 0.0015559414314533326 0.0041812840259471233 0 0.0014761102573833333 0.0041818698271155683 0 0.0013918485740161549 0.0046554356328755171 0 0.0014336851541997798 0.0045916100900522195 0 0.0014852540499101232 0.0045910205193838895 0 0.0014852540499101232 0.0045910205193838895 0 0.0014676891401972964 0.0045175403823967883 0 0.0015271373780934719 0.0045232527580913997 0 0.0014116600706323935 0.0045501051315464747 0 0.0013929766264905296 0.0045064814981492802 0 0.0014676891401972964 0.0045175403823967883 0 0.0014116600706323935 0.0045501051315464747 0 0.0014336851541997798 0.0045916100900522195 0 0.0014676891401972964 0.0045175403823967883 0 0.0014336851541997798 0.0045916100900522195 0 0.0014852540499101232 0.0045910205193838895 0 0.0014676891401972964 0.0045175403823967883 0 0.0014222410152334775 0.0044493883372066848 0 0.0013929766264905296 0.0045064814981492802 0 0.0014676891401972964 0.0045175403823967883 0 0.0014222410152334775 0.0044493883372066848 0 0.0014676891401972964 0.0045175403823967883 0 0.0014827988808482286 0.0044402285078232054 0 0.0014412311389019148 0.0043976947732221189 0 0.0014872930416893841 0.0043770299193976242 0 0.0014827988808482286 0.0044402285078232054 0 0.0014222410152334775 0.0044493883372066848 0 0.0014412311389019148 0.0043976947732221189 0 0.0014827988808482286 0.0044402285078232054 0 0.0014827988808482286 0.0044402285078232054 0 0.0015245873913863125 0.0044107327325514636 0 0.0015360301493019318 0.0044685028944227295 0 0.0014872930416893841 0.0043770299193976242 0 0.0014827988808482286 0.0044402285078232054 0 0.0015245873913863125 0.0044107327325514636 0 0.0014676891401972964 0.0045175403823967883 0 0.0014827988808482286 0.0044402285078232054 0 0.0015360301493019318 0.0044685028944227295 0 0.0014676891401972964 0.0045175403823967883 0 0.0015360301493019318 0.0044685028944227295 0 0.0015271373780934719 0.0045232527580913997 0 0.0015360301493019318 0.0044685028944227295 0 0.0016006506682141887 0.0045198540975789616 0 0.0015271373780934719 0.0045232527580913997 0 0.00039933244162760576 0.0045480737175766445 0 0.00060645818059971708 0.0046310727476957421 0 0.0016116903616030995 0.0044103257314931357 0 0.0015360301493019318 0.0044685028944227295 0 0.0016006506682141887 0.0045198540975789616 0 -0.00040803032771653553 0.0051051778873941805 0 -0.00037638512015882681 0.0049099133545998704 0 -0.00046514500526797229 0.0049977024308365051 0 0.0016116903616030995 0.0044103257314931357 0 0.0015245873913863125 0.0044107327325514636 0 0.0015360301493019318 0.0044685028944227295 0 0.0014852540499101232 0.0045910205193838895 0 0.0016006506682141887 0.0045198540975789616 0 0.0015271373780934719 0.0045232527580913997 0 0.0014852540499101232 0.0045910205193838895 0 0.0016006506682141887 0.0045198540975789616 0 0.0015816702178244252 0.0046365184884916899 0 -0.00037638512015882681 0.0049099133545998704 0 -0.00043906111108657237 0.0047380654426242234 0 -0.00031192907129219298 0.0046493920576367786 0 0.00060645818059971708 0.0046310727476957421 0 0.00017689216802860435 0.0052823727997766655 0 -0.00034476934844582252 0.0063517887928108132 0 -0.00087198354929000715 0.0064782072903588669 0 -0.00055662744468275977 0.0062254353580106711 0 -0.00043906111108657237 0.0047380654426242234 0 -0.00031192907129219298 0.0046493920576367786 0 -0.00082691269584206351 0.0047755222364441975 0 -0.00043906111108657237 0.0047380654426242234 0 -0.00073008312097902386 0.0048764317148591611 0 -0.00082691269584206351 0.0047755222364441975 0 0.00017689216802860435 0.0052823727997766655 0 -0.0010011510086212975 0.0056992811813298874 0 -0.0010678439099260158 0.0052695989715830782 0 -0.0010011510086212975 0.0056992811813298874 0 -0.00073008312097902386 0.0048764317148591611 0 -0.0006999578306365144 0.004968689415608892 0 -0.00078752337350979779 0.0050332606687969132 0 -0.00073008312097902386 0.0048764317148591611 0 -0.0006999578306365144 0.004968689415608892 0 -0.00061249621203933035 0.0049290649014345905 0 -0.0006999578306365144 0.004968689415608892 0 -0.00061249621203933035 0.0049290649014345905 0 -0.00060999735025322576 0.0050102847482798724 0 -0.00047942766391041947 0.0047598950952889843 0 -0.00073203249488265501 0.0048468368051595755 0 -0.00072044917555389538 0.0048829257020263934 0 -0.00073203249488265501 0.0048468368051595755 0 -0.00043906111108657237 0.0047380654426242234 0 -0.00061249621203933035 0.0049290649014345905 0 -0.00061396458135505301 0.0050007606963189 0 -0.00037638512015882681 0.0049099133545998704 0 -0.00043906111108657237 0.0047380654426242234 0 -0.00054124484392324408 0.004918468151033909 0 -0.00043906111108657237 0.0047380654426242234 0 -0.00073008312097902386 0.0048764317148591611 0 -0.00061249621203933035 0.0049290649014345905 0 -0.00073203249488265501 0.0048468368051595755 0 -0.00068919235733769289 0.0044200492891603273 0 -0.00037638512015882681 0.0049099133545998704 0 -0.00046514500526797229 0.0049977024308365051 0 -0.00054124484392324408 0.004918468151033909 0 -0.00046514500526797229 0.0049977024308365051 0 -0.00054124484392324408 0.004918468151033909 0 -0.00053629127612025247 0.0050536540936824206 0 0.00039933244162760576 0.0045480737175766445 0 -0.00068919235733769289 0.0044200492891603273 0 -0.00040803032771653553 0.0051051778873941805 0 -0.00046514500526797229 0.0049977024308365051 0 -0.00053629127612025247 0.0050536540936824206 0 -0.00068919235733769289 0.0044200492891603273 0 -0.0011543802002315134 0.0044247325808957809 0 -0.00084876966098338725 0.0046972398246192875 0 -0.00084429419732638374 0.0044356692257826163 0 -0.00071337133899955832 0.004491569359578145 0 -0.00073203249488265501 0.0048468368051595755 0 -0.0011543802002315134 0.0044247325808957809 0 -0.00060999735025322576 0.0050102847482798724 0 -0.00074595108292202885 0.0052185343575594503 0 -0.00078752337350979779 0.0050332606687969132 0 -0.0006999578306365144 0.004968689415608892 0 -0.00060999735025322576 0.0050102847482798724 0 -0.00078752337350979779 0.0050332606687969132 0 -0.00078752337350979779 0.0050332606687969132 0 -0.0011065490124448484 0.0050740262179780286 0 -0.00099000808701651586 0.0049324220178985079 0 -0.0018060896511931125 0.0042040497131544431 0 -0.0018255748452071544 0.0042158453179363979 0 -0.0018101553443626533 0.0042238829110882257 0 -0.00074595108292202885 0.0052185343575594503 0 -0.00078752337350979779 0.0050332606687969132 0 -0.0011065490124448484 0.0050740262179780286 0 -0.0011543802002315134 0.0044247325808957809 0 -0.0014936293457252709 0.0046415266152425244 0 -0.00099000808701651586 0.0049324220178985079 0 -0.00085335656733220692 0.0047557096960882212 0 -0.0014725182256080682 0.0049221096766739756 0 -0.0011065490124448484 0.0050740262179780286 0 -0.00099000808701651586 0.0049324220178985079 0 -0.0014725182256080682 0.0049221096766739756 0 -0.0010011510086212975 0.0056992811813298874 0 -0.0016081993709539605 0.0051140548218762977 0 -0.00073008312097902386 0.0048764317148591611 0 -0.00099000808701651586 0.0049324220178985079 0 -0.00085335656733220692 0.0047557096960882212 0 -0.00073008312097902386 0.0048764317148591611 0 -0.00078752337350979779 0.0050332606687969132 0 -0.00099000808701651586 0.0049324220178985079 0 -0.0010011510086212975 0.0056992811813298874 0 -0.0013468518194758384 0.0061326605164377509 0 -0.00090057138164626068 0.0061732464269437523 0 -0.0010599778550433392 0.006030567802310721 0 -0.0012383625309332108 0.006092035686701751 0 -0.00087198354929000715 0.0064782072903588669 0 -0.00090057138164626068 0.0061732464269437523 0 -0.0012383625309332108 0.006092035686701751 0 -0.00090057138164626068 0.0061732464269437523 0 -0.0010599778550433392 0.006030567802310721 0 -0.00071170824352830486 0.0060310554434218873 0 -0.0010413278536855752 0.0058479836980743372 0 -0.0010599778550433392 0.006030567802310721 0 -0.001240742339992566 0.005935594835633968 0 -0.00074240925097519568 0.0057422537664706067 0 -0.0010414683911178333 0.0060079176073272247 0 -0.0010413278536855752 0.0058479836980743372 0 -0.00084736960241699319 0.0058353815997840841 0 -0.0010599778550433392 0.006030567802310721 0 -0.00063186145311656223 0.0056254492049650582 0 -0.0010599778550433392 0.006030567802310721 0 -0.00071170824352830486 0.0060310554434218873 0 -0.00063186145311656223 0.0056254492049650582 0 -0.00071170824352830486 0.0060310554434218873 0 -0.00045538886769370241 0.0060141208837498506 0 -0.00071170824352830486 0.0060310554434218873 0 -0.00055662744468275977 0.0062254353580106711 0 -0.00045538886769370241 0.0060141208837498506 0 -0.00090057138164626068 0.0061732464269437523 0 -0.00071170824352830486 0.0060310554434218873 0 -0.00055662744468275977 0.0062254353580106711 0 -0.00087198354929000715 0.0064782072903588669 0 -0.00090057138164626068 0.0061732464269437523 0 -0.00055662744468275977 0.0062254353580106711 0 -0.00034476934844582252 0.0063517887928108132 0 -0.00055662744468275977 0.0062254353580106711 0 -0.00032899712277713696 0.006258642098319704 0 0.00017689216802860435 0.0052823727997766655 0 4.5088773288333363e-05 0.0057920770080011862 0 -0.00034090066090647461 0.006350771845459618 0 -0.00032899712277713696 0.006258642098319704 0 -7.5519546654303062e-05 0.0060818345721974755 0 -0.00032899712277713696 0.006258642098319704 0 -0.00028266521085377425 0.0060489355739595805 0 -7.5519546654303062e-05 0.0060818345721974755 0 -0.00032899712277713696 0.006258642098319704 0 -0.00028266521085377425 0.0060489355739595805 0 -0.00045538886769370241 0.0060141208837498506 0 -0.00055662744468275977 0.0062254353580106711 0 -0.00032899712277713696 0.006258642098319704 0 -0.00045538886769370241 0.0060141208837498506 0 -0.00028266521085377425 0.0060489355739595805 0 -0.00045538886769370241 0.0060141208837498506 0 -0.0002703516085830673 0.0058392230812881517 0 -0.00063186145311656223 0.0056254492049650582 0 -0.00045538886769370241 0.0060141208837498506 0 -0.0002703516085830673 0.0058392230812881517 0 -0.00028266521085377425 0.0060489355739595805 0 -0.0002703516085830673 0.0058392230812881517 0 -7.5519546654303062e-05 0.0060818345721974755 0 -0.0002703516085830673 0.0058392230812881517 0 3.9887711249386352e-05 0.0057303824949435384 0 -7.5519546654303062e-05 0.0060818345721974755 0 0.00028849082603843272 0.0061763671178196372 0 3.9887711249386352e-05 0.0057303824949435384 0 -7.5519546654303062e-05 0.0060818345721974755 0 0.00028849082603843272 0.0061763671178196372 0 -0.00034090066090647461 0.006350771845459618 0 -7.5519546654303062e-05 0.0060818345721974755 0 0.0013859681778426063 0.0046956574343094823 0 0.0014852540499101232 0.0045910205193838895 0 0.0015816702178244252 0.0046365184884916899 0 0.00097100922869255805 0.0053192521639226749 0 0.00017689216802860435 0.0052823727997766655 0 0.0013918485740161549 0.0046554356328755171 0 0.0013859681778426063 0.0046956574343094823 0 0.0014852540499101232 0.0045910205193838895 0 -0.0019124257141470572 0.0059739718638379298 0 -0.0019587017562277985 0.0059857351389269245 0 -0.0018792007551626366 0.0060211785672030105 0 -0.0019124257141470572 0.0059739718638379298 0 -0.0019507507618541991 0.0059475105109616563 0 -0.0019587017562277985 0.0059857351389269245 0 -0.0018851066739714864 0.0059864323928439369 0 -0.0019014848644515955 0.0059431218495303809 0 -0.0018748220787850715 0.0059651389759347324 0 -0.0019124257141470572 0.0059739718638379298 0 -0.0018851066739714864 0.0059864323928439369 0 -0.0019014848644515955 0.0059431218495303809 0 -0.0019124257141470572 0.0059739718638379298 0 -0.0018851066739714864 0.0059864323928439369 0 -0.0018792007551626366 0.0060211785672030105 0 -0.0023829452664996193 0.0038345040325021935 0 -0.0024232238811218048 0.0039891822917160463 0 -0.0022016163289071146 0.0039260383308436517 0 -0.0022230060749713963 0.0049980326988589016 0 -0.0019751572844671317 0.0049544426865288753 0 -0.0025183234684534894 0.0038117605426755538 0 -0.0024232238811218048 0.0039891822917160463 0 -0.0026478100580934875 0.0040574039862159945 0 -0.0019124257141470572 0.0059739718638379298 0 -0.0019014848644515955 0.0059431218495303809 0 -0.0019507507618541991 0.0059475105109616563 0 -0.0022230060749713963 0.0049980326988589016 0 -0.0020921155982464613 0.004708023938539258 0 -0.0020921155982464613 0.004708023938539258 0 -0.0016081993709539605 0.0051140548218762977 0 -0.0017891933452622707 0.0042003215522524208 0 -0.0017683871012039892 0.0042268442273208926 0 -0.0017971216390908768 0.0042161739109257152 0 -0.0017683871012039892 0.0042268442273208926 0 -0.0017971216390908768 0.0042161739109257152 0 -0.0017936889893327664 0.0042344776822700464 0 -0.0017891933452622707 0.0042003215522524208 0 -0.0018060896511931125 0.0042040497131544431 0 -0.0017971216390908768 0.0042161739109257152 0 -0.0018060896511931125 0.0042040497131544431 0 -0.0018101553443626533 0.0042238829110882257 0 -0.0017971216390908768 0.0042161739109257152 0 -0.0014936293457252709 0.0046415266152425244 0 -0.0016081993709539605 0.0051140548218762977 0 -0.0018101553443626533 0.0042238829110882257 0 -0.0017971216390908768 0.0042161739109257152 0 -0.0017936889893327664 0.0042344776822700464 0 -0.0013418157815721112 0.0060972391897031542 0 -0.0015101410718550545 0.0061439189558765098 0 -0.0015321168053726915 0.0060528097695267263 0 -0.0018174337642787031 0.0052258764832773044 0 -0.0018082600181630443 0.0052245849190100044 0 -0.0018158224033269755 0.0052241400800298659 0 -0.0016081993709539605 0.0051140548218762977 0 -0.0017356763438287834 0.0059313792267236065 0 -0.0015101410718550545 0.0061439189558765098 0 -0.0016359160062948727 0.0060952896332999327 0 -0.0015321168053726915 0.0060528097695267263 0 -0.0020921155982464613 0.004708023938539258 0 -0.0017356763438287834 0.0059313792267236065 0 -0.0016412613790550499 0.0061328662529055843 0 -0.0016250218166428011 0.0060187111231168036 0 -0.0017401686419884813 0.006016769129052732 0 -0.0017356763438287834 0.0059313792267236065 0 -0.0016647821515578256 0.006064471377859976 0 -0.0016359160062948727 0.0060952896332999327 0 -0.0016250218166428011 0.0060187111231168036 0 -0.0015321168053726915 0.0060528097695267263 0 -0.0016250218166428011 0.0060187111231168036 0 -0.0015802784395340184 0.0059584542875479691 0 -0.0015321168053726915 0.0060528097695267263 0 -0.0016250218166428011 0.0060187111231168036 0 -0.0016472520116035006 0.0059206288922685176 0 -0.0016897582839510757 0.0059720191970531163 0 -0.0016250218166428011 0.0060187111231168036 0 -0.0015802784395340184 0.0059584542875479691 0 -0.0016472520116035006 0.0059206288922685176 0 -0.0013418157815721112 0.0060972391897031542 0 -0.0015321168053726915 0.0060528097695267263 0 -0.0014797361407335391 0.0059689815849111238 0 -0.0015802784395340184 0.0059584542875479691 0 -0.0015321168053726915 0.0060528097695267263 0 -0.0014797361407335391 0.0059689815849111238 0 -0.0015590109665037692 0.0058236130890207093 0 -0.0013468518194758384 0.0061326605164377509 0 -0.0014757043832363842 0.0058703572419903623 0 -0.0012383625309332108 0.006092035686701751 0 -0.001240742339992566 0.005935594835633968 0 -0.0010599778550433392 0.006030567802310721 0 -0.0012383625309332108 0.006092035686701751 0 -0.001240742339992566 0.005935594835633968 0 -0.0016201090658112187 0.0058237069153594745 0 -0.0015802784395340184 0.0059584542875479691 0 -0.0014797361407335391 0.0059689815849111238 0 -0.0016201090658112187 0.0058237069153594745 0 -0.0015802784395340184 0.0059584542875479691 0 -0.0016472520116035006 0.0059206288922685176 0 -0.0017404722326357096 0.0058035401472501334 0 -0.0017440750267028139 0.0059353941769708443 0 -0.0018166647142685416 0.0058907361786062571 0 -0.0017404722326357096 0.0058035401472501334 0 -0.0016201090658112187 0.0058237069153594745 0 -0.0016472520116035006 0.0059206288922685176 0 -0.0017404722326357096 0.0058035401472501334 0 -0.0016472520116035006 0.0059206288922685176 0 -0.0017440750267028139 0.0059353941769708443 0 -0.0017440750267028139 0.0059353941769708443 0 -0.0018183294345491905 0.0059732563200896064 0 -0.0018166647142685416 0.0058907361786062571 0 -0.0016472520116035006 0.0059206288922685176 0 -0.0017440750267028139 0.0059353941769708443 0 -0.0016897582839510757 0.0059720191970531163 0 -0.0017440750267028139 0.0059353941769708443 0 -0.0016897582839510757 0.0059720191970531163 0 -0.0017401686419884813 0.006016769129052732 0 -0.0017356763438287834 0.0059313792267236065 0 -0.0018927196139957763 0.0060553770770133599 0 -0.0016250218166428011 0.0060187111231168036 0 -0.0016897582839510757 0.0059720191970531163 0 -0.0017401686419884813 0.006016769129052732 0 -0.0016412613790550499 0.0061328662529055843 0 -0.0017401686419884813 0.006016769129052732 0 -0.0018792007551626366 0.0060211785672030105 0 -0.0017440750267028139 0.0059353941769708443 0 -0.0017401686419884813 0.006016769129052732 0 -0.0018183294345491905 0.0059732563200896064 0 -0.0017401686419884813 0.006016769129052732 0 -0.0018792007551626366 0.0060211785672030105 0 -0.0018183294345491905 0.0059732563200896064 0 -0.0018792007551626366 0.0060211785672030105 0 -0.0018947886941736828 0.005997681482169683 0 -0.0018845790242468705 0.0060062217084771476 0 -0.0018851066739714864 0.0059864323928439369 0 -0.0018792007551626366 0.0060211785672030105 0 -0.0018845790242468705 0.0060062217084771476 0 -0.0018792007551626366 0.0060211785672030105 0 -0.0018183294345491905 0.0059732563200896064 0 -0.0018947886941736828 0.005997681482169683 0 -0.0018947886941736828 0.005997681482169683 0 -0.0018847383755569037 0.0060108457715831618 0 -0.0018845790242468705 0.0060062217084771476 0 -0.0018861716513369293 0.0058016987839922592 0 -0.0018947886941736828 0.005997681482169683 0 -0.0018166647142685416 0.0058907361786062571 0 -0.0019101997287617274 0.0060817945999484735 0 -0.0018947886941736828 0.005997681482169683 0 -0.0018856405029879896 0.006046333726312695 0 -0.001895419873587332 0.0059545489004030156 0 -0.0018958211343422405 0.0059909079856955471 0 -0.0018183294345491905 0.0059732563200896064 0 -0.0018947886941736828 0.005997681482169683 0 -0.0018166647142685416 0.0058907361786062571 0 -0.0018580430977313891 0.0060958022818185078 0 -0.0018856405029879896 0.006046333726312695 0 -0.001862506908544666 0.0060504835272371547 0 -0.001862506908544666 0.0060504835272371547 0 -0.0018625120874166809 0.0060297928148674287 0 -0.0018738624874180959 0.0060237454256362143 0 -0.0018856405029879896 0.006046333726312695 0 -0.001862506908544666 0.0060504835272371547 0 -0.0018738624874180959 0.0060237454256362143 0 -0.0018856405029879896 0.006046333726312695 0 -0.0018847383755569037 0.0060108457715831618 0 -0.0018738624874180959 0.0060237454256362143 0 -0.0018947886941736828 0.005997681482169683 0 -0.0018856405029879896 0.006046333726312695 0 -0.0018847383755569037 0.0060108457715831618 0 -0.0018580430977313891 0.0060958022818185078 0 -0.0018476297593285132 0.0060658377156575941 0 -0.001862506908544666 0.0060504835272371547 0 -0.001862506908544666 0.0060504835272371547 0 -0.0018516635346384684 0.0060339802920167333 0 -0.0018625120874166809 0.0060297928148674287 0 -0.0018476297593285132 0.0060658377156575941 0 -0.0018516635346384684 0.0060339802920167333 0 -0.001837637262648212 0.0060411346654227821 0 -0.0018476297593285132 0.0060658377156575941 0 -0.001862506908544666 0.0060504835272371547 0 -0.0018516635346384684 0.0060339802920167333 0 -0.0018516635346384684 0.0060339802920167333 0 -0.0018435632722978868 0.0060147584558971788 0 -0.001837637262648212 0.0060411346654227821 0 -0.0018516635346384684 0.0060339802920167333 0 -0.0018624849841829367 0.0060132976350924456 0 -0.0018435632722978868 0.0060147584558971788 0 -0.0018516635346384684 0.0060339802920167333 0 -0.0018625120874166809 0.0060297928148674287 0 -0.0018624849841829367 0.0060132976350924456 0 -0.0018625120874166809 0.0060297928148674287 0 -0.0018624849841829367 0.0060132976350924456 0 -0.0018738624874180959 0.0060237454256362143 0 -0.0018624849841829367 0.0060132976350924456 0 -0.0018726267569781014 0.0059934161125255649 0 -0.0018509545399195907 0.0059925116919100525 0 -0.0018624849841829367 0.0060132976350924456 0 -0.0018509545399195907 0.0059925116919100525 0 -0.0018435632722978868 0.0060147584558971788 0 -0.0018847383755569037 0.0060108457715831618 0 -0.0018776911437451956 0.0060093043320320581 0 -0.0018845790242468705 0.0060062217084771476 0 -0.0018847383755569037 0.0060108457715831618 0 -0.0018738624874180959 0.0060237454256362143 0 -0.0018776911437451956 0.0060093043320320581 0 -0.0018624849841829367 0.0060132976350924456 0 -0.0018738624874180959 0.0060237454256362143 0 -0.0018776911437451956 0.0060093043320320581 0 -0.0018624849841829367 0.0060132976350924456 0 -0.0018776911437451956 0.0060093043320320581 0 -0.0018726267569781014 0.0059934161125255649 0 -0.0018776911437451956 0.0060093043320320581 0 -0.0018845790242468705 0.0060062217084771476 0 -0.0018726267569781014 0.0059934161125255649 0 -0.0018851066739714864 0.0059864323928439369 0 -0.0018748220787850715 0.0059651389759347324 0 -0.0018726267569781014 0.0059934161125255649 0 -0.0018851066739714864 0.0059864323928439369 0 -0.0018845790242468705 0.0060062217084771476 0 -0.0018726267569781014 0.0059934161125255649 0 -0.0018748220787850715 0.0059651389759347324 0 -0.0018726267569781014 0.0059934161125255649 0 -0.0018577048814564798 0.0059707137291366555 0 -0.0018726267569781014 0.0059934161125255649 0 -0.0018509545399195907 0.0059925116919100525 0 -0.0018577048814564798 0.0059707137291366555 0 -0.0018509545399195907 0.0059925116919100525 0 -0.0018577048814564798 0.0059707137291366555 0 -0.0018420257662909159 0.0059755268648628724 0 -0.0018577048814564798 0.0059707137291366555 0 -0.0018449417538692846 0.0059515764985220718 0 -0.0018420257662909159 0.0059755268648628724 0 -0.0018748220787850715 0.0059651389759347324 0 -0.0018577048814564798 0.0059707137291366555 0 -0.0018598940582579579 0.0059463405870856965 0 -0.0018598940582579579 0.0059463405870856965 0 -0.0018740592576935019 0.0059318709307735759 0 -0.0018408484173038501 0.0059087856537580075 0 -0.0018598940582579579 0.0059463405870856965 0 -0.0018449417538692846 0.0059515764985220718 0 -0.0018408484173038501 0.0059087856537580075 0 -0.0018577048814564798 0.0059707137291366555 0 -0.0018598940582579579 0.0059463405870856965 0 -0.0018449417538692846 0.0059515764985220718 0 -0.0019014848644515955 0.0059431218495303809 0 -0.0018748220787850715 0.0059651389759347324 0 -0.0018740592576935019 0.0059318709307735759 0 -0.0018748220787850715 0.0059651389759347324 0 -0.0018598940582579579 0.0059463405870856965 0 -0.0018740592576935019 0.0059318709307735759 0 -0.003461253818080481 0.0042501304813302703 0 -0.0033274370467166743 0.0040254880767566217 0 -0.0034098074148580571 0.0039157849181004666 0 -0.0034209620155728438 0.0043012209825152017 0 -0.0035257795407252876 0.0038747134325935462 0 -0.0033850697899229284 0.0043485752964096264 0 -0.003609977239943512 0.0041781499543723667 0 -0.0034796325457580311 0.0039288585701753231 0 -0.003461253818080481 0.0042501304813302703 0 -0.0033175189737863699 0.0041772242141080882 0 -0.0033274370467166743 0.0040254880767566217 0 -0.003461253818080481 0.0042501304813302703 0 -0.0032979156583161874 0.0042907605033374154 0 -0.0033175189737863699 0.0041772242141080882 0 -0.0027339510062172716 0.0053095604959148999 0 -0.0022351710500584858 0.0044343881973678556 0 -0.0018449417538692846 0.0059515764985220718 0 -0.0018185043394346142 0.0059698831812651943 0 -0.0018408484173038501 0.0059087856537580075 0 -0.003609977239943512 0.0041781499543723667 0 -0.0035105005586533152 0.0044442803596833605 0 -0.0037023024890388404 0.0040658568028937043 0 -0.0033850697899229284 0.0043485752964096264 0 -0.003609977239943512 0.0041781499543723667 0 -0.0035105005586533152 0.0044442803596833605 0 -0.0018185043394346142 0.0059698831812651943 0 -0.0018353396207934876 0.0059926723290314367 0 -0.0018258519542005472 0.0060161184392786326 0 -0.0018449417538692846 0.0059515764985220718 0 -0.0018185043394346142 0.0059698831812651943 0 -0.0018420257662909159 0.0059755268648628724 0 -0.0018509545399195907 0.0059925116919100525 0 -0.0018420257662909159 0.0059755268648628724 0 -0.0018353396207934876 0.0059926723290314367 0 -0.0018185043394346142 0.0059698831812651943 0 -0.0018420257662909159 0.0059755268648628724 0 -0.0018353396207934876 0.0059926723290314367 0 -0.003461253818080481 0.0042501304813302703 0 -0.0033279499724972773 0.0046456608745860236 0 -0.0032923556128684498 0.0044389884001966272 0 -0.0033850697899229284 0.0043485752964096264 0 -0.0035105005586533152 0.0044442803596833605 0 -0.0033279499724972773 0.0046456608745860236 0 -0.0034209620155728438 0.0043012209825152017 0 -0.0033333644608009548 0.0046248035228535923 0 -0.003461253818080481 0.0042501304813302703 0 -0.0032979156583161874 0.0042907605033374154 0 -0.0032923556128684498 0.0044389884001966272 0 -0.0018185043394346142 0.0059698831812651943 0 -0.0018258519542005472 0.0060161184392786326 0 -0.0018012074429405061 0.0060395999167770636 0 -0.0027339510062172716 0.0053095604959148999 0 -0.0025700401516742747 0.005355760839941574 0 -0.0035105005586533152 0.0044442803596833605 0 -0.0033279499724972773 0.0046456608745860236 0 -0.0033843115882684982 0.0047443424804270136 0 -0.0018258519542005472 0.0060161184392786326 0 -0.0018230129351340229 0.0060449499682801965 0 -0.0018012074429405061 0.0060395999167770636 0 -0.0018509545399195907 0.0059925116919100525 0 -0.0018353396207934876 0.0059926723290314367 0 -0.0018435632722978868 0.0060147584558971788 0 -0.0018353396207934876 0.0059926723290314367 0 -0.0018435632722978868 0.0060147584558971788 0 -0.0018258519542005472 0.0060161184392786326 0 -0.0018258519542005472 0.0060161184392786326 0 -0.001837637262648212 0.0060411346654227821 0 -0.0018230129351340229 0.0060449499682801965 0 -0.0018435632722978868 0.0060147584558971788 0 -0.0018258519542005472 0.0060161184392786326 0 -0.001837637262648212 0.0060411346654227821 0 -0.001837637262648212 0.0060411346654227821 0 -0.0018230129351340229 0.0060449499682801965 0 -0.0018327907235651014 0.006071294061407469 0 -0.0018230129351340229 0.0060449499682801965 0 -0.0018327907235651014 0.006071294061407469 0 -0.0018186628834783631 0.0060598042954173245 0 -0.0018463302981687063 0.0061002845439971885 0 -0.0018476297593285132 0.0060658377156575941 0 -0.0018327907235651014 0.006071294061407469 0 -0.0018476297593285132 0.0060658377156575941 0 -0.001837637262648212 0.0060411346654227821 0 -0.0018327907235651014 0.006071294061407469 0 -0.0017872293467381549 0.0061151919922094108 0 -0.0018162214336825209 0.006082446811415408 0 -0.0018012074429405061 0.0060395999167770636 0 -0.0018230129351340229 0.0060449499682801965 0 -0.0018012074429405061 0.0060395999167770636 0 -0.0018186628834783631 0.0060598042954173245 0 -0.0018162214336825209 0.006082446811415408 0 -0.0018012074429405061 0.0060395999167770636 0 -0.0018186628834783631 0.0060598042954173245 0 -0.0018162214336825209 0.006082446811415408 0 -0.0018327907235651014 0.006071294061407469 0 -0.0018186628834783631 0.0060598042954173245 0 -0.0026244682370724606 0.0057110381196836266 0 -0.0025700401516742747 0.005355760839941574 0 -0.0032237926698973915 0.005099824591271002 0 -0.0033843115882684982 0.0047443424804270136 0 -0.0032195011020991768 0.0047672370330420081 0 -0.0032237926698973915 0.005099824591271002 0 -0.0032195011020991768 0.0047672370330420081 0 -0.0031106115067423032 0.0048778940732325526 0 -0.0032195011020991768 0.0047672370330420081 0 -0.0031106115067423032 0.0048778940732325526 0 -0.0030067648760078746 0.0046549424307697033 0 -0.0031123157822925563 0.0048256203663281476 0 -0.0030234013757346237 0.0046946349013315221 0 -0.0031242850119783385 0.0048818851787030652 0 -0.0030067648760078746 0.0046549424307697033 0 -0.0028919501979266563 0.0047879670411383425 0 -0.0029581545396793877 0.004988840332429011 0 -0.0031242850119783385 0.0048818851787030652 0 -0.0028919501979266563 0.0047879670411383425 0 -0.0030067648760078746 0.0046549424307697033 0 -0.0031577231950645954 0.0045837077051336592 0 -0.0029588689180062183 0.0044150831250556752 0 -0.0032195011020991768 0.0047672370330420081 0 -0.0030067648760078746 0.0046549424307697033 0 -0.0031577231950645954 0.0045837077051336592 0 -0.0033279499724972773 0.0046456608745860236 0 -0.0031577231950645954 0.0045837077051336592 0 -0.0032923556128684498 0.0044389884001966272 0 -0.0033279499724972773 0.0046456608745860236 0 -0.0032195011020991768 0.0047672370330420081 0 -0.0031577231950645954 0.0045837077051336592 0 -0.0033279499724972773 0.0046456608745860236 0 -0.0033843115882684982 0.0047443424804270136 0 -0.0032195011020991768 0.0047672370330420081 0 -0.0026113802880283433 0.0049439432285714614 0 -0.0027966186218239117 0.0049363578948021427 0 -0.002729941962900963 0.0047782304372116953 0 -0.0026113802880283433 0.0049439432285714614 0 -0.0025674578642922367 0.0046858189563008688 0 -0.002729941962900963 0.0047782304372116953 0 -0.0027966186218239117 0.0049363578948021427 0 -0.002729941962900963 0.0047782304372116953 0 -0.0028919501979266563 0.0047879670411383425 0 -0.0027966186218239117 0.0049363578948021427 0 -0.0029581545396793877 0.004988840332429011 0 -0.0028919501979266563 0.0047879670411383425 0 -0.002729941962900963 0.0047782304372116953 0 -0.0028919501979266563 0.0047879670411383425 0 -0.0028014279975775397 0.0045609862336408831 0 -0.0030067648760078746 0.0046549424307697033 0 -0.0028014279975775397 0.0045609862336408831 0 -0.0029588689180062183 0.0044150831250556752 0 -0.0030067648760078746 0.0046549424307697033 0 -0.0028919501979266563 0.0047879670411383425 0 -0.0028014279975775397 0.0045609862336408831 0 -0.0025674578642922367 0.0046858189563008688 0 -0.002729941962900963 0.0047782304372116953 0 -0.0028014279975775397 0.0045609862336408831 0 -0.0025674578642922367 0.0046858189563008688 0 -0.0028014279975775397 0.0045609862336408831 0 -0.0026409246914200673 0.0044614028180881135 0 -0.0028014279975775397 0.0045609862336408831 0 -0.0026409246914200673 0.0044614028180881135 0 -0.0028266583430303911 0.0042049780471191973 0 -0.0026409246914200673 0.0044614028180881135 0 -0.0028266583430303911 0.0042049780471191973 0 -0.0026189532429328208 0.0042217682190474181 0 -0.0027345389425869641 0.0041893972728712439 0 -0.0029391488678162858 0.0043919385631607929 0 -0.0028014279975775397 0.0045609862336408831 0 -0.0028266583430303911 0.0042049780471191973 0 -0.0029588689180062183 0.0044150831250556752 0 -0.0026378309693521926 0.0041784049491265735 0 -0.0029588689180062183 0.0044150831250556752 0 -0.0029057670971432861 0.0041029371722473727 0 -0.0026378309693521926 0.0041784049491265735 0 -0.0029057670971432861 0.0041029371722473727 0 -0.002724108363041584 0.0038554911984943841 0 -0.0027345389425869641 0.0041893972728712439 0 -0.002476431491749244 0.0039255546396390235 0 -0.0028266583430303911 0.0042049780471191973 0 -0.0026189532429328208 0.0042217682190474181 0 -0.0026271908498742055 0.0039140045704288062 0 -0.0032086319919162843 0.0043932609787020443 0 -0.0032979156583161874 0.0042907605033374154 0 -0.00315978952290679 0.0041505558920901121 0 -0.0032086319919162843 0.0043932609787020443 0 -0.0032979156583161874 0.0042907605033374154 0 -0.0032923556128684498 0.0044389884001966272 0 -0.0031577231950645954 0.0045837077051336592 0 -0.0032086319919162843 0.0043932609787020443 0 -0.0032923556128684498 0.0044389884001966272 0 -0.0031577231950645954 0.0045837077051336592 0 -0.0032086319919162843 0.0043932609787020443 0 -0.0029588689180062183 0.0044150831250556752 0 -0.0032086319919162843 0.0043932609787020443 0 -0.0029588689180062183 0.0044150831250556752 0 -0.0030637256659957058 0.0042780502248503703 0 -0.0029588689180062183 0.0044150831250556752 0 -0.0029057670971432861 0.0041029371722473727 0 -0.0030637256659957058 0.0042780502248503703 0 -0.0029057670971432861 0.0041029371722473727 0 -0.00315978952290679 0.0041505558920901121 0 -0.0030690966705316123 0.0039210808863107917 0 -0.0029057670971432861 0.0041029371722473727 0 -0.0030637256659957058 0.0042780502248503703 0 -0.00315978952290679 0.0041505558920901121 0 -0.0032086319919162843 0.0043932609787020443 0 -0.0030637256659957058 0.0042780502248503703 0 -0.00315978952290679 0.0041505558920901121 0 -0.0032979156583161874 0.0042907605033374154 0 -0.00315978952290679 0.0041505558920901121 0 -0.0033175189737863699 0.0041772242141080882 0 -0.00315978952290679 0.0041505558920901121 0 -0.0033175189737863699 0.0041772242141080882 0 -0.0033274370467166743 0.0040254880767566217 0 -0.00315978952290679 0.0041505558920901121 0 -0.0032302214512227555 0.0038738272095396884 0 -0.0030690966705316123 0.0039210808863107917 0 -0.00315978952290679 0.0041505558920901121 0 -0.0033274370467166743 0.0040254880767566217 0 -0.0032302214512227555 0.0038738272095396884 0 -0.0033274370467166743 0.0040254880767566217 0 -0.0032302214512227555 0.0038738272095396884 0 -0.0034098074148580571 0.0039157849181004666 0 -0.0032302214512227555 0.0038738272095396884 0 -0.0031439331237123375 0.0037131101418353455 0 -0.0033542189693600453 0.0037610598034866724 0 -0.0032302214512227555 0.0038738272095396884 0 -0.0030690966705316123 0.0039210808863107917 0 -0.0031439331237123375 0.0037131101418353455 0 -0.0029057670971432861 0.0041029371722473727 0 -0.0030690966705316123 0.0039210808863107917 0 -0.0029147941486530075 0.0037869483145203217 0 -0.0030690966705316123 0.0039210808863107917 0 -0.0029147941486530075 0.0037869483145203217 0 -0.0031439331237123375 0.0037131101418353455 0 -0.0029147941486530075 0.0037869483145203217 0 -0.0029904050665392643 0.0035746875085837237 0 -0.0031439331237123375 0.0037131101418353455 0 -0.0029147941486530075 0.0037869483145203217 0 -0.0029904050665392643 0.0035746875085837237 0 -0.0026996906411465081 0.0035537841504964434 0 -0.0029904050665392643 0.0035746875085837237 0 -0.0032447715270053916 0.0035321083471062486 0 -0.0031439331237123375 0.0037131101418353455 0 -0.0032447715270053916 0.0035321083471062486 0 -0.0031439331237123375 0.0037131101418353455 0 -0.0033542189693600453 0.0037610598034866724 0 -0.0023507420545717224 0.0036825283156561614 0 -0.0025253597063905689 0.0038142705796409956 0 -0.0023623225096683718 0.0039403786810475174 0 -0.0026378309693521926 0.0041784049491265735 0 -0.0025253597063905689 0.0038142705796409956 0 -0.0023623225096683718 0.0039403786810475174 0 -0.0026378309693521926 0.0041784049491265735 0 -0.0025253597063905689 0.0038142705796409956 0 -0.002724108363041584 0.0038554911984943841 0 -0.0029057670971432861 0.0041029371722473727 0 -0.0029147941486530075 0.0037869483145203217 0 -0.002724108363041584 0.0038554911984943841 0 -0.0025253597063905689 0.0038142705796409956 0 -0.002724108363041584 0.0038554911984943841 0 -0.0026996906411465081 0.0035537841504964434 0 -0.0029147941486530075 0.0037869483145203217 0 -0.002724108363041584 0.0038554911984943841 0 -0.0026996906411465081 0.0035537841504964434 0 -0.0023507420545717224 0.0036825283156561614 0 -0.0025253597063905689 0.0038142705796409956 0 -0.0026996906411465081 0.0035537841504964434 0 -0.0023507420545717224 0.0036825283156561614 0 -0.0026996906411465081 0.0035537841504964434 0 -0.0024311193628540726 0.0034407462228507719 0 -0.002553689961011477 0.0034053552022634856 0 -0.0028307133749741475 0.0031516874373144674 0 -0.0026996906411465081 0.0035537841504964434 0 -0.0027530025577462273 0.0031680589680237593 0 -0.0030040713954441875 0.0033421891456956051 0 -0.0026996906411465081 0.0035537841504964434 0 -0.0024311193628540726 0.0034407462228507719 0 -0.0027530025577462273 0.0031680589680237593 0 -0.002711848168610705 0.0033664702108671218 0 -0.0029099148262516157 0.0031336295809073142 0 -0.0026683805603023966 0.0031489699413373988 0 -0.0027728362253465135 0.0029710024049302906 0 -0.0029099148262516157 0.0031336295809073142 0 -0.0026683805603023966 0.0031489699413373988 0 -0.0029904050665392643 0.0035746875085837237 0 -0.0032447715270053916 0.0035321083471062486 0 -0.0030040713954441875 0.0033421891456956051 0 -0.0032447715270053916 0.0035321083471062486 0 -0.0032689201023177955 0.0033362522687792164 0 -0.0030040713954441875 0.0033421891456956051 0 -0.0032689201023177955 0.0033362522687792164 0 -0.0030040713954441875 0.0033421891456956051 0 -0.0031697310473658667 0.0031832460565405602 0 -0.0029904050665392643 0.0035746875085837237 0 -0.0026996906411465081 0.0035537841504964434 0 -0.0030040713954441875 0.0033421891456956051 0 -0.0030618467100836898 0.0028839694498653378 0 -0.0027530025577462273 0.0031680589680237593 0 -0.0030337028086670033 0.0031165745406629181 0 -0.0027530025577462273 0.0031680589680237593 0 -0.0030040713954441875 0.0033421891456956051 0 -0.0030337028086670033 0.0031165745406629181 0 -0.0032230131394081962 0.0030199848560069102 0 -0.0030337028086670033 0.0031165745406629181 0 -0.0031697310473658667 0.0031832460565405602 0 -0.0030040713954441875 0.0033421891456956051 0 -0.0030337028086670033 0.0031165745406629181 0 -0.0031697310473658667 0.0031832460565405602 0 -0.0032689201023177955 0.0033362522687792164 0 -0.0031697310473658667 0.0031832460565405602 0 -0.0033095769343294158 0.003166925696457188 0 -0.0032230131394081962 0.0030199848560069102 0 -0.0031697310473658667 0.0031832460565405602 0 -0.0033095769343294158 0.003166925696457188 0 -0.0032230131394081962 0.0030199848560069102 0 -0.0034579200919232955 0.0030272728095705071 0 -0.0033095769343294158 0.003166925696457188 0 -0.0034579200919232955 0.0030272728095705071 0 -0.0034334678586336632 0.0032528408845451623 0 -0.0036110778794528711 0.0032015151873722278 0 -0.0032689201023177955 0.0033362522687792164 0 -0.0034334678586336632 0.0032528408845451623 0 -0.0033095769343294158 0.003166925696457188 0 -0.0034579200919232955 0.0030272728095705071 0 -0.0034334678586336632 0.0032528408845451623 0 -0.0033095769343294158 0.003166925696457188 0 -0.0032447715270053916 0.0035321083471062486 0 -0.0034774349745836206 0.0034164808793161979 0 -0.0034726728972579684 0.0035958679011839304 0 -0.0032689201023177955 0.0033362522687792164 0 -0.0034334678586336632 0.0032528408845451623 0 -0.0034774349745836206 0.0034164808793161979 0 -0.0032447715270053916 0.0035321083471062486 0 -0.0032689201023177955 0.0033362522687792164 0 -0.0034774349745836206 0.0034164808793161979 0 -0.0034334678586336632 0.0032528408845451623 0 -0.0034774349745836206 0.0034164808793161979 0 -0.0036110778794528711 0.0032015151873722278 0 -0.0034774349745836206 0.0034164808793161979 0 -0.0036520498480971031 0.0034272945845507997 0 -0.0034726728972579684 0.0035958679011839304 0 -0.0034774349745836206 0.0034164808793161979 0 -0.0036520498480971031 0.0034272945845507997 0 -0.0036110778794528711 0.0032015151873722278 0 -0.0036664386043610904 0.0029733510246297869 0 -0.0036110778794528711 0.0032015151873722278 0 -0.0039239592518691586 0.0031679902499454761 0 -0.0036520498480971031 0.0034272945845507997 0 -0.0036110778794528711 0.0032015151873722278 0 -0.0039239592518691586 0.0031679902499454761 0 -0.0036664386043610904 0.0029733510246297869 0 -0.0034579200919232955 0.0030272728095705071 0 -0.0036110778794528711 0.0032015151873722278 0 -0.0020423987173137097 0.0033004762426429167 0 -0.0022058631932870844 0.0033651835766489273 0 -0.0021557152945781994 0.0034805051733943515 0 -0.0023710792290456638 0.002944992248694967 0 -0.0022849678075294419 0.0034104444031222048 0 -0.0023407069151730724 0.0030576307891647865 0 -0.0020423987173137097 0.0033004762426429167 0 -0.0022058631932870844 0.0033651835766489273 0 -0.0024352512870756344 0.0032534636391116632 0 -0.0022058631932870844 0.0033651835766489273 0 -0.0023219314639309572 0.0033981679680333567 0 -0.0023407069151730724 0.0030576307891647865 0 -0.002710721772728757 0.0031100509279402785 0 -0.0022058631932870844 0.0033651835766489273 0 -0.0023219314639309572 0.0033981679680333567 0 -0.0022424586869984847 0.0034951477794255693 0 -0.0023240578186699014 0.0034924176313657312 0 -0.0022058631932870844 0.0033651835766489273 0 -0.0023219314639309572 0.0033981679680333567 0 -0.0022424586869984847 0.0034951477794255693 0 -0.0022058631932870844 0.0033651835766489273 0 -0.0022424586869984847 0.0034951477794255693 0 -0.0021557152945781994 0.0034805051733943515 0 -0.0022424586869984847 0.0034951477794255693 0 -0.0022718014208963017 0.0035839086930037956 0 -0.0021812057375717444 0.0036001258463541218 0 -0.0022424586869984847 0.0034951477794255693 0 -0.0021557152945781994 0.0034805051733943515 0 -0.0021812057375717444 0.0036001258463541218 0 -0.0023510796104806403 0.0035903808293012355 0 -0.0023240578186699014 0.0034924176313657312 0 -0.0022718014208963017 0.0035839086930037956 0 -0.0022424586869984847 0.0034951477794255693 0 -0.0023240578186699014 0.0034924176313657312 0 -0.0022718014208963017 0.0035839086930037956 0 -0.0020423987173137097 0.0033004762426429167 0 -0.0021557152945781994 0.0034805051733943515 0 -0.0019893925058721471 0.0036260967295942532 0 -0.0029884463074673824 0.0032325816972527573 0 -0.0028755385903128485 0.0035902140911430007 0 -0.0036520498480971031 0.0034272945845507997 0 -0.0039239592518691586 0.0031679902499454761 0 -0.0038195533999115703 0.0035796851172831554 0 -0.0021364386116827102 0.0035268483267851345 0 -0.002075814969340345 0.0036188672083634953 0 -0.0019893925058721471 0.0036260967295942532 0 -0.0020604670276693597 0.0037159755476672018 0 -0.0019208625212407049 0.0039339543034906639 0 -0.0021557152945781994 0.0034805051733943515 0 -0.0019893925058721471 0.0036260967295942532 0 -0.0020604670276693597 0.0037159755476672018 0 -0.0021557152945781994 0.0034805051733943515 0 -0.0020585310579244974 0.0036718015664553467 0 -0.0021812057375717444 0.0036001258463541218 0 -0.0021461025640726761 0.0037055767226959954 0 -0.0020585310579244974 0.0036718015664553467 0 -0.0021812057375717444 0.0036001258463541218 0 -0.0021461025640726761 0.0037055767226959954 0 -0.0020585310579244974 0.0036718015664553467 0 -0.0020882603439815539 0.003788592810796521 0 -0.0022718014208963017 0.0035839086930037956 0 -0.0022183365500532746 0.003690641448482915 0 -0.0023007926985900182 0.0036673993083246093 0 -0.0023510796104806403 0.0035903808293012355 0 -0.0022718014208963017 0.0035839086930037956 0 -0.0023007926985900182 0.0036673993083246093 0 -0.0022718014208963017 0.0035839086930037956 0 -0.0021812057375717444 0.0036001258463541218 0 -0.0022183365500532746 0.003690641448482915 0 -0.0021461025640726761 0.0037055767226959954 0 -0.0022183365500532746 0.003690641448482915 0 -0.0021833964110630853 0.0037759024123461753 0 -0.0021461025640726761 0.0037055767226959954 0 -0.0021812057375717444 0.0036001258463541218 0 -0.0022183365500532746 0.003690641448482915 0 -0.0022183365500532746 0.003690641448482915 0 -0.0022917422661475743 0.0037669606551814631 0 -0.0021833964110630853 0.0037759024123461753 0 -0.0022183365500532746 0.003690641448482915 0 -0.0023007926985900182 0.0036673993083246093 0 -0.0022917422661475743 0.0037669606551814631 0 -0.0023829452664996193 0.0038345040325021935 0 -0.0022016163289071146 0.0039260383308436517 0 -0.0022917422661475743 0.0037669606551814631 0 -0.0022016163289071146 0.0039260383308436517 0 -0.0022917422661475743 0.0037669606551814631 0 -0.0021833964110630853 0.0037759024123461753 0 -0.0022016163289071146 0.0039260383308436517 0 -0.0021833964110630853 0.0037759024123461753 0 -0.0020882603439815539 0.003788592810796521 0 -0.0020585310579244974 0.0036718015664553467 0 -0.0020882603439815539 0.003788592810796521 0 -0.0019715893287081555 0.0038665772993264091 0 -0.0022016163289071146 0.0039260383308436517 0 -0.0020882603439815539 0.003788592810796521 0 -0.0019715893287081555 0.0038665772993264091 0 -0.0019751572844671317 0.0049544426865288753 0 -0.0022351710500584858 0.0044343881973678556 0 -0.002075814969340345 0.0036188672083634953 0 -0.0022351710500584858 0.0044343881973678556 0 -0.0021461025640726761 0.0037055767226959954 0 -0.0021833964110630853 0.0037759024123461753 0 -0.0020882603439815539 0.003788592810796521 0 -0.003609977239943512 0.0041781499543723667 0 -0.0036608957505941263 0.0040294151491748129 0 -0.0036149355404256735 0.004016365584973829 0 -0.0020604670276693597 0.0037159755476672018 0 -0.0019208625212407049 0.0039339543034906639 0 -0.0019679696241652828 0.0039469927701401477 0 -0.0038195533999115703 0.0035796851172831554 0 -0.003670398135694621 0.0040317359048785634 0 -0.0036149355404256735 0.004016365584973829 0 -0.0033851055247841985 0.0040582546622468327 0 -0.0030629388850235027 0.004074605309328779 0 -0.003609977239943512 0.0041781499543723667 0 -0.003646579685873392 0.004050237750802343 0 -0.0037023024890388404 0.0040658568028937043 0 -0.0030629388850235027 0.004074605309328779 0 -0.0032162058014135486 0.0040987548671645195 0 -0.0030629388850235027 0.004074605309328779 0 -0.0022351710500584858 0.0044343881973678556 0 -0.003609977239943512 0.0041781499543723667 0 -0.0036149355404256735 0.004016365584973829 0 -0.0034796325457580311 0.0039288585701753231 0 -0.003461253818080481 0.0042501304813302703 0 -0.0034098074148580571 0.0039157849181004666 0 -0.0035647663831278446 0.0038315121460587333 0 -0.0032302214512227555 0.0038738272095396884 0 -0.0034098074148580571 0.0039157849181004666 0 -0.0033542189693600453 0.0037610598034866724 0 -0.0034098074148580571 0.0039157849181004666 0 -0.0035647663831278446 0.0038315121460587333 0 -0.0033542189693600453 0.0037610598034866724 0 -0.0035647663831278446 0.0038315121460587333 0 -0.0033542189693600453 0.0037610598034866724 0 -0.0034726728972579684 0.0035958679011839304 0 -0.0032447715270053916 0.0035321083471062486 0 -0.0033542189693600453 0.0037610598034866724 0 -0.0034726728972579684 0.0035958679011839304 0 -0.0038195533999115703 0.0035796851172831554 0 -0.0036149355404256735 0.004016365584973829 0 -0.0034796325457580311 0.0039288585701753231 0 -0.0036438747840864478 0.0034553596000396845 0 -0.0035257795407252876 0.0038747134325935462 0 -0.0036520498480971031 0.0034272945845507997 0 -0.0035647663831278446 0.0038315121460587333 0 -0.0034726728972579684 0.0035958679011839304 0 -0.0028755385903128485 0.0035902140911430007 0 -0.0030629388850235027 0.004074605309328779 0 -0.0036520498480971031 0.0034272945845507997 0 -0.0038195533999115703 0.0035796851172831554 0 -0.0034796325457580311 0.0039288585701753231 0 
</DataArray>
</PointData>
<CellData Scalars="region_id,cross_section_updated," Vectors="" Tensors="stress,">
<DataArray type="Float64" Name="region_id" format="ascii">
5 5 5 5 5 5 5 5 5 5 5 5 5 5 5 5 5 5 5 5 5 5 5 5 5 5 5 5 5 5 5 6 5 5 5 5 5 5 5 5 5 5 6 5 5 6 5 5 5 5 5 5 5 5 5 6 5 6 5 5 6 5 5 5 5 5 5 6 5 5 5 5 5 5 5 5 5 5 5 5 5 5 5 5 5 5 5 5 5 5 5 5 5 5 5 5 5 6 5 5 5 5 5 5 5 5 5 5 5 5 5 5 5 5 5 5 5 5 5 5 5 5 5 5 5 5 5 5 5 5 5 5 5 5 5 5 5 5 5 5 5 5 5 5 5 5 5 5 5 5 5 5 6 5 5 5 6 5 5 5 5 5 5 5 6 5 5 5 5 5 5 5 6 5 5 6 6 5 6 5 5 5 5 5 6 5 5 5 5 5 6 5 5 5 5 6 5 5 6 6 5 6 5 6 5 5 6 5 5 5 5 5 5 5 5 5 5 5 5 5 5 5 6 5 5 6 6 5 5 5 5 5 5 5 5 5 5 5 5 5 5 5 6 5 5 5 5 6 5 5 6 6 5 5 6 5 5 6 5 5 5 5 5 5 5 5 5 5 5 5 5 5 5 5 5 5 5 5 5 5 5 5 5 5 5 5 5 5 6 5 5 5 5 5 5 6 5 5 5 5 5 5 6 5 5 5 5 6 5 5 5 6 5 5 5 5 5 6 5 6 5 5 6 6 5 5 5 5 5 5 5 5 5 5 5 5 5 6 5 5 5 5 5 5 5 6 5 5 5 6 5 5 5 5 6 5 6 5 5 5 6 6 5 5 5 6 5 5 5 6 6 5 5 5 6 5 5 6 5 5 5 5 6 5 5 5 5 5 5 5 5 5 5 5 5 5 5 5 5 5 5 5 5 5 5 5 5 5 5 5 5 5 5 5 5 5 5 5 5 5 5 5 5 5 5 5 5 5 5 5 5 5 5 5 5 5 5 5 5 5 5 5 5 6 5 5 5 5 6 5 5 6 5 5 5 5 5 5 5 5 5 5 5 5 5 5 5 5 5 5 6 6 5 5 5 6 6 5 5 5 6 5 5 6 5 5 5 5 5 6 5 5 5 5 6 5 5 5 5 5 5 5 6 5 5 5 5 5 5 5 5 5 5 5 5 5 5 5 5 5 5 5 6 5 5 6 5 6 5 5 5 5 5 6 5 5 6 5 5 5 5 5 5 5 5 5 5 5 5 6 5 5 5 5 5 5 5 5 5 5 5 5 5 5 5 5 6 5 5 5 6 6 5 5 5 6 5 6 5 6 5 6 6 5 5 5 5 5 5 5 5 5 5 5 5 5 6 5 6 5 6 5 5 6 5 5 5 6 5 5 5 5 5 5 5 5 5 5 5 5 5 5 5 6 5 5 5 5 5 5 5 5 5 5 5 5 5 5 5 5 5 5 5 5 5 5 5 5 5 5 5 5 5 5 5 5 6 5 5 5 5 5 5 6 5 5 5 5 5 5 5 5 5 5 6 5 5 5 6 5 5 5 6 5 5 6 6 5 5 5 5 5 5 5 6 5 5 5 5 5 5 5 5 5 5 5 5 5 5 5 5 5 5 5 5 5 5 5 5 5 5 5 5 5 5 6 5 5 5 6 5 6 5 5 6 5 5 6 6 5 5 5 5 5 5 5 5 5 5 5 5 6 5 5 5 5 5 5 5 5 5 5 5 5 5 6 5 5 5 5 5 5 5 5 6 5 5 5 5 5 5 5 5 5 5 5 5 5 5 5 5 5 5 5 5 5 5 6 5 5 5 6 5 6 5 5 5 5 5 6 5 5 6 5 6 5 5 6 5 5 6 5 5 6 5 6 5 6 5 5 5 5 5 5 5 5 5 6 6 5 6 5 5 6 6 5 5 5 6 5 5 5 5 5 5 5 6 5 5 5 5 6 5 5 5 5 5 5 5 5 5 5 5 5 5 5 5 5 5 5 5 5 5 5 5 5 5 5 5 6 5 5 5 5 5 5 5 5 6 5 5 5 6 6 5 5 5 5 6 5 5 6 5 5 5 5 5 6 5 5 6 5 5 5 5 5 5 6 5 5 5 6 5 5 5 5 6 5 5 5 6 5 5 5 5 6 5 5 5 6 5 5 5 5 5 5 5 5 6 5 5 5 5 5 5 5 5 5 5 5 5 5 6 5 5 5 5 5 5 5 6 5 5 5 5 5 5 5 5 6 6 5 5 5 5 6 5 5 5 6 5 5 6 5 5 6 5 6 5 6 5 5 5 5 5 5 5 6 5 5 6 6 5 5 5 5 5 6 5 5 6 5 5 5 5 5 5 5 6 5 6 5 5 5 5 6 5 6 5 5 5 5 6 5 5 5 5 6 5 5 5 5 5 5 5 5 6 5 5 5 6 5 5 5 5 5 5 5 5 5 5 5 5 5 6 5 5 5 6 5 6 6 5 5 5 6 5 5 6 5 5 5 5 5 5 5 5 6 5 6 6 5 5 5 5 5 6 5 5 5 6 5 5 6 5 5 5 5 6 5 6 5 5 5 5 6 5 6 5 5 6 5 6 5 6 6 5 5 5 5 6 5 6 5 6 5 5 5 6 5 5 6 5 5 5 5 5 6 5 5 5 5 5 5 5 5 5 5 5 5 5 5 5 5 6 5 5 5 5 5 5 6 5 5 5 5 5 5 5 5 6 5 5 5 6 6 5 6 5 5 5 6 5 5 5 5 5 5 5 5 5 5 5 6 5 5 6 5 5 5 5 5 5 5 5 5 5 5 6 5 5 5 5 5 5 5 5 5 5 5 5 5 5 5 5 5 6 5 5 5 5 5 5 5 6 5 5 5 5 5 5 5 5 5 5 5 5 5 5 5 5 5 5 5 5 5 5 5 5 6 5 5 5 5 5 5 5 5 5 5 5 5 6 6 5 5 5 5 5 6 5 6 5 6 5 5 5 5 5 5 5 5 6 5 5 5 5 5 5 6 5 5 5 5 5 5 5 5 6 5 5 5 5 5 5 5 6 5 5 5 5 5 5 6 5 6 5 5 5 5 5 5 5 5 5 5 5 5 5 5 5 5 5 5 5 5 5 6 5 5 5 5 5 5 5 5 5 5 5 5 5 5 5 5 5 6 5 5 5 6 5 5 5 5 5 6 5 5 6 5 5 5 5 5 5 5 5 5 5 5 5 5 5 5 5 5 5 6 5 5 5 5 5 5 5 5 5 6 5 5 5 5 5 5 5 5 5 5 5 5 5 5 5 5 5 5 5 6 5 5 6 5 5 5 5 5 5 5 5 5 5 5 5 5 5 5 5 5 5 5 5 5 5 5 5 5 5 5 5 5 6 5 6 5 5 5 5 5 5 5 5 5 5 5 5 5 5 5 6 5 5 5 6 5 5 6 5 5 5 5 5 5 5 5 6 5 5 5 5 5 5 6 6 5 5 5 5 5 5 5 5 5 5 6 5 6 5 5 5 5 6 5 5 5 5 6 6 6 5 5 5 5 5 5 6 5 6 5 5 6 5 5 6 6 5 5 5 5 5 6 5 5 5 5 5 5 5 6 5 5 5 5 5 5 5 6 5 5 5 5 5 5 5 6 5 6 5 5 5 5 6 5 5 5 5 5 5 5 5 5 6 5 5 5 5 5 5 5 5 6 5 6 5 5 5 5 5 5 6 6 5 6 5 5 5 5 6 5 5 6 5 5 5 5 5 5 5 5 5 6 5 6 5 5 5 5 5 5 5 5 5 5 5 5 5 5 5 5 5 5 5 5 5 5 5 6 5 5 5 5 5 5 5 6 5 5 5 5 5 5 6 5 6 5 6 5 5 5 5 5 5 6 5 5 6 5 6 5 5 5 5 5 5 5 5 5 5 5 5 5 5 5 5 5 5 6 5 5 5 5 5 5 6 5 5 5 6 6 5 5 6 5 5 5 5 5 6 5 5 5 5 5 5 5 5 5 5 5 6 5 5 5 5 5 5 5 5 5 5 5 5 6 5 5 5 5 5 6 5 5 5 6 5 5 5 5 6 5 5 5 5 5 6 5 5 5 5 6 5 5 5 5 5 5 5 5 6 5 5 5 6 5 5 5 5 5 6 5 5 5 5 5 6 6 5 5 5 5 5 5 5 6 5 5 5 5 5 5 5 5 5 5 5 5 5 5 5 5 6 5 5 5 6 5 5 5 5 5 5 5 6 6 5 5 5 5 5 5 5 5 5 5 5 6 5 5 6 5 5 6 5 5 5 5 5 5 6 6 5 6 6 5 5 5 5 5 5 5 5 5 5 5 5 5 5 6 5 6 5 5 5 5 5 5 6 6 5 5 5 5 5 5 5 5 5 5 5 5 5 5 5 5 6 5 5 5 5 5 5 6 5 5 5 5 5 5 5 6 5 5 6 5 5 5 5 5 5 5 6 5 5 5 5 5 5 5 5 5 5 5 5 6 5 5 5 5 5 6 6 5 5 5 6 5 5 6 5 5 5 5 5 5 6 5 5 5 5 6 5 5 5 5 5 5 5 6 5 5 6 5 5 5 5 5 5 6 5 5 5 5 5 5 5 6 6 5 5 6 5 5 5 6 5 5 5 6 6 5 6 5 5 5 5 5 5 6 5 5 5 6 5 5 6 5 6 5 5 5 6 5 5 5 5 6 5 6 5 5 5 5 5 5 5 5 5 5 5 5 5 5 5 5 6 5 5 6 5 5 5 6 5 5 6 6 5 5 5 5 5 5 5 5 5 5 5 5 5 5 5 6 5 5 5 5 6 6 6 5 5 5 6 6 5 5 5 6 5 5 6 5 6 5 5 5 5 5 5 5 5 6 5 5 5 5 5 5 5 5 5 5 6 5 5 5 5 5 5 5 5 5 5 6 6 5 6 5 5 5 5 5 5 6 5 5 5 5 6 5 5 5 6 5 5 5 5 5 5 5 6 5 5 5 5 5 6 5 5 5 5 5 5 5 5 5 5 5 5 5 5 5 5 6 5 6 5 5 6 5 5 5 5 5 5 5 6 5 5 5 5 5 6 5 5 5 5 5 6 5 5 6 6 6 5 5 5 5 6 5 5 5 6 5 5 5 5 5 5 5 5 5 5 5 5 5 6 5 5 5 5 6 5 6 5 5 5 5 5 5 5 5 5 5 5 5 5 5 5 5 6 6 5 5 5 5 5 6 6 5 5 5 5 5 5 5 6 5 5 5 5 5 5 6 5 5 5 5 5 5 5 5 5 5 6 5 5 5 5 5 5 5 5 5 5 5 5 5 6 5 5 5 6 6 5 5 5 5 5 5 5 6 5 5 5 5 5 6 5 5 5 5 5 5 5 6 5 5 5 5 5 5 5 5 5 5 5 5 5 5 5 6 5 5 5 5 6 5 5 5 5 5 5 5 5 5 5 5 5 5 5 5 5 5 5 5 5 5 5 5 5 5 5 5 5 5 5 5 5 5 5 5 5 5 5 5 5 5 5 5 5 5 5 5 5 5 5 5 5 5 6 5 5 5 5 5 5 6 5 5 6 5 5 5 5 5 5 5 5 5 5 5 5 5 5 5 5 5 5 5 5 5 5 5 5 5 5 5 5 5 5 5 5 5 5 5 5 6 6 6 5 5 5 6 5 6 5 5 5 5 6 5 5 5 5 5 5 5 5 5 5 5 6 5 5 5 5 5 5 5 5 5 5 5 5 5 5 5 5 5 5 5 5 5 5 5 5 5 5 5 5 5 5 5 5 5 5 5 5 5 5 5 5 5 5 5 6 5 5 5 5 5 5 5 5 5 5 5 5 5 5 5 5 6 6 5 5 5 5 6 5 5 5 5 6 5 6 5 6 5 5 5 5 5 5 5 5 5 5 5 5 5 5 5 5 5 5 5 5 5 5 5 5 5 6 5 5 6 6 5 5 5 5 5 5 5 5 5 5 5 5 5 5 5 5 5 5 5 5 5 5 5 5 5 5 5 5 5 5 5 5 5 5 5 5 5 5 5 5 5 5 5 5 5 5 5 5 5 5 5 5 5 5 5 6 5 5 5 5 5 5 5 5 5 5 5 5 5 5 5 5 5 5 5 5 5 5 5 5 5 5 5 5 5 5 5 5 5 5 5 5 5 5 5 5 5 5 5 5 5 5 5 5 5 5 5 5 5 5 5 5 5 5 5 5 5 5 5 5 5 5 5 5 5 5 6 5 5 5 6 5 5 5 5 5 5 5 5 5 5 5 5 5 5 5 5 5 5 5 5 5 5 5 5 5 5 5 5 5 5 5 5 5 5 5 5 5 5 5 5 5 5 5 5 5 5 5 5 5 5 5 5 5 5 5 5 5 5 5 5 6 5 6 5 5 5 5 5 5 5 5 5 5 5 6 5 5 5 5 6 5 5 5 5 6 5 5 6 5 5 5 5 5 5 5 5 5 5 5 5 5 5 5 5 5 6 5 5 5 6 5 5 5 5 5 5 5 5 5 5 5 5 5 6 5 6 5 6 5 6 5 5 5 6 5 5 5 5 5 5 5 5 5 6 6 5 5 6 5 5 5 5 5 5 5 5 6 5 6 5 5 6 5 5 5 6 5 5 6 5 5 5 5 5 5 5 5 5 5 5 6 5 5 5 5 6 5 5 5 5 5 5 5 5 5 5 5 5 5 5 5 5 6 5 5 5 5 5 5 5 5 5 6 5 6 5 6 5 5 6 5 5 6 5 5 5 5 5 5 5 5 5 5 5 6 5 6 5 5 5 6 5 5 5 5 5 5 5 6 5 6 6 5 5 5 5 5 6 6 5 5 5 5 5 5 5 5 5 5 5 5 5 5 5 5 5 6 5 6 6 5 5 5 6 5 5 5 5 5 5 5 5 5 5 5 5 6 5 5 6 5 6 6 5 5 5 5 6 5 5 5 5 5 5 5 5 5 5 5 5 5 6 5 5 5 5 5 5 5 5 5 5 5 6 5 5 5 5 5 6 5 5 5 5 5 5 5 5 5 5 5 5 5 6 5 5 5 5 5 5 5 5 5 5 5 5 5 5 5 5 5 5 5 5 5 5 5 5 5 5 5 5 5 5 5 5 5 5 6 5 5 5 5 6 5 6 5 5 5 5 5 5 5 5 6 5 5 5 6 5 5 5 5 5 5 5 5 6 6 5 5 6 5 6 5 5 5 5 5 5 6 5 5 5 5 6 5 5 6 5 5 5 5 6 5 5 5 5 5 5 5 5 6 6 5 5 5 5 5 5 5 5 5 5 5 5 5 5 5 5 5 5 5 5 5 5 6 5 5 6 5 6 5 5 5 5 5 5 6 5 6 5 5 5 5 5 5 5 5 5 5 5 5 5 5 5 5 5 5 5 5 5 5 5 5 5 5 5 5 5 5 5 5 5 5 5 5 5 5 5 5 5 5 5 5 5 5 5 5 5 6 5 5 6 5 5 5 5 6 5 5 5 5 5 5 5 5 5 6 5 5 5 5 5 5 5 5 5 6 5 5 5 5 6 5 5 6 5 5 5 5 5 5 5 6 5 5 6 6 5 5 6 5 5 5 5 5 5 5 5 5 5 6 5 5 5 5 5 5 5 5 5 5 6 5 5 5 5 6 5 5 6 5 5 5 5 5 5 5 5 5 5 5 5 5 5 5 5 6 5 5 5 6 5 5 6 5 5 5 5 5 5 5 5 5 5 5 5 5 5 5 5 5 5 5 5 5 5 5 5 5 5 5 5 5 5 5 5 5 5 5 5 5 6 5 5 5 5 5 5 5 5 5 5 5 5 5 5 5 5 5 5 5 5 5 5 5 5 5 5 5 5 5 5 5 5 5 5 5 6 5 5 5 5 5 5 6 5 5 6 5 5 5 5 6 5 5 5 5 5 5 6 5 5 6 5 5 5 5 6 5 5 5 5 6 5 5 5 5 6 5 5 5 5 5 5 6 5 5 5 5 5 5 5 5 5 5 6 5 5 5 5 5 5 5 5 6 5 5 6 5 5 5 5 5 5 5 5 5 5 5 5 5 5 5 6 5 5 6 5 5 6 5 5 6 5 5 5 5 5 5 5 6 5 5 6 5 5 5 5 5 5 5 5 5 5 5 5 5 5 5 6 5 5 5 6 5 5 5 5 5 5 5 5 6 5 5 5 5 6 6 5 5 5 5 6 5 5 5 5 5 5 5 6 5 5 6 5 6 6 5 6 6 5 5 5 5 5 5 5 5 5 5 5 5 5 6 6 5 5 5 5 6 5 5 6 6 6 5 5 6 5 5 6 5 5 5 6 5 6 5 5 5 5 5 5 5 5 5 5 5 5 5 5 5 5 5 5 5 5 5 5 5 5 5 5 5 5 5 5 6 5 5 5 6 5 5 5 5 5 5 5 6 5 5 5 5 6 5 5 5 5 5 6 5 5 5 5 5 6 5 5 5 5 5 5 6 5 5 5 5 5 5 5 5 5 5 5 5 5 5 6 5 5 5 5 5 5 5 5 6 5 5 5 5 5 5 6 5 5 5 5 6 6 5 6 5 6 5 5 5 5 6 5 6 5 6 5 6 6 6 5 5 5 5 6 5 6 5 5 5 5 5 5 5 5 5 6 5 5 5 5 5 5 5 5 5 5 6 5 5 6 5 5 6 5 5 5 5 5 6 5 5 5 5 5 5 5 5 5 6 5 5 5 5 5 5 6 5 5 5 6 5 5 5 6 5 5 5 6 6 5 6 5 5 5 5 6 5 5 6 5 5 5 5 5 5 5 5 5 5 5 6 5 5 5 6 5 5 5 6 5 6 5 5 5 5 5 5 5 5 5 6 5 6 5 5 5 5 6 5 5 5 6 5 5 5 5 5 6 6 6 5 5 5 6 5 5 5 5 5 5 5 5 5 5 5 5 5 5 5 5 5 5 5 5 5 5 5 5 5 5 5 6 5 5 5 5 5 5 5 5 5 5 5 5 5 5 5 5 6 5 5 5 5 5 6 5 5 5 5 6 6 5 6 6 5 5 5 6 5 6 5 5 6 5 5 5 5 5 5 5 5 5 5 6 5 5 5 5 5 5 5 5 5 5 5 5 5 5 5 5 5 5 5 5 5 5 6 5 5 6 5 5 5 5 5 6 6 5 5 5 5 5 5 5 5 5 5 5 5 5 5 5 6 5 5 5 5 6 5 5 6 5 5 5 5 5 5 6 5 5 5 5 6 5 5 5 6 5 5 5 5 5 5 5 5 5 5 5 5 5 5 5 6 5 6 5 5 5 6 5 5 5 5 5 5 5 5 5 5 5 5 5 5 6 5 5 5 5 5 5 5 6 5 5 5 6 6 5 5 6 6 6 5 5 5 5 5 6 5 6 5 6 5 5 5 5 5 5 6 5 6 5 5 5 6 5 6 6 6 5 5 6 5 5 5 5 6 5 5 6 5 5 6 5 5 6 5 5 5 6 5 5 6 5 5 6 6 5 6 5 5 5 5 5 5 5 5 6 5 6 6 5 6 6 6 5 5 6 5 5 6 5 5 5 5 6 5 5 5 6 5 5 5 5 6 5 5 6 5 6 5 6 5 5 5 6 6 5 6 6 5 6 5 5 6 5 5 5 5 5 5 5 6 5 5 6 5 6 5 5 6 5 5 6 5 5 6 5 5 5 5 5 5 5 5 5 5 5 5 5 5 5 5 5 5 5 5 5 5 5 5 5 5 5 5 5 6 5 5 5 5 5 6 6 5 5 5 5 6 5 5 6 5 5 5 5 6 5 5 5 5 5 6 5 5 5 5 5 6 5 6 6 5 5 5 5 5 5 5 5 5 5 5 5 5 5 5 5 5 6 5 5 5 5 5 5 5 5 6 5 5 5 5 5 6 5 6 5 5 5 5 5 5 5 5 5 5 5 5 5 5 5 5 5 5 5 6 5 5 5 5 5 5 5 5 5 5 5 5 5 5 5 5 5 5 5 5 5 5 5 5 5 5 5 5 5 5 5 5 5 5 5 5 5 5 5 5 5 5 5 5 5 5 5 5 5 5 5 5 5 5 5 5 5 5 5 5 5 5 5 5 5 5 5 5 5 5 5 5 5 5 5 5 5 5 5 5 5 5 5 5 5 5 5 5 5 5 5 5 5 5 5 5 5 5 5 5 5 5 5 5 5 5 5 5 5 5 5 5 5 5 5 5 5 5 5 5 5 5 5 5 5 5 5 5 5 5 5 5 5 5 5 5 5 5 5 5 5 5 5 5 5 5 5 5 5 5 5 5 5 5 6 5 5 5 5 6 5 5 5 5 5 6 5 5 5 6 5 6 5 5 5 5 6 5 5 5 6 6 5 5 5 5 5 6 6 5 5 5 5 5 5 5 5 5 5 5 5 5 6 5 5 5 5 5 5 5 5 5 5 5 5 5 5 5 5 5 6 6 5 5 5 5 5 5 5 6 5 5 5 5 5 6 5 6 5 5 5 6 5 5 5 5 5 5 5 5 6 5 5 5 5 5 6 5 5 5 5 5 5 5 5 5 5 5 5 5 5 5 5 5 5 5 5 6 5 5 5 5 5 5 6 5 5 5 5 5 5 5 5 5 5 5 5 5 5 5 5 5 5 5 5 6 5 5 5 5 5 5 5 5 5 5 5 5 5 5 5 5 5 5 5 6 5 5 5 5 5 5 5 5 5 6 5 5 6 5 5 5 6 5 5 5 5 5 6 5 5 5 6 5 5 6 5 5 5 6 5 5 5 5 6 5 5 5 6 5 5 5 5 5 5 5 6 5 5 6 5 5 5 6 5 5 5 6 6 6 5 5 6 5 5 6 5 5 5 6 6 5 5 6 5 5 5 5 5 5 5 5 6 5 5 5 5 6 5 5 5 5 6 5 5 5 6 5 5 5 5 5 6 5 5 5 5 6 6 5 5 6 5 5 6 5 5 5 5 5 5 5 5 6 5 5 5 5 5 6 6 5 5 6 5 5 5 5 6 5 5 6 5 5 5 5 5 5 5 5 5 6 5 5 5 5 5 5 5 5 5 5 5 5 6 5 5 5 5 5 5 6 5 5 6 6 5 5 5 5 5 5 5 5 5 5 5 6 5 5 5 6 5 5 5 6 6 5 5 5 6 5 5 6 6 6 5 5 5 5 5 5 5 6 5 6 5 5 6 6 6 5 5 6 5 5 5 5 5 5 5 6 5 5 5 5 5 5 5 5 6 5 5 5 6 5 5 5 5 5 5 5 6 5 5 5 6 5 5 5 5 5 5 5 5 5 5 5 5 5 5 5 5 5 5 5 5 5 5 5 5 5 5 5 6 5 5 6 5 5 5 5 5 5 5 6 5 6 5 5 5 5 5 5 5 5 5 5 6 5 5 5 6 5 5 5 6 5 5 5 6 6 5 5 5 6 5 5 5 6 5 5 5 5 5 5 5 5 5 5 5 5 6 5 5 6 5 5 5 5 5 6 5 5 6 5 5 5 5 5 6 5 5 5 5 5 5 5 5 5 5 5 5 6 5 6 5 5 6 5 6 5 5 5 5 5 5 6 5 5 5 5 5 6 5 5 5 5 5 5 6 5 6 5 5 5 5 6 5 6 5 6 5 5 5 5 6 5 5 6 5 5 5 5 5 5 5 5 5 5 5 6 5 5 5 5 5 5 5 6 5 5 5 5 5 5 6 5 5 5 6 5 5 5 5 5 5 5 5 5 5 5 6 5 5 5 5 6 5 5 5 5 5 5 5 5 6 5 5 5 5 5 5 5 5 5 5 5 5 6 5 6 6 5 6 5 5 6 5 5 5 5 6 5 6 5 5 6 5 6 5 5 6 5 6 5 5 5 5 6 5 5 5 6 5 5 5 5 5 5 5 5 5 5 5 6 5 5 5 5 5 5 5 5 5 6 5 5 5 5 5 5 5 5 5 5 5 5 5 5 5 5 5 5 5 5 5 5 5 5 6 5 5 5 5 5 6 5 5 5 5 5 5 6 6 5 5 6 5 5 5 5 6 5 5 5 5 5 6 5 6 5 5 5 6 5 5 5 5 5 6 5 5 5 5 5 5 6 5 5 5 5 5 5 5 5 5 6 5 5 5 5 5 6 5 5 5 6 5 6 5 5 5 5 5 5 5 5 6 5 6 5 5 5 5 6 5 5 5 5 5 5 6 5 5 6 5 5 5 6 5 6 5 6 5 6 5 5 6 6 5 6 5 5 6 5 5 5 5 6 5 6 5 5 6 5 5 6 5 5 5 5 6 5 6 6 6 5 6 5 6 5 5 6 5 5 5 6 6 5 5 5 5 5 5 5 5 5 5 5 5 5 6 5 5 6 5 5 5 6 6 5 5 5 5 5 5 5 6 5 5 6 5 5 5 6 5 5 6 5 5 5 5 5 5 5 5 6 5 5 5 5 6 5 5 5 5 5 6 5 5 5 6 5 5 6 5 5 6 6 5 5 5 5 5 5 5 5 5 5 5 5 5 6 5 5 5 5 5 6 5 5 6 5 5 5 5 6 5 5 5 5 5 6 5 5 6 5 6 5 6 5 5 5 6 5 5 5 5 5 5 5 6 5 5 6 5 5 5 6 5 5 5 5 5 6 5 5 6 5 5 6 6 6 5 5 5 5 5 5 5 5 6 5 5 5 6 6 5 5 5 5 5 5 6 5 5 5 5 5 5 5 5 5 5 5 5 6 5 5 6 5 5 5 5 5 5 5 6 5 6 5 5 6 5 5 5 6 6 5 6 5 6 5 6 5 5 5 6 6 5 5 5 6 6 5 5 6 5 6 5 6 5 5 6 5 5 5 5 6 5 5 5 5 5 5 5 5 5 6 5 5 5 5 5 6 5 5 5 5 5 5 5 5 5 5 5 5 5 5 5 5 5 5 5 5 5 5 5 5 5 5 5 5 5 5 6 5 6 5 5 5 5 6 5 5 5 5 5 5 5 6 5 5 6 5 6 6 5 5 5 5 6 6 5 5 5 5 5 5 5 5 5 5 5 5 6 5 5 5 5 5 5 5 6 5 5 5 6 6 5 5 5 5 6 5 5 5 6 5 5 5 5 5 5 5 5 5 6 5 5 6 5 5 5 6 5 5 5 5 5 5 5 5 6 5 5 5 5 5 5 6 5 5 5 5 5 5 6 5 5 6 5 5 5 5 5 5 6 5 5 5 6 5 5 5 5 5 5 5 5 5 5 5 5 5 5 5 5 5 5 5 5 5 5 5 6 5 5 5 6 5 5 5 5 6 5 5 5 5 5 5 5 5 5 5 5 5 5 5 6 5 5 5 5 5 5 5 5 6 5 5 5 5 6 5 5 5 5 5 5 5 5 5 5 5 5 5 6 5 5 5 6 5 5 5 5 5 5 5 5 5 6 5 6 5 5 5 5 5 6 5 5 5 5 6 5 5 5 5 5 5 5 5 5 5 5 5 5 5 5 5 5 5 5 5 5 5 5 6 6 5 5 5 5 5 5 5 5 5 5 5 5 5 5 5 5 5 5 5 5 5 5 5 5 5 5 5 5 6 5 6 5 5 5 5 5 5 5 5 5 6 5 5 6 5 5 5 5 5 5 6 5 5 6 5 5 5 5 5 5 5 5 5 5 5 5 6 5 5 5 5 5 5 5 5 5 5 5 5 5 5 5 5 5 5 5 5 5 5 5 6 5 5 5 5 5 5 5 5 5 5 5 6 5 5 6 5 5 5 5 6 5 5 5 5 5 5 5 5 5 5 5 5 5 5 5 5 5 5 5 5 5 5 5 6 5 5 5 5 5 5 5 5 5 5 5 5 5 5 5 5 5 5 5 5 5 5 5 6 5 5 5 5 5 6 5 5 6 5 5 5 5 5 5 5 5 5 5 6 5 6 5 5 5 5 5 5 6 6 5 6 5 6 5 5 5 5 5 5 5 5 5 5 5 6 5 5 5 5 5 5 5 5 5 6 5 6 5 5 5 5 5 5 5 5 5 5 5 5 5 6 5 5 5 5 5 5 5 5 5 5 5 5 5 5 5 6 6 5 5 5 6 5 5 5 5 6 5 5 5 5 5 5 5 5 6 5 5 5 5 5 5 5 5 5 5 5 5 5 5 5 5 5 5 5 5 5 5 5 5 5 5 5 5 5 5 5 5 5 5 5 5 5 5 5 5 5 5 5 5 5 5 5 5 5 5 5 5 6 5 5 5 6 5 5 5 5 6 5 5 5 6 5 5 5 5 5 5 5 5 5 5 5 5 6 6 5 5 5 6 5 5 5 5 5 5 6 6 5 5 6 6 5 5 6 5 5 5 5 6 5 5 5 5 6 5 5 6 5 6 5 5 6 5 5 5 5 5 5 5 5 5 5 5 6 5 5 6 5 5 5 5 5 5 5 5 6 5 5 5 6 5 5 5 5 6 5 5 5 5 5 5 5 5 6 6 5 6 6 5 5 5 6 5 5 5 5 5 5 5 5 5 5 5 5 5 5 5 5 6 5 5 5 5 5 5 5 5 5 6 6 5 6 5 5 5 5 5 5 5 5 5 6 5 5 6 6 5 5 6 6 5 5 6 6 6 5 6 5 5 5 5 6 5 5 5 5 6 5 5 6 5 5 6 5 6 5 5 6 5 6 5 6 5 5 5 5 5 6 5 5 6 5 6 5 6 5 5 6 6 6 5 6 5 5 5 5 6 5 6 5 5 5 5 5 5 5 5 5 5 5 5 5 5 5 5 5 5 6 6 6 5 5 6 5 5 5 5 5 6 5 5 5 5 5 6 6 6 5 5 5 5 5 5 5 5 6 5 5 6 5 6 5 5 5 5 6 5 5 5 6 5 5 5 5 5 5 5 6 5 6 5 5 6 5 6 5 5 6 5 5 6 5 6 5 6 5 5 6 5 5 6 6 5 5 5 6 5 5 5 6 6 5 5 5 5 5 5 5 5 5 5 5 5 5 6 5 5 5 6 5 5 5 5 5 6 5 5 6 5 5 5 5 5 5 6 5 5 5 5 5 5 5 5 6 5 5 5 5 5 5 5 5 6 5 5 6 5 5 6 5 5 6 5 5 6 6 5 5 6 5 6 5 5 5 5 6 5 5 5 5 5 6 5 5 6 5 5 5 5 5 5 6 5 6 5 5 5 5 5 5 5 5 5 5 5 5 5 6 5 6 5 5 5 5 6 5 5 5 6 5 6 5 5 6 5 5 5 6 5 5 5 6 5 5 5 5 6 5 5 5 5 6 5 6 5 6 6 5 5 6 5 5 5 5 5 6 5 6 5 5 6 5 5 5 6 5 5 5 5 6 5 5 5 6 5 5 6 5 6 5 5 5 6 5 5 5 6 6 5 5 5 5 6 5 6 5 5 5 5 5 5 5 6 5 5 5 5 6 5 6 5 6 5 5 5 5 6 5 6 5 5 5 5 5 5 5 5 6 5 5 5 6 5 5 5 5 6 5 5 5 5 5 5 5 5 5 5 5 5 5 5 5 5 6 5 5 5 5 5 5 5 5 5 5 5 5 5 5 5 5 5 5 6 5 5 5 5 6 5 6 5 5 6 5 5 5 5 5 5 5 5 5 5 5 6 6 5 5 5 5 6 5 5 5 5 5 5 5 6 5 5 5 5 5 5 5 5 5 5 5 5 5 5 6 5 6 5 5 5 5 5 5 5 5 5 5 6 5 6 5 5 5 5 5 5 5 5 5 5 5 5 5 6 5 5 5 5 5 5 5 5 5 5 5 5 6 5 5 6 5 5 5 5 5 5 5 6 5 5 5 5 5 5 5 5 5 5 5 5 5 5 5 5 5 5 5 5 5 5 5 5 5 5 5 5 5 5 5 5 5 5 5 5 5 5 5 5 5 5 5 5 5 5 5 5 5 5 5 5 5 5 5 5 5 6 5 5 5 5 5 6 5 5 5 5 5 5 5 5 5 5 5 5 5 5 5 5 5 5 6 5 5 6 5 5 5 6 5 5 5 5 5 5 5 5 6 5 5 5 5 5 5 5 5 5 5 5 5 5 5 5 5 5 5 5 5 5 5 5 5 5 5 5 5 5 5 5 5 5 5 5 5 5 5 5 5 5 5 5 6 5 5 5 5 6 5 5 5 5 5 5 5 5 5 6 5 5 5 5 5 5 5 5 5 5 5 5 5 5 5 5 5 5 5 5 5 5 5 5 5 5 5 5 5 5 5 5 5 5 5 5 5 5 5 5 5 5 5 5 5 5 5 6 5 5 5 5 5 5 5 6 5 5 5 5 5 5 6 6 5 5 5 6 6 5 5 5 6 5 5 5 6 6 5 5 5 5 5 5 5 5 5 5 5 5 5 5 6 5 5 5 5 5 6 5 5 5 6 5 5 5 5 6 5 6 5 5 5 6 5 5 5 6 5 5 5 5 5 5 5 6 5 5 6 5 5 6 6 5 6 5 5 6 5 5 5 5 6 5 5 5 5 5 5 5 5 5 5 5 5 5 5 5 5 5 5 5 5 5 5 5 5 5 5 6 5 5 5 5 5 5 5 5 6 5 5 6 5 5 5 5 6 6 5 6 5 5 5 5 5 6 6 5 5 5 5 5 5 5 5 5 5 5 5 6 5 5 5 5 5 5 5 5 5 5 5 5 5 5 5 5 5 5 5 5 5 6 5 5 5 5 5 5 5 6 5 5 5 6 5 5 5 5 5 5 5 5 5 6 5 5 5 5 5 5 5 5 5 5 5 5 5 5 5 5 5 5 5 5 5 5 5 5 6 5 5 5 5 5 5 5 5 5 5 5 5 5 5 5 5 5 5 5 5 5 6 5 5 5 5 5 5 5 6 5 5 5 5 6 5 5 5 5 5 5 5 5 5 5 5 5 5 5 5 5 5 5 5 5 5 5 5 5 5 6 5 5 5 5 5 5 5 5 6 5 5 5 5 5 5 5 5 6 6 5 5 5 6 5 6 5 5 6 5 5 5 5 5 5 6 6 6 5 5 5 5 5 5 6 5 5 5 5 5 5 5 5 5 6 5 5 5 5 5 5 5 5 5 5 5 5 5 5 5 5 5 5 5 5 5 5 5 5 5 5 5 5 5 5 5 5 5 5 5 5 6 5 5 5 5 5 5 5 5 6 5 5 5 5 5 5 5 5 5 5 5 6 6 5 5 5 5 5 5 5 5 5 5 5 5 5 5 5 5 5 5 5 6 5 5 6 5 5 5 5 5 5 5 5 5 5 5 6 6 5 5 5 5 5 5 5 5 5 5 5 5 5 5 5 5 5 5 5 5 5 5 5 5 5 5 5 5 5 5 5 6 5 5 5 5 6 6 5 5 5 6 6 5 5 5 5 6 5 6 5 6 5 6 5 5 5 5 5 5 6 5 6 5 6 5 5 5 5 5 5 6 5 6 5 6 5 6 5 6 5 5 5 5 5 5 5 6 5 5 5 5 5 5 5 5 5 5 5 5 5 5 5 5 5 5 5 5 6 5 5 5 5 5 5 5 5 5 5 5 5 6 5 5 6 5 5 5 6 5 5 6 5 6 5 5 5 5 5 6 5 5 5 6 6 5 5 5 5 5 6 5 6 5 6 5 5 5 6 5 5 5 5 5 5 5 6 6 5 5 5 5 5 6 6 5 5 5 5 5 6 5 5 5 5 5 5 6 5 5 5 5 6 5 6 5 5 5 5 5 5 5 5 5 5 5 5 5 5 5 5 6 5 6 5 5 5 5 5 5 5 5 5 5 6 6 5 5 6 5 6 6 5 6 5 5 5 5 5 5 5 5 5 5 5 5 5 5 6 5 5 5 5 5 5 5 5 5 5 5 5 5 5 5 5 6 5 5 5 5 5 5 5 5 5 5 5 5 5 5 5 5 5 5 5 5 5 5 5 5 5 5 5 5 5 5 5 5 5 5 5 5 5 5 5 5 5 5 5 5 5 5 5 5 5 5 5 5 5 5 5 5 5 5 5 5 5 5 5 5 5 5 5 5 5 5 5 5 5 5 6 5 5 5 5 5 6 5 5 5 5 5 5 5 5 5 5 5 5 5 5 5 5 5 5 5 5 5 5 5 5 6 5 5 5 5 5 5 5 5 5 5 5 5 5 5 5 5 5 5 5 5 5 5 5 5 5 5 5 5 5 5 6 5 5 5 5 5 5 5 5 5 5 5 5 5 5 5 5 5 5 5 5 5 5 5 5 5 5 5 5 5 5 5 5 5 5 5 5 5 5 5 5 5 5 5 5 5 5 5 5 5 5 5 5 5 5 6 5 5 5 5 5 5 5 5 5 5 5 5 6 5 5 5 6 5 5 5 5 5 5 5 5 5 5 5 5 5 5 5 5 5 6 5 5 5 5 5 5 6 5 5 5 5 5 5 5 5 5 6 5 6 5 6 5 5 5 5 6 5 5 5 5 5 6 5 5 6 5 5 5 5 5 5 5 6 5 5 5 5 5 5 5 5 5 5 5 5 5 5 5 5 5 5 6 5 5 5 5 6 5 5 6 5 5 5 6 5 5 5 5 5 5 6 6 5 5 5 5 5 5 5 5 6 5 5 5 6 5 5 5 6 5 5 5 5 6 5 5 5 5 6 5 5 5 5 5 6 5 5 5 5 5 6 5 5 5 5 5 5 5 5 6 5 5 5 5 5 5 5 5 5 5 5 5 5 5 5 5 5 5 5 5 5 5 5 6 5 5 6 6 5 5 5 5 5 5 5 5 5 5 5 5 5 5 5 5 5 5 5 5 5 5 5 6 5 5 5 5 5 5 5 5 5 6 5 5 5 5 5 5 5 5 5 5 5 5 5 5 5 5 5 5 6 5 5 5 5 5 5 5 5 5 5 5 5 6 5 5 5 5 5 5 6 5 5 5 5 5 5 5 5 5 5 5 5 5 5 5 5 5 5 5 5 5 6 5 5 5 5 5 5 5 5 6 5 5 5 5 5 5 6 5 6 5 6 5 5 5 6 5 5 6 5 5 5 5 5 5 5 5 5 5 5 5 5 5 5 5 5 5 5 5 5 5 5 5 5 5 6 5 5 6 5 6 5 5 5 5 6 5 5 5 5 5 5 5 5 5 5 5 6 5 5 6 5 5 5 5 5 5 6 5 5 5 5 5 6 5 5 6 5 5 5 5 5 5 5 5 5 5 5 5 5 5 5 5 5 5 5 5 5 5 5 5 5 5 5 5 5 6 5 5 5 5 6 5 5 5 5 5 5 5 5 5 5 5 5 5 5 5 5 5 5 5 5 5 5 5 5 5 5 5 5 5 5 5 5 6 5 5 5 5 5 5 5 5 5 6 5 5 5 5 5 5 5 6 5 5 5 5 5 5 5 5 5 5 5 5 5 5 5 5 5 6 5 5 5 6 5 5 5 5 5 5 5 5 5 5 5 5 6 5 5 5 5 6 5 5 5 5 5 6 5 5 5 5 5 5 5 6 5 5 5 5 5 6 5 5 5 5 5 5 5 5 5 5 5 5 5 5 5 5 5 5 5 5 5 5 5 6 5 6 5 5 5 5 5 5 5 5 6 6 5 5 5 5 5 5 5 5 5 5 6 5 5 6 5 5 6 5 5 5 5 5 5 5 5 5 5 5 5 5 5 5 5 5 5 5 5 5 5 5 5 5 5 5 5 6 5 5 5 6 6 5 5 5 5 5 5 5 5 5 6 5 5 5 6 6 5 5 5 6 5 5 6 5 5 6 5 5 6 6 5 6 5 6 6 6 5 5 5 5 6 5 6 6 5 5 5 6 5 5 5 5 5 5 5 5 5 5 5 6 5 6 5 5 5 5 5 5 6 5 5 5 6 5 5 5 5 6 5 5 5 5 6 5 5 5 5 5 6 6 5 6 5 5 5 5 5 5 5 5 5 5 5 5 6 5 5 5 5 5 6 5 5 5 5 5 5 5 6 5 5 5 5 5 5 5 5 5 5 5 5 5 5 5 5 5 6 6 5 6 5 5 5 5 5 5 5 5 5 5 5 5 5 5 5 5 5 5 5 5 5 5 5 5 5 5 5 5 5 5 5 5 5 5 5 5 6 5 5 5 5 5 6 5 5 5 5 5 5 6 5 6 5 5 5 5 6 5 5 5 5 5 5 5 5 5 5 5 5 5 5 5 5 5 5 5 5 5 5 5 5 5 5 5 5 5 5 5 5 5 5 5 5 5 5 6 5 5 5 5 5 5 6 5 5 5 5 5 6 5 5 5 5 5 5 5 5 5 5 6 5 5 5 5 6 6 5 5 5 5 5 5 5 5 5 5 5 6 5 5 5 5 5 5 5 5 5 5 5 6 5 5 5 5 5 5 5 5 5 6 5 5 5 5 5 5 5 5 5 5 5 5 5 5 5 5 5 5 5 5 5 5 5 5 5 5 5 5 5 5 5 5 5 5 6 5 5 5 6 6 5 5 6 5 5 5 5 5 5 5 5 5 5 5 5 5 5 5 5 5 5 5 5 5 5 5 5 5 5 5 5 5 5 6 6 5 6 5 5 5 5 6 5 5 5 5 5 5 5 5 5 5 5 5 5 5 5 5 5 5 5 5 5 5 5 6 5 5 5 5 6 5 5 5 5 6 5 5 5 5 5 5 6 5 5 5 5 5 5 5 5 5 6 5 5 5 5 5 6 5 5 5 5 5 5 6 5 5 5 5 5 5 6 5 5 6 5 6 5 5 6 5 5 5 6 5 5 5 5 5 5 5 6 5 5 5 5 5 5 5 5 5 5 5 6 5 5 5 5 5 5 5 5 5 5 5 5 5 5 6 5 5 5 6 5 5 5 5 5 5 5 5 5 5 5 5 5 5 6 6 5 6 6 6 5 5 5 6 5 5 6 5 6 5 6 5 5 5 5 5 5 6 5 5 5 5 5 5 5 5 5 5 5 5 5 5 5 5 5 5 5 5 5 6 5 5 5 6 5 5 5 5 5 5 5 5 5 5 5 5 5 5 6 5 5 5 5 5 5 5 5 5 6 5 5 5 5 5 6 5 5 5 5 5 5 5 5 5 5 5 5 5 5 6 5 5 5 5 5 5 5 5 5 5 5 5 5 5 6 5 5 5 5 5 6 5 5 5 6 5 5 6 5 5 5 5 5 6 5 6 5 6 5 6 5 6 5 5 6 5 5 5 5 5 6 5 5 5 5 5 5 5 6 5 5 6 5 5 5 5 6 5 5 6 5 5 5 5 5 6 5 5 5 6 5 5 5 6 6 5 6 6 5 6 5 5 5 5 5 5 5 6 6 6 5 5 5 6 5 5 5 5 5 5 5 5 5 5 5 5 5 6 5 5 5 5 5 6 5 5 5 6 5 5 5 5 5 5 5 5 5 5 5 5 5 6 5 6 5 5 5 5 6 6 5 5 5 5 5 5 5 5 5 5 5 6 5 5 5 6 5 5 5 5 6 5 5 6 5 5 5 5 5 5 5 5 6 5 5 5 5 5 5 5 6 5 6 5 6 5 5 5 5 5 5 6 5 5 5 5 5 5 5 5 5 6 5 5 5 5 5 6 5 5 6 5 5 5 5 5 5 5 6 5 5 6 5 6 5 5 5 6 5 5 6 5 6 5 6 5 5 5 5 6 5 5 5 5 5 5 5 6 5 6 5 5 5 5 5 5 5 5 5 5 5 6 5 5 5 5 6 5 5 5 5 5 5 5 5 5 5 5 5 5 6 5 5 5 5 6 5 5 5 5 5 5 5 5 5 5 5 5 5 5 5 5 5 5 5 5 5 5 5 5 5 6 5 5 5 5 5 5 5 5 5 5 5 5 5 5 5 5 5 5 5 5 5 5 5 5 5 5 5 6 5 5 5 6 5 5 5 5 5 6 5 5 5 5 5 6 5 5 5 6 5 5 5 5 6 5 5 5 5 5 5 5 5 5 5 5 5 5 5 5 5 5 5 5 5 5 5 5 5 6 6 6 5 6 6 6 5 5 5 6 5 5 5 5 5 6 6 5 5 5 5 5 6 6 5 5 6 5 5 6 5 5 5 5 5 5 5 6 5 5 5 5 5 5 5 5 5 5 5 5 6 5 5 5 5 5 5 5 5 5 5 5 5 5 5 5 5 5 5 5 5 5 5 5 5 5 5 5 5 5 5 5 6 5 6 5 5 5 5 5 5 5 5 5 5 5 6 6 5 5 5 5 5 5 5 5 5 5 5 5 5 5 5 6 6 5 5 5 5 5 6 5 5 5 5 5 5 5 6 6 5 5 5 5 6 5 5 5 5 6 6 5 5 5 6 5 5 6 5 5 5 5 5 5 5 5 5 5 5 5 5 6 5 6 5 5 5 5 6 5 5 5 5 6 5 5 6 6 5 6 5 5 5 5 6 6 5 5 5 5 5 5 5 5 5 5 5 5 5 5 6 5 5 5 5 6 6 5 5 6 5 5 5 5 5 5 6 5 6 5 5 6 5 5 5 5 5 6 5 6 5 5 5 5 5 5 5 5 5 5 5 5 5 5 5 6 5 5 6 5 5 5 5 5 5 6 5 5 5 6 5 5 5 5 5 5 5 6 6 5 6 5 6 6 6 5 5 5 5 6 6 5 6 5 5 5 6 5 5 6 5 5 5 5 5 6 6 6 5 5 6 6 5 5 5 6 5 6 5 5 5 5 5 5 5 5 5 5 5 5 5 5 5 5 5 5 5 5 5 5 5 5 5 5 6 5 5 5 5 5 5 6 5 5 5 6 6 5 5 5 6 6 5 5 5 6 5 5 6 5 6 5 6 5 5 5 5 5 6 5 5 6 5 5 6 5 5 5 5 6 5 5 5 5 5 5 5 6 5 5 5 5 5 5 5 5 5 5 5 6 5 5 5 5 5 5 5 6 5 5 6 6 5 5 5 5 6 5 5 5 6 5 6 5 6 5 5 5 5 5 5 6 5 5 5 5 5 5 5 5 5 5 6 5 5 5 5 5 5 5 5 5 5 6 5 5 5 5 5 5 5 5 5 5 5 5 5 5 5 5 5 5 5 5 5 5 5 5 5 5 5 5 5 5 5 5 5 5 6 5 5 5 6 5 5 5 5 5 5 5 5 5 6 5 5 6 5 5 5 5 5 5 5 5 5 5 5 5 5 5 6 5 5 5 6 5 5 5 5 5 5 5 5 5 5 5 5 5 5 5 5 5 5 6 5 5 5 6 5 5 5 5 5 5 5 5 5 5 5 5 5 5 5 5 5 5 5 5 5 5 5 5 5 5 5 5 5 5 5 6 5 5 5 5 5 5 5 5 5 5 5 5 5 5 5 5 5 5 5 5 5 5 5 5 5 5 5 5 6 5 5 5 5 5 5 5 5 5 5 5 6 5 6 5 5 5 5 5 5 5 5 5 5 5 5 5 5 5 5 5 6 6 5 5 5 5 6 5 6 6 5 5 5 5 5 5 5 6 5 6 5 
</DataArray>
<DataArray type="Float64" Name="stress" NumberOfComponents="9" format="ascii">
0.098547152081664535 393.38168031980422 0 393.38168031980422 -239.44635409539205 0 0 0 0 -214.87332591913537 377.82439291721857 0 377.82439291721857 0.039448477170935803 0 0 0 0 -79.417338913461208 330.23031126332626 0 330.23031126332626 -289.26302180251241 0 0 0 0 -93.649373461434152 344.48069899919756 0 344.48069899919756 -286.96043925912875 0 0 0 0 -248.85772848167358 382.66845861444062 0 382.66845861444062 -366.49924865417779 0 0 0 0 -236.78465773391326 341.70646647792 0 341.70646647792 -256.42888471389961 0 0 0 0 -116.74978428137547 321.38895152784789 0 321.38895152784789 -259.88820686767758 0 0 0 0 -96.580001417510175 380.70774478136684 0 380.70774478136684 -279.7021893139663 0 0 0 0 -316.9661793401483 250.36982164498204 0 250.36982164498204 -147.65701529063517 0 0 0 0 -346.37908178417047 174.27373037497978 0 174.27373037497978 -290.79458307660389 0 0 0 0 -457.73634675470748 297.27356018396404 0 297.27356018396404 -58.307901022229089 0 0 0 0 -303.52584166311317 200.7570754981698 0 200.7570754981698 -0.16243164536354016 0 0 0 0 -48.687259525544505 152.27742441650753 0 152.27742441650753 -135.71744318845958 0 0 0 0 -154.6571672138225 237.21766669434737 0 237.21766669434737 -171.80325391209954 0 0 0 0 -126.18768051014649 144.46155742089013 0 144.46155742089013 -62.712365424504242 0 0 0 0 -24.929660778251673 68.468590475839846 0 68.468590475839846 -122.24944820795827 0 0 0 0 -36.749898927004324 69.584076957340585 0 69.584076957340585 -113.07525548948979 0 0 0 0 -32.458439256342899 61.585819882134274 0 61.585819882134274 -137.43898114004332 0 0 0 0 -39.899973753908853 123.74318914304786 0 123.74318914304786 -207.94526331381348 0 0 0 0 -27.727086084896655 32.34432406709675 0 32.34432406709675 -76.070124426109032 0 0 0 0 -41.114286532369988 75.478476132499509 0 75.478476132499509 -152.12365074322588 0 0 0 0 12.689176612104347 32.853684912002791 0 32.853684912002791 -105.93409109863933 0 0 0 0 5.2213985207381484 9.2111973997016321 0 9.2111973997016321 -128.16669593631468 0 0 0 0 -17.200251522951476 36.434462199156314 0 36.434462199156314 -142.74239284645228 0 0 0 0 -36.287066314691401 17.168254924657049 0 17.168254924657049 -17.934392116481831 0 0 0 0 8.389025773267349 1.4667934604167385 0 1.4667934604167385 -85.072855529155277 0 0 0 0 2.8311239881368238 59.079143374823616 0 59.079143374823616 -119.11616936377686 0 0 0 0 3.6091547322030237 40.368176432693872 0 40.368176432693872 -134.72138021430874 0 0 0 0 104.47726311285442 113.43709011258397 0 113.43709011258397 -353.59151928966583 0 0 0 0 -163.51239340353823 347.76916213243203 0 347.76916213243203 -372.81020359774448 0 0 0 0 193.452854318557 20.382949248213663 0 20.382949248213663 -262.34563684308523 0 0 0 0 -1.2980300340611119 2.2138818906435116 0 2.2138818906435116 -4.1274693271729177 0 0 0 0 30.634102752964282 -75.988087910375725 0 -75.988087910375725 -41.880968455159746 0 0 0 0 -501.8623016067977 351.96747751895327 0 351.96747751895327 -161.17409113658505 0 0 0 0 -618.68577830070672 43.289603172304624 0 43.289603172304624 28.34415262973198 0 0 0 0 -217.03346857881661 164.52116882361497 0 164.52116882361497 -39.31363830891496 0 0 0 0 -115.09090938870213 -9.3339831889170455 0 -9.3339831889170455 -40.865980345763091 0 0 0 0 -74.010930943066342 17.630112322980494 0 17.630112322980494 -60.923400926491013 0 0 0 0 -179.63082605617819 -54.542634583849576 0 -54.542634583849576 73.975265717614093 0 0 0 0 2.1849440589139704 17.963412665310898 0 17.963412665310898 -99.885170135676162 0 0 0 0 -353.48132122404058 2.2700697598484112 0 2.2700697598484112 140.15449686192733 0 0 0 0 -15.413533155529876 101.58863811173796 0 101.58863811173796 -254.88231829783763 0 0 0 0 0.077884663734714366 0.21774904957342578 0 0.21774904957342578 -0.045431396836441706 0 0 0 0 -108.32826617655883 180.85118743976636 0 180.85118743976636 183.86915233093896 0 0 0 0 42.054990145679767 45.509344857830001 0 45.509344857830001 115.03233368487417 0 0 0 0 -2.6219910328130211 5.4193211908501322 0 5.4193211908501322 -8.9870977420602784 0 0 0 0 63.364326410193826 138.13347736364449 0 138.13347736364449 117.38188894163613 0 0 0 0 -69.039962272401681 40.578564696504145 0 40.578564696504145 -35.686997257966141 0 0 0 0 -188.52137957630111 16.610456192566744 0 16.610456192566744 -14.910831363471516 0 0 0 0 -81.496585127350045 8.7216464256252948 0 8.7216464256252948 -38.655050704409859 0 0 0 0 -205.0775223163364 138.05628463385017 0 138.05628463385017 -102.08422260383668 0 0 0 0 -140.72521175213478 71.556854334510717 0 71.556854334510717 -36.292856249172473 0 0 0 0 -132.07708205456584 58.86023499183284 0 58.86023499183284 -26.526995772233022 0 0 0 0 -1.2563507285040032 0.71513884904197766 0 0.71513884904197766 1.4656627369040507 0 0 0 0 22.673162031749598 72.231755062593038 0 72.231755062593038 109.11971295418334 0 0 0 0 -1.5926688541295633 0.41973369046212916 0 0.41973369046212916 0.18074437577699598 0 0 0 0 0.26257484802044928 3.3497917854674597 0 3.3497917854674597 0.61183149934640824 0 0 0 0 0.46840435263418811 1.2017476405336467 0 1.2017476405336467 0.32413687257613333 0 0 0 0 57.11363333503698 87.579208481157707 0 87.579208481157707 104.37490953803353 0 0 0 0 47.674941889732509 30.416109198357844 0 30.416109198357844 11.991079616747811 0 0 0 0 -1.8767124284528975 0.9880887901914992 0 0.9880887901914992 -0.30803452211856808 0 0 0 0 -0.6221658108261181 4.7367759877361095 0 4.7367759877361095 3.6277263384963589 0 0 0 0 35.416098065007873 77.014434596695878 0 77.014434596695878 86.946368226093909 0 0 0 0 21.398807189250874 38.512145167090694 0 38.512145167090694 8.909596730793055 0 0 0 0 18.713701987155218 21.177380870111847 0 21.177380870111847 42.287909146406491 0 0 0 0 -1.5909034804353723 21.140798076016381 0 21.140798076016381 -16.850663910623553 0 0 0 0 -16.216916729899822 5.6978515688479092 0 5.6978515688479092 29.437482233359333 0 0 0 0 -2.8240925865860813 6.2350572448259136 0 6.2350572448259136 -11.130176960739661 0 0 0 0 -27.35195027460577 3.7730792552829371 0 3.7730792552829371 5.3327288059454077 0 0 0 0 8.7512660983757087 1.8943604896048782 0 1.8943604896048782 -15.224758115781697 0 0 0 0 -104.60679717643779 27.73157553931469 0 27.73157553931469 -7.9990274481169763 0 0 0 0 -86.186883062280685 -5.4626127661167629 0 -5.4626127661167629 -4.6975258841333698 0 0 0 0 -85.518676144178244 46.298726393013112 0 46.298726393013112 -64.003861179407977 0 0 0 0 -92.770343338246676 -10.28684613943642 0 -10.28684613943642 26.08466118994329 0 0 0 0 -14.488227888856272 -9.5116380407680481 0 -9.5116380407680481 -15.584105089652439 0 0 0 0 -31.032135952278622 19.164857267613115 0 19.164857267613115 -16.184112066004673 0 0 0 0 -75.027098525448309 2.276221072575936 0 2.276221072575936 5.6407931295416347 0 0 0 0 -104.17825727616219 20.185408703902795 0 20.185408703902795 6.7650859051391308 0 0 0 0 -75.864058318872594 7.797131188299204 0 7.797131188299204 11.575258912384015 0 0 0 0 -89.538350874388016 0.2915168384338358 0 0.2915168384338358 7.3265962841360306 0 0 0 0 -51.494173602823139 -14.734770106017095 0 -14.734770106017095 12.528943960763172 0 0 0 0 -39.248384339833137 15.225741664188718 0 15.225741664188718 -4.0253238504078581 0 0 0 0 -29.386422010515162 -7.495012598971698 0 -7.495012598971698 47.019481856264974 0 0 0 0 -27.017739605271345 -8.9321289513682132 0 -8.9321289513682132 -13.415194145475652 0 0 0 0 -50.510222604569208 20.319857207367477 0 20.319857207367477 -49.408373102123733 0 0 0 0 -30.090249780121439 49.564989539482326 0 49.564989539482326 -59.513988050646731 0 0 0 0 -62.024260801510536 143.48082152846291 0 143.48082152846291 -210.88435799436229 0 0 0 0 -104.19279977724 61.753575435297535 0 61.753575435297535 -57.835487522593667 0 0 0 0 74.511530266931004 -17.496512572850406 0 -17.496512572850406 -74.709884029043678 0 0 0 0 41.203572951695151 112.22204093523487 0 112.22204093523487 -301.29743349289856 0 0 0 0 15.650665541459603 42.84783235150644 0 42.84783235150644 -91.346845343774476 0 0 0 0 -4.6060074142715166 61.465165678867379 0 61.465165678867379 96.339922553792348 0 0 0 0 43.747808533054922 7.3782245589572995 0 7.3782245589572995 -35.426081649677144 0 0 0 0 -149.33036061721396 112.70060557834768 0 112.70060557834768 -36.351290385752236 0 0 0 0 -25.373323362371593 -30.620124800631856 0 -30.620124800631856 18.65366465181296 0 0 0 0 -0.076298585847325739 113.13996711691016 0 113.13996711691016 -184.72094933722292 0 0 0 0 -103.16262670078027 301.99056340315803 0 301.99056340315803 -523.24522999282817 0 0 0 0 -1.2327666070414551 1.4547798942095715 0 1.4547798942095715 -1.6035914920443375 0 0 0 0 104.33085936907992 104.90527860829388 0 104.90527860829388 -409.69065963003777 0 0 0 0 -66.581579441051872 332.47522274578296 0 332.47522274578296 -395.1768338485 0 0 0 0 -93.727724600262036 311.46026948448218 0 311.46026948448218 -263.74473801348722 0 0 0 0 -179.10726224322389 320.93190775222774 0 320.93190775222774 -298.18999285118298 0 0 0 0 -0.3004689978083781 279.15650205610626 0 279.15650205610626 -351.7043112270876 0 0 0 0 15.741621937333548 258.02863401806007 0 258.02863401806007 -344.04620219483149 0 0 0 0 -94.186707672473858 306.15984310122622 0 306.15984310122622 -315.77820841901939 0 0 0 0 -150.63804402713686 162.77178502729112 0 162.77178502729112 -431.28358017087476 0 0 0 0 -65.647108759436378 335.20549658120945 0 335.20549658120945 -286.43865586842912 0 0 0 0 -117.20223160246314 323.06995079431181 0 323.06995079431181 -265.26538537156375 0 0 0 0 -83.930965675121115 308.85866167911263 0 308.85866167911263 -270.02678335590144 0 0 0 0 -104.3034752156891 275.99005541692168 0 275.99005541692168 -213.42889625087446 0 0 0 0 -165.64106166077545 323.59307981948041 0 323.59307981948041 -249.69128669871679 0 0 0 0 -258.61016948510951 260.05617897471575 0 260.05617897471575 -152.61499726281727 0 0 0 0 -113.73002045624162 172.00286711907574 0 172.00286711907574 -109.22376678772434 0 0 0 0 -130.6039118285853 139.56000989962661 0 139.56000989962661 -141.6127748131621 0 0 0 0 -57.508541069366402 69.804614705710264 0 69.804614705710264 -84.287541428318946 0 0 0 0 -24.617885226547514 173.50846305383766 0 173.50846305383766 -189.09177368738347 0 0 0 0 -40.835562862612278 198.09760292016654 0 198.09760292016654 -225.39869016438388 0 0 0 0 -133.69461451263214 257.68336295055656 0 257.68336295055656 -224.76193769904967 0 0 0 0 -14.984586754550037 13.323045181214184 0 13.323045181214184 21.203470297656168 0 0 0 0 -8.8207137230974695 2.7996549732006315 0 2.7996549732006315 -1.1880611706328637 0 0 0 0 -10.923292988756657 3.8569882735810097 0 3.8569882735810097 11.613544539462964 0 0 0 0 -9.9169616337512707 7.2512072398440068 0 7.2512072398440068 7.5526637686443792 0 0 0 0 -3.9023701052001343 9.6652275619353532 0 9.6652275619353532 4.0185488291481306 0 0 0 0 -8.250994065836494 11.421505274482115 0 11.421505274482115 5.2473158457250975 0 0 0 0 -8.3245424472916056 11.504120261457501 0 11.504120261457501 9.0961956248015667 0 0 0 0 -7.1026945880698804 18.465062236582526 0 18.465062236582526 3.9943546575923392 0 0 0 0 -8.6592643157591738 19.959443172639112 0 19.959443172639112 14.808264570567189 0 0 0 0 -4.4178614034080965 13.745449975256633 0 13.745449975256633 6.6315568024147069 0 0 0 0 -13.259776406333003 14.442826562740265 0 14.442826562740265 10.361781685711321 0 0 0 0 -10.870989726138077 29.397194809025791 0 29.397194809025791 8.6645164667552308 0 0 0 0 -10.828389348578639 29.25095121067659 0 29.25095121067659 6.6551266564019897 0 0 0 0 -8.2392045270180461 33.497060661074556 0 33.497060661074556 -0.0022047734091756865 0 0 0 0 -3.9413809157458672 29.372780951342065 0 29.372780951342065 3.8149684134205017 0 0 0 0 -3.8942792630501799 29.926010996933456 0 29.926010996933456 -3.289635549637751 0 0 0 0 2.7765685144004237 25.622477327216075 0 25.622477327216075 -0.55660032127525483 0 0 0 0 -0.060869080751217552 33.482888617789285 0 33.482888617789285 0.010204359648923855 0 0 0 0 -0.088838192549701489 35.720146927840688 0 35.720146927840688 -10.880620981522952 0 0 0 0 2.8808972118804377 26.092682602540663 0 26.092682602540663 -14.160908800122343 0 0 0 0 7.4291959779093304 30.871434453898473 0 30.871434453898473 -9.2243254894829079 0 0 0 0 7.3644451573932201 23.211454393704116 0 23.211454393704116 -15.954942364794988 0 0 0 0 13.811729212596447 16.030119049408995 0 16.030119049408995 -14.952727277050144 0 0 0 0 3.963433826696928 16.249227146017802 0 16.249227146017802 -9.4120193914895935 0 0 0 0 9.2521364480321608 18.600613673399494 0 18.600613673399494 -9.1489151454698003 0 0 0 0 -2.3293288544009556 19.834065614137216 0 19.834065614137216 -3.50608466416179 0 0 0 0 -4.3725330418710655 14.333004099155914 0 14.333004099155914 0.49281737794808578 0 0 0 0 3.9196086411138822 15.75001493747186 0 15.75001493747186 -0.90655215148763091 0 0 0 0 1.3080812848297683 9.1838341263523944 0 9.1838341263523944 0.66915079870523186 0 0 0 0 -0.25639290081562649 11.600198782836742 0 11.600198782836742 1.5518038104501102 0 0 0 0 12.091013621500679 8.8421376239584788 0 8.8421376239584788 -3.9608318709306332 0 0 0 0 -87.060763638713979 91.420679013533118 0 91.420679013533118 -0.13832725466454973 0 0 0 0 -27.548781130809402 18.930428987852792 0 18.930428987852792 4.1749633870585967 0 0 0 0 31.985830795650145 2.6746183706245574 0 2.6746183706245574 -8.5839126816517819 0 0 0 0 -0.082989209017513055 -0.47146471971909776 0 -0.47146471971909776 0.075761143640214357 0 0 0 0 -11.308727996562084 -2.412459119856976 0 -2.412459119856976 -5.3910390702221775 0 0 0 0 -4.7688625002901972 3.7227131025611016 0 3.7227131025611016 -5.3084185047591745 0 0 0 0 -7.9284308569995119 11.682211355451727 0 11.682211355451727 -11.957847414127173 0 0 0 0 0.0062289638207602138 0.36363874020391762 0 0.36363874020391762 0.13246336917856816 0 0 0 0 5.5211646779553121 7.7209616584368632 0 7.7209616584368632 -53.705378932155782 0 0 0 0 5.2806744777644781 25.674018726066606 0 25.674018726066606 -40.757911351403436 0 0 0 0 2.9498626570284614 15.438139035873974 0 15.438139035873974 -39.686863058976087 0 0 0 0 6.4509717251639813 20.119149207836927 0 20.119149207836927 -21.503180113306371 0 0 0 0 7.536059313136775 32.661351117697677 0 32.661351117697677 -29.115622395789615 0 0 0 0 -0.1940637166653687 38.527598424598636 0 38.527598424598636 -0.063455078950937605 0 0 0 0 4.5502745703242908 44.241893057722336 0 44.241893057722336 -12.389645591542831 0 0 0 0 -0.3794527511611534 0.097997717717593247 0 0.097997717717593247 0.3532241213938434 0 0 0 0 -10.043647374030115 15.446039952936189 0 15.446039952936189 -37.725347096129553 0 0 0 0 8.11143959293031 37.354044477897673 0 37.354044477897673 -42.038356154329449 0 0 0 0 -59.118113733899918 56.381567228389031 0 56.381567228389031 -48.256428853728721 0 0 0 0 -16.271914525369539 43.755228491046182 0 43.755228491046182 -46.719543544935732 0 0 0 0 -14.659457068016309 78.107386566233799 0 78.107386566233799 -117.74904300638809 0 0 0 0 -39.923435578122735 60.004989984536223 0 60.004989984536223 -70.32891908124293 0 0 0 0 -46.79210132609478 40.640600236353748 0 40.640600236353748 -41.036038785779965 0 0 0 0 -0.39039952463891936 0.094681419710315851 0 0.094681419710315851 0.36586786399688975 0 0 0 0 -33.876530967183498 79.374440264534314 0 79.374440264534314 -82.597370275252615 0 0 0 0 -18.74827612480658 19.315978632495899 0 19.315978632495899 -26.095987687951492 0 0 0 0 0.25870837721170403 0.8220118698599741 0 0.8220118698599741 -0.16354979019609139 0 0 0 0 -0.93243664587949837 1.1270833202919093 0 1.1270833202919093 0.16898533184180664 0 0 0 0 11.571054039703085 12.104182946821311 0 12.104182946821311 -102.25937445152522 0 0 0 0 0.19947153807030205 0.20595774793367738 0 0.20595774793367738 -0.40195750742253011 0 0 0 0 -29.84345301509893 53.048498974752874 0 53.048498974752874 -36.350019167726714 0 0 0 0 4.0029529899475165 28.637019347017485 0 28.637019347017485 -137.64288885885617 0 0 0 0 0.095297377833048813 2.8611194323166274 0 2.8611194323166274 -3.0970057989406996 0 0 0 0 -1.9097087551035656 2.5040292376024809 0 2.5040292376024809 0.36507232530129841 0 0 0 0 1.646647018920703 4.0974240070381711 0 4.0974240070381711 -1.9311057286868163 0 0 0 0 -1.5852041550376583 1.6439678585250785 0 1.6439678585250785 -1.5620784874120091 0 0 0 0 -1.1128285043714641 0.14318081159763096 0 0.14318081159763096 -2.1740924140176503 0 0 0 0 -0.49468793037158321 4.1617957959756495 0 4.1617957959756495 0.58258468522581097 0 0 0 0 -1.4175423257811417 4.1481867165975927 0 4.1481867165975927 5.2460076997922442 0 0 0 0 0.39499011611769674 2.3980727088292042 0 2.3980727088292042 -0.0089536136165406788 0 0 0 0 34.288796784592705 56.763964697434858 0 56.763964697434858 48.455880246658126 0 0 0 0 -1.9436194644813725 1.2342683562583652 0 1.2342683562583652 -0.76893324380454686 0 0 0 0 15.037362402435065 28.281758031664594 0 28.281758031664594 31.798563650596407 0 0 0 0 25.218351260211421 34.615910733971759 0 34.615910733971759 6.5426064794010017 0 0 0 0 32.063153158482237 40.345277485325823 0 40.345277485325823 16.485625269140655 0 0 0 0 -2.1791564944624042 4.2891467175577418 0 4.2891467175577418 3.542945316155965 0 0 0 0 -1.5551175417591523 1.8279502609071958 0 1.8279502609071958 -0.13710473524074729 0 0 0 0 37.503664850073619 27.383408760973907 0 27.383408760973907 23.400490732959952 0 0 0 0 -5.8126120302795243 -8.2772158707821291 0 -8.2772158707821291 0.43971855254130787 0 0 0 0 0.19738067623324795 0.95799993671200312 0 0.95799993671200312 -0.2403553477666982 0 0 0 0 -0.80911352790915814 1.6207374332898929 0 1.6207374332898929 3.8078956535213848 0 0 0 0 3.9529890287140006 5.1565251871834334 0 5.1565251871834334 -2.6880342601298253 0 0 0 0 -0.59798441678093894 3.5292786441736066 0 3.5292786441736066 -4.7723940764683235 0 0 0 0 -5.6109552689351858 9.5489956760636687 0 9.5489956760636687 14.234676378147924 0 0 0 0 -0.50659132834548171 0.28999534519166659 0 0.28999534519166659 -0.32649392435246227 0 0 0 0 9.2781423691244527 5.1816069225337742 0 5.1816069225337742 -3.0073604177159723 0 0 0 0 -5.2945651058507792 6.5837237964601627 0 6.5837237964601627 2.0735031567492115 0 0 0 0 -1.6857107913641016 2.1439184010454255 0 2.1439184010454255 -1.5581871038699546 0 0 0 0 -1.5730743295962384 1.4267631581815294 0 1.4267631581815294 0.6925249166906724 0 0 0 0 1.8266483471796846 1.2967811022888327 0 1.2967811022888327 -5.9572075837713783 0 0 0 0 -4.4132971695635206 2.5241303434686415 0 2.5241303434686415 2.3038304176085376 0 0 0 0 -4.0339698171665077 2.8599142442226366 0 2.8599142442226366 -7.0089875635821954 0 0 0 0 -4.5515455131453564 6.0376668697563218 0 6.0376668697563218 -0.68239921934582526 0 0 0 0 7.4650749429310963 8.9769366087639355 0 8.9769366087639355 -0.20461450779930601 0 0 0 0 5.7949153370591375 6.6205533911106613 0 6.6205533911106613 0.4529387243619567 0 0 0 0 8.2744195409959502 2.706759371494627 0 2.706759371494627 2.2158561731284863 0 0 0 0 -0.14668539828790017 7.8152959949079559 0 7.8152959949079559 -0.64302743581720279 0 0 0 0 -0.23732657149594161 7.8679318055092153 0 7.8679318055092153 0.70555544359558553 0 0 0 0 -5.399091824900097 7.4117934133901144 0 7.4117934133901144 -0.33931439785010298 0 0 0 0 0.44331531631189591 8.5429539423703318 0 8.5429539423703318 -3.5821353343708324 0 0 0 0 6.3919408047331672 7.786401827375812 0 7.786401827375812 -2.6969079296777636 0 0 0 0 0.68587472848957987 6.7656518156472885 0 6.7656518156472885 -1.8890120608884899 0 0 0 0 3.9786100423112458 7.0861098557746161 0 7.0861098557746161 -3.8292435451694473 0 0 0 0 -0.28457320779192941 3.3631609217133303 0 3.3631609217133303 -4.7016439897946682 0 0 0 0 29.488949543465424 24.189639327414625 0 24.189639327414625 11.021984959210386 0 0 0 0 -33.17771777377493 68.960992410415201 0 68.960992410415201 7.9349476097377192 0 0 0 0 0.099812706648869209 2.2922431349877961 0 2.2922431349877961 3.1561419012367153 0 0 0 0 0.075489585103312606 0.71499410954358211 0 0.71499410954358211 -0.83116107809626527 0 0 0 0 -1.2181789254589148 8.9494250234643005 0 8.9494250234643005 -3.8987725732476974 0 0 0 0 -6.5617244966088037 6.6100647678831592 0 6.6100647678831592 -2.0418184186246435 0 0 0 0 -1.1110099084398826 8.1663639878152026 0 8.1663639878152026 -0.81763240578584373 0 0 0 0 -155.24882081038413 37.966125008968447 0 37.966125008968447 3.7797597028875316 0 0 0 0 -68.667745170102535 7.2048585538632324 0 7.2048585538632324 -8.7673074281701702 0 0 0 0 -75.469438979009851 59.913296382913472 0 59.913296382913472 -24.98361626094993 0 0 0 0 -70.353973867580862 56.289792194434995 0 56.289792194434995 -29.862193792256221 0 0 0 0 -109.82761985936304 101.80142147811239 0 101.80142147811239 -76.634409014077391 0 0 0 0 -51.81037354964792 55.48263364255854 0 55.48263364255854 -33.460649274747993 0 0 0 0 -65.482652921109548 65.293624715377518 0 65.293624715377518 -40.489130572454997 0 0 0 0 -69.7131513444956 53.796412882084951 0 53.796412882084951 -18.62882861412254 0 0 0 0 -83.028932193347828 62.617457070511591 0 62.617457070511591 -17.800399492618681 0 0 0 0 -59.693203936801183 41.082525541806717 0 41.082525541806717 -27.547299311243478 0 0 0 0 -4.9495916813157237 8.1312280876736622 0 8.1312280876736622 -5.3697711218810582 0 0 0 0 -9.4716520840702287 12.199173333595354 0 12.199173333595354 -3.7976280719376518 0 0 0 0 0.0027008537887169837 1.2049911123095072 0 1.2049911123095072 2.9141793546111359 0 0 0 0 -9.9239045514786994 5.4759879177090625 0 5.4759879177090625 -0.26488725691888249 0 0 0 0 -6.3207346932358632 8.0893718851802987 0 8.0893718851802987 3.4849735642528685 0 0 0 0 -6.2742664571565001 7.8838740320929901 0 7.8838740320929901 1.225932111061411 0 0 0 0 -9.4042019585876915 6.8822973455589818 0 6.8822973455589818 1.4178353647657786 0 0 0 0 -0.29518086639929564 0.63720340945338805 0 0.63720340945338805 1.6798426036891811 0 0 0 0 -11.323090941445116 11.442269796423261 0 11.442269796423261 -0.1751790876078303 0 0 0 0 -12.538966185727077 8.1914895525360407 0 8.1914895525360407 2.4759353090012155 0 0 0 0 1.1544584910748554 6.508386748060186 0 6.508386748060186 -6.3204056106322355 0 0 0 0 -2.5089040987855142 3.5802455743930484 0 3.5802455743930484 -1.4706174110572263 0 0 0 0 -1.9471812189276534 10.44009476228166 0 10.44009476228166 3.7677886427336489 0 0 0 0 -8.9319284248067561 21.803962440269061 0 21.803962440269061 28.97498125616039 0 0 0 0 -3.6065336594507915 1.5076285065845694 0 1.5076285065845694 9.3340132050964115 0 0 0 0 -4.8654930230695754 23.963327746867435 0 23.963327746867435 77.939562782783469 0 0 0 0 60.837044609292207 100.24127607995069 0 100.24127607995069 166.01079144942923 0 0 0 0 -0.44070961584027479 0.11657292435360045 0 0.11657292435360045 0.40391752315323259 0 0 0 0 52.854553227394717 47.048465983922142 0 47.048465983922142 67.020342600815638 0 0 0 0 -4.530348343316291 1.7366627541523485 0 1.7366627541523485 109.21502135242736 0 0 0 0 -1.2671006328455405 12.77127099275458 0 12.77127099275458 61.499250470409606 0 0 0 0 10.558795819173611 18.693694791906182 0 18.693694791906182 47.464241160581878 0 0 0 0 -6.6672593781677278 39.984699810129314 0 39.984699810129314 82.337487526032419 0 0 0 0 -32.345732757916267 9.439818998962437 0 9.439818998962437 91.71141750516108 0 0 0 0 -11.30619768055567 0.52111105189942464 0 0.52111105189942464 34.595697556094819 0 0 0 0 -22.685101438567472 -0.77289630753148231 0 -0.77289630753148231 52.060170142522111 0 0 0 0 -6.364847018697219 -18.977984084691343 0 -18.977984084691343 -34.104829962227086 0 0 0 0 -46.854518539674245 -27.402522759637577 0 -27.402522759637577 29.396567387354935 0 0 0 0 -32.246236740043059 16.873389579085597 0 16.873389579085597 -23.634714628859001 0 0 0 0 -24.734872706463648 8.0176611070583022 0 8.0176611070583022 -63.578946238350909 0 0 0 0 -30.026421634129065 38.108852766323025 0 38.108852766323025 -175.30256891509998 0 0 0 0 -119.81726385666479 -37.711159754773689 0 -37.711159754773689 -44.091252419746525 0 0 0 0 -122.69041837893647 119.94987888873632 0 119.94987888873632 -55.80847709182126 0 0 0 0 -40.15742987481417 13.515737736775009 0 13.515737736775009 16.258976748387795 0 0 0 0 -19.418657767026161 16.770168409813778 0 16.770168409813778 -15.690261019655736 0 0 0 0 -37.409195691916466 -7.4561891091907455 0 -7.4561891091907455 58.864483976220072 0 0 0 0 -16.403991459625104 -9.8857618126130546 0 -9.8857618126130546 6.1206977759520669 0 0 0 0 -48.950185806364061 31.126468464925892 0 31.126468464925892 73.202659649745328 0 0 0 0 -4.9884968878322979 33.797877989822155 0 33.797877989822155 108.01039400037189 0 0 0 0 8.8176633940238389 61.938911323035427 0 61.938911323035427 9.1051165144235711 0 0 0 0 54.982523965896689 48.600701078945349 0 48.600701078945349 -1.053473081359698 0 0 0 0 13.739073239188656 111.85220787157596 0 111.85220787157596 -71.936278822922759 0 0 0 0 -23.292621132732165 43.966170213338046 0 43.966170213338046 2.2134374957367982 0 0 0 0 0.57365029860375216 134.14343874584301 0 134.14343874584301 -199.16744502983784 0 0 0 0 17.681437748502503 84.886667141110593 0 84.886667141110593 -86.704170949065883 0 0 0 0 39.803083675285052 83.564387827349037 0 83.564387827349037 -134.38909480846269 0 0 0 0 110.49903963589986 31.112087907705245 0 31.112087907705245 -151.49820791242746 0 0 0 0 -6.0700399602683319 21.720295502555018 0 21.720295502555018 -1.4878617127797042 0 0 0 0 -0.27824574582710682 1.1926081283753227 0 1.1926081283753227 -0.43531357781621693 0 0 0 0 18.095409461500822 3.7978129509592691 0 3.7978129509592691 -215.70382645356221 0 0 0 0 57.59164480279378 -16.493867731275714 0 -16.493867731275714 -58.641139678322361 0 0 0 0 36.759539986191157 80.840304613936041 0 80.840304613936041 -43.91597523263772 0 0 0 0 -51.834139213387971 31.921038219807087 0 31.921038219807087 -70.487977232918638 0 0 0 0 -52.763818670819091 33.837640427570477 0 33.837640427570477 -13.689905120940239 0 0 0 0 -92.893223510937787 39.318741352791221 0 39.318741352791221 -14.059093383664731 0 0 0 0 -0.21152048105133048 0.53948790026322513 0 0.53948790026322513 -0.53337100141619231 0 0 0 0 37.543068384457001 123.75242330511901 0 123.75242330511901 -9.7570309739303411 0 0 0 0 -56.406356307672468 80.79091891988719 0 80.79091891988719 -28.718485990764748 0 0 0 0 -44.880074103714833 -37.496241962663589 0 -37.496241962663589 -37.591354998836323 0 0 0 0 -113.90070369336036 24.085370378960761 0 24.085370378960761 30.52800818175092 0 0 0 0 2.3556001027518505 46.832007712078848 0 46.832007712078848 28.0382296950213 0 0 0 0 31.12985615398793 75.591385245356832 0 75.591385245356832 165.45820309522242 0 0 0 0 -1.2022254111206436 1.074890244277892 0 1.074890244277892 0.012620773715344313 0 0 0 0 -0.78434245028256555 -27.357810495272133 0 -27.357810495272133 9.8101098045772233 0 0 0 0 4.0488735623112007 98.987476470690126 0 98.987476470690126 150.06313832115484 0 0 0 0 -22.947112456738978 -1.8110511923568993 0 -1.8110511923568993 13.357900824677927 0 0 0 0 27.334581878198151 -22.050263299750441 0 -22.050263299750441 20.774434675697194 0 0 0 0 -8.8597031993402311 15.535049238388586 0 15.535049238388586 -2.8479444136257275 0 0 0 0 8.3518018453323748 35.128405812546589 0 35.128405812546589 -0.80312459227945965 0 0 0 0 -20.423214173735687 -7.0710607720047847 0 -7.0710607720047847 65.251790637161321 0 0 0 0 -44.950907176480541 28.58888256159662 0 28.58888256159662 59.693845407634853 0 0 0 0 -6.6357386652461443 15.355283805220949 0 15.355283805220949 -2.163592792657389 0 0 0 0 -72.121512274318775 45.934204129161117 0 45.934204129161117 87.105335606958761 0 0 0 0 -38.418523978711164 33.127433747980831 0 33.127433747980831 61.256274926105561 0 0 0 0 -47.877109420700435 39.718028782088368 0 39.718028782088368 22.069959746508175 0 0 0 0 0.14118824580873479 22.710853997885351 0 22.710853997885351 62.842122616350935 0 0 0 0 -36.603172321447346 29.721109603451623 0 29.721109603451623 -20.437239593768027 0 0 0 0 -0.4146661098236919 -0.095576303768808657 0 -0.095576303768808657 0.99466546696215374 0 0 0 0 10.580025734754599 -9.1712850669900945 0 -9.1712850669900945 31.578873958168515 0 0 0 0 -1.7752729138486671 -0.1954385027201857 0 -0.1954385027201857 1.1326582061631569 0 0 0 0 -7.2709721000101126 17.141537310304557 0 17.141537310304557 56.332709282724863 0 0 0 0 61.130173648023629 10.968800227092288 0 10.968800227092288 23.78597742677448 0 0 0 0 -2.6254604171925493 15.475712561915838 0 15.475712561915838 -4.0907014628874077 0 0 0 0 0.12581791067562698 -0.063295534094237382 0 -0.063295534094237382 0.3257746565535129 0 0 0 0 -25.291472288852674 94.774192199882236 0 94.774192199882236 -9.6709256095427918 0 0 0 0 219.80783608347701 -2.0139030556722446 0 -2.0139030556722446 -72.315754048930103 0 0 0 0 -84.942228371233796 71.995378583533238 0 71.995378583533238 4.9060594187467359 0 0 0 0 -59.371233531239341 66.227544069144642 0 66.227544069144642 -2.9109196415301994 0 0 0 0 -93.21860209974011 75.639687666608097 0 75.639687666608097 -12.557205902034184 0 0 0 0 -21.946857976333717 31.368361455096988 0 31.368361455096988 15.979801556597522 0 0 0 0 -47.972673961005057 16.632772297718475 0 16.632772297718475 41.995155719174363 0 0 0 0 -72.716202435422019 43.941505630875326 0 43.941505630875326 36.240551796484851 0 0 0 0 -67.775019479533512 46.453000527846598 0 46.453000527846598 -31.621128714348743 0 0 0 0 -49.480023832819597 21.251824574938667 0 21.251824574938667 -3.2113735284656286 0 0 0 0 -48.285475855302138 35.128269084339991 0 35.128269084339991 -84.617523386148605 0 0 0 0 7.392547696944348 4.0172011549816489 0 4.0172011549816489 -36.697647807583053 0 0 0 0 -24.068593165591665 33.160155000745362 0 33.160155000745362 -20.782919465409577 0 0 0 0 -0.080851821982097505 0.85909006277790212 0 0.85909006277790212 1.6465557944794682 0 0 0 0 38.7950054289131 65.748247409553642 0 65.748247409553642 6.6830014746592497 0 0 0 0 84.626372694609927 31.204079316666139 0 31.204079316666139 -3.1233310619172698 0 0 0 0 80.756637196909651 -57.185613022913458 0 -57.185613022913458 -37.343445901397899 0 0 0 0 -19.475872485971195 51.66027206196577 0 51.66027206196577 4.3685498589547933 0 0 0 0 -1.753934108040994 26.005140806749296 0 26.005140806749296 20.453256091908088 0 0 0 0 -0.13829508458002238 6.637698294330221 0 6.637698294330221 -4.4232160717438092 0 0 0 0 9.4588205360760185 14.867252098281369 0 14.867252098281369 -11.135695148805098 0 0 0 0 -0.70776195745461479 0.15098997132321657 0 0.15098997132321657 -0.034318796316989086 0 0 0 0 2.1218418912685593 36.673680945097658 0 36.673680945097658 -105.42087520649261 0 0 0 0 -3.8668957122041547 4.4211502812281651 0 4.4211502812281651 -28.334793197733234 0 0 0 0 -0.971699241999886 13.082584565296202 0 13.082584565296202 3.590561684275599 0 0 0 0 -3.6116144838608477 9.9403749264439902 0 9.9403749264439902 -2.0934377575779202 0 0 0 0 -28.069665831179009 18.943937784848458 0 18.943937784848458 5.4285950594749011 0 0 0 0 -22.284516256022471 5.9169293080522039 0 5.9169293080522039 11.14766111719041 0 0 0 0 57.037535884377576 76.767858482253359 0 76.767858482253359 23.106619391001004 0 0 0 0 -2.2110191367664811 5.5648897141122688 0 5.5648897141122688 7.6535685547887624 0 0 0 0 -4.5567893039192242 1.2548158954943709 0 1.2548158954943709 5.9194730018846897 0 0 0 0 -1.4322153000448452 10.54709437936981 0 10.54709437936981 4.4344752295919534 0 0 0 0 -0.83882543675699139 8.2770252254976846 0 8.2770252254976846 -3.4378735900032815 0 0 0 0 0.9082366183938575 10.33279629928802 0 10.33279629928802 2.6031337381609774 0 0 0 0 2.2271265162453346 6.7292299108403313 0 6.7292299108403313 3.1946485718308395 0 0 0 0 3.9354249708048883 6.3341906997075057 0 6.3341906997075057 0.32438176333744195 0 0 0 0 -1.559949327019936 4.2189237276501466 0 4.2189237276501466 -0.21480632456425752 0 0 0 0 0.36138300747457208 4.1025194986827067 0 4.1025194986827067 -2.3068804416474986 0 0 0 0 1.3591022785080895 5.2536779299186946 0 5.2536779299186946 0.68683368365236674 0 0 0 0 0.10992156831343891 5.6213666115991145 0 5.6213666115991145 6.3744706131392377 0 0 0 0 1.353426405831101 5.347677197208327 0 5.347677197208327 -0.84694703195236798 0 0 0 0 -0.53444573936297246 3.1983769124541714 0 3.1983769124541714 -1.0276713350624149 0 0 0 0 0.96564314482384361 6.25311250533764 0 6.25311250533764 -0.36719396496482659 0 0 0 0 -16.128867786377668 -8.9770849074984653 0 -8.9770849074984653 -6.9625735345503017 0 0 0 0 -1.0181891713109508 26.299317607104967 0 26.299317607104967 -71.213402407413014 0 0 0 0 -0.07020922661758533 0.84506131600404899 0 0.84506131600404899 0.19312209150392512 0 0 0 0 1.1079000328599307 2.2037868062816983 0 2.2037868062816983 1.0035742595441768 0 0 0 0 -0.80110588458592247 25.678638893679818 0 25.678638893679818 -69.776366663718363 0 0 0 0 -9.4263558243837906 22.167399368405313 0 22.167399368405313 -70.057020838386961 0 0 0 0 15.708636108261999 10.654425008190628 0 10.654425008190628 -6.6446490751795864 0 0 0 0 10.296299828654739 2.3684579818362934 0 2.3684579818362934 -0.53371386356799455 0 0 0 0 -22.381066364137951 27.467915596942476 0 27.467915596942476 -63.269255220704508 0 0 0 0 13.703540115002397 8.9477210212403406 0 8.9477210212403406 -2.9260135126496607 0 0 0 0 1.1193500801188776 7.3084317394563598 0 7.3084317394563598 2.1771603383668241 0 0 0 0 1.5532426545687485 1.9532729194652347 0 1.9532729194652347 -2.7688448186954702 0 0 0 0 3.6211905218115135 4.3890967347815604 0 4.3890967347815604 -1.7040983469123603 0 0 0 0 0.27167131064561545 5.380034210784288 0 5.380034210784288 0.082848922080302145 0 0 0 0 2.0172095103189349 6.4556386890799331 0 6.4556386890799331 0.40278796688289731 0 0 0 0 -0.19409729916737462 -0.51507126297926931 0 -0.51507126297926931 -0.86468484379235022 0 0 0 0 -11.226034414637979 33.205355068601875 0 33.205355068601875 -68.388732749395786 0 0 0 0 -14.590041769142772 34.684530426698075 0 34.684530426698075 -66.70335120164782 0 0 0 0 2.6446069793710194 -8.3469768291870423 0 -8.3469768291870423 2.6863694166313508 0 0 0 0 -9.7338637613938772 29.868503365887591 0 29.868503365887591 -63.40917576774882 0 0 0 0 -15.970527614714229 29.508397933487686 0 29.508397933487686 -62.452066432029824 0 0 0 0 -8.7148434372575139 29.474441597940313 0 29.474441597940313 -63.286206521428539 0 0 0 0 -9.6940741590660764 26.250390682582292 0 26.250390682582292 -59.494125501183589 0 0 0 0 -8.8156450851820409 28.302963767931942 0 28.302963767931942 -56.650213836859621 0 0 0 0 -13.292514841228694 27.135469625320184 0 27.135469625320184 -69.791710985567988 0 0 0 0 -10.612391803309947 31.201336284888839 0 31.201336284888839 -64.610661579521548 0 0 0 0 -13.756325155336526 21.264848582464765 0 21.264848582464765 -59.837331667619765 0 0 0 0 -17.329711325211065 33.827068656010169 0 33.827068656010169 -58.563118161840976 0 0 0 0 -7.5679812764055896 25.022276583361645 0 25.022276583361645 -59.952503282289399 0 0 0 0 -10.09242533473298 15.745027435281372 0 15.745027435281372 -42.014959586655095 0 0 0 0 -8.7578731962094025 24.076000201703209 0 24.076000201703209 -39.178569908027384 0 0 0 0 -8.284087898384314 26.667319134610807 0 26.667319134610807 -54.72601603246585 0 0 0 0 -6.402422237247265 19.273843551464552 0 19.273843551464552 -51.641140248026204 0 0 0 0 -7.7183662000875302 22.728692831047738 0 22.728692831047738 -35.085439897058677 0 0 0 0 -5.6783950791209463 12.698373528969 0 12.698373528969 -33.595784639837802 0 0 0 0 -0.9812347322331334 7.9523103533347239 0 7.9523103533347239 -22.201684699834004 0 0 0 0 -6.864740697103116 23.765863098014961 0 23.765863098014961 -32.405626623940407 0 0 0 0 -11.221008202035591 20.535916064222874 0 20.535916064222874 -22.585119308343565 0 0 0 0 -9.4884986312536057 18.17036121314959 0 18.17036121314959 -22.735161002824611 0 0 0 0 -7.6586364712820796 21.554209983500186 0 21.554209983500186 -20.347641452721291 0 0 0 0 -7.7507659391085326 14.460689180773443 0 14.460689180773443 -23.086948587465486 0 0 0 0 -4.8389636154988693 21.344997439688086 0 21.344997439688086 -48.868034998060466 0 0 0 0 -8.4882146276650019 20.826991126004941 0 20.826991126004941 -34.229929489509232 0 0 0 0 -6.033191975844602 26.060614084375629 0 26.060614084375629 -49.076513154515851 0 0 0 0 -5.994621916765027 25.014620723115513 0 25.014620723115513 -49.45627487628326 0 0 0 0 -3.8860860332533775 28.704178710647284 0 28.704178710647284 -60.924150585073221 0 0 0 0 -7.9988317897805246 25.149680725802682 0 25.149680725802682 -48.16595152498212 0 0 0 0 -4.4225979770671984 25.882163902732827 0 25.882163902732827 -58.879135838058573 0 0 0 0 -5.4890633912746125 24.542518702641246 0 24.542518702641246 -58.662640438153176 0 0 0 0 -3.1654260363720823 24.788247694870734 0 24.788247694870734 -69.00609075131797 0 0 0 0 -11.480225623185106 26.40542732564154 0 26.40542732564154 -57.928902247898804 0 0 0 0 -5.3622041578237258 25.868168238110229 0 25.868168238110229 -62.792090176772035 0 0 0 0 -7.0875746518358937 24.730703351312513 0 24.730703351312513 -59.312273807630845 0 0 0 0 -14.682136253584758 24.256937692087376 0 24.256937692087376 -63.061686538844697 0 0 0 0 -2.8498505627776467 25.846275915926526 0 25.846275915926526 -62.144784818752669 0 0 0 0 -2.1592826508640428 25.938840495700788 0 25.938840495700788 -65.897353630865837 0 0 0 0 -2.434936220808595 26.43048522031313 0 26.43048522031313 -65.656419831324456 0 0 0 0 -7.9790490600389603 36.890285950288671 0 36.890285950288671 -65.970603228933214 0 0 0 0 -0.4269776724249823 28.271275863522533 0 28.271275863522533 -66.204845670714349 0 0 0 0 -19.507171947998359 35.482758266667588 0 35.482758266667588 -43.985297884326428 0 0 0 0 -0.38365326759594609 29.429665458941599 0 29.429665458941599 -69.704019554700608 0 0 0 0 -12.965694725517096 31.908820395894509 0 31.908820395894509 -46.846961594069853 0 0 0 0 -5.0982906716744765 28.250241934527821 0 28.250241934527821 -48.488205519872281 0 0 0 0 -10.375444525261628 23.795144122504553 0 23.795144122504553 -32.924148714660987 0 0 0 0 -8.3549317406723276 22.738334373176258 0 22.738334373176258 -32.974815533376272 0 0 0 0 -13.936698768550059 24.13749590129089 0 24.13749590129089 -29.685349979958119 0 0 0 0 -13.695504821031136 24.653831422852818 0 24.653831422852818 -29.536009645507875 0 0 0 0 -21.514232537228963 24.963519328192888 0 24.963519328192888 -13.283544082869412 0 0 0 0 -15.830421632341313 23.499651249715498 0 23.499651249715498 -17.793194969781325 0 0 0 0 -10.276827558416699 19.432719081583855 0 19.432719081583855 -17.517961954143175 0 0 0 0 -37.941182327995193 28.981610647231719 0 28.981610647231719 -20.07634046297153 0 0 0 0 -16.817559146475105 10.181885999184487 0 10.181885999184487 -4.4697234643317643 0 0 0 0 -17.293951076461781 28.578413991694788 0 28.578413991694788 -35.133396663200983 0 0 0 0 -60.313906783450875 64.780025304005449 0 64.780025304005449 -63.233802895801091 0 0 0 0 -55.919086587884522 -6.4122867907944965 0 -6.4122867907944965 -0.46246795702427335 0 0 0 0 -3.9377097445885738 47.572455065626855 0 47.572455065626855 -104.75691049261786 0 0 0 0 -0.87660335032912684 1.2840341698984732 0 1.2840341698984732 0.17665133226085139 0 0 0 0 27.858655041945894 9.7898141653913626 0 9.7898141653913626 -96.024809892658595 0 0 0 0 0.64089573056844529 27.97448241400707 0 27.97448241400707 -70.061584055078811 0 0 0 0 2.2617564005231543 28.873597881703972 0 28.873597881703972 -69.773080159571691 0 0 0 0 1.5024606204169686 1.7560313919639157 0 1.7560313919639157 2.7715874621280818 0 0 0 0 1.2361881494897915 3.2430231311177948 0 3.2430231311177948 2.477907790267146 0 0 0 0 0.00028411003887640618 3.682027960648611 0 3.682027960648611 5.9489367437327019 0 0 0 0 -19.757771814682201 -7.1234171380674525 0 -7.1234171380674525 -0.67293567943670496 0 0 0 0 -0.070764029990534993 0.052649321232497215 0 0.052649321232497215 0.57283202731553295 0 0 0 0 -59.843764301796909 25.874470514955192 0 25.874470514955192 18.654986971252583 0 0 0 0 -19.849236868141816 21.183015526369218 0 21.183015526369218 27.898144134036556 0 0 0 0 1.1359279437665464 47.135991809327379 0 47.135991809327379 -20.679670417437592 0 0 0 0 -89.748350686586491 44.377894364089343 0 44.377894364089343 10.458821555739632 0 0 0 0 -38.034635078467545 40.502269323016662 0 40.502269323016662 7.4089644723003403 0 0 0 0 34.925601730503388 26.782587292408707 0 26.782587292408707 -25.146976231053486 0 0 0 0 34.202308491410804 45.131054499443053 0 45.131054499443053 -25.2832181100448 0 0 0 0 -17.216718753422356 84.555636332873746 0 84.555636332873746 -52.428648987096494 0 0 0 0 -18.066236096772627 -36.899372972522542 0 -36.899372972522542 -44.108798346994718 0 0 0 0 -86.062884042579299 17.652371399079811 0 17.652371399079811 -15.39402753250215 0 0 0 0 -24.759474051938923 -6.9781218834693846 0 -6.9781218834693846 -10.264447039209699 0 0 0 0 -10.026144099027078 4.0694313449066613 0 4.0694313449066613 -5.3395231671474903 0 0 0 0 -2.0678545079897503 -17.699601177193472 0 -17.699601177193472 -13.937609780550702 0 0 0 0 29.415206043870057 22.496318716208862 0 22.496318716208862 3.3720956558099715 0 0 0 0 39.67278589318903 6.7692594197033031 0 6.7692594197033031 -31.651905644741419 0 0 0 0 20.915772219662358 11.075971238326474 0 11.075971238326474 -6.2335016050074046 0 0 0 0 20.234196297190465 6.078056563206701 0 6.078056563206701 -10.701017039767521 0 0 0 0 -0.30364110829032143 4.610233637960846 0 4.610233637960846 -0.57493758737655298 0 0 0 0 0.38291485050577379 2.7689201184769807 0 2.7689201184769807 1.9838848890633169 0 0 0 0 0.63623217322557313 3.6895448454048587 0 3.6895448454048587 0.062336228551359341 0 0 0 0 -0.50981504920946463 4.4390264392950485 0 4.4390264392950485 -0.50683471906222621 0 0 0 0 2.6562387140129431 4.3397375195650056 0 4.3397375195650056 -1.5841000634500233 0 0 0 0 -0.10093466911712312 4.4284241685109009 0 4.4284241685109009 -0.61873923505663697 0 0 0 0 -1.9941493728633226 3.8714008911798805 0 3.8714008911798805 -2.7660644779948704 0 0 0 0 0.74038305671013194 3.0715694962674807 0 3.0715694962674807 -1.7246893131741317 0 0 0 0 2.1993516927087171 4.4523733361405675 0 4.4523733361405675 -1.5615328877065622 0 0 0 0 2.9606326387439594 4.6613870279761045 0 4.6613870279761045 -1.8229875504803204 0 0 0 0 2.2299811677712569 5.188036767786798 0 5.188036767786798 -1.8944699037310784 0 0 0 0 4.7531836242246754 4.9230131437984497 0 4.9230131437984497 -4.4863635129616846 0 0 0 0 7.8985717136602034 15.045820547145922 0 15.045820547145922 15.81223664103527 0 0 0 0 14.077570791956532 13.167586555187881 0 13.167586555187881 -28.566543619816912 0 0 0 0 0.16707769180128906 0.92699426187765965 0 0.92699426187765965 -0.17556768887592789 0 0 0 0 -0.60800419371844328 7.7073438568017991 0 7.7073438568017991 12.165566330058937 0 0 0 0 1.7960505667051621 19.8517885393303 0 19.8517885393303 -16.743667372098571 0 0 0 0 -22.463049211946782 18.563920250569936 0 18.563920250569936 -17.813127900928521 0 0 0 0 -5.4791435559272941 11.577752384895575 0 11.577752384895575 -14.948588972483776 0 0 0 0 -3.4758302259924676 12.528178765727262 0 12.528178765727262 -14.534076463267411 0 0 0 0 -3.5337681989264365 9.9075431652936246 0 9.9075431652936246 -9.8798073599060494 0 0 0 0 0.45799090360014816 11.289656105861468 0 11.289656105861468 -1.8514235065700859 0 0 0 0 -4.5722187300170845 16.577325644527718 0 16.577325644527718 -13.620290784079771 0 0 0 0 -14.352215466984489 18.849170039880846 0 18.849170039880846 -11.175935521911015 0 0 0 0 8.7120992900818237 1.3729841468230006 0 1.3729841468230006 -4.7433397962759045 0 0 0 0 0.80931554484211987 -0.3665223840752887 0 -0.3665223840752887 -0.037821786895019471 0 0 0 0 -7.2123080252531508 27.653188170773319 0 27.653188170773319 49.620285868184283 0 0 0 0 3.2684526243829168 14.650860271770398 0 14.650860271770398 21.986682707170985 0 0 0 0 5.2610514730367868 34.450143781968109 0 34.450143781968109 40.899471424094372 0 0 0 0 16.514441756437009 44.778646071841649 0 44.778646071841649 51.903131310405115 0 0 0 0 -0.06642977217961743 29.545267138641975 0 29.545267138641975 52.44659844702619 0 0 0 0 9.4841960802368703 34.952544716770717 0 34.952544716770717 74.583366120305072 0 0 0 0 28.980648553782885 29.060978740236351 0 29.060978740236351 52.437693861198568 0 0 0 0 1.5583005295969059 0.83107467291218562 0 0.83107467291218562 -1.5849526321703316 0 0 0 0 43.431949528290716 83.280646909201437 0 83.280646909201437 64.850306261530932 0 0 0 0 14.233155508229174 45.937585010916337 0 45.937585010916337 34.058873656478681 0 0 0 0 -26.067580877606815 42.324705067481773 0 42.324705067481773 -8.5708472520409487 0 0 0 0 4.830195692487905 38.64400419483718 0 38.64400419483718 -58.388381313845457 0 0 0 0 -1.4462341728103638 16.313863558784078 0 16.313863558784078 14.076904763598577 0 0 0 0 12.602534617482888 52.381729776717748 0 52.381729776717748 -3.283919384215551 0 0 0 0 -10.761515448895807 29.455491452652495 0 29.455491452652495 -12.84946021730002 0 0 0 0 -18.667480580998017 -0.86528979261220229 0 -0.86528979261220229 -15.881245704219509 0 0 0 0 -7.8547250728370273 28.547202502761138 0 28.547202502761138 10.171507284824656 0 0 0 0 -0.045647978583474469 1.9308896181903492 0 1.9308896181903492 4.1550412287851941 0 0 0 0 2.1286606056073651 22.965074011669458 0 22.965074011669458 -18.080907562793072 0 0 0 0 3.8402101517131086 5.4120433931825573 0 5.4120433931825573 -16.479086744567212 0 0 0 0 -0.0025076263918890618 27.125258270194536 0 27.125258270194536 8.8203391614874818 0 0 0 0 -6.2613056514619529 13.694638752276092 0 13.694638752276092 44.12290892135934 0 0 0 0 1.2608651616719726 26.825684137382268 0 26.825684137382268 19.3139338849669 0 0 0 0 -0.42485540788402432 11.398998014027711 0 11.398998014027711 49.049298289810395 0 0 0 0 8.7422794106603305 36.139278524101712 0 36.139278524101712 54.436749735381454 0 0 0 0 4.7744124366654432 29.986288663156301 0 29.986288663156301 82.074622330984312 0 0 0 0 10.727194345865428 17.563806898548137 0 17.563806898548137 42.101443339760181 0 0 0 0 -0.40015588954992865 -0.058183358180936118 0 -0.058183358180936118 0.20108404711056593 0 0 0 0 -97.625942252127061 101.80253820422558 0 101.80253820422558 -133.89255969800433 0 0 0 0 0.0070864765912211228 23.993324567652785 0 23.993324567652785 62.739576871221288 0 0 0 0 -0.5192662338754559 0.08311138736382695 0 0.08311138736382695 0.16315939485633635 0 0 0 0 36.040632298459968 15.844781152460655 0 15.844781152460655 -15.712765756815315 0 0 0 0 -2.876853392597372 3.3803054650122686 0 3.3803054650122686 -3.3888894960563789 0 0 0 0 -8.280295353179099 -18.1894708048967 0 -18.1894708048967 -11.505828449297496 0 0 0 0 131.35263670598943 128.81011311118436 0 128.81011311118436 48.138021761401433 0 0 0 0 99.054747365544245 -19.135006414978307 0 -19.135006414978307 60.112635841331212 0 0 0 0 30.532195850344579 42.463761184599207 0 42.463761184599207 51.397479714240035 0 0 0 0 11.014691366834086 55.150694388123156 0 55.150694388123156 76.484311506086669 0 0 0 0 0.48761382890916138 0.67465224175147886 0 0.67465224175147886 -1.1006130589694472 0 0 0 0 22.866862848356504 8.73822246215218 0 8.73822246215218 -16.693272574561888 0 0 0 0 95.950781691106386 179.69897068792579 0 179.69897068792579 14.323528263499611 0 0 0 0 -3.7390053570135819 3.7758525343890108 0 3.7758525343890108 -2.6688057791029145 0 0 0 0 115.52902939806154 39.986286973906999 0 39.986286973906999 27.388974884528579 0 0 0 0 -14.588126196507801 57.102688604532887 0 57.102688604532887 93.906269397455617 0 0 0 0 -22.833973521786902 -34.973677760174667 0 -34.973677760174667 -92.029991941424669 0 0 0 0 6.9534421257849317 30.124758432015369 0 30.124758432015369 127.42084722697473 0 0 0 0 71.909210019854072 21.006969239255341 0 21.006969239255341 1.9692565117547929 0 0 0 0 -105.16728561145283 -23.580993051178666 0 -23.580993051178666 41.617399468206713 0 0 0 0 -164.07187607019659 13.242646307511677 0 13.242646307511677 36.528023075314422 0 0 0 0 -146.24647354555782 75.079104012404059 0 75.079104012404059 -27.331714668990571 0 0 0 0 -74.085689116411231 24.938929904530596 0 24.938929904530596 3.2258239973234595 0 0 0 0 -48.70621061663951 56.599163350145318 0 56.599163350145318 -99.879423913625942 0 0 0 0 -72.574645463522756 39.305977546429858 0 39.305977546429858 -25.852468004051843 0 0 0 0 0.18566187723627081 8.8384410502949322 0 8.8384410502949322 -53.260037373122032 0 0 0 0 -2.314226636103335 -0.6768444356165304 0 -0.6768444356165304 0.33970522146449866 0 0 0 0 35.179797341240373 -69.387311663596392 0 -69.387311663596392 24.991276334374561 0 0 0 0 129.22263303348518 55.008367757529413 0 55.008367757529413 -100.66609579257783 0 0 0 0 -50.419027188589098 78.296886620501027 0 78.296886620501027 -40.972664043654731 0 0 0 0 4.700972914484737 62.117360855469087 0 62.117360855469087 -36.985868519814176 0 0 0 0 -39.95695306116977 -4.5824846714931482 0 -4.5824846714931482 27.232566524226058 0 0 0 0 -71.189751615660498 -27.716314670778956 0 -27.716314670778956 13.493830793469897 0 0 0 0 -63.104422618354874 -1.2401609434764396 0 -1.2401609434764396 109.10455969228133 0 0 0 0 -78.97602143617587 -25.771218997386313 0 -25.771218997386313 74.24615584869025 0 0 0 0 -62.498148897717329 -70.34805317257451 0 -70.34805317257451 45.650228725389752 0 0 0 0 -29.234139151405543 138.69995252398621 0 138.69995252398621 253.98611472281482 0 0 0 0 -35.474089927345631 0.12935422973168897 0 0.12935422973168897 88.037141101118323 0 0 0 0 -48.756248964829865 185.44598019120895 0 185.44598019120895 -99.430529161141749 0 0 0 0 -178.55366518841402 -54.69225372148685 0 -54.69225372148685 102.16726369684238 0 0 0 0 3.4232617397092326 8.0707329647980259 0 8.0707329647980259 -28.045766896029818 0 0 0 0 -17.240820054244978 -1.1605781807074891 0 -1.1605781807074891 -5.3342221820676059 0 0 0 0 12.377167143285078 6.2247059945329966 0 6.2247059945329966 -31.232549779194414 0 0 0 0 -4.0278750417076346 6.7532804271353708 0 6.7532804271353708 -13.314165543622003 0 0 0 0 -3.0071814127074958 1.0574637425816036 0 1.0574637425816036 -14.503480667886834 0 0 0 0 21.555981461267947 -11.96600241118449 0 -11.96600241118449 -22.565064829715993 0 0 0 0 -125.7994113031782 99.895783938198292 0 99.895783938198292 20.82861024653721 0 0 0 0 -5.0438855124076127 1.7711925506113282 0 1.7711925506113282 -3.9859850132650063 0 0 0 0 0.36056278107831474 1.0493155244210186 0 1.0493155244210186 -2.5255496336690513 0 0 0 0 -33.226438551544561 37.299328096567478 0 37.299328096567478 5.2075513832605793 0 0 0 0 -61.476086844828387 71.496166796016951 0 71.496166796016951 -20.703535859767726 0 0 0 0 -57.295633093817742 61.112900696971792 0 61.112900696971792 -17.835901769452903 0 0 0 0 -1.948650899454627 2.598917199290419 0 2.598917199290419 -4.4873597122099733 0 0 0 0 4.122117331602567 15.288027789993066 0 15.288027789993066 -41.645742113620145 0 0 0 0 -6.8319493599456234 10.423373276923224 0 10.423373276923224 -15.602428492739165 0 0 0 0 -5.4219821289373158 23.566957156883007 0 23.566957156883007 -16.930692358331726 0 0 0 0 1.7102111520029837 1.5547869597487978 0 1.5547869597487978 -0.59814237345583976 0 0 0 0 -1.0099154814088251 13.61715925516819 0 13.61715925516819 4.1736917974831158 0 0 0 0 -4.1611503562304861 8.4238694211414877 0 8.4238694211414877 -3.3008428576684992 0 0 0 0 -2.5030146408814815 10.864863675805481 0 10.864863675805481 -12.152605600412304 0 0 0 0 30.179186730420042 -0.27561083647015039 0 -0.27561083647015039 -9.9442839269686374 0 0 0 0 6.5437590507826826 5.5189063123907545 0 5.5189063123907545 -8.6866218413051683 0 0 0 0 -12.4685425898424 -0.013976710219139932 0 -0.013976710219139932 -5.3329745359296794 0 0 0 0 -4.2759609194399673 3.3518653934588656 0 3.3518653934588656 9.7704510175008181 0 0 0 0 -21.10004419577308 25.776163457016082 0 25.776163457016082 -20.009671498974058 0 0 0 0 -14.871410538193231 14.924951532289469 0 14.924951532289469 -41.858015470934333 0 0 0 0 -22.564630911998393 30.54584118943967 0 30.54584118943967 -6.48741969502953 0 0 0 0 -43.508740289398702 61.257866785443184 0 61.257866785443184 -51.343581959612493 0 0 0 0 45.928707951243268 17.266935086548983 0 17.266935086548983 -9.0234518059387483 0 0 0 0 66.913088719311418 128.45529426450139 0 128.45529426450139 104.22684057939841 0 0 0 0 145.64426907484813 90.292564231753204 0 90.292564231753204 -58.339415425074549 0 0 0 0 39.883767107181484 33.354241608351003 0 33.354241608351003 58.461811668325936 0 0 0 0 88.420307616524951 -12.468621055678796 0 -12.468621055678796 -74.565010406835427 0 0 0 0 0.027784725117527387 -0.40202688094969652 0 -0.40202688094969652 0.41392771961180586 0 0 0 0 -14.78247673693113 14.609920938487448 0 14.609920938487448 23.514824900460326 0 0 0 0 -2.8696285359262426 5.5207630092520859 0 5.5207630092520859 0.70776772699565882 0 0 0 0 11.19409107352476 10.783912821669219 0 10.783912821669219 -12.62978118929459 0 0 0 0 2.0464307137293645 1.1111497524703067 0 1.1111497524703067 0.14913611582585951 0 0 0 0 -64.604162971227197 51.900464496167842 0 51.900464496167842 30.128788999591052 0 0 0 0 0.39366074872668833 14.071723112145264 0 14.071723112145264 -2.7886340764380293 0 0 0 0 -3.1484826980470544 3.3403280934812631 0 3.3403280934812631 -2.1066570161678193 0 0 0 0 -58.315754461229517 74.062793402600619 0 74.062793402600619 84.471479899297265 0 0 0 0 -63.078064831021038 4.7320976882729155 0 4.7320976882729155 110.03885954758516 0 0 0 0 -77.313196410788805 26.415312912964509 0 26.415312912964509 78.178399932779485 0 0 0 0 0.13877403149460577 -0.79612393692597472 0 -0.79612393692597472 0.21377773437230418 0 0 0 0 -7.1667409993060573 13.947779179576173 0 13.947779179576173 17.801160429580705 0 0 0 0 -14.648095298185581 56.468389961290995 0 56.468389961290995 -128.0243000364535 0 0 0 0 -67.908609400483328 76.504483425687795 0 76.504483425687795 223.18623569286683 0 0 0 0 -98.929867201601155 62.498151275167402 0 62.498151275167402 46.904980981754306 0 0 0 0 -73.295945306239446 14.374046827134407 0 14.374046827134407 16.454714600298757 0 0 0 0 -62.796777210442087 99.464625720651384 0 99.464625720651384 -53.139068388834858 0 0 0 0 -50.870874569402076 68.483566678482021 0 68.483566678482021 -22.064362376546342 0 0 0 0 -48.230822365279892 53.323856870267264 0 53.323856870267264 -21.532092145796923 0 0 0 0 -355.68408497809287 21.166019027852599 0 21.166019027852599 67.564372710700809 0 0 0 0 -222.13429496351455 200.30686140365651 0 200.30686140365651 132.91544855305074 0 0 0 0 37.6251972801183 31.946270884998739 0 31.946270884998739 101.60417168680124 0 0 0 0 79.268694095691899 19.112417943473702 0 19.112417943473702 -168.41861360026633 0 0 0 0 -82.696869591687573 191.15519276348823 0 191.15519276348823 -102.23083515998587 0 0 0 0 105.06342889650841 66.155905337944205 0 66.155905337944205 -64.846620768126741 0 0 0 0 23.961143583892408 124.08587097645704 0 124.08587097645704 -93.5194667572041 0 0 0 0 -1.5816463723788274 1.1659220333771483 0 1.1659220333771483 -0.47195556006455064 0 0 0 0 -1.066022994062223 31.616635685564688 0 31.616635685564688 62.749531899719216 0 0 0 0 -28.380631666765112 136.55960521309498 0 136.55960521309498 -114.51924257738119 0 0 0 0 -47.404152074646845 123.97696955614128 0 123.97696955614128 -87.194800360792215 0 0 0 0 31.729991195152252 -1.3696560763364687 0 -1.3696560763364687 -39.842463879818752 0 0 0 0 -132.93071844515634 47.160295577371926 0 47.160295577371926 -52.30786603110937 0 0 0 0 -8.6133686173561728 -56.850158924391508 0 -56.850158924391508 -76.942060686104014 0 0 0 0 -0.73857598741051333 -18.767936958037808 0 -18.767936958037808 -10.444748391217217 0 0 0 0 11.235177211672635 -25.141910890672079 0 -25.141910890672079 34.084852061233505 0 0 0 0 84.58363532794101 -11.588353272101813 0 -11.588353272101813 -48.576209530647247 0 0 0 0 14.874716985018495 96.053712477515319 0 96.053712477515319 -154.04772067984231 0 0 0 0 -3.2915705626292038 20.31657035756416 0 20.31657035756416 -12.454070692940604 0 0 0 0 22.116323690463105 24.238644907939261 0 24.238644907939261 -116.43438751887697 0 0 0 0 -21.089126675557054 34.959361379877919 0 34.959361379877919 -54.623739792707056 0 0 0 0 13.801234765169283 10.694307747153289 0 10.694307747153289 2.2787853244008147 0 0 0 0 16.422991472225476 14.759884875918033 0 14.759884875918033 5.0107070772173756 0 0 0 0 31.327434575570805 27.705572394550472 0 27.705572394550472 15.488630772894794 0 0 0 0 33.962302252504742 11.465912907760867 0 11.465912907760867 -6.5159175809731096 0 0 0 0 51.864917541999603 19.74783545414175 0 19.74783545414175 -8.6679961182799161 0 0 0 0 32.924148021182191 0.64307435325099505 0 0.64307435325099505 -23.394964088420238 0 0 0 0 37.211088062699673 13.886312606633055 0 13.886312606633055 2.6429388253673096 0 0 0 0 43.881878204506393 -5.1592696507022993 0 -5.1592696507022993 -31.488222801901429 0 0 0 0 86.357269975072995 39.304515406725841 0 39.304515406725841 -36.332331473011436 0 0 0 0 36.060021834553481 3.526012287258709 0 3.526012287258709 -40.166647782485541 0 0 0 0 23.744474724520842 -11.592559260011512 0 -11.592559260011512 -11.448070337200988 0 0 0 0 19.813444629129663 -15.795395208544505 0 -15.795395208544505 -0.87614833103998535 0 0 0 0 32.324976930172852 -20.558344936641333 0 -20.558344936641333 -39.114322808523639 0 0 0 0 35.631392638769739 -7.3868454276057491 0 -7.3868454276057491 -13.248570000774635 0 0 0 0 20.839369489021919 -5.3154518230912799 0 -5.3154518230912799 -11.163800149702183 0 0 0 0 11.152810321826109 3.3557411512665567 0 3.3557411512665567 -8.1317267775893924 0 0 0 0 13.008318545631482 8.0057042568732868 0 8.0057042568732868 -8.2375493743638799 0 0 0 0 19.188953911958379 4.2044368037259119 0 4.2044368037259119 -9.4778832557967689 0 0 0 0 19.644572746357881 11.704802197871686 0 11.704802197871686 -6.2425578029069584 0 0 0 0 -0.69069467855028677 -0.0069225688649439121 0 -0.0069225688649439121 0.28597285200873657 0 0 0 0 19.358557461477176 -46.453666055327631 0 -46.453666055327631 19.007549973490768 0 0 0 0 28.151322415651521 -16.75019687691838 0 -16.75019687691838 -32.437527587353543 0 0 0 0 -34.15820897181402 25.137627746011276 0 25.137627746011276 -59.902598058906733 0 0 0 0 -22.119840576377101 16.099458827141007 0 16.099458827141007 30.480757320430712 0 0 0 0 7.751239919618456 4.4619902495505812 0 4.4619902495505812 -18.430712602697895 0 0 0 0 44.462096639301308 -27.380572691808993 0 -27.380572691808993 -33.762050493390234 0 0 0 0 6.8780347531995361 1.2846927837080422 0 1.2846927837080422 0.20881577951350572 0 0 0 0 35.821841619434053 10.07081095972444 0 10.07081095972444 -61.444515812983809 0 0 0 0 2.8281037118176755 22.525787815010517 0 22.525787815010517 43.071590974843275 0 0 0 0 88.834498877962687 31.773544924532871 0 31.773544924532871 -39.24176519909588 0 0 0 0 8.5149007792642806 41.114773312100624 0 41.114773312100624 -98.195716074806114 0 0 0 0 -30.115291160083871 71.615914274958413 0 71.615914274958413 -87.969167755840317 0 0 0 0 23.094458610496076 -3.0333412779109494 0 -3.0333412779109494 -58.66389388459902 0 0 0 0 -19.685370642979251 19.17686911756573 0 19.17686911756573 -32.82127767883776 0 0 0 0 -1.081521176667593 27.646449244160067 0 27.646449244160067 -30.338409365479492 0 0 0 0 -5.7908756181368517 13.22736991220836 0 13.22736991220836 -5.0608941292957752 0 0 0 0 -194.36791874523624 496.71532169081911 0 496.71532169081911 -338.98779671197553 0 0 0 0 -0.65637374190299624 2.2611549351059814 0 2.2611549351059814 -1.6875643705754406 0 0 0 0 104.88664955979038 -70.471876546424028 0 -70.471876546424028 184.11182223952346 0 0 0 0 123.70287530280621 26.503587709386011 0 26.503587709386011 -12.554617091440377 0 0 0 0 -68.229578698330442 116.08916676797162 0 116.08916676797162 46.841377839022243 0 0 0 0 2.30046979371253 0.61953517076680598 0 0.61953517076680598 0.19882967077099067 0 0 0 0 57.659754770662403 -71.339985346793583 0 -71.339985346793583 58.821094866802923 0 0 0 0 49.304201665014261 44.404900100701525 0 44.404900100701525 -16.085957966409296 0 0 0 0 87.674914524361157 -1.9071028000080332 0 -1.9071028000080332 23.546485246190059 0 0 0 0 0.71603833929279403 0.67915170247470869 0 0.67915170247470869 -1.2323030015619594 0 0 0 0 75.73637730048722 70.139188642639056 0 70.139188642639056 -6.9048040978013887 0 0 0 0 5.0999510810615902 5.7907932989355686 0 5.7907932989355686 1.2230141233230825 0 0 0 0 1.8118501409195105 1.2275870240240376 0 1.2275870240240376 -5.1694094865246498 0 0 0 0 2.4639654001990259 3.0356449271124397 0 3.0356449271124397 -1.1381082800598534 0 0 0 0 -3.4938633677793405 -1.7892417901721274 0 -1.7892417901721274 -7.5247488928282564 0 0 0 0 -22.963063918361513 18.185961826061884 0 18.185961826061884 -9.7654866943541947 0 0 0 0 -26.379476004738535 16.061717230931208 0 16.061717230931208 -2.7544241152045288 0 0 0 0 -30.208010012893283 21.545018720952612 0 21.545018720952612 -5.1730587271840704 0 0 0 0 -34.518613578993609 46.88355169494298 0 46.88355169494298 -33.546160882441654 0 0 0 0 -70.221523728592729 43.539922537631355 0 43.539922537631355 -15.71336729387599 0 0 0 0 -28.949410505701962 -7.4027481621774314 0 -7.4027481621774314 -1.4254778846316185 0 0 0 0 -0.91046146427323293 0.69738320583562974 0 0.69738320583562974 -0.37524396133473203 0 0 0 0 -145.07824091302246 30.028680575676844 0 30.028680575676844 3.4334053501845574 0 0 0 0 -95.584232846075793 114.66695721640735 0 114.66695721640735 -108.73293996668326 0 0 0 0 -24.678374711731067 65.246241592690353 0 65.246241592690353 -85.89164371006882 0 0 0 0 -2.3744783605816338 20.180220772841494 0 20.180220772841494 -81.312089847500829 0 0 0 0 -23.437404712769421 28.991235730681638 0 28.991235730681638 -59.576111269647299 0 0 0 0 1.5471479968291533 22.821910108821612 0 22.821910108821612 -68.520072030826668 0 0 0 0 -106.89933124467825 51.202987000008306 0 51.202987000008306 -56.384572708730047 0 0 0 0 -21.317084937460095 21.286933647274964 0 21.286933647274964 -169.97900269026331 0 0 0 0 0.012844203849454061 29.171287804596886 0 29.171287804596886 -39.523997621294711 0 0 0 0 10.259710563331737 21.611354092817692 0 21.611354092817692 -65.730547931245383 0 0 0 0 1.9468379612371791 30.706570980401921 0 30.706570980401921 -58.397550202978891 0 0 0 0 0.60738117066256336 6.0076204007168315 0 6.0076204007168315 -40.785902837520553 0 0 0 0 -3.0669059184438083 41.193188692641343 0 41.193188692641343 -64.565885898495651 0 0 0 0 0.004388031948110438 32.718380954724125 0 32.718380954724125 -50.690563847299927 0 0 0 0 -10.232127353238866 40.414823795331813 0 40.414823795331813 -44.109973489037657 0 0 0 0 -26.347105936887601 35.43012331290447 0 35.43012331290447 -27.082212040594641 0 0 0 0 -9.7863691629554523 34.189930834416373 0 34.189930834416373 -40.167228580549136 0 0 0 0 -9.9764274127285262 35.509699552881045 0 35.509699552881045 -41.048759362668534 0 0 0 0 -0.013603774832517956 25.932557427959182 0 25.932557427959182 -33.017573418720986 0 0 0 0 -12.400312734242107 25.044001982918871 0 25.044001982918871 -23.34564105192112 0 0 0 0 -12.000632525011724 21.120165001185768 0 21.120165001185768 -14.565221171809753 0 0 0 0 -18.959438117661193 18.321674179264846 0 18.321674179264846 -13.88841962747756 0 0 0 0 -17.955376970425277 13.854826563787356 0 13.854826563787356 -14.029840416108414 0 0 0 0 -0.0059204873232374666 17.667276320866449 0 17.667276320866449 -19.548935507760461 0 0 0 0 -8.1538014014668079 3.6624076592850088 0 3.6624076592850088 -1.6438505695941785 0 0 0 0 -16.805641203638515 14.773095922485709 0 14.773095922485709 -5.9420457062733476 0 0 0 0 -15.09943028377711 15.751314562995958 0 15.751314562995958 -13.308895951513023 0 0 0 0 -9.2385216353341093 14.004762580907936 0 14.004762580907936 -19.410935426558353 0 0 0 0 -19.249418500190586 17.476253121177706 0 17.476253121177706 -9.7033935995841603 0 0 0 0 -17.891854000008607 12.666984049323219 0 12.666984049323219 -9.6810672081222044 0 0 0 0 1.7996773531421084 0.92804210863203451 0 0.92804210863203451 -4.7126925110200304 0 0 0 0 1.2303643178756829 4.1227398942992295 0 4.1227398942992295 -6.6810773812721891 0 0 0 0 -1.5076969605215709 2.1038943626422224 0 2.1038943626422224 -8.7818249777808433 0 0 0 0 -8.0677471631352091 1.356335894921358 0 1.356335894921358 -1.6361704266919332 0 0 0 0 -0.0079868136888165964 0.1242332012606111 0 0.1242332012606111 -1.0512761461032971 0 0 0 0 1.8775652607437223 -0.47298126834630239 0 -0.47298126834630239 -5.7791067067237236 0 0 0 0 0.24798888298229116 1.3490842896182045 0 1.3490842896182045 -1.8847421965647797 0 0 0 0 -15.647049539111322 5.6640581865799504 0 5.6640581865799504 -1.1185235332395678 0 0 0 0 15.385655729380233 8.8629585715943904 0 8.8629585715943904 1.0282407921999948 0 0 0 0 0.23781399675887016 0.57651973623600838 0 0.57651973623600838 -0.26124943489893582 0 0 0 0 -10.497596937271737 2.0245492866379209 0 2.0245492866379209 0.11381780519786844 0 0 0 0 -3.8333790540891641 6.7356185276603355 0 6.7356185276603355 -7.2102628577495125 0 0 0 0 -0.068901189111535643 -0.061264428020446182 0 -0.061264428020446182 -0.047491349534613647 0 0 0 0 -1.5789511064947348 1.3183310786733482 0 1.3183310786733482 -0.82843676913318909 0 0 0 0 -1.2461935639148578 0.52883182036794096 0 0.52883182036794096 5.299452071784799 0 0 0 0 -0.67733561656041275 2.005894115743331 0 2.005894115743331 -1.1091966134927134 0 0 0 0 -1.1112030242329638 21.056303608379039 0 21.056303608379039 -11.094074944910652 0 0 0 0 -6.4257054001918732 18.051290941904881 0 18.051290941904881 -11.063761859918486 0 0 0 0 -6.4339666277228389 11.535013689207972 0 11.535013689207972 -20.105220697781078 0 0 0 0 -17.045481384457617 16.967546704253863 0 16.967546704253863 -10.204510484809362 0 0 0 0 -5.0757680829465244 14.788432003467278 0 14.788432003467278 -0.086000148527091369 0 0 0 0 5.9660419202373305 17.029437800874803 0 17.029437800874803 -5.8889846139095425 0 0 0 0 1.1636175816893228 11.599799319196791 0 11.599799319196791 -8.8607239115945049 0 0 0 0 -1.7935953497853916 19.445377200734583 0 19.445377200734583 4.0460087481496885 0 0 0 0 -2.449959188066714 15.308952744218004 0 15.308952744218004 5.4277829200693759 0 0 0 0 0.005956371060165111 13.652887958443216 0 13.652887958443216 1.122149931677086 0 0 0 0 -0.33333504542119385 -0.327432405348838 0 -0.327432405348838 0.37203229466140009 0 0 0 0 -6.053676334064221 9.3505025055328588 0 9.3505025055328588 10.479832240561791 0 0 0 0 -5.4933104828778596 17.50848515412099 0 17.50848515412099 12.821198371509126 0 0 0 0 -0.0011500596725823287 11.779333614095647 0 11.779333614095647 16.04938188827191 0 0 0 0 2.2787486264205654 1.564504450188906 0 1.564504450188906 5.8273280819025786 0 0 0 0 7.3439528842181971 8.5918269271728605 0 8.5918269271728605 -2.8249747974832644 0 0 0 0 -6.7107438803041077 7.0601486575751551 0 7.0601486575751551 35.770581156950357 0 0 0 0 3.0929569332602114 25.290946101576537 0 25.290946101576537 20.579521756680151 0 0 0 0 -0.2033606894156037 -4.0071961776654916 0 -4.0071961776654916 21.417199202767733 0 0 0 0 -2.3531326877237007 14.809092624915138 0 14.809092624915138 25.611516569640116 0 0 0 0 -4.4932146638257109 4.1050133722046667 0 4.1050133722046667 15.422801532911308 0 0 0 0 -2.6054888847033908 12.312733492697646 0 12.312733492697646 5.6257588330527142 0 0 0 0 21.095571859661504 5.3401239010820518 0 5.3401239010820518 13.212216041170905 0 0 0 0 1.9884665901554399 12.744964472982247 0 12.744964472982247 1.7099781225492734 0 0 0 0 -0.28596005161307403 -0.28293978536151387 0 -0.28293978536151387 0.31180138863908002 0 0 0 0 -0.20794529667364259 8.8306535321055435 0 8.8306535321055435 -0.7102686983462263 0 0 0 0 2.0747226192606831 8.4469524440949044 0 8.4469524440949044 -11.205613993719908 0 0 0 0 3.0653247744648979 10.593755896531093 0 10.593755896531093 -10.388403844234745 0 0 0 0 0.37237923565589881 9.800636586033761 0 9.800636586033761 -10.508395827260756 0 0 0 0 -2.266161839236247 17.513880501110464 0 17.513880501110464 -9.4577991971696065 0 0 0 0 1.4651893381706032 -8.1483109301282184 0 -8.1483109301282184 0.32177528788133714 0 0 0 0 3.5085839274324826 12.034655511663004 0 12.034655511663004 -18.367604995751662 0 0 0 0 0.24411903025611537 13.613110639898196 0 13.613110639898196 -18.592962265740027 0 0 0 0 2.5280353539739693 1.8947413756018499 0 1.8947413756018499 1.2996404857501611 0 0 0 0 -1.7636609191031312 7.9234539483236404 0 7.9234539483236404 -18.940398089074961 0 0 0 0 2.154365870552283 11.516053064433436 0 11.516053064433436 -16.995537664049834 0 0 0 0 -0.29257805301313056 8.1153909547697367 0 8.1153909547697367 -12.094466139614269 0 0 0 0 -2.0684762280034192 6.3628487373825919 0 6.3628487373825919 -20.851446087752379 0 0 0 0 -0.0062303366976266261 10.822359457613402 0 10.822359457613402 -24.092718694467294 0 0 0 0 -1.0723994181862508 5.1773689681390351 0 5.1773689681390351 -13.353644403678118 0 0 0 0 1.0886071723907662 10.675302750195442 0 10.675302750195442 -20.194460461904953 0 0 0 0 0.0055123547208495438 11.476796776711581 0 11.476796776711581 -9.4755275636925944 0 0 0 0 -2.1670354690722888 8.6321208937140455 0 8.6321208937140455 2.2412499754782402 0 0 0 0 0.46879372448893264 8.998881847156099 0 8.998881847156099 -2.6929147889516116 0 0 0 0 3.4784117554299883 10.624405178465167 0 10.624405178465167 -11.535292964391374 0 0 0 0 -8.0134415749580512 8.7840644062800948 0 8.7840644062800948 -0.0043562763510180957 0 0 0 0 -11.167100969036255 12.954254098880483 0 12.954254098880483 0.86381151424484415 0 0 0 0 -2.8978530223539565 9.9038868738341534 0 9.9038868738341534 -3.4744264126072721 0 0 0 0 -3.9202368087007926 10.496103198565606 0 10.496103198565606 0.26643109672886567 0 0 0 0 -1.0127066051477414 12.998589745470269 0 12.998589745470269 2.2699073560156648 0 0 0 0 0.1065646497115722 6.9868161057193845 0 6.9868161057193845 2.5437275550243612 0 0 0 0 -7.5354005880026307 7.4790213130419829 0 7.4790213130419829 -4.0414213634721818 0 0 0 0 -7.4932855729675794 9.3854303584821537 0 9.3854303584821537 10.91012088966545 0 0 0 0 -8.992898636010068 -0.38658153135793327 0 -0.38658153135793327 1.1893775147757424 0 0 0 0 22.979409253795893 -1.0278928414477377 0 -1.0278928414477377 0.12438739588904468 0 0 0 0 4.6675650374345423 -3.0336558975832304 0 -3.0336558975832304 0.20913143263402389 0 0 0 0 3.3251360613774494 2.3226679129142731 0 2.3226679129142731 1.5580985680732331 0 0 0 0 8.2651480304884899 17.46078173688602 0 17.46078173688602 -5.8996897940248232 0 0 0 0 18.334762328984652 15.149181224724998 0 15.149181224724998 5.6526843232238662 0 0 0 0 -0.16690816966365674 10.889857615273286 0 10.889857615273286 4.6725416417255019 0 0 0 0 3.3441807480371395 2.8652455711013509 0 2.8652455711013509 2.261141754465279 0 0 0 0 4.7099895748260678 0.33264320877401587 0 0.33264320877401587 -6.7823756364653036 0 0 0 0 0.76964223236133833 1.1425976386014014 0 1.1425976386014014 1.0158917721080698 0 0 0 0 -3.7883874071912942 12.832661000573694 0 12.832661000573694 -3.9988303723202989 0 0 0 0 -3.6294035963619535 7.6435928385608349 0 7.6435928385608349 1.0297231386357453 0 0 0 0 -6.1096765179172507 10.984582028084446 0 10.984582028084446 3.946014759722857 0 0 0 0 -5.1838768690140569 6.5166718730165485 0 6.5166718730165485 9.271116533642271 0 0 0 0 -2.9647490795832709 5.2711346676883295 0 5.2711346676883295 4.9984442875318109 0 0 0 0 -4.6287452126081305 2.810215212392011 0 2.810215212392011 -0.85032377385984326 0 0 0 0 -3.1468423906898124 8.5911586311325934 0 8.5911586311325934 2.6657549706969803 0 0 0 0 -4.3624698963067203 3.7046130318476571 0 3.7046130318476571 1.7226851580176117 0 0 0 0 -0.69727997223378324 1.2037504815842084 0 1.2037504815842084 -0.67616701194806694 0 0 0 0 4.1309119363650098 7.3979663355730736 0 7.3979663355730736 -0.89108760797807918 0 0 0 0 1.4912166873548252 4.0468847329254167 0 4.0468847329254167 -0.0068000785674477982 0 0 0 0 -3.3292525435354037 8.303252890839758 0 8.303252890839758 2.4202214804877258 0 0 0 0 -0.83477950924407196 4.7309850716936808 0 4.7309850716936808 -1.436547149431135 0 0 0 0 -0.12764486251219154 3.2531241376833364 0 3.2531241376833364 1.9543379942027013 0 0 0 0 -3.7298552055217442 9.9770997936918775 0 9.9770997936918775 -3.4794679995149806 0 0 0 0 -2.882341364081185 8.1719993067946461 0 8.1719993067946461 -5.1900839859708867 0 0 0 0 -2.8601149086367883 5.4926813933556575 0 5.4926813933556575 -0.32280984149032488 0 0 0 0 0.09497381958499318 6.5112089915878641 0 6.5112089915878641 0.26367356880200532 0 0 0 0 -0.63965102133079199 5.586797962493165 0 5.586797962493165 1.4856495141020787 0 0 0 0 0.031291923002335409 6.985657086313843 0 6.985657086313843 -3.2525143716897844 0 0 0 0 1.9147351144056302 5.931467809181413 0 5.931467809181413 -1.8089417242672425 0 0 0 0 -0.57587468339714576 3.6958108365286386 0 3.6958108365286386 -0.11528790712596404 0 0 0 0 0.038388882239814848 5.8849770042297678 0 5.8849770042297678 2.9490151694808446 0 0 0 0 -0.85263653639922055 3.8826359783930062 0 3.8826359783930062 -3.8551649259796363 0 0 0 0 5.3244969116442462 13.848352093538608 0 13.848352093538608 1.9737354548014991 0 0 0 0 2.6878931158062187 13.99242568093905 0 13.99242568093905 1.657220441960817 0 0 0 0 4.4393713185709203 12.126589393335053 0 12.126589393335053 3.4607418617706571 0 0 0 0 12.035533415197278 7.3169557267665368 0 7.3169557267665368 1.6136321371968734 0 0 0 0 -1.6638797523264657 6.9634874285175101 0 6.9634874285175101 5.6571241473848204 0 0 0 0 -1.5583874027397542 6.9904664777168364 0 6.9904664777168364 2.7992510849928749 0 0 0 0 10.707170841122206 6.841597219086907 0 6.841597219086907 0.79033690198093609 0 0 0 0 -5.1214254090255054 3.3664398921523571 0 3.3664398921523571 4.4472289025843565 0 0 0 0 14.26519451020431 9.5848028139971575 0 9.5848028139971575 -1.6028603860959265 0 0 0 0 -0.8635235913196766 0.37111181062111775 0 0.37111181062111775 0.37661519031786028 0 0 0 0 0.1157047524615642 0.018229506577695176 0 0.018229506577695176 -0.26439146750893272 0 0 0 0 10.952351684587484 5.9722125461139512 0 5.9722125461139512 -3.53561609578054 0 0 0 0 -1.221732165201324 3.6824598332902809 0 3.6824598332902809 -8.0478650862175591 0 0 0 0 7.2106651404246804 12.534509594106567 0 12.534509594106567 -4.0148004082857369 0 0 0 0 -2.105741616926025 2.9901567176175377 0 2.9901567176175377 0.64805612627128539 0 0 0 0 -3.2790491084340871 1.8077921484769865 0 1.8077921484769865 -0.83798891235774242 0 0 0 0 -1.9965144694503891 2.8869852654843253 0 2.8869852654843253 -1.6755311548785317 0 0 0 0 -2.5296707867146324 4.1210038446733961 0 4.1210038446733961 -0.086274230082835857 0 0 0 0 -0.7103987183973004 10.19030260808313 0 10.19030260808313 -11.727430095515047 0 0 0 0 -16.322506805583544 0.41844532844788773 0 0.41844532844788773 3.7094569192490781 0 0 0 0 -1.7363202921874219 3.0682118084739622 0 3.0682118084739622 -1.5044897672421715 0 0 0 0 -1.8890811569435755 2.60183680888872 0 2.60183680888872 -0.17805112587393523 0 0 0 0 0.60476828738319455 6.9114580710966038 0 6.9114580710966038 -4.0278352457794426 0 0 0 0 2.1404403732231003 2.63800309717044 0 2.63800309717044 -4.9138291321983161 0 0 0 0 3.702294504099882 2.4395905979765757 0 2.4395905979765757 -14.592746606769651 0 0 0 0 -0.72007809770730091 2.5472683141460948 0 2.5472683141460948 1.6579860675765303 0 0 0 0 -2.2707894148206833 -2.3520052587932696 0 -2.3520052587932696 -4.970235638450049 0 0 0 0 3.7904693134314584 0.18214365260246268 0 0.18214365260246268 -6.0380829552916566 0 0 0 0 2.1992815314657364 1.5107998840250616 0 1.5107998840250616 -2.5476211577804264 0 0 0 0 -0.82753385775140487 27.832440670590586 0 27.832440670590586 37.812368377271014 0 0 0 0 29.414877175895526 49.93567036112654 0 49.93567036112654 32.182065135446464 0 0 0 0 10.68247478770536 2.8298543524806519 0 2.8298543524806519 -11.006822151155575 0 0 0 0 5.2002251240255646 19.576496557688415 0 19.576496557688415 -6.4631744101852746 0 0 0 0 -0.17220370960425768 2.8339032149060657 0 2.8339032149060657 -6.5621456614377216 0 0 0 0 44.669093428845372 89.533572528840523 0 89.533572528840523 37.61803526327094 0 0 0 0 -22.054222379956627 20.623238894788301 0 20.623238894788301 9.8659689996893576 0 0 0 0 44.399426885355524 27.437677637392873 0 27.437677637392873 5.6000824550064863 0 0 0 0 2.886109593758647 14.404309000600506 0 14.404309000600506 8.1531596360418916 0 0 0 0 -13.691064757622371 10.544197088063811 0 10.544197088063811 -1.8013064477145235 0 0 0 0 -5.8362791560757614 22.052877722057019 0 22.052877722057019 2.1844570918246973 0 0 0 0 -11.601913640944304 12.451707829264478 0 12.451707829264478 13.257140918634832 0 0 0 0 0.34870692230470013 23.691973041370147 0 23.691973041370147 25.603008966170862 0 0 0 0 -10.936673104872057 20.060940647174959 0 20.060940647174959 13.215425160644372 0 0 0 0 -11.727966617025231 14.87962864038127 0 14.87962864038127 25.472360464686034 0 0 0 0 -12.964732150128839 11.367038342707019 0 11.367038342707019 5.367614686530942 0 0 0 0 -9.8324884545618261 19.236214373615439 0 19.236214373615439 -7.5959761884623731 0 0 0 0 -12.797520170623102 13.909464397650481 0 13.909464397650481 -1.8844274177354237 0 0 0 0 -11.938955239576899 17.851638530255514 0 17.851638530255514 -8.1027904165530344 0 0 0 0 -13.616818181235431 21.275420353639674 0 21.275420353639674 -6.4709734533862502 0 0 0 0 -7.4875773261628638 17.076217305680075 0 17.076217305680075 -1.714804604773235 0 0 0 0 -18.884201152934111 15.304144748510225 0 15.304144748510225 -1.7801801192963467 0 0 0 0 -14.389613549181377 12.622334729691829 0 12.622334729691829 10.772908751310752 0 0 0 0 -12.034926867450849 19.872694173416676 0 19.872694173416676 3.4902937506776652 0 0 0 0 -10.273706365663202 9.9227414070905979 0 9.9227414070905979 6.9460484037790593 0 0 0 0 -13.063517507196593 11.544141162934466 0 11.544141162934466 7.3761681782234518 0 0 0 0 -6.8160798912285827 10.203189009438574 0 10.203189009438574 -6.4082543797321705 0 0 0 0 -0.35700117195301573 12.945838022131284 0 12.945838022131284 6.847958438288515 0 0 0 0 -7.1092242361610261 2.0895519958698969 0 2.0895519958698969 15.991319969481992 0 0 0 0 6.7067593731535453 4.6060911903960005 0 4.6060911903960005 41.373884423792333 0 0 0 0 16.100001054825043 3.7613327928015678 0 3.7613327928015678 14.904414494878438 0 0 0 0 -1.7205764008995175 17.871444376758063 0 17.871444376758063 25.031536087257336 0 0 0 0 1.0510824262048146 1.8268777989246523 0 1.8268777989246523 3.2645915654109423 0 0 0 0 -14.341156699045314 15.673331514891288 0 15.673331514891288 23.836533889967541 0 0 0 0 -9.3429684661568899 13.231693330211783 0 13.231693330211783 22.226709018192196 0 0 0 0 -7.5731176299414074 14.92020481083 0 14.92020481083 11.547083155150176 0 0 0 0 -6.9032006376528443 5.5844635488447238 0 5.5844635488447238 32.266810674544104 0 0 0 0 3.6692360894994636 13.819076259717349 0 13.819076259717349 4.3953691847668779 0 0 0 0 3.9878908114396836 14.4055813379764 0 14.4055813379764 3.8569087984521957 0 0 0 0 -5.6076973983981588 10.619833174990163 0 10.619833174990163 23.135466515257917 0 0 0 0 7.7230648479162483 6.504809268716599 0 6.504809268716599 14.025666895846371 0 0 0 0 3.3765606769782437 11.003311867327582 0 11.003311867327582 10.578993761934072 0 0 0 0 0.41912132664128876 16.878113189956622 0 16.878113189956622 2.5267087996326154 0 0 0 0 4.6325127571908524 21.765596516036567 0 21.765596516036567 11.818599541766162 0 0 0 0 0.16573509916088369 15.017802596097681 0 15.017802596097681 5.9546912817381781 0 0 0 0 2.6344647366245155 10.398610103220104 0 10.398610103220104 10.859680103865381 0 0 0 0 -0.99632485434884188 6.4493597416539439 0 6.4493597416539439 -6.7180149678324597 0 0 0 0 1.7592454452133097 10.528640260117299 0 10.528640260117299 1.5360149733214712 0 0 0 0 5.5008261332004622 25.073832822822624 0 25.073832822822624 18.319395838604194 0 0 0 0 10.580505711059232 19.606034770916722 0 19.606034770916722 18.206058805266366 0 0 0 0 -6.8832435291960792 13.545408046364173 0 13.545408046364173 16.7890668845248 0 0 0 0 0.81501957825895532 0.4231142396070311 0 0.4231142396070311 -0.20742653403643274 0 0 0 0 -17.220554024246212 11.033539386353823 0 11.033539386353823 -0.54322152926579292 0 0 0 0 16.715320753574815 -5.2927521919668834 0 -5.2927521919668834 7.8708572773657579 0 0 0 0 5.2606111451794675 4.5364827253447402 0 4.5364827253447402 3.3663950540644461 0 0 0 0 11.306130820318401 7.8606833615122866 0 7.8606833615122866 -10.604638900804275 0 0 0 0 7.4273137453392337 6.1195557547989665 0 6.1195557547989665 -3.5203995089741511 0 0 0 0 17.071574365379092 -5.2175564640274388 0 -5.2175564640274388 -5.9904523387913287 0 0 0 0 -2.7864643069906379 -0.46540976325559313 0 -0.46540976325559313 21.225940490183348 0 0 0 0 -2.5937794256842608 -8.0653937051501998 0 -8.0653937051501998 0.41104019232579958 0 0 0 0 5.8519495100101473 4.9268850204532768 0 4.9268850204532768 2.1595805520464033 0 0 0 0 4.805402372545359 -10.128538169411513 0 -10.128538169411513 23.055648668472372 0 0 0 0 4.3920940720681756 12.021583097115126 0 12.021583097115126 -3.644094500762094 0 0 0 0 -0.13597332693657904 8.0476987549500869 0 8.0476987549500869 -6.4350182599467338 0 0 0 0 1.6451361570407244 16.066471274824607 0 16.066471274824607 21.939160405473558 0 0 0 0 -3.688701157201649 44.492412469304327 0 44.492412469304327 26.782874413422633 0 0 0 0 10.574514073209684 10.688619852650163 0 10.688619852650163 3.245136964221274 0 0 0 0 3.883183279496734 9.6040308013798494 0 9.6040308013798494 -6.7685036217308152 0 0 0 0 4.1187642569939271 12.293968671892799 0 12.293968671892799 0.20569961755427357 0 0 0 0 3.2198534402104997 15.543486155465871 0 15.543486155465871 -11.533578878970161 0 0 0 0 1.1975425218820561 5.9073037125520891 0 5.9073037125520891 -9.4442003502778906 0 0 0 0 2.667271716639334 13.961435120780152 0 13.961435120780152 0.9246381010591449 0 0 0 0 4.9983182019113883 7.5209171889282516 0 7.5209171889282516 3.88107205789386 0 0 0 0 -9.6085853373561463 19.689651568406966 0 19.689651568406966 -4.660297795502629 0 0 0 0 6.3680794425154215 6.5302307435741795 0 6.5302307435741795 -0.011911184046720535 0 0 0 0 -9.5007049382624871 15.323802284254029 0 15.323802284254029 -1.5310162877904077 0 0 0 0 -9.3570358619335821 13.891654639967783 0 13.891654639967783 3.7313204440961272 0 0 0 0 8.3265526110012615 -0.6749294565818218 0 -0.6749294565818218 -14.103683782075677 0 0 0 0 26.904592620385301 33.785094593119084 0 33.785094593119084 49.595376630583814 0 0 0 0 0.07845533237312452 1.332937433509187 0 1.332937433509187 -1.0083813287364352 0 0 0 0 14.98638654487695 32.218335666157145 0 32.218335666157145 49.671947190424817 0 0 0 0 6.9005485576681167 28.496406213125738 0 28.496406213125738 48.228481868911331 0 0 0 0 40.339467648132995 39.419066042362374 0 39.419066042362374 34.363827085937373 0 0 0 0 -7.944661292838024 6.6692506167164209 0 6.6692506167164209 -4.2849972748632084 0 0 0 0 -5.9892844312529405 11.678521824912195 0 11.678521824912195 -0.50632717146072537 0 0 0 0 8.5756428389267967 8.2231012508450476 0 8.2231012508450476 -27.024518600437659 0 0 0 0 21.852934041758999 17.110785309255334 0 17.110785309255334 -4.9207527635185215 0 0 0 0 -4.3674312279935066 16.386416241773077 0 16.386416241773077 -6.2717197935362492 0 0 0 0 -6.8502473696213286 9.3588206505537013 0 9.3588206505537013 -5.4766066066224273 0 0 0 0 44.158752485564037 48.402257672483756 0 48.402257672483756 14.844049510733385 0 0 0 0 59.835331180793276 61.281313043858447 0 61.281313043858447 12.756601206069718 0 0 0 0 34.839477059302226 31.914462853360419 0 31.914462853360419 -10.163546080086235 0 0 0 0 0.25249822061846317 0.024696864705983756 0 0.024696864705983756 -0.45826154915486939 0 0 0 0 35.611048990798736 48.523312830628129 0 48.523312830628129 26.028227217057065 0 0 0 0 45.942180662532337 56.369087394820781 0 56.369087394820781 17.952334376077033 0 0 0 0 28.369304678839399 27.543451152872876 0 27.543451152872876 -8.8926835112943081 0 0 0 0 34.748387014218679 45.618042283574596 0 45.618042283574596 20.429471086059493 0 0 0 0 22.438940682688553 29.998571764847384 0 29.998571764847384 2.1925297233465244 0 0 0 0 19.816733992225636 23.173265828597323 0 23.173265828597323 0.13374757019846584 0 0 0 0 61.215522965204173 35.69477629129608 0 35.69477629129608 1.2990462926463806 0 0 0 0 40.031475256537306 40.423833627191016 0 40.423833627191016 44.874908748651706 0 0 0 0 0.083994490490393758 0.23346924082078058 0 0.23346924082078058 -0.70165160686729777 0 0 0 0 46.019015076715732 26.196347460758261 0 26.196347460758261 49.619692158901671 0 0 0 0 -18.989841740873089 5.6364011308642148 0 5.6364011308642148 4.0567271342679305 0 0 0 0 -0.63781703477434348 1.3973903306705324 0 1.3973903306705324 4.3720076634344878 0 0 0 0 -27.996936817475216 11.282622450074996 0 11.282622450074996 7.6030303053685202 0 0 0 0 -22.98293695855682 -15.977952363161421 0 -15.977952363161421 -21.676027293076004 0 0 0 0 -59.762585005069923 -9.3567304039534065 0 -9.3567304039534065 3.4039832485888155 0 0 0 0 -52.753973292117735 -30.247663098161411 0 -30.247663098161411 -9.094124879260562 0 0 0 0 -22.106504519005284 29.641769275547404 0 29.641769275547404 -6.6509845312257312 0 0 0 0 0.58572440737771103 4.5671646165139919 0 4.5671646165139919 1.4045435466414347 0 0 0 0 4.7538805126887382 13.293727219697075 0 13.293727219697075 3.5557665151136462 0 0 0 0 1.0220507681451636 29.555363071613556 0 29.555363071613556 1.914137263356551 0 0 0 0 -0.13844075363886077 12.575098262745996 0 12.575098262745996 8.3980692037023346 0 0 0 0 0.36449660802372819 19.544366784002705 0 19.544366784002705 31.702357876529277 0 0 0 0 -1.2505736834232053 6.2414314276076119 0 6.2414314276076119 -3.8997836713269391 0 0 0 0 -3.0034697972050708 10.468358480689517 0 10.468358480689517 7.2540952772228593 0 0 0 0 -0.16983405933933682 10.705506474783533 0 10.705506474783533 4.7421485604495501 0 0 0 0 -2.4080923957462801 12.595411699051056 0 12.595411699051056 14.443977911835873 0 0 0 0 3.9129268086944649 9.72512927600701 0 9.72512927600701 1.0981868745411703 0 0 0 0 -2.9095334470239322 1.193090497538833 0 1.193090497538833 10.6757552483989 0 0 0 0 -4.8809184722358623 0.31051662050413142 0 0.31051662050413142 34.510699178265895 0 0 0 0 -22.216151620265009 -4.8643120395886399 0 -4.8643120395886399 24.896370544419369 0 0 0 0 -3.1116888970491061 6.6979501583314729 0 6.6979501583314729 -3.8702321328196403 0 0 0 0 -21.453680299553412 -17.775619808371317 0 -17.775619808371317 2.5506147843661893 0 0 0 0 -11.545060303040373 21.78150727161119 0 21.78150727161119 40.375292235026336 0 0 0 0 3.1498257767325413 -1.9674167716086686 0 -1.9674167716086686 -7.4733523984705243 0 0 0 0 6.8671553756448702 28.504129354500492 0 28.504129354500492 18.1625561102137 0 0 0 0 -10.964243560221803 8.1461065068224343 0 8.1461065068224343 16.048986454698252 0 0 0 0 -13.384562107498823 3.3085724074981044 0 3.3085724074981044 18.984570036600417 0 0 0 0 4.5035829779471896 19.04804055171644 0 19.04804055171644 -7.645329739722456 0 0 0 0 -3.4472206452646788 6.3351089610057443 0 6.3351089610057443 -13.705359155733277 0 0 0 0 -1.2908377832338829 1.0183648839548489 0 1.0183648839548489 0.46663625192993408 0 0 0 0 -4.3196127590439204 7.4607137072816414 0 7.4607137072816414 -5.7650846544020622 0 0 0 0 19.802801512569204 26.449242810699616 0 26.449242810699616 22.927515445491281 0 0 0 0 34.287408823669466 29.162531556175054 0 29.162531556175054 23.752030669378655 0 0 0 0 22.454707847447935 25.313292951158473 0 25.313292951158473 23.354907940239173 0 0 0 0 -9.8402761865290813 12.121588621233968 0 12.121588621233968 31.183793750614313 0 0 0 0 -4.1789491937954608 6.325199528107829 0 6.325199528107829 -2.5865951705865302 0 0 0 0 -0.31046818952745525 10.279206402964519 0 10.279206402964519 1.6255666912202287 0 0 0 0 -20.533016762303305 9.311662994143262 0 9.311662994143262 30.445408023364507 0 0 0 0 0.97827777227939805 24.579151004556479 0 24.579151004556479 12.178655116195841 0 0 0 0 -5.8492723923014225 4.7555851107329161 0 4.7555851107329161 -0.5863285031290868 0 0 0 0 -6.2231651576721561 5.9684922253118202 0 5.9684922253118202 -2.8867445259736542 0 0 0 0 -0.50074420462806302 11.264409861614467 0 11.264409861614467 6.168025716141301 0 0 0 0 -1.2347314948364669 6.2863488308131803 0 6.2863488308131803 -4.2619616977143382 0 0 0 0 5.8938279199223871 11.079274063189416 0 11.079274063189416 0.54064124501383048 0 0 0 0 6.168106985718623 12.04753020361477 0 12.04753020361477 -1.7834870319734364 0 0 0 0 4.0425589752457398 7.3918474061197443 0 7.3918474061197443 2.1857186158830739 0 0 0 0 2.1663210986480408 11.159466389553472 0 11.159466389553472 -1.3416759053889109 0 0 0 0 -2.3577855709165618 6.7246514743149923 0 6.7246514743149923 1.3489134239173914 0 0 0 0 -14.853954876352873 22.302556805755103 0 22.302556805755103 3.0187278538833198 0 0 0 0 0.90598814636109992 2.3970436753008055 0 2.3970436753008055 2.8763201354451979 0 0 0 0 3.6475089113373542 30.995100833359174 0 30.995100833359174 -10.040539188967159 0 0 0 0 5.5876463550757762 9.3546625510898593 0 9.3546625510898593 -13.590189276501405 0 0 0 0 5.9402207167149754 7.8967924545968344 0 7.8967924545968344 -10.957112037804109 0 0 0 0 7.5370012329622114 13.48107494058695 0 13.48107494058695 2.7422958752723048 0 0 0 0 3.8818741610584766 12.761177290954038 0 12.761177290954038 11.538300433920085 0 0 0 0 5.0388468602723151 12.144186255147815 0 12.144186255147815 5.758158449963048 0 0 0 0 7.9720577422540373 20.726499579575375 0 20.726499579575375 4.8727065396041098 0 0 0 0 1.1600340482750724 6.1310328151119577 0 6.1310328151119577 -4.0966011977202745 0 0 0 0 3.4689124315964364 19.161612109735415 0 19.161612109735415 17.369823045656176 0 0 0 0 8.2727850145893171 17.016462733813569 0 17.016462733813569 11.674528991170746 0 0 0 0 -1.5389620607562584 1.6339887083988351 0 1.6339887083988351 3.2001251172903231 0 0 0 0 -5.1547451093217447 3.9581431318602025 0 3.9581431318602025 1.8159015098317379 0 0 0 0 -3.4817973143443055 9.5475748973113177 0 9.5475748973113177 5.1714550246697399 0 0 0 0 2.2740403892657923 11.780359226116616 0 11.780359226116616 11.454706099644227 0 0 0 0 2.757669210426684 8.5698805534432267 0 8.5698805534432267 5.5065668433830979 0 0 0 0 1.1284938975159093 11.744675283066954 0 11.744675283066954 1.5351500073379611 0 0 0 0 -1.2757319560405449 8.7282567025058597 0 8.7282567025058597 5.7938138668930605 0 0 0 0 -4.830833974909158 3.3976371662279945 0 3.3976371662279945 -0.40581370238832548 0 0 0 0 -4.227034892373922 6.6668738031871726 0 6.6668738031871726 5.2032767963244861 0 0 0 0 -4.15050042951043 6.505234369431264 0 6.505234369431264 3.6463797805515696 0 0 0 0 -5.8004518453267124 4.4861379513419042 0 4.4861379513419042 -2.0160662055778573 0 0 0 0 -4.8775967702626986 0.56625369774599221 0 0.56625369774599221 23.066424547112547 0 0 0 0 -3.4752396692321668 9.2107165799734609 0 9.2107165799734609 2.3110205507969113 0 0 0 0 0.77297794488549698 5.6545377974071016 0 5.6545377974071016 -4.0936311914156249 0 0 0 0 1.7307290238645692 13.131937339455476 0 13.131937339455476 0.4768514605530072 0 0 0 0 -3.230217172367702 11.144023988626259 0 11.144023988626259 13.42493750031872 0 0 0 0 11.509743636750045 13.637472796214368 0 13.637472796214368 28.962315694553581 0 0 0 0 1.7231040986334847 0.97331321341653165 0 0.97331321341653165 16.647996126703504 0 0 0 0 0.74853255234371829 0.75145385515597241 0 0.75145385515597241 0.36794042901313384 0 0 0 0 9.0069074540351721 28.648618928113024 0 28.648618928113024 -81.359368864147086 0 0 0 0 0.40708913585361017 0.14794882018763289 0 0.14794882018763289 0.050097542772680637 0 0 0 0 7.586652315829042 -8.0331207709548806 0 -8.0331207709548806 24.402788118886747 0 0 0 0 10.258940850904764 -11.887781699508082 0 -11.887781699508082 33.849269978065422 0 0 0 0 -38.864533351097634 28.159630573043614 0 28.159630573043614 117.96590316528727 0 0 0 0 -1.1771586933682556 4.1866558398160123 0 4.1866558398160123 -0.76683777371044926 0 0 0 0 -5.6008071445499468 5.5726298097253313 0 5.5726298097253313 -2.3928430978426904 0 0 0 0 0.58212733367372493 10.502066619225957 0 10.502066619225957 -1.3369984201290208 0 0 0 0 1.1242752087513068 3.3794858451013905 0 3.3794858451013905 0.23487477297789261 0 0 0 0 1.6855032862040389 25.735312028933379 0 25.735312028933379 -30.462570420250131 0 0 0 0 -8.2731702437945387 11.556428564057271 0 11.556428564057271 14.231185946357073 0 0 0 0 -83.820858658629732 66.783125282425885 0 66.783125282425885 13.334079858044888 0 0 0 0 -6.5359715444843687 -27.550461648660736 0 -27.550461648660736 62.790298195779087 0 0 0 0 -6.5167706398992635 8.5593749140672042 0 8.5593749140672042 -6.7027905531998098 0 0 0 0 -13.157453956031532 46.996452044796797 0 46.996452044796797 12.888000084732653 0 0 0 0 138.18976657745998 78.332719770085703 0 78.332719770085703 -40.614956400667552 0 0 0 0 -156.13456004195905 59.123705444757888 0 59.123705444757888 56.931002393186645 0 0 0 0 168.92547113215142 -8.8271887173956856 0 -8.8271887173956856 -40.450572184375915 0 0 0 0 -0.023571279652777832 0.38497165827447333 0 0.38497165827447333 0.7158180866895183 0 0 0 0 114.87817789001747 -25.191233242183955 0 -25.191233242183955 4.8546762292060066 0 0 0 0 19.87290679938269 -21.248047397605262 0 -21.248047397605262 36.929489561091259 0 0 0 0 66.930063028128643 21.705360974683856 0 21.705360974683856 16.464380606062605 0 0 0 0 -121.76253148729847 4.7983819414126856 0 4.7983819414126856 45.447420927559847 0 0 0 0 -16.871345666200796 71.7413754294314 0 71.7413754294314 66.470717022289676 0 0 0 0 -20.722349692476655 -42.936750061563856 0 -42.936750061563856 115.63152234272957 0 0 0 0 -9.5067547028129411 -11.822499006761007 0 -11.822499006761007 56.719316092868667 0 0 0 0 0.52905689594121696 61.747332470530601 0 61.747332470530601 45.302589504923162 0 0 0 0 1.0077523350391075 0.34433594672433898 0 0.34433594672433898 0.49228404650382762 0 0 0 0 0.9087700709605997 -3.6610565272631561 0 -3.6610565272631561 -24.780130485801806 0 0 0 0 23.82248332214931 45.90592165550612 0 45.90592165550612 -11.416577650792988 0 0 0 0 11.882073292264977 36.074667044505986 0 36.074667044505986 2.5730884048871303 0 0 0 0 -0.050171523284952002 0.12945335910276512 0 0.12945335910276512 0.5951753909961166 0 0 0 0 -3.9226239439412893 13.866000921400428 0 13.866000921400428 -9.1636298119411208 0 0 0 0 32.393389952672806 5.2819388447072697 0 5.2819388447072697 -13.867221737083128 0 0 0 0 -8.1519101453050098 11.724352442595773 0 11.724352442595773 -9.44657491548503 0 0 0 0 1.3076910695508559 24.624318033194413 0 24.624318033194413 -9.0859504436344878 0 0 0 0 -2.9069960796045962 29.636425086948805 0 29.636425086948805 -12.938333989179228 0 0 0 0 -5.010121884793989 31.693949462209275 0 31.693949462209275 7.3865995748711839 0 0 0 0 -4.2979253048815735 26.632001073893434 0 26.632001073893434 -8.3468646442715908 0 0 0 0 -1.5131057000462533 32.761500479362951 0 32.761500479362951 -7.8518054127262076 0 0 0 0 -12.295564891704998 21.017334208880811 0 21.017334208880811 -6.4726012818855452 0 0 0 0 16.238230742397718 0.11121212605758046 0 0.11121212605758046 -0.55391771372342191 0 0 0 0 -1.9971512190004432 28.477760349610435 0 28.477760349610435 -10.983155861844352 0 0 0 0 3.9083870993672463 15.434289687523687 0 15.434289687523687 12.689267224682226 0 0 0 0 -52.315445258158434 9.4423966416927669 0 9.4423966416927669 -0.72564986014810984 0 0 0 0 0.45421560271162065 0.60893815710091204 0 0.60893815710091204 -0.75713193431967163 0 0 0 0 -30.95300000295083 41.897375059867045 0 41.897375059867045 -23.852102902596016 0 0 0 0 -24.760956080044707 20.553182399137768 0 20.553182399137768 -8.9548061954023979 0 0 0 0 -14.058237757558345 5.8281130744436496 0 5.8281130744436496 -1.4503694004083627 0 0 0 0 0.023888616323226586 0.11512909023892881 0 0.11512909023892881 0.093199459993519973 0 0 0 0 -1.9397720567976648 4.7823883922592358 0 4.7823883922592358 3.4405010988875802 0 0 0 0 -0.56687884354884943 0.89194515001446639 0 0.89194515001446639 0.052090352253390648 0 0 0 0 -3.9102863660044846 4.371568905231058 0 4.371568905231058 -0.69642179206121568 0 0 0 0 -2.5144582307093515 3.0673251489163249 0 3.0673251489163249 3.1127699541108882 0 0 0 0 3.8743460803743801 5.8512576470407112 0 5.8512576470407112 -0.73984474322469396 0 0 0 0 2.12954526414876 -9.7396247253415282 0 -9.7396247253415282 -25.827827884927956 0 0 0 0 3.3358161716291406 5.073528717543665 0 5.073528717543665 -1.2806953566372616 0 0 0 0 23.186062102525739 9.7132490885396408 0 9.7132490885396408 -43.081710819825275 0 0 0 0 26.779787228912028 26.581201705569583 0 26.581201705569583 -15.547775278728295 0 0 0 0 -8.3285627432164162 9.3648073222278931 0 9.3648073222278931 -6.6364722663491023 0 0 0 0 41.395446121086025 63.326757931019642 0 63.326757931019642 -9.4910673188944656 0 0 0 0 12.334879746446404 5.3353484186497013 0 5.3353484186497013 -5.8348807870022483 0 0 0 0 6.8792278605724277 36.410202159932112 0 36.410202159932112 9.7266360311143671 0 0 0 0 49.02282170880062 50.1909741422769 0 50.1909741422769 -0.49594429219052927 0 0 0 0 50.151071431977471 22.458976432059899 0 22.458976432059899 -10.142568961285122 0 0 0 0 -10.789935341692399 10.022713770103564 0 10.022713770103564 33.781376449412619 0 0 0 0 0.7763962153931061 41.01512024118756 0 41.01512024118756 9.0757640612009709 0 0 0 0 -6.3861434205755359 8.7715402626763534 0 8.7715402626763534 -4.8723246258828112 0 0 0 0 -0.056167836727205156 11.484915301112297 0 11.484915301112297 1.8444376696152416 0 0 0 0 5.631845989582871 12.346326458448175 0 12.346326458448175 7.8965145598139657 0 0 0 0 1.2663335398545748 7.674412794640423 0 7.674412794640423 2.4061321525256885 0 0 0 0 -5.8681592147316159 6.0508147167175466 0 6.0508147167175466 3.2102807326809875 0 0 0 0 4.0573250261732028 12.222019224160817 0 12.222019224160817 10.639979202020186 0 0 0 0 -60.027394671589718 -18.511720038209205 0 -18.511720038209205 -2.0768560055921625 0 0 0 0 -42.513698399347049 50.988609597558934 0 50.988609597558934 6.9852906693852219 0 0 0 0 -10.333271854883606 -13.989000074586784 0 -13.989000074586784 -67.588997337644287 0 0 0 0 8.3778490143922681 26.057099235152691 0 26.057099235152691 -21.993055270978402 0 0 0 0 2.1363131314463928 5.2369618442752905 0 5.2369618442752905 5.6744527549723358 0 0 0 0 -5.913970227585196 7.4772445567371051 0 7.4772445567371051 9.6835871953126116 0 0 0 0 18.235217668956466 8.4935128700317364 0 8.4935128700317364 -22.430190306757822 0 0 0 0 -4.8201406869020502 -30.705090086439725 0 -30.705090086439725 -6.3517904493983224 0 0 0 0 0.92354211194419378 1.8151424735572679 0 1.8151424735572679 -0.96225658456679852 0 0 0 0 -1.2867052095853069 9.7152582652614683 0 9.7152582652614683 3.1732798647469167 0 0 0 0 6.3521997924181051 12.214112482881461 0 12.214112482881461 -0.6824199312408723 0 0 0 0 1.0926581453849344 3.7132005671308121 0 3.7132005671308121 5.1859463760598326 0 0 0 0 -5.1918126209066031 5.7772367349257081 0 5.7772367349257081 1.3186893198371337 0 0 0 0 -5.5561003822012935 11.149754106219637 0 11.149754106219637 -1.0697068073961304 0 0 0 0 -12.222206943213223 11.862985552883373 0 11.862985552883373 2.4662136338014307 0 0 0 0 -16.586113027311512 -27.068679744988003 0 -27.068679744988003 -9.572137092282901 0 0 0 0 0.64363807325860378 4.6340757634606327 0 4.6340757634606327 4.1784752452677587 0 0 0 0 -4.1977110089010239 0.3875863792840164 0 0.3875863792840164 2.9209050483805186 0 0 0 0 1.2750367916835241 2.4629370103510801 0 2.4629370103510801 2.0901982647677269 0 0 0 0 -1.4303075827465364 5.4712985564892733 0 5.4712985564892733 -0.012593011804256093 0 0 0 0 3.4628590835691284 13.065431164202579 0 13.065431164202579 -1.9523665605682368 0 0 0 0 4.1915419909782941 15.593384209472561 0 15.593384209472561 5.6967134843312124 0 0 0 0 -2.0559850254503544 15.446673654407959 0 15.446673654407959 6.6508557485362871 0 0 0 0 3.6724294860030433 5.1102162347386688 0 5.1102162347386688 4.0110042066580549 0 0 0 0 6.2991121185550583 11.415148681878861 0 11.415148681878861 13.97929598580231 0 0 0 0 0.46377791955869085 -0.71442148900366265 0 -0.71442148900366265 -1.7509934895701917 0 0 0 0 -4.5112610922587919 2.2344493352539985 0 2.2344493352539985 -9.7829084202135732 0 0 0 0 -1.1939686309597164 5.9396740870583926 0 5.9396740870583926 0.45463356080676931 0 0 0 0 2.2156315179574264 6.3858029940428036 0 6.3858029940428036 -3.6894085378547254 0 0 0 0 0.57510637946967336 -7.8069968463213684 0 -7.8069968463213684 0.16032674145571946 0 0 0 0 0.66292267008547512 2.242413584057104 0 2.242413584057104 -2.1979080109797984 0 0 0 0 47.974639805390325 -2.1771420079303425 0 -2.1771420079303425 -5.3903821561866607 0 0 0 0 1.2041232843700875 1.5300987559144943 0 1.5300987559144943 -0.12832442688853263 0 0 0 0 7.8371886517591101 7.8670755215229757 0 7.8670755215229757 2.8353315328747613 0 0 0 0 27.810780143751799 17.91480826211864 0 17.91480826211864 -7.4073230182502812 0 0 0 0 -14.736812169508084 -2.0639786042870583 0 -2.0639786042870583 3.7120113560122263 0 0 0 0 3.8852632011921742 8.8291730216231059 0 8.8291730216231059 -1.1725601162272028 0 0 0 0 6.2075605598292896 15.60842439492933 0 15.60842439492933 5.7500541339640563 0 0 0 0 1.1819166294793249 6.3101342114632466 0 6.3101342114632466 1.7397657717954966 0 0 0 0 -15.431002503219133 9.0353916636002509 0 9.0353916636002509 -12.649964731764385 0 0 0 0 9.4094529197576477 8.0712539371909564 0 8.0712539371909564 2.4838977796251891 0 0 0 0 26.339746140449279 40.932672567551549 0 40.932672567551549 6.3109084033810632 0 0 0 0 -2.9267348030331704 2.9497828173754197 0 2.9497828173754197 -0.47989707126935555 0 0 0 0 64.472761621942482 56.760091962757087 0 56.760091962757087 1.7666515546259234 0 0 0 0 23.214673919374036 81.129637702437549 0 81.129637702437549 9.7289880822581836 0 0 0 0 0.043111382668939768 -26.359186284869111 0 -26.359186284869111 -18.727599226977873 0 0 0 0 6.4644686980955299 3.8071919535216168 0 3.8071919535216168 1.1892144772274824 0 0 0 0 32.316630780556807 16.07713161776519 0 16.07713161776519 -6.9038040356308557 0 0 0 0 21.327055410491397 14.172377739862384 0 14.172377739862384 5.7887866128548922 0 0 0 0 0.692192223839319 5.3579391206828753 0 5.3579391206828753 5.175440672113421 0 0 0 0 -41.517244625240892 20.161198948835136 0 20.161198948835136 25.707433800393119 0 0 0 0 21.32116928870559 13.548663349240055 0 13.548663349240055 4.9392163525799333 0 0 0 0 45.451871341594597 154.74423966843733 0 154.74423966843733 83.29691940435805 0 0 0 0 21.986999985785587 13.019897795811175 0 13.019897795811175 5.3561742648967083 0 0 0 0 21.525525960219056 8.6607275645720847 0 8.6607275645720847 2.5133979945312603 0 0 0 0 -2.0833024328581899 3.1681269028181944 0 3.1681269028181944 3.2831775805654626 0 0 0 0 19.12811415114038 4.2602466272891206 0 4.2602466272891206 2.3095934246975958 0 0 0 0 24.719508299405788 7.2374721089643117 0 7.2374721089643117 -0.084348492924618768 0 0 0 0 74.087136497739266 -16.076669301988659 0 -16.076669301988659 -38.942183374325396 0 0 0 0 -26.798593653909847 -30.92277738465873 0 -30.92277738465873 4.9248916117737735 0 0 0 0 -0.2373955501425371 18.934919537296537 0 18.934919537296537 19.217544948374723 0 0 0 0 19.164714007780276 40.086834100993656 0 40.086834100993656 17.115573957731613 0 0 0 0 31.536238951743144 53.924747146964364 0 53.924747146964364 31.864347413495125 0 0 0 0 11.323061572800725 39.417551375725452 0 39.417551375725452 40.65210654846851 0 0 0 0 1.5468430112141505 4.6266982321035357 0 4.6266982321035357 26.156144914670222 0 0 0 0 2.2040026668619248 23.862085014502554 0 23.862085014502554 46.842987408520912 0 0 0 0 65.127735375634074 24.329000643553627 0 24.329000643553627 -24.497966509397884 0 0 0 0 -7.7286671186811873 42.657364630600568 0 42.657364630600568 49.450249996784578 0 0 0 0 284.94420265279769 43.044589961871679 0 43.044589961871679 -48.092742428128986 0 0 0 0 0.84339964586069982 15.928348640549302 0 15.928348640549302 21.053092966480108 0 0 0 0 13.307882420675924 11.363095920436308 0 11.363095920436308 -4.8381764977575585 0 0 0 0 16.209847408921632 22.496035206532724 0 22.496035206532724 7.5288087487479061 0 0 0 0 0.12610568022443758 0.63953120438394429 0 0.63953120438394429 -0.48308941296299501 0 0 0 0 -2.0966736656046123 17.530764284045745 0 17.530764284045745 13.374333771206238 0 0 0 0 8.7697320454608416 31.376724556612317 0 31.376724556612317 29.344328880126341 0 0 0 0 6.2962717302198143 27.832950154979699 0 27.832950154979699 24.491872189189962 0 0 0 0 9.4433296609540776 32.95403781578193 0 32.95403781578193 26.374927485940134 0 0 0 0 14.169132042494311 39.373463593791712 0 39.373463593791712 30.677470139324214 0 0 0 0 11.894001479672625 34.534686079052335 0 34.534686079052335 21.809502258756766 0 0 0 0 -0.45133714379716849 0.43880687359719572 0 0.43880687359719572 0.50918785095935348 0 0 0 0 5.8279525982925406 26.567231473627544 0 26.567231473627544 28.810700273345333 0 0 0 0 15.500536417603143 35.220257272158506 0 35.220257272158506 13.552694486782002 0 0 0 0 22.099534872540971 40.585076619380743 0 40.585076619380743 25.396481176028828 0 0 0 0 32.283670368768071 19.099970647066357 0 19.099970647066357 9.5259375752739288 0 0 0 0 20.460507614785001 15.147096579963545 0 15.147096579963545 -1.0350644185054989 0 0 0 0 17.121152308238379 19.377233649566733 0 19.377233649566733 26.014123349759757 0 0 0 0 35.743116251844185 24.119740926239047 0 24.119740926239047 4.1795516070255871 0 0 0 0 117.38222718844554 -15.382735411200883 0 -15.382735411200883 -18.234485873393169 0 0 0 0 0.32718906254555913 1.087724563305736 0 1.087724563305736 -1.8597702900409452 0 0 0 0 -1.2941385714902935 2.3732831392317735 0 2.3732831392317735 -2.7296367624085178 0 0 0 0 23.431879652660427 -2.1547903960390613 0 -2.1547903960390613 -3.6048129170828815 0 0 0 0 2.9516316567405738 -0.39883198254028684 0 -0.39883198254028684 5.3480364090332841 0 0 0 0 -0.24163297508160309 0.57734539253400641 0 0.57734539253400641 -0.12061815257538022 0 0 0 0 -0.66964153904238444 1.6904115480027286 0 1.6904115480027286 -1.5471850396240114 0 0 0 0 -10.895435644830286 49.88643455365019 0 49.88643455365019 -64.61194085207228 0 0 0 0 -2.3779209257542178 1.6579314164825369 0 1.6579314164825369 2.2198591017691616 0 0 0 0 -25.119809155205076 43.813254262058479 0 43.813254262058479 -21.769298230316537 0 0 0 0 2.4174529057390828 54.81815658642094 0 54.81815658642094 -126.66145348179441 0 0 0 0 47.46670839664057 36.410495210500414 0 36.410495210500414 -25.474364333276299 0 0 0 0 2.5816111380255027 2.284927536900188 0 2.284927536900188 0.78203394617717992 0 0 0 0 45.620980704142767 9.5117558208259396 0 9.5117558208259396 -8.8215445748467118 0 0 0 0 -62.045277168766916 68.887268743370953 0 68.887268743370953 -17.788509666684376 0 0 0 0 -20.763554977779677 45.001643563806397 0 45.001643563806397 -45.523768926656885 0 0 0 0 41.336229475931759 22.651037582707318 0 22.651037582707318 -15.255855914861968 0 0 0 0 -35.86955374036188 8.7241595686050459 0 8.7241595686050459 18.816739767354647 0 0 0 0 19.09762212834903 -3.7202486570790825 0 -3.7202486570790825 -44.528905425061566 0 0 0 0 22.269030902883969 12.995340140277222 0 12.995340140277222 28.236090452610483 0 0 0 0 25.531121817353778 9.8158390248070759 0 9.8158390248070759 -1.2244915123917508 0 0 0 0 -3.0984172225871589 18.341607922461549 0 18.341607922461549 3.4274301853056386 0 0 0 0 6.2860232972707308 34.18269124134963 0 34.18269124134963 -20.103682886343904 0 0 0 0 26.306898442358943 9.5424381362718691 0 9.5424381362718691 4.0717523132335316 0 0 0 0 16.130388274724069 9.2892216253535906 0 9.2892216253535906 4.1867584400139055 0 0 0 0 20.642908124496898 13.532507289429418 0 13.532507289429418 7.5586946438693303 0 0 0 0 5.5308224329492077 16.131381862362446 0 16.131381862362446 2.2313036292657671 0 0 0 0 8.8884389460169917 13.755899788168172 0 13.755899788168172 12.112601993327747 0 0 0 0 17.604038364388543 23.759599962923289 0 23.759599962923289 -6.0210830158221142 0 0 0 0 21.746291540997845 16.201120787885429 0 16.201120787885429 4.3845980374812825 0 0 0 0 20.363370088431111 14.831468107149703 0 14.831468107149703 7.2091932653746653 0 0 0 0 21.471707897782835 14.351381591135805 0 14.351381591135805 3.8834011646558793 0 0 0 0 22.901821995845239 15.045793420809787 0 15.045793420809787 -2.2180682515668195 0 0 0 0 22.432525126834662 13.465844914926492 0 13.465844914926492 3.8203600753328715 0 0 0 0 26.554659944711602 9.6340928226745746 0 9.6340928226745746 -3.4911906925757421 0 0 0 0 36.461730892965534 15.230622979536065 0 15.230622979536065 -7.3630156715511532 0 0 0 0 0.35630438611769932 2.6213274127558464 0 2.6213274127558464 23.713048123336534 0 0 0 0 -20.917711695106846 14.816864016337121 0 14.816864016337121 29.480982107454111 0 0 0 0 -14.237679452752673 6.6873331363846944 0 6.6873331363846944 90.142579851551545 0 0 0 0 -0.19864159205612708 -0.45324538517238455 0 -0.45324538517238455 -0.38973637410425077 0 0 0 0 3.6178701364806329 32.720434089179591 0 32.720434089179591 13.00454927513583 0 0 0 0 -0.58128062953619519 20.718370738334471 0 20.718370738334471 26.404508174004334 0 0 0 0 -9.1602048424356326 37.709884893472861 0 37.709884893472861 44.7160132300653 0 0 0 0 28.351248433151341 52.711014475424335 0 52.711014475424335 17.945103177534989 0 0 0 0 -9.5491527042649977 56.682600616251364 0 56.682600616251364 17.899610794839095 0 0 0 0 64.503804035475696 64.115735284829555 0 64.115735284829555 -25.677692478702852 0 0 0 0 -29.790391473264208 43.953206185917281 0 43.953206185917281 6.1335890968364311 0 0 0 0 55.404717813433308 32.832664088902789 0 32.832664088902789 -4.9928580664109177 0 0 0 0 -2.9545494363765101 24.474351498296613 0 24.474351498296613 1.0299127041718066 0 0 0 0 5.8350593239966884 36.685296744229767 0 36.685296744229767 18.514022564763877 0 0 0 0 -16.86685805921843 7.056857016630488 0 7.056857016630488 14.691880535960763 0 0 0 0 4.8990792293952836 30.308969124063765 0 30.308969124063765 -12.265142117715413 0 0 0 0 70.616144438119591 80.234702705588802 0 80.234702705588802 -26.700915837649745 0 0 0 0 29.263300223448823 92.807624157755299 0 92.807624157755299 3.3268199256839921 0 0 0 0 69.008428654555246 67.10471829208484 0 67.10471829208484 18.341746092785797 0 0 0 0 85.181834450781935 124.7286856967327 0 124.7286856967327 4.8130165589793705 0 0 0 0 296.07210616314751 5.453143616082599 0 5.453143616082599 -28.408898737910249 0 0 0 0 0.77635403227904831 0.83148938493713231 0 0.83148938493713231 -0.10002709280096234 0 0 0 0 163.13744923693594 120.28993162204807 0 120.28993162204807 8.0143376001173792 0 0 0 0 68.025087978558986 52.70858392251283 0 52.70858392251283 10.90947260486098 0 0 0 0 125.29852473016581 70.724335498560094 0 70.724335498560094 -7.3614001328655831 0 0 0 0 142.78767643111041 44.213242777070633 0 44.213242777070633 -0.27051309910808641 0 0 0 0 119.12572235264633 16.659422291510879 0 16.659422291510879 -28.9555489446713 0 0 0 0 74.532996696268128 48.699543321109019 0 48.699543321109019 11.740813463603047 0 0 0 0 -104.3576117198827 121.87826280084653 0 121.87826280084653 -75.350963637899412 0 0 0 0 1.6086107879901768 1.6306247334541837 0 1.6306247334541837 -0.21851578856047738 0 0 0 0 -7.2878679605146317 95.136853205168791 0 95.136853205168791 -86.041371203110785 0 0 0 0 -61.025584193968825 69.398801698601545 0 69.398801698601545 -60.004938833803664 0 0 0 0 -48.248710888483856 79.720369358083943 0 79.720369358083943 -71.20938371468435 0 0 0 0 3.9033385805869329 96.913864753687562 0 96.913864753687562 -69.725305830330399 0 0 0 0 -39.238111334198038 93.350531414623106 0 93.350531414623106 -101.54935547363482 0 0 0 0 -225.72349816369024 156.42236914049619 0 156.42236914049619 -18.102093326531872 0 0 0 0 -16.976533100580127 74.087126174980583 0 74.087126174980583 -92.093852293651096 0 0 0 0 2.5748345709757814 79.396607543617321 0 79.396607543617321 -118.36173959696116 0 0 0 0 -12.489370659364795 73.25702330098153 0 73.25702330098153 -9.3296731265132848 0 0 0 0 17.070757564055384 76.78964666798646 0 76.78964666798646 -91.996428670410339 0 0 0 0 0.0022997059495537542 98.181330587985997 0 98.181330587985997 -19.538491308610219 0 0 0 0 9.7110255920888449 54.596056123344624 0 54.596056123344624 5.6029025172999241 0 0 0 0 16.637236568632488 97.467928492998709 0 97.467928492998709 8.9007319056731831 0 0 0 0 -13.749610412762195 60.7692161908451 0 60.7692161908451 97.240896660128328 0 0 0 0 -0.012510161375757889 92.038760670714169 0 92.038760670714169 85.611770421605343 0 0 0 0 12.403320917681413 45.069962540768984 0 45.069962540768984 117.96327728954782 0 0 0 0 -4.0003952490405936 180.65903819197871 0 180.65903819197871 -25.312396248096945 0 0 0 0 -59.626784391250112 82.889738861181627 0 82.889738861181627 29.94631298248089 0 0 0 0 12.729380210623276 109.15066218248199 0 109.15066218248199 39.428494784836403 0 0 0 0 31.427267209181082 96.933607042590552 0 96.933607042590552 -0.52972290457452686 0 0 0 0 11.364817531619337 57.058741158218936 0 57.058741158218936 113.33068877388848 0 0 0 0 20.611234289572167 82.521382711510824 0 82.521382711510824 186.78964589733732 0 0 0 0 55.614522208736162 27.845126008028274 0 27.845126008028274 168.24835788436576 0 0 0 0 -2.2894600451945735 106.97091928359464 0 106.97091928359464 171.60788994555935 0 0 0 0 -0.7801716857521086 0.62984526805103869 0 0.62984526805103869 0.093057045627617629 0 0 0 0 11.377099314615407 57.008304349423724 0 57.008304349423724 155.02818370353589 0 0 0 0 -0.52049308948335238 47.20571142553365 0 47.20571142553365 150.57276863710194 0 0 0 0 15.369712302281187 63.327669748179687 0 63.327669748179687 80.31175207458773 0 0 0 0 24.35421248383318 71.274113661650006 0 71.274113661650006 28.281515912152827 0 0 0 0 10.795104028593414 77.566521907035622 0 77.566521907035622 142.50604347485614 0 0 0 0 0.070499587418453302 85.430372981227265 0 85.430372981227265 181.59112801264541 0 0 0 0 -18.389307068553535 81.531790518965522 0 81.531790518965522 228.78763978017003 0 0 0 0 45.794705046950185 77.407822298670681 0 77.407822298670681 100.96839009708881 0 0 0 0 0.48697003212237178 40.757009017303176 0 40.757009017303176 189.91285179727947 0 0 0 0 16.51280610653248 59.845422975814472 0 59.845422975814472 126.26355370667761 0 0 0 0 25.874370014975284 62.045692057325141 0 62.045692057325141 96.870739918518211 0 0 0 0 0.16180604872840912 167.60500516447547 0 167.60500516447547 192.67135878167937 0 0 0 0 -0.58113905809764077 0.23048109046173071 0 0.23048109046173071 0.33525755555277659 0 0 0 0 0.71627148712524757 0.31978658495259893 0 0.31978658495259893 0.39779088090816117 0 0 0 0 -7.9428986009588698 -24.137084966081602 0 -24.137084966081602 299.97280006003439 0 0 0 0 0.005876565692233271 9.2797406798938482 0 9.2797406798938482 -1.324291330310416 0 0 0 0 -10.073998621115607 28.372880329718328 0 28.372880329718328 133.90252591925497 0 0 0 0 -10.347293185969193 -1.0423307243903821 0 -1.0423307243903821 82.150307483869256 0 0 0 0 1.0280782896952587 8.4515570793871575 0 8.4515570793871575 -23.68240529616196 0 0 0 0 -0.0006152815902495945 0.03335367377337306 0 0.03335367377337306 0.76242703643147469 0 0 0 0 4.10084280553383 13.07876765965716 0 13.07876765965716 70.589279488619241 0 0 0 0 1.5671201220682818 1.2119856350921552 0 1.2119856350921552 0.90666685982401418 0 0 0 0 -3.5936767804909482 7.3205890399662641 0 7.3205890399662641 4.9015611481759152 0 0 0 0 0.060764347590307466 -0.48398756964057643 0 -0.48398756964057643 -0.06728152571027235 0 0 0 0 2.9738327608820327 6.3932815546000938 0 6.3932815546000938 -38.528279526149163 0 0 0 0 -3.5936767804882734 -4.5537781277701876 0 -4.5537781277701876 13.453448426035266 0 0 0 0 12.977061790028529 8.1845091112388673 0 8.1845091112388673 33.417186321303234 0 0 0 0 -6.4765814411184692 6.9195446388571327 0 6.9195446388571327 42.199411175965906 0 0 0 0 -1.7222724625171395 -0.73337624397561285 0 -0.73337624397561285 36.135523529616876 0 0 0 0 0.037910414052021224 6.0899876116563973 0 6.0899876116563973 40.690235036985996 0 0 0 0 1.8717803740582895 21.390533039789943 0 21.390533039789943 82.707622602727227 0 0 0 0 11.639943124647289 23.688434945181712 0 23.688434945181712 63.476532849102568 0 0 0 0 -0.039023094924893087 0.083025322887706032 0 0.083025322887706032 0.6120533499113181 0 0 0 0 -4.353321531569236 -10.320198340854404 0 -10.320198340854404 48.78643932996863 0 0 0 0 11.124718405928434 4.9918518107194814 0 4.9918518107194814 11.217110486965112 0 0 0 0 -3.6971681030772743 7.8829215015555292 0 7.8829215015555292 7.0009934037575476 0 0 0 0 -12.269089791272563 3.0078613394175591 0 3.0078613394175591 41.044915651398242 0 0 0 0 -11.739979533669725 -4.8048866310179079 0 -4.8048866310179079 36.337649921270895 0 0 0 0 9.7173662486766261 3.6402302491497949 0 3.6402302491497949 -2.1693259058072272 0 0 0 0 0.051952320538816821 -0.26381374931961687 0 -0.26381374931961687 -0.072627067668523004 0 0 0 0 22.3592236729055 29.074402810445235 0 29.074402810445235 36.553194191606167 0 0 0 0 0.83790642600615683 8.4233070789657631 0 8.4233070789657631 28.087823746066988 0 0 0 0 -9.8957471553003415 -8.1538822777670248 0 -8.1538822777670248 30.350008333297865 0 0 0 0 1.5886853120755404 -30.001979413427762 0 -30.001979413427762 8.3134900795232625 0 0 0 0 -13.175921761374411 -6.3217730200245228 0 -6.3217730200245228 58.93689943736581 0 0 0 0 2.5952110337784688 7.0625548762313883 0 7.0625548762313883 24.663572027545342 0 0 0 0 -15.630405234913269 23.245089234578472 0 23.245089234578472 44.607383820874929 0 0 0 0 24.451716597148334 2.9842369039251935 0 2.9842369039251935 7.4801054256531643 0 0 0 0 0.096009362708912249 0.25561374480253107 0 0.25561374480253107 0.48950248767082982 0 0 0 0 -15.675223692938744 -2.456891802248947 0 -2.456891802248947 23.849460101429486 0 0 0 0 -9.0393037253888906 -0.19562806439012093 0 -0.19562806439012093 9.1035878414733702 0 0 0 0 -5.6544154291714221 11.151970737903184 0 11.151970737903184 27.355306253659592 0 0 0 0 -6.4756228121186723 1.8958635379150337 0 1.8958635379150337 45.255910564520264 0 0 0 0 -1.5028275734730414 0.80303574247136567 0 0.80303574247136567 28.626202971884254 0 0 0 0 -10.77528059321412 15.098950981588132 0 15.098950981588132 6.7777674816284161 0 0 0 0 -7.4832618173049923 25.804276600039316 0 25.804276600039316 31.325662029671776 0 0 0 0 0.87833193594499193 0.93978027553274757 0 0.93978027553274757 0.50737754422901071 0 0 0 0 -18.543366869311285 23.321474806159074 0 23.321474806159074 55.251176168698066 0 0 0 0 -0.61620678687904729 32.193148449713817 0 32.193148449713817 -42.32006800927627 0 0 0 0 -12.936770779620929 23.165829577531781 0 23.165829577531781 55.184412608371758 0 0 0 0 -7.9870430829760153 33.205172599214848 0 33.205172599214848 18.426676856853977 0 0 0 0 15.703690806602026 87.505290262386382 0 87.505290262386382 115.29747840103119 0 0 0 0 -8.6131617428400205 -13.38988731378015 0 -13.38988731378015 93.961414796542613 0 0 0 0 -0.28387157320561585 0.32227230634966375 0 0.32227230634966375 0.048445559794196624 0 0 0 0 7.4913951006165007 65.010742495955355 0 65.010742495955355 179.58441904482436 0 0 0 0 0.51339321485841793 0.36400330967108907 0 0.36400330967108907 0.26534906786579193 0 0 0 0 2.837198905646801 31.990828166030383 0 31.990828166030383 222.55720383140317 0 0 0 0 15.182263828495707 -11.866578527509319 0 -11.866578527509319 -34.563433324599146 0 0 0 0 30.680978107375267 43.058801510738022 0 43.058801510738022 -55.439299714615117 0 0 0 0 -3.1292677462270149 43.933971497794118 0 43.933971497794118 59.215761769056826 0 0 0 0 11.777848870668095 41.761204262861725 0 41.761204262861725 -21.546505592270023 0 0 0 0 -5.1170315731933442 31.099665905134316 0 31.099665905134316 -1.4229525445815625 0 0 0 0 34.571853234350556 11.928339898227136 0 11.928339898227136 -22.861839141732162 0 0 0 0 58.815291871520458 54.384251771394474 0 54.384251771394474 4.0496156282966922 0 0 0 0 10.286792076265101 31.889929604402141 0 31.889929604402141 6.0684935415477526 0 0 0 0 -12.818791150262768 21.632996916403954 0 21.632996916403954 7.8981183870432119 0 0 0 0 11.519759941027132 19.368069000660171 0 19.368069000660171 -6.4457688206493913 0 0 0 0 -13.143341741336144 16.736409413017554 0 16.736409413017554 -0.29241278299286932 0 0 0 0 14.958860474233006 10.83312994507196 0 10.83312994507196 -5.5588207048499498 0 0 0 0 8.1023355861589152 25.274770113224804 0 25.274770113224804 -2.6334155006916262 0 0 0 0 -22.281667163844759 8.6646123303883087 0 8.6646123303883087 11.52104679711374 0 0 0 0 10.312535291970562 16.144822315237434 0 16.144822315237434 21.71199083540705 0 0 0 0 32.645916465005939 3.9857666633729423 0 3.9857666633729423 3.2560069928385929 0 0 0 0 24.737242034166684 32.962998494710973 0 32.962998494710973 39.9054815308873 0 0 0 0 -8.4326089967676126 27.087419120985487 0 27.087419120985487 42.296182779094579 0 0 0 0 38.619945776904046 19.041708669059119 0 19.041708669059119 -19.369905287209804 0 0 0 0 34.43255848888748 24.890854219864423 0 24.890854219864423 -23.783207701790161 0 0 0 0 -0.41686840850471807 0.3511505809153328 0 0.3511505809153328 -0.030091957214837706 0 0 0 0 12.603290957699983 39.594004312681818 0 39.594004312681818 -24.770657065768319 0 0 0 0 -12.063763276413738 0.82400366087358634 0 0.82400366087358634 87.677336869799092 0 0 0 0 3.8528673963164692 16.69252880716499 0 16.69252880716499 17.107165191003787 0 0 0 0 3.6258590663692303 8.9230173321529946 0 8.9230173321529946 13.795730858687193 0 0 0 0 3.8023381193374917 15.427079006837403 0 15.427079006837403 -0.80218960406818951 0 0 0 0 -5.5108233340652077 7.6810259449616751 0 7.6810259449616751 10.152504179805646 0 0 0 0 0.78087695490648912 10.196737347650924 0 10.196737347650924 -7.655182346483798 0 0 0 0 -8.296131369055729 9.9971585187909113 0 9.9971585187909113 -7.5047173382247365 0 0 0 0 -6.5011009667017561 10.477533297154594 0 10.477533297154594 -2.8481661709502077 0 0 0 0 -4.2437320491801529 11.274703252861059 0 11.274703252861059 -2.5795771453285852 0 0 0 0 -0.070510946314243483 8.7449130974264335 0 8.7449130974264335 -1.0597361233735683 0 0 0 0 -3.7116548698884344 8.9953473197754761 0 8.9953473197754761 -3.4028508155251984 0 0 0 0 -6.3505722081790736 8.4883724295114007 0 8.4883724295114007 -3.4866374427665505 0 0 0 0 -6.41326925981366 9.0848427551961777 0 9.0848427551961777 1.0268271442787409 0 0 0 0 -4.0450965497429934 7.049548691635664 0 7.049548691635664 -0.25950063849751359 0 0 0 0 -4.8493195234095765 18.484889239231052 0 18.484889239231052 -11.388121615523914 0 0 0 0 -7.7038128982112539 12.308813018765704 0 12.308813018765704 0.50958633299495659 0 0 0 0 3.2513507030509388 2.0030348519271275 0 2.0030348519271275 1.5812400611153361 0 0 0 0 1.4449329802757802 1.1505063907095519 0 1.1505063907095519 -5.3645152602603048 0 0 0 0 -4.2340579076367248 11.257580844388485 0 11.257580844388485 -12.239315913469909 0 0 0 0 5.3955832207376488 18.776205130351144 0 18.776205130351144 -6.273184328854768 0 0 0 0 0.11682798948916506 -0.065913780271387168 0 -0.065913780271387168 0.17622184101440297 0 0 0 0 -6.478859548912169 3.3007461049105586 0 3.3007461049105586 7.4845381855795949 0 0 0 0 -6.214388378278727 10.22542025222765 0 10.22542025222765 21.004616991328021 0 0 0 0 -7.2410762631842545 15.567394204766572 0 15.567394204766572 8.8260775299950183 0 0 0 0 6.7420086554730005 4.379782654465771 0 4.379782654465771 -11.307272164966435 0 0 0 0 4.0657058310471257 16.215425801628044 0 16.215425801628044 -15.229276370031585 0 0 0 0 1.8934309463522325 1.4900412534009124 0 1.4900412534009124 1.1008473222843635 0 0 0 0 -2.3585479586845395 0.69383831693176035 0 0.69383831693176035 19.732260812711274 0 0 0 0 -7.1465319903301179 6.9761871606319374 0 6.9761871606319374 15.935183048161889 0 0 0 0 0.81533065128828319 0.4729469765292329 0 0.4729469765292329 0.32714391989433711 0 0 0 0 59.185361011754594 -1.3279564190770543 0 -1.3279564190770543 -15.138620164315626 0 0 0 0 -3.2396227303148635 -5.6583376911123082 0 -5.6583376911123082 85.541760608374261 0 0 0 0 16.553727032415168 52.194334895246868 0 52.194334895246868 63.81319625988408 0 0 0 0 9.0392985753060202 32.646330766526603 0 32.646330766526603 13.180456537668874 0 0 0 0 -15.964280354132825 17.116014714444873 0 17.116014714444873 17.247896641013881 0 0 0 0 -14.830446949752513 11.870779952201701 0 11.870779952201701 40.957559781528516 0 0 0 0 -22.560053353363628 28.100371940983337 0 28.100371940983337 16.129011567937141 0 0 0 0 -11.522464373113507 20.305796415431701 0 20.305796415431701 18.699420598618644 0 0 0 0 -34.64558433820298 17.135942916714669 0 17.135942916714669 7.2869888669843021 0 0 0 0 -18.771680240351088 4.2109542429429894 0 4.2109542429429894 -16.662066665669499 0 0 0 0 -1.63440193948054 17.992214813020041 0 17.992214813020041 -6.6746422663768499 0 0 0 0 7.3695277821730087 29.340337637627954 0 29.340337637627954 -14.981203944129447 0 0 0 0 9.134934214540408 31.064076380389906 0 31.064076380389906 -41.932659823006929 0 0 0 0 20.198959953579561 34.593303426106786 0 34.593303426106786 -13.688372894034728 0 0 0 0 -0.5872702536386214 21.583839027073736 0 21.583839027073736 5.1878300351513644 0 0 0 0 25.723200165485082 25.496961782532395 0 25.496961782532395 -25.438519565720981 0 0 0 0 15.401689265523828 -3.2772512791223107 0 -3.2772512791223107 -45.875643110357032 0 0 0 0 2.1979878350780382 15.262392278364928 0 15.262392278364928 -8.2303820573461621 0 0 0 0 -5.5538630629368484 12.060746009159372 0 12.060746009159372 -11.061517792679815 0 0 0 0 19.787590800043517 31.273247439728777 0 31.273247439728777 11.698844985546657 0 0 0 0 68.118720570512323 25.231032506817428 0 25.231032506817428 -9.8226011157374273 0 0 0 0 7.6689299341994683 -12.273906684071562 0 -12.273906684071562 44.26072111789631 0 0 0 0 -19.191173306832297 21.796534035757531 0 21.796534035757531 16.922111814283198 0 0 0 0 -8.181434501062995 15.858823903259463 0 15.858823903259463 0.10351967268979934 0 0 0 0 -19.619378103145664 13.462062916636341 0 13.462062916636341 -9.1491725485973348 0 0 0 0 -18.331272005053847 0.20353728705970298 0 0.20353728705970298 11.821433362801599 0 0 0 0 25.525148678106234 65.100079250049248 0 65.100079250049248 35.439040765181971 0 0 0 0 -13.453745766312295 -12.348631022080326 0 -12.348631022080326 -28.646555145375373 0 0 0 0 -8.2562585049026183 13.141339248468221 0 13.141339248468221 -11.392820289185407 0 0 0 0 -24.734543630847384 -1.3524370605884997 0 -1.3524370605884997 3.404697035206766 0 0 0 0 23.300904239168631 47.314231001186954 0 47.314231001186954 28.02723824116174 0 0 0 0 18.733305298987943 58.721262389787398 0 58.721262389787398 24.762139573218519 0 0 0 0 29.401806239629877 42.639759016767698 0 42.639759016767698 38.917502021964992 0 0 0 0 3.3268059493293549 92.386951126794429 0 92.386951126794429 87.249611155563343 0 0 0 0 40.732947455263457 45.297270870900547 0 45.297270870900547 54.545292668054117 0 0 0 0 14.232984046279853 29.240282388909691 0 29.240282388909691 -16.151309240603496 0 0 0 0 31.234886101264237 51.118542020630571 0 51.118542020630571 -18.353970480242879 0 0 0 0 -47.390823700472538 70.86027630847093 0 70.86027630847093 -15.970333474074891 0 0 0 0 -51.268940525305879 49.437339572909877 0 49.437339572909877 -43.705907504270044 0 0 0 0 -92.854633455302974 79.704326551811391 0 79.704326551811391 -14.333022367163267 0 0 0 0 -67.00273355570971 50.584759159650275 0 50.584759159650275 69.569835851385093 0 0 0 0 -27.507431807357079 35.128440328375063 0 35.128440328375063 14.779194378764259 0 0 0 0 -17.916419549456805 73.373187071443226 0 73.373187071443226 41.113472800103182 0 0 0 0 -7.0044638740664595 72.389354600070874 0 72.389354600070874 -18.524290967481988 0 0 0 0 -18.602632785767128 101.67515277247452 0 101.67515277247452 113.93765677283 0 0 0 0 21.857119741197948 42.468760367919117 0 42.468760367919117 63.886941064257371 0 0 0 0 -34.50486533685762 61.478116780567234 0 61.478116780567234 69.848623243933375 0 0 0 0 -20.002686674250299 28.659808786970643 0 28.659808786970643 -8.5325661926246994 0 0 0 0 -13.637527859036915 14.843818059050594 0 14.843818059050594 -11.516079792849009 0 0 0 0 -18.890311733194949 16.931821338750979 0 16.931821338750979 3.6238063766240884 0 0 0 0 -19.038987489273993 6.0677163345619149 0 6.0677163345619149 -4.7910005989097044 0 0 0 0 -11.072791853700394 14.237660679001747 0 14.237660679001747 -11.66841411159343 0 0 0 0 10.582943841376618 -23.704398021593079 0 -23.704398021593079 4.1310715219698295 0 0 0 0 6.0952966833801838 -22.888021600770571 0 -22.888021600770571 9.2258325988841534 0 0 0 0 5.6720435793304205 -39.504455555903633 0 -39.504455555903633 3.934052835282273 0 0 0 0 29.729460106333136 -14.768956687683385 0 -14.768956687683385 6.4993537948823814 0 0 0 0 59.969454346968632 -11.018877617105318 0 -11.018877617105318 -8.5951579128914091 0 0 0 0 79.959494494202772 -36.090004530931083 0 -36.090004530931083 7.7011751129866752 0 0 0 0 55.496646043507099 -42.34429231143622 0 -42.34429231143622 1.2842066468283519 0 0 0 0 26.260191143284828 -5.6227642170542822 0 -5.6227642170542822 4.8477762026616347 0 0 0 0 40.806697121473007 -37.446043969118136 0 -37.446043969118136 -11.687352473853934 0 0 0 0 -24.45549350854526 -12.032349562565742 0 -12.032349562565742 -13.570628244222974 0 0 0 0 6.7437846032080415 -35.807540375117469 0 -35.807540375117469 -29.010710263156398 0 0 0 0 -21.040803549793054 -51.402782392339304 0 -51.402782392339304 -10.480789228221596 0 0 0 0 -48.559281338481014 -30.640265518433353 0 -30.640265518433353 12.083891819711425 0 0 0 0 -0.45744066567840491 -30.987763635280544 0 -30.987763635280544 3.3828894466760175 0 0 0 0 -9.7418349208965083 -39.892334355939965 0 -39.892334355939965 6.2655169332263085 0 0 0 0 -34.53845749271386 -39.123487786444002 0 -39.123487786444002 13.225713380323896 0 0 0 0 -25.917075995582309 -28.599356733478544 0 -28.599356733478544 25.234597346289775 0 0 0 0 -58.456715046832869 -12.04950911591186 0 -12.04950911591186 43.567781392959205 0 0 0 0 -69.568492654087095 -29.440145634131568 0 -29.440145634131568 23.205073773550112 0 0 0 0 -26.615970712427952 -23.525372477961355 0 -23.525372477961355 -71.558345605439627 0 0 0 0 -70.151135080312088 -56.706915087784182 0 -56.706915087784182 -15.242730404174836 0 0 0 0 -99.236487137949098 -10.658083202777789 0 -10.658083202777789 14.224422892835719 0 0 0 0 -226.83386025682557 -29.011611679608905 0 -29.011611679608905 -20.565543184863941 0 0 0 0 -84.45316575583638 -7.5816049462337105 0 -7.5816049462337105 -17.473203225908037 0 0 0 0 -138.74013640554585 -0.78709038716488067 0 -0.78709038716488067 20.700168273410782 0 0 0 0 -61.748725940016811 19.087827011242553 0 19.087827011242553 24.485902354781047 0 0 0 0 -72.451616441201054 10.175036400761229 0 10.175036400761229 57.157217296189629 0 0 0 0 -42.904094329120198 32.094445410526532 0 32.094445410526532 102.07844668954749 0 0 0 0 -26.970839237930704 22.160639307933252 0 22.160639307933252 57.462301729573781 0 0 0 0 -14.590050538780712 15.675468821032428 0 15.675468821032428 -12.639494690984758 0 0 0 0 -71.182050360682751 12.459939724747414 0 12.459939724747414 83.557698689223571 0 0 0 0 -2.5695523135470921 1.2830097082895513 0 1.2830097082895513 3.33317672491102 0 0 0 0 2.0103942394371188 70.757374385271532 0 70.757374385271532 88.470919070779928 0 0 0 0 -4.0132599697080877 14.373751968973465 0 14.373751968973465 30.016249498357865 0 0 0 0 11.369486116507687 43.808870586864487 0 43.808870586864487 68.564736087922256 0 0 0 0 -28.333873141349613 -4.6012371891667954 0 -4.6012371891667954 42.107070118303454 0 0 0 0 -37.076869338550296 -3.4138182856012236 0 -3.4138182856012236 50.119724579681133 0 0 0 0 -19.156684269095422 -20.728209268118917 0 -20.728209268118917 24.232939018290608 0 0 0 0 -12.00324327034923 -13.68433319018618 0 -13.68433319018618 27.03664867291991 0 0 0 0 -36.383781726703091 -9.5390834163190448 0 -9.5390834163190448 50.754979238818123 0 0 0 0 -7.0287063452697112 15.046160882728827 0 15.046160882728827 43.707808600773433 0 0 0 0 -12.138500194110748 4.9711835210810023 0 4.9711835210810023 25.416033007526494 0 0 0 0 -9.0390750494980239 2.4751551274098347 0 2.4751551274098347 22.388260117446407 0 0 0 0 -6.212967000745266 5.7066456005145483 0 5.7066456005145483 0.70385136851132302 0 0 0 0 -6.0241191106197221 3.5880045020323905 0 3.5880045020323905 20.891952297032731 0 0 0 0 0.99890557734488539 -7.86503714670107 0 -7.86503714670107 10.317559602176289 0 0 0 0 -7.5623929789235262 -15.483468883128467 0 -15.483468883128467 8.5994978461885694 0 0 0 0 6.0812247017957883 7.3195339733792064 0 7.3195339733792064 -4.4881701596117551 0 0 0 0 -4.4042508051115874 14.671870606066932 0 14.671870606066932 -1.7422117308305189 0 0 0 0 -15.22420447760669 17.737494574290849 0 17.737494574290849 -12.667336526463259 0 0 0 0 0.14052861061736621 16.641155344899062 0 16.641155344899062 1.7074071361403185 0 0 0 0 -7.257784893781972 8.5347893046302215 0 8.5347893046302215 8.1746313117341991 0 0 0 0 -10.290790002899485 11.078119855104205 0 11.078119855104205 14.586579362970951 0 0 0 0 -11.794285363870586 13.949652113059187 0 13.949652113059187 13.566101797797273 0 0 0 0 1.9688444683672675 4.788018410119415 0 4.788018410119415 5.1326175317791645 0 0 0 0 -7.4632073806569679 15.377850056265288 0 15.377850056265288 18.133271492011772 0 0 0 0 -3.5545070918178681 13.400715176762105 0 13.400715176762105 14.503363001517755 0 0 0 0 -7.455496364944338 8.5147816391017841 0 8.5147816391017841 14.104928224469404 0 0 0 0 -7.1363426763402913 10.9974091455706 0 10.9974091455706 29.146508545030883 0 0 0 0 0.68811676122459176 18.014665893715573 0 18.014665893715573 19.267292696382356 0 0 0 0 0.47584102241580695 14.823324040259877 0 14.823324040259877 -3.128926942494445 0 0 0 0 0.64592505318250915 14.679824227155905 0 14.679824227155905 -3.4155624915940734 0 0 0 0 -4.3708982838070369 17.041279171618953 0 17.041279171618953 15.152257256222583 0 0 0 0 -5.7485326275020618 9.2175316852405 0 9.2175316852405 -5.2601652032449255 0 0 0 0 0.96383093569602352 14.253947490809992 0 14.253947490809992 -2.8879849808158724 0 0 0 0 0.45437914922149503 15.039157151159088 0 15.039157151159088 -3.3808706833246447 0 0 0 0 -12.350120222069108 23.884389037852088 0 23.884389037852088 3.919685938612929 0 0 0 0 -7.3306711198624726 21.131056210312636 0 21.131056210312636 -1.0600769678794677 0 0 0 0 -42.419581466912859 7.7966053497989378 0 7.7966053497989378 7.396666423213901 0 0 0 0 -1.2970414897056344 20.976973272954069 0 20.976973272954069 34.808266912019462 0 0 0 0 -3.1728275234251626 8.2870861943163483 0 8.2870861943163483 -8.1403983831913145 0 0 0 0 -11.533952991479541 10.359314412269349 0 10.359314412269349 -4.4769114376910624 0 0 0 0 1.8321309742618723 19.909460202116151 0 19.909460202116151 10.838511194508612 0 0 0 0 15.277624730214029 -13.879962112775729 0 -13.879962112775729 -21.067805490760293 0 0 0 0 -29.663606251419594 39.981959408632576 0 39.981959408632576 23.257870805847688 0 0 0 0 10.196743589594234 52.382248747905578 0 52.382248747905578 7.6541507905653816 0 0 0 0 -14.730604174256996 27.673376878495674 0 27.673376878495674 -1.8664574583917783 0 0 0 0 6.1298685102034369 27.176026873800538 0 27.176026873800538 -7.7844866552113672 0 0 0 0 14.604458987651469 17.862137558451991 0 17.862137558451991 -25.471361215151774 0 0 0 0 20.63436644557305 14.904633777415029 0 14.904633777415029 -27.805672547014183 0 0 0 0 6.5342209764712607 3.7236125400768287 0 3.7236125400768287 -23.640166884803875 0 0 0 0 -9.6845814692608201 25.29335219860468 0 25.29335219860468 -13.100794784058962 0 0 0 0 8.2937616954208835 8.4040113059921211 0 8.4040113059921211 4.7694925258513159 0 0 0 0 -40.269074881694905 19.043061274455795 0 19.043061274455795 33.150896275580635 0 0 0 0 0.65569834187826714 3.1516265552474456 0 3.1516265552474456 1.3186716412026342 0 0 0 0 -15.906859754028119 19.389627031979671 0 19.389627031979671 -11.711635883148972 0 0 0 0 -6.0500946755200289 26.003607575037279 0 26.003607575037279 -12.965269449231528 0 0 0 0 -9.5345259523041932 24.477835228602544 0 24.477835228602544 -5.9450588861700453 0 0 0 0 -7.8927747250045286 19.582941735803615 0 19.582941735803615 -11.708547369632711 0 0 0 0 -5.2952750908819279 9.9344479243096444 0 9.9344479243096444 -7.0043121041057148 0 0 0 0 -2.7375081340205725 14.089840084907337 0 14.089840084907337 -4.2319296631578709 0 0 0 0 -5.9981093020933258 22.037014121374227 0 22.037014121374227 -5.1266836949016579 0 0 0 0 -9.6128354199654495 14.988825910998003 0 14.988825910998003 -16.347781091835259 0 0 0 0 -5.9313396253855899 9.2069423268635546 0 9.2069423268635546 -5.6812409510112047 0 0 0 0 7.6100064536723124 14.379711609731523 0 14.379711609731523 -1.1080806088348769 0 0 0 0 -1.7233431840861435 13.06879951605875 0 13.06879951605875 1.8205304411281524 0 0 0 0 2.4466078089038259 9.9177739673669301 0 9.9177739673669301 -3.8051926355844081 0 0 0 0 -0.25929921588453908 33.665324399254132 0 33.665324399254132 -19.047813925062655 0 0 0 0 -2.5963714849353892 27.395295471246754 0 27.395295471246754 0.46713848007311753 0 0 0 0 12.32967596866456 22.822964193245753 0 22.822964193245753 -10.096592083848918 0 0 0 0 -13.336276130801707 11.907658459602317 0 11.907658459602317 -2.6505937944421021 0 0 0 0 -9.9185083079755714 6.7855067358439101 0 6.7855067358439101 1.6511011758666427 0 0 0 0 13.288806128450233 0.65504378195737445 0 0.65504378195737445 -37.848346997149292 0 0 0 0 -2.1674590509704323 10.521078239605625 0 10.521078239605625 -10.675943210877534 0 0 0 0 -9.5531034402392834 5.5080549935423733 0 5.5080549935423733 -11.732059070175751 0 0 0 0 -5.3081708477194915 8.1052465511281468 0 8.1052465511281468 -9.9050630089236016 0 0 0 0 0.67986973635925096 7.5424112558844172 0 7.5424112558844172 -12.386856026416922 0 0 0 0 -12.09700227229041 -2.7577281914393552 0 -2.7577281914393552 0.13028281987271839 0 0 0 0 1.1154663687258797 8.843827870133115 0 8.843827870133115 -3.0631611290942828 0 0 0 0 20.488534315783909 12.56353425263751 0 12.56353425263751 -11.179046768483204 0 0 0 0 -46.652643224348139 15.42138081598705 0 15.42138081598705 0.078430966860196349 0 0 0 0 1.6874734632822808 1.378997426892532 0 1.378997426892532 -1.2188581256685609 0 0 0 0 3.4893123786583402 6.8305871692029605 0 6.8305871692029605 -3.4624461943955147 0 0 0 0 -13.643136948467145 21.692358790781782 0 21.692358790781782 -10.712246630360823 0 0 0 0 -21.118278393082846 15.131534674225833 0 15.131534674225833 7.4209797161738607 0 0 0 0 -36.304489122831455 15.148735887096564 0 15.148735887096564 8.7629719479677988 0 0 0 0 -33.72785389075807 16.048624631096686 0 16.048624631096686 -4.380449773433611 0 0 0 0 -7.9720034663780552 48.92092851521852 0 48.92092851521852 12.166910748868304 0 0 0 0 0.56574075241636823 0.58083661127889918 0 0.58083661127889918 0.25411777041182582 0 0 0 0 47.156817073946968 26.39154722184503 0 26.39154722184503 -24.971983898117742 0 0 0 0 -49.686494138427634 27.54516316623608 0 27.54516316623608 23.212269454841476 0 0 0 0 12.901122789971396 16.069380580634515 0 16.069380580634515 -26.597732827070786 0 0 0 0 40.404297578814294 42.003078985947468 0 42.003078985947468 -17.807582514971728 0 0 0 0 -14.606660152100176 23.417497846261995 0 23.417497846261995 -20.330136141881667 0 0 0 0 35.76506190924465 10.840155774712002 0 10.840155774712002 -29.730195404563801 0 0 0 0 -22.735586290369667 57.998168313545534 0 57.998168313545534 -17.511909037898477 0 0 0 0 0.9859754435770105 1.2856516944191299 0 1.2856516944191299 1.0892103758499392 0 0 0 0 -61.432824993182521 39.07678968220705 0 39.07678968220705 -11.204071604393448 0 0 0 0 -13.090439937004021 16.862689993179828 0 16.862689993179828 -7.875439684857156 0 0 0 0 -45.927339639552883 11.106857262436279 0 11.106857262436279 0.35206108394118019 0 0 0 0 -26.988862438799515 25.954273315379851 0 25.954273315379851 -21.427413730865737 0 0 0 0 -75.252486183998371 63.549850955219881 0 63.549850955219881 -1.3904091102118628 0 0 0 0 -1.2589350507769268 18.592849054001817 0 18.592849054001817 -25.822027872426816 0 0 0 0 -62.353246232993342 40.925185236161497 0 40.925185236161497 -9.8672457179009143 0 0 0 0 1.0954099074697865 1.4834174640220059 0 1.4834174640220059 1.2992489858465905 0 0 0 0 -13.383824595172882 31.235738237142186 0 31.235738237142186 47.04194434594956 0 0 0 0 -18.048823927606918 11.675446591742002 0 11.675446591742002 -24.011501363236562 0 0 0 0 83.572174997405909 27.355689100865447 0 27.355689100865447 -45.538402149864851 0 0 0 0 21.065483241553693 -27.858329073586674 0 -27.858329073586674 5.4941704336943076 0 0 0 0 -9.3947821570156975 37.768091143113793 0 37.768091143113793 -36.822489215168389 0 0 0 0 -13.446518245770221 1.3906016067064684 0 1.3906016067064684 -18.315176666397292 0 0 0 0 16.672955292880602 1.4277083114707239 0 1.4277083114707239 -31.659358664740466 0 0 0 0 0.38929560027589183 1.1045305646917924 0 1.1045305646917924 1.2617000323365599 0 0 0 0 6.8593246257973988 -2.2046126384784657 0 -2.2046126384784657 16.894372148645743 0 0 0 0 4.6932216682488956 6.4530847635250943 0 6.4530847635250943 6.9032644175154196 0 0 0 0 3.647027149826954 15.42967513834401 0 15.42967513834401 15.592481392881382 0 0 0 0 8.3353081953678156 14.423680836600397 0 14.423680836600397 -6.3506664493169183 0 0 0 0 -31.11805417263065 30.512681760048281 0 30.512681760048281 -27.4573528306355 0 0 0 0 -32.672713394677885 6.6782949808175545 0 6.6782949808175545 -7.7479694871085485 0 0 0 0 0.91602723932980812 1.1669512745307529 0 1.1669512745307529 0.83565579591576267 0 0 0 0 -62.753145921366524 48.616762366962007 0 48.616762366962007 -11.327830008154706 0 0 0 0 -53.776851548273953 19.120949404924431 0 19.120949404924431 -87.974235085266628 0 0 0 0 -55.772868208420164 20.804942650465534 0 20.804942650465534 4.9359779847918617 0 0 0 0 -18.332391909720172 -1.284946991838865 0 -1.284946991838865 -3.2114053368350142 0 0 0 0 19.536121323966654 30.168235256422122 0 30.168235256422122 27.43590477239195 0 0 0 0 13.106853889798003 21.771458026039909 0 21.771458026039909 20.195370572722823 0 0 0 0 9.6024207401678723 22.582876657364068 0 22.582876657364068 24.751046180711455 0 0 0 0 19.433592896148753 23.327148881197218 0 23.327148881197218 23.230797926820742 0 0 0 0 7.0265237293424434 33.463996864142246 0 33.463996864142246 38.589898787656693 0 0 0 0 0.82400356775066541 1.0384239510621809 0 1.0384239510621809 -1.8162634867617982 0 0 0 0 11.089761097719929 39.018728247781837 0 39.018728247781837 10.787409218659377 0 0 0 0 3.8522922730026039 21.239926711930821 0 21.239926711930821 19.509960864512777 0 0 0 0 7.4766407915431046 16.518304433849153 0 16.518304433849153 24.28938738720035 0 0 0 0 4.6727475521875022 14.334292714019284 0 14.334292714019284 4.4467921669053112 0 0 0 0 11.909249167358212 18.357434165985978 0 18.357434165985978 13.178006199175798 0 0 0 0 4.7728583841144427 12.745542568440214 0 12.745542568440214 19.068936952019612 0 0 0 0 -18.733064263109554 -18.526946540792096 0 -18.526946540792096 -8.0452957621400856 0 0 0 0 -40.660567573657318 23.62314931029141 0 23.62314931029141 2.9756576155446055 0 0 0 0 0.34433659858632382 0.33965537537366242 0 0.33965537537366242 -0.69204314211704698 0 0 0 0 -0.99228037079956266 30.304034511870668 0 30.304034511870668 2.5822223335098897 0 0 0 0 6.7282575075317599 6.2467820013709705 0 6.2467820013709705 5.259210048045734 0 0 0 0 0.83896119156202076 45.612439542241418 0 45.612439542241418 -35.003066921581649 0 0 0 0 -17.471643534488976 29.067949045296245 0 29.067949045296245 11.168350055761948 0 0 0 0 -20.783907322876701 -4.7021500675861887 0 -4.7021500675861887 -5.1047071325210709 0 0 0 0 4.7005326457169758 25.067284648462874 0 25.067284648462874 -2.2198040548591962 0 0 0 0 -43.48895250638725 -0.26075493092275792 0 -0.26075493092275792 78.519836542815938 0 0 0 0 25.625662062155243 4.9777905256560189 0 4.9777905256560189 -23.976834945886196 0 0 0 0 1.4135491942434992 0.1836436756849622 0 0.1836436756849622 -0.011872293398139888 0 0 0 0 6.1552755324654562 5.2631934910987663 0 5.2631934910987663 2.0508104695713154 0 0 0 0 -1.1654119167619683 14.448366785180042 0 14.448366785180042 3.6452209159751874 0 0 0 0 -1.7414074708490332 5.7066181029576892 0 5.7066181029576892 1.1404933205718231 0 0 0 0 -3.0836224598424451 4.1469308374926186 0 4.1469308374926186 13.524309465225997 0 0 0 0 -2.0666533501562299 7.7739384305077692 0 7.7739384305077692 21.778764093417749 0 0 0 0 -4.7319379136079078 7.5834433948671176 0 7.5834433948671176 8.3261735296600818 0 0 0 0 -6.2527883807561011 11.238471604528627 0 11.238471604528627 18.52453429342313 0 0 0 0 -4.1292718169273535 4.3194167367887175 0 4.3194167367887175 -0.42275110760573731 0 0 0 0 2.8248671300757451 7.6463654689127907 0 7.6463654689127907 5.2635081106072903 0 0 0 0 -27.981448818058198 9.9979192026426063 0 9.9979192026426063 26.788714691503628 0 0 0 0 -5.9678952908143259 5.411038120409609 0 5.411038120409609 -1.7878233272068882 0 0 0 0 -8.0703430107541863 -6.362414112059696 0 -6.362414112059696 12.802529735750795 0 0 0 0 -8.3831350749460398 13.508387790890538 0 13.508387790890538 9.4420694505233769 0 0 0 0 4.8450670776346669 8.5054331911687768 0 8.5054331911687768 -3.3058974499588203 0 0 0 0 -5.5376726946757344 13.90497928857144 0 13.90497928857144 6.0280150958824379 0 0 0 0 -6.3504642685438739 11.918880798238206 0 11.918880798238206 2.7216268487845809 0 0 0 0 -7.7468493719270555 13.93732612969734 0 13.93732612969734 2.8091969579445504 0 0 0 0 -8.7251021922256768 11.972693692707253 0 11.972693692707253 7.2915269618479215 0 0 0 0 0.31134325875063951 6.0853377057401303 0 6.0853377057401303 18.906054448811119 0 0 0 0 -1.1112285914159656 17.600521211285013 0 17.600521211285013 36.190484380129192 0 0 0 0 -0.930924815843305 0.54164570372120213 0 0.54164570372120213 0.20564265505133505 0 0 0 0 -8.595881724895662 18.807866081840984 0 18.807866081840984 -9.9806252694825162 0 0 0 0 6.9715328581243128 4.7844430175354944 0 4.7844430175354944 0.24450862996593159 0 0 0 0 -9.0547359043303004 20.086686546384044 0 20.086686546384044 -8.7296593311866673 0 0 0 0 -7.7380309664831657 20.193348419669746 0 20.193348419669746 -11.113264591278494 0 0 0 0 -8.3997252731269327 17.840215960408386 0 17.840215960408386 -13.541035682780603 0 0 0 0 -6.6410506002730472 16.413764710844134 0 16.413764710844134 -7.9996832281931347 0 0 0 0 -7.120395278475371 14.35782979018677 0 14.35782979018677 -2.0501757267484209 0 0 0 0 -9.9120895525293236 16.016714706294806 0 16.016714706294806 2.2171406726736222 0 0 0 0 -12.059692087305848 19.001270816982469 0 19.001270816982469 -3.091281259862626 0 0 0 0 -8.5694728950820718 16.823659538620632 0 16.823659538620632 -8.2545153250757721 0 0 0 0 -9.4225529996983823 21.258782152554886 0 21.258782152554886 -15.13521904229674 0 0 0 0 -13.447320267192026 15.718199075698067 0 15.718199075698067 1.920692348619923 0 0 0 0 -12.504189360064629 17.430867348642096 0 17.430867348642096 -8.2371914953369014 0 0 0 0 -7.6570901905924984 18.106921134086406 0 18.106921134086406 -8.1466385628696116 0 0 0 0 -5.447802486947694 12.253160641002523 0 12.253160641002523 1.8351512531753542 0 0 0 0 -11.315025834226617 14.571938937238883 0 14.571938937238883 8.4550829667363985 0 0 0 0 -9.418670267285961 11.405978903237155 0 11.405978903237155 12.247819103211668 0 0 0 0 -1.1620591543000955 6.7169955655122067 0 6.7169955655122067 6.0846749252577865 0 0 0 0 -14.986586888391685 12.568007079918061 0 12.568007079918061 6.0778396306432114 0 0 0 0 -14.990674907044195 15.148387007107885 0 15.148387007107885 -7.2874874361332331 0 0 0 0 -8.0528732160178151 16.487252029583942 0 16.487252029583942 -7.0357686807737991 0 0 0 0 -10.984818864104454 14.207357234099618 0 14.207357234099618 -29.184379873672697 0 0 0 0 -13.863817564238161 26.609248342578212 0 26.609248342578212 -21.202103702486056 0 0 0 0 -5.8698070685204584 -5.7468356362969644 0 -5.7468356362969644 13.434579111673884 0 0 0 0 -19.149286218585075 36.5734218510147 0 36.5734218510147 -43.677881546745994 0 0 0 0 0.81770161042505407 0.84595065059643559 0 0.84595065059643559 0.63771586774383771 0 0 0 0 12.382331821978369 7.0996210906087072 0 7.0996210906087072 -4.2574914081542374 0 0 0 0 -7.6908321007203995 16.860020133649414 0 16.860020133649414 -3.1742663542445371 0 0 0 0 -15.220163685900388 23.931233439879179 0 23.931233439879179 -22.320692477622288 0 0 0 0 -18.784870688177307 19.416246442208376 0 19.416246442208376 -18.787755420084068 0 0 0 0 -14.428725208936157 17.642018309876221 0 17.642018309876221 -18.174366109010407 0 0 0 0 -10.630541821823954 22.028153919947727 0 22.028153919947727 -15.653821644955315 0 0 0 0 -7.461717418875196 23.768419776301016 0 23.768419776301016 -27.781890273116005 0 0 0 0 0.85556764757206594 1.9755520999270111 0 1.9755520999270111 0.7367626472860298 0 0 0 0 -8.3880849288525496 22.458163900261297 0 22.458163900261297 -22.595021665361855 0 0 0 0 -9.0403596385622222 19.453571596335678 0 19.453571596335678 -16.094137027472243 0 0 0 0 -4.3147816246782895 16.160421945665803 0 16.160421945665803 -27.590952665465011 0 0 0 0 -7.209904405587622 19.431857298881823 0 19.431857298881823 -23.570048687925009 0 0 0 0 -6.5659181187547802 4.4806184037679486 0 4.4806184037679486 -1.7279287706512605 0 0 0 0 -18.675889044880023 8.0494584606931312 0 8.0494584606931312 -10.24008547860285 0 0 0 0 2.1633113154887766 -0.35510894235865109 0 -0.35510894235865109 -1.0975278596360276 0 0 0 0 -8.0218240310205147 19.86414590710956 0 19.86414590710956 -3.1267018096768879 0 0 0 0 3.2687779318764587 4.214900706784551 0 4.214900706784551 0.43573210703812038 0 0 0 0 3.6393576880941509 5.9316168764598842 0 5.9316168764598842 -7.805977960342716 0 0 0 0 7.0043931471596288 2.3426619076403341 0 2.3426619076403341 -2.702579982542531 0 0 0 0 6.2594020869091764 6.6896520624795812 0 6.6896520624795812 -5.7814968711097663 0 0 0 0 0.71852625733208697 8.9673236082294352 0 8.9673236082294352 -5.0894931004471573 0 0 0 0 6.0899521258506866 6.3370007555895427 0 6.3370007555895427 -4.3159830664662877 0 0 0 0 -1.6860361149856544 18.259376108390825 0 18.259376108390825 -6.5020124079583184 0 0 0 0 -7.6222119447925252 19.359588522861486 0 19.359588522861486 -15.703278216766194 0 0 0 0 -4.8973303398379358 6.3329588388969569 0 6.3329588388969569 -16.240893443180539 0 0 0 0 4.8540234938999554 5.5452037460834838 0 5.5452037460834838 -0.81887562554664228 0 0 0 0 0.22470578707407185 9.2322090581917564 0 9.2322090581917564 6.7067302867744729 0 0 0 0 -23.47170189400731 15.644302600655465 0 15.644302600655465 9.3570837531519828 0 0 0 0 4.2880674535299672 5.9758960375660806 0 5.9758960375660806 6.9595708131350946 0 0 0 0 -11.813525091836823 19.833225943053321 0 19.833225943053321 -0.98955774046225997 0 0 0 0 4.6958568007679364 5.7054197227611994 0 5.7054197227611994 7.3593278518508498 0 0 0 0 -1.1049084818291703 -1.3089182049670853 0 -1.3089182049670853 0.63312043115797678 0 0 0 0 9.2704008501032149 -9.9143717829902016 0 -9.9143717829902016 16.760561162865997 0 0 0 0 3.1611117779798406 8.5215481394757262 0 8.5215481394757262 6.4074607759002902 0 0 0 0 -4.5204192780456651 4.8742092776838035 0 4.8742092776838035 17.456259710255267 0 0 0 0 -3.1298551567838331 2.8831505983964689 0 2.8831505983964689 1.731508608842887 0 0 0 0 9.3763521323826353 5.1831682791826097 0 5.1831682791826097 4.49659991407907 0 0 0 0 -13.129906708759563 5.1398251375035215 0 5.1398251375035215 14.960987460481192 0 0 0 0 -8.2120276008163273 20.210636527723182 0 20.210636527723182 -18.475203426041844 0 0 0 0 -20.066485228722058 12.159822493333422 0 12.159822493333422 1.0088182708623208 0 0 0 0 -25.420030363930891 12.811858963264967 0 12.811858963264967 -21.134132439809946 0 0 0 0 2.7193120242527584 13.241852270747586 0 13.241852270747586 -9.6842826984866406 0 0 0 0 -5.0451679559964759 32.880288169925961 0 32.880288169925961 -62.002977536803883 0 0 0 0 -16.0691710576898 25.593730963573307 0 25.593730963573307 -0.46666420685141929 0 0 0 0 -5.3685495613917738 41.598275560052571 0 41.598275560052571 -23.46109211528983 0 0 0 0 -0.98751748752624735 16.494004746207452 0 16.494004746207452 2.5596928826234944 0 0 0 0 22.074912462258908 -14.485219160739234 0 -14.485219160739234 14.492401241108382 0 0 0 0 -1.7222077874548631 13.394512856254096 0 13.394512856254096 30.024868103029803 0 0 0 0 32.874935827080662 -0.33580155506342635 0 -0.33580155506342635 11.079527806279657 0 0 0 0 1.193056499490158 2.6012072171477332 0 2.6012072171477332 1.8131259481664701 0 0 0 0 18.536776977419322 -9.0132142924530854 0 -9.0132142924530854 44.484086334363838 0 0 0 0 40.433572612164426 -1.8786445324553824 0 -1.8786445324553824 8.3018358767312748 0 0 0 0 -2.5339468280735673 17.968418143557756 0 17.968418143557756 7.6974266652666472 0 0 0 0 21.359435536952674 -22.002441572077146 0 -22.002441572077146 27.335317983490313 0 0 0 0 3.9842438106315967 -9.1227252610797223 0 -9.1227252610797223 35.126267670729248 0 0 0 0 17.706700999154236 -3.0478962970173598 0 -3.0478962970173598 6.9571846024791739 0 0 0 0 6.8087261585624708 6.4470651091938418 0 6.4470651091938418 4.8921890866709887 0 0 0 0 -9.2229984326418162 20.878403977351354 0 20.878403977351354 5.9026075362144184 0 0 0 0 0.87447676168426369 5.2698213754538301 0 5.2698213754538301 8.2022033439643565 0 0 0 0 -2.1486292813735872 9.1635226568334929 0 9.1635226568334929 22.310799732224041 0 0 0 0 -1.4142573443834792 0.28779037319307577 0 0.28779037319307577 -0.30413397125439889 0 0 0 0 -2.0206806358529725 2.103093336442285 0 2.103093336442285 1.514470482560216 0 0 0 0 -7.4139783222758524 13.301252186396141 0 13.301252186396141 13.723648988348032 0 0 0 0 -3.9478366470020774 19.335449405760301 0 19.335449405760301 -17.138721560635759 0 0 0 0 -0.82202996334026146 1.2866233354293852 0 1.2866233354293852 -1.7725952694812293 0 0 0 0 21.503275547952853 22.138842646019384 0 22.138842646019384 23.765171763417243 0 0 0 0 18.036485533952145 14.469077322554767 0 14.469077322554767 7.7154756947584247 0 0 0 0 -0.079170485680151614 4.4872572471235799 0 4.4872572471235799 28.359636041676367 0 0 0 0 12.795256093609623 16.165723546455183 0 16.165723546455183 29.532626796191835 0 0 0 0 31.196348525209942 3.9006951930946343 0 3.9006951930946343 27.427544496744304 0 0 0 0 -0.43016333904524373 0.057758128919717322 0 0.057758128919717322 -0.044247261685836925 0 0 0 0 9.3720961193607764 12.59290416480826 0 12.59290416480826 -134.5586803456672 0 0 0 0 -18.22452548767842 49.784663101431761 0 49.784663101431761 -78.649058130279627 0 0 0 0 -8.2315263879468148 -1.5336408727466733 0 -1.5336408727466733 -82.005988615636852 0 0 0 0 -9.002820581171477 5.521249344870526 0 5.521249344870526 -9.5051491558988346 0 0 0 0 -23.159839938376081 43.896051125689155 0 43.896051125689155 -20.148095913934299 0 0 0 0 -32.799327994265695 31.701560834719203 0 31.701560834719203 -15.542630347228624 0 0 0 0 14.286156549925636 34.232412222563653 0 34.232412222563653 -4.9771957916582323 0 0 0 0 23.956198904914345 1.8153106012123317 0 1.8153106012123317 -53.853591294866078 0 0 0 0 18.312569975516908 60.721671298213096 0 60.721671298213096 -8.7184154543246741 0 0 0 0 -11.590673447190284 38.338117121425626 0 38.338117121425626 4.0848259550457442 0 0 0 0 -55.62720204731977 38.077117327296037 0 38.077117327296037 4.8339882840525661 0 0 0 0 0.43660589986721465 0.47079354301708776 0 0.47079354301708776 0.18580359191589935 0 0 0 0 -13.137927733650713 74.845090404278153 0 74.845090404278153 -76.318734069906895 0 0 0 0 21.49784470502027 31.404283672368592 0 31.404283672368592 -22.813108337218182 0 0 0 0 19.314049317292529 25.086211991090295 0 25.086211991090295 -37.589631849344187 0 0 0 0 49.119240032080597 22.14940208446319 0 22.14940208446319 -23.498536816426167 0 0 0 0 -11.372077738313237 30.881213284207661 0 30.881213284207661 -10.491307409687124 0 0 0 0 -40.170907367873042 26.773135402904245 0 26.773135402904245 26.55950188388033 0 0 0 0 -17.377650580413047 18.376985720637435 0 18.376985720637435 -9.1285007790265809 0 0 0 0 -15.149972030612389 15.2843714727926 0 15.2843714727926 -21.857697092369563 0 0 0 0 3.3285193357901335 31.67230055291293 0 31.67230055291293 -10.488621973537658 0 0 0 0 8.941876016198421 7.7589854537689007 0 7.7589854537689007 -26.153707630319332 0 0 0 0 -2.8967266807303531 22.12892888718352 0 22.12892888718352 -24.544871593342805 0 0 0 0 -14.21710986079016 10.338625211477066 0 10.338625211477066 -36.107131760737502 0 0 0 0 0.11642015374671288 -0.041208340042365066 0 -0.041208340042365066 -0.062213409287284804 0 0 0 0 8.7146815574333232 40.811411550305365 0 40.811411550305365 -73.162631359816714 0 0 0 0 3.938816875444445 51.393831161913567 0 51.393831161913567 -11.447894072030067 0 0 0 0 29.418188589696001 20.804664436478561 0 20.804664436478561 14.376177430769076 0 0 0 0 36.739361740534605 39.899440968541967 0 39.899440968541967 9.8131659619987204 0 0 0 0 27.044654830084141 54.58660182192304 0 54.58660182192304 5.3815519197250978 0 0 0 0 -0.64497114511828535 0.68446902774726404 0 0.68446902774726404 -0.36144540953205073 0 0 0 0 18.853709624132534 9.8451757421521506 0 9.8451757421521506 -2.2730678586199247 0 0 0 0 -42.879488815456853 21.671433496093869 0 21.671433496093869 25.186572542732392 0 0 0 0 35.938891147180584 14.339406680389402 0 14.339406680389402 -64.476412173520487 0 0 0 0 -0.48177916847852398 0.39011889768387231 0 0.39011889768387231 -0.094647223024331595 0 0 0 0 -58.380952541363058 58.954345283602606 0 58.954345283602606 -0.49528695410981527 0 0 0 0 27.492853032996209 -0.097206480096929226 0 -0.097206480096929226 15.291192731605406 0 0 0 0 23.174906358869066 18.442347945519941 0 18.442347945519941 -35.882998836918205 0 0 0 0 -1.4534041341757984 4.5784789737929259 0 4.5784789737929259 -2.3475958743119918 0 0 0 0 -0.87074481538505744 0.68757567042865553 0 0.68757567042865553 -0.52253142070863756 0 0 0 0 -3.8004520109737001 5.9919626231559704 0 5.9919626231559704 2.9005165785911231 0 0 0 0 -3.6891308247492134 8.4123242319074194 0 8.4123242319074194 -0.85201065142973675 0 0 0 0 -3.302142524569831 2.4322972535155714 0 2.4322972535155714 6.4836633572385836 0 0 0 0 -2.5555673934968581 3.684992067712983 0 3.684992067712983 0.141461146432448 0 0 0 0 -0.16621943485733937 2.2421786499139671 0 2.2421786499139671 5.4167464782353818 0 0 0 0 -0.058904801652355232 0.21432320008002392 0 0.21432320008002392 0.11116621656465675 0 0 0 0 -0.63533850440944661 3.6579560486914033 0 3.6579560486914033 23.599951247739227 0 0 0 0 -7.6900657059059085 9.8389338397146275 0 9.8389338397146275 -33.211929559505734 0 0 0 0 -15.046835066965699 26.745773843895392 0 26.745773843895392 -46.900181410287132 0 0 0 0 5.6557772133724029 23.466888268305638 0 23.466888268305638 -42.16629890876743 0 0 0 0 -0.28802113957694964 0.24827923346736824 0 0.24827923346736824 0.27708771672817178 0 0 0 0 -9.5150360614677538 8.8475455173316959 0 8.8475455173316959 -14.572496915228839 0 0 0 0 -13.384711099617562 13.723708744291798 0 13.723708744291798 -12.403638728754913 0 0 0 0 -12.31698368000616 5.4975343165442609 0 5.4975343165442609 1.8586486026888451 0 0 0 0 42.877771951151772 -16.693252171179211 0 -16.693252171179211 3.1545003350106526 0 0 0 0 7.5372800329450911 47.120076752761634 0 47.120076752761634 25.518262325040723 0 0 0 0 -20.341919240594962 17.197123010826544 0 17.197123010826544 -6.2907094105903525 0 0 0 0 -11.529719670407303 26.699969720305717 0 26.699969720305717 -9.0587645631258056 0 0 0 0 -30.335406196904842 15.2722191959665 0 15.2722191959665 -8.5999416579688841 0 0 0 0 -0.55202635866644911 1.1947201231210896 0 1.1947201231210896 -2.383187830971714 0 0 0 0 -18.138590900693771 17.64104071793281 0 17.64104071793281 -14.433684824048214 0 0 0 0 -151.52970986584387 8.7238376072054962 0 8.7238376072054962 40.425559552956656 0 0 0 0 -20.404236987059448 17.978991525572326 0 17.978991525572326 -15.193025760689125 0 0 0 0 -0.14752371845484813 0.29927008548720924 0 0.29927008548720924 -0.82769170256806746 0 0 0 0 -120.13169386514164 -19.876088875597361 0 -19.876088875597361 53.455479577925416 0 0 0 0 45.067703794920135 18.087020714909386 0 18.087020714909386 -6.564858549051678 0 0 0 0 -9.2362826992894043 121.16377036618906 0 121.16377036618906 -14.132577410433441 0 0 0 0 13.633650389599097 -34.746815745075395 0 -34.746815745075395 55.681860984565901 0 0 0 0 -1.5258004411944057 -20.834179133583802 0 -20.834179133583802 7.9642204918209245 0 0 0 0 1.0337309730399014 0.18603184378854287 0 0.18603184378854287 0.1487859929769435 0 0 0 0 -6.513811211920256 52.611633287945551 0 52.611633287945551 -51.196769146696397 0 0 0 0 0.99880613874211122 25.679508845589226 0 25.679508845589226 -13.76526861291245 0 0 0 0 11.13279711425821 14.343235225042463 0 14.343235225042463 -37.345169795125912 0 0 0 0 5.194487434541827 -5.2733895665036812 0 -5.2733895665036812 1.0832538804852447 0 0 0 0 -15.563713138102798 20.986398772244058 0 20.986398772244058 -5.7640679122978327 0 0 0 0 0.27733320986951426 0.80525458383124127 0 0.80525458383124127 0.020525803781033858 0 0 0 0 3.1610046052209828 1.9668457796822345 0 1.9668457796822345 -0.10766969126815518 0 0 0 0 -63.80054321189391 28.307820416999675 0 28.307820416999675 65.100315701527506 0 0 0 0 -56.934355884794513 61.097269288835832 0 61.097269288835832 -24.76791675335744 0 0 0 0 44.636643757638012 1.6906892038655315 0 1.6906892038655315 -68.154286852347468 0 0 0 0 -1.5983275643393426 62.458296355978234 0 62.458296355978234 -91.657873682268473 0 0 0 0 -77.870171296669469 80.575337091927395 0 80.575337091927395 -57.175152715925833 0 0 0 0 -16.202990874155148 60.354019285400682 0 60.354019285400682 -60.252391913287283 0 0 0 0 54.018432174896134 66.541232495314944 0 66.541232495314944 -84.368047683795794 0 0 0 0 -0.58980855374980123 0.91402227394367364 0 0.91402227394367364 -0.38250481289135152 0 0 0 0 -76.824092971874961 19.507648518955648 0 19.507648518955648 -1.9767864852401544 0 0 0 0 -112.92748847253461 38.35660830737379 0 38.35660830737379 -10.825285308597813 0 0 0 0 -21.102133796579437 55.71109215992692 0 55.71109215992692 -46.424336387501171 0 0 0 0 -34.123928635085122 7.8103900155456358 0 7.8103900155456358 2.8756459434162025 0 0 0 0 -14.131590437547857 -0.60411782307664907 0 -0.60411782307664907 -5.5325899933478695 0 0 0 0 -8.139432822330491 6.8036062523460714 0 6.8036062523460714 -3.9776808480692125 0 0 0 0 -22.226659123561269 53.44872108135425 0 53.44872108135425 -59.68547689429306 0 0 0 0 11.678885991914285 -14.563896718620526 0 -14.563896718620526 -61.72573013829151 0 0 0 0 -12.070226050053407 45.407015916330693 0 45.407015916330693 -58.5373553106283 0 0 0 0 -28.040961759527363 28.965908147063146 0 28.965908147063146 -10.906079727830729 0 0 0 0 -22.847648783029399 4.8061024156286294 0 4.8061024156286294 -36.321504401173115 0 0 0 0 0.34644536731775588 13.042232067372879 0 13.042232067372879 -2.1080214518970024 0 0 0 0 15.773701626764478 53.262411732841656 0 53.262411732841656 -6.8443695548376127 0 0 0 0 -17.7754170590988 22.403491897046479 0 22.403491897046479 8.2490775189003216 0 0 0 0 -17.814644507465118 13.906711233021952 0 13.906711233021952 2.2011634319342193 0 0 0 0 -4.4052019382843355 25.076048149679082 0 25.076048149679082 6.0631454923395722 0 0 0 0 -9.8475408736551806 13.097438605467234 0 13.097438605467234 -14.581713220466462 0 0 0 0 0.28123884128642995 24.8304538844354 0 24.8304538844354 -19.920840592172681 0 0 0 0 0.57920410413203172 13.856524446822618 0 13.856524446822618 -23.248435764115129 0 0 0 0 -16.072417009675746 23.732468277048156 0 23.732468277048156 150.43727570942065 0 0 0 0 0.69111910512720431 2.8303047947354152 0 2.8303047947354152 -4.1386558742475961 0 0 0 0 -1.5629864069412633 32.406547274762488 0 32.406547274762488 53.762170100726962 0 0 0 0 -11.462263198533606 42.706541538815145 0 42.706541538815145 56.498916616477345 0 0 0 0 11.073117319029762 50.778157395268863 0 50.778157395268863 52.879196421017696 0 0 0 0 5.6615193122582923 11.979096771652621 0 11.979096771652621 6.4381198977789609 0 0 0 0 -17.534466364322043 40.895094176114071 0 40.895094176114071 59.886576132069877 0 0 0 0 -2.9011360709000655 30.528209218758093 0 30.528209218758093 61.325712566660513 0 0 0 0 -0.060043973664960504 9.0833855500250138 0 9.0833855500250138 -7.8062949380614555 0 0 0 0 -7.0671256726500573 7.5734173092941894 0 7.5734173092941894 -6.5578755636438117 0 0 0 0 -2.7866376888360804 7.1797378912313974 0 7.1797378912313974 -1.3429495930013005 0 0 0 0 1.8857203164329803 11.430289547810844 0 11.430289547810844 -8.0697066938710122 0 0 0 0 0.65330030169229758 8.2855926181027826 0 8.2855926181027826 -13.891950490688032 0 0 0 0 -5.020121253460502 4.7716161854600614 0 4.7716161854600614 8.0073071806355074 0 0 0 0 -0.65678072515243002 8.7508981449673229 0 8.7508981449673229 3.9764208585493179 0 0 0 0 -12.893430518423884 16.763973397757582 0 16.763973397757582 -1.1110134656623813 0 0 0 0 -17.482046548162543 8.9590626110134508 0 8.9590626110134508 4.5795865116829191 0 0 0 0 -12.076181650485978 10.025531673404657 0 10.025531673404657 1.268360560678957 0 0 0 0 -6.5220196499581107 0.54869903653661822 0 0.54869903653661822 1.1622168281737686 0 0 0 0 3.2804546558495531 9.7385583698173832 0 9.7385583698173832 6.9169108964156294 0 0 0 0 3.9827685525276593 11.849907463759337 0 11.849907463759337 -1.5529903540555097 0 0 0 0 -1.2161514517902106 19.814061394310556 0 19.814061394310556 -2.5429311025745847 0 0 0 0 0.029432948688338456 7.5095978083707493 0 7.5095978083707493 4.6520419247488487 0 0 0 0 2.5646860347669644 6.70198560157678 0 6.70198560157678 2.8561341233262283 0 0 0 0 9.5233732159099418 16.940104878999136 0 16.940104878999136 -0.53371201958907477 0 0 0 0 -0.97166309191883071 3.372417439438391 0 3.372417439438391 -1.2992048282721527 0 0 0 0 42.625704812420963 -7.535396125510033 0 -7.535396125510033 3.6692989682778716 0 0 0 0 37.739791306052098 -31.244908465428125 0 -31.244908465428125 4.3593725640221237 0 0 0 0 6.6485758601590064 6.2954338559143039 0 6.2954338559143039 4.4705130797807939 0 0 0 0 -8.5998564198471286 -32.257432725493345 0 -32.257432725493345 -3.071837175570181 0 0 0 0 39.159003052009211 3.9287370321417256 0 3.9287370321417256 10.172607369760954 0 0 0 0 5.791228897680412 13.448865478503194 0 13.448865478503194 -4.1908902085870068 0 0 0 0 -9.5179609082952084 21.853725387118175 0 21.853725387118175 -1.9586349027504184 0 0 0 0 63.688373525490533 48.218137207686596 0 48.218137207686596 -13.543504960003702 0 0 0 0 3.4250216184773308 24.912326682434468 0 24.912326682434468 1.4371275069497642 0 0 0 0 -5.193489549944637 8.163317939051808 0 8.163317939051808 -6.4042792893471372 0 0 0 0 5.3879285677633639 8.0075734046813221 0 8.0075734046813221 2.1600931226775728 0 0 0 0 10.904388307227237 11.298626465699272 0 11.298626465699272 20.321230377208849 0 0 0 0 -1.1608556556081666 8.2508138616980204 0 8.2508138616980204 9.3146174349899908 0 0 0 0 -0.11710466523447138 0.25409810675531475 0 0.25409810675531475 2.3623849722522916 0 0 0 0 -5.2594722601434114 16.772892157365277 0 16.772892157365277 -13.920951352503835 0 0 0 0 38.682750814723477 5.0916655132041342 0 5.0916655132041342 11.521466256305757 0 0 0 0 37.851439808833675 4.8883492903896695 0 4.8883492903896695 11.472630971264152 0 0 0 0 -8.4361475906252963 -36.304426145806701 0 -36.304426145806701 -45.92468685921358 0 0 0 0 67.610226245192223 22.103654589991891 0 22.103654589991891 -69.378053691205423 0 0 0 0 40.198467669264573 4.5330073026307218 0 4.5330073026307218 10.459070025592155 0 0 0 0 38.547808030225042 -2.9014752661873899 0 -2.9014752661873899 -23.0070538121563 0 0 0 0 -0.95282206876800046 26.25590051591098 0 26.25590051591098 2.6828259736976179 0 0 0 0 -2.633702990024176 19.129681676753535 0 19.129681676753535 5.206306967216733 0 0 0 0 -5.6353146219357768 26.165527338839638 0 26.165527338839638 -11.02292117570687 0 0 0 0 6.4738202431062746 10.293144085239874 0 10.293144085239874 -3.2441541651432999 0 0 0 0 -0.89703405764794297 15.950612219477989 0 15.950612219477989 -7.2678678530573961 0 0 0 0 2.6452139540233475 16.053264408415089 0 16.053264408415089 -11.910128564937622 0 0 0 0 -3.4095936290505051 5.5037185766022958 0 5.5037185766022958 -7.5129436138931851 0 0 0 0 -5.7498047161932648 5.9247491136851833 0 5.9247491136851833 -6.589385128031136 0 0 0 0 12.284358896865569 18.630241848837386 0 18.630241848837386 -2.788397608224841 0 0 0 0 0.40633105861583019 6.1741630083339132 0 6.1741630083339132 1.274998112964723 0 0 0 0 -0.17576598583946179 5.842626168845527 0 5.842626168845527 -10.491913450297943 0 0 0 0 -1.9201865343547979 10.321415093956603 0 10.321415093956603 -12.776952497240927 0 0 0 0 1.5776866198184507 3.8155811923534202 0 3.8155811923534202 -18.003217737914383 0 0 0 0 6.0097642574346537 2.7657205676041485 0 2.7657205676041485 -14.609731196410848 0 0 0 0 2.5287264247062922 6.7992675376021907 0 6.7992675376021907 -18.17044922615969 0 0 0 0 -26.650535192701682 -0.42961890299739025 0 -0.42961890299739025 45.540879194377339 0 0 0 0 -0.39904564136978671 2.9122154758529764 0 2.9122154758529764 1.7874696124653582 0 0 0 0 0.97629989385704796 1.1252052901374689 0 1.1252052901374689 -2.0215643890945145 0 0 0 0 -8.9759975922074773 10.737493629969322 0 10.737493629969322 14.884159342102066 0 0 0 0 -18.271177662745686 31.006995187653956 0 31.006995187653956 18.637864879368863 0 0 0 0 -19.933335660678495 56.598507775261169 0 56.598507775261169 -13.571862573073304 0 0 0 0 -1.8712265489521087 15.818400743815801 0 15.818400743815801 -30.465090934349064 0 0 0 0 -18.510410242792204 1.6939114349397641 0 1.6939114349397641 -15.47658121441782 0 0 0 0 -17.848685757274779 19.623650358515079 0 19.623650358515079 -12.260623418933392 0 0 0 0 0.44802787958360568 17.102852991077725 0 17.102852991077725 -43.898158492724178 0 0 0 0 -5.3613322940473154 11.358941684384263 0 11.358941684384263 -8.4157623175942717 0 0 0 0 -10.88998788295703 13.148529114182566 0 13.148529114182566 -7.1498640412701207 0 0 0 0 -0.81816818519064327 12.720574037889492 0 12.720574037889492 -18.897047208900403 0 0 0 0 -0.67776927789236652 11.388062289837762 0 11.388062289837762 -6.5494331018162484 0 0 0 0 -5.2897708890245667 15.025647846633547 0 15.025647846633547 -7.5667499500743816 0 0 0 0 -3.6277075475215952 12.149937265025528 0 12.149937265025528 -2.7017069426201488 0 0 0 0 -8.4518039796673747 8.1770298952487792 0 8.1770298952487792 -4.6205662347347243 0 0 0 0 -1.3821734610824024 10.773469798354199 0 10.773469798354199 -3.8318797351303147 0 0 0 0 -3.3639985859635999 11.956945888834525 0 11.956945888834525 -4.4721918119485053 0 0 0 0 -6.0680733908624402 9.2270334869244728 0 9.2270334869244728 -8.5098398836157116 0 0 0 0 -1.7149953254501042 15.633572208409078 0 15.633572208409078 -2.227619546581991 0 0 0 0 2.9953232149537143 10.447256580722296 0 10.447256580722296 -0.42309583426867903 0 0 0 0 2.0314791589330525 8.6624859364774238 0 8.6624859364774238 -3.368108010976357 0 0 0 0 4.1354864685724806 10.198728107291572 0 10.198728107291572 -6.036315624944109 0 0 0 0 -0.80054525656623809 6.7710752562088601 0 6.7710752562088601 -5.0703924245560756 0 0 0 0 2.6251565890634083 8.7639916345633537 0 8.7639916345633537 -5.7296525178862794 0 0 0 0 2.7829431975545358 6.5678655192358555 0 6.5678655192358555 4.1178815297950973 0 0 0 0 0.71903119551370764 12.347565313906671 0 12.347565313906671 -5.0533983352470386 0 0 0 0 -0.96904037376407359 10.775661387178388 0 10.775661387178388 -2.1967416160659923 0 0 0 0 -0.080949361706188938 9.3180698469541312 0 9.3180698469541312 1.6271550445799221 0 0 0 0 0.72328020697659667 10.126915140219353 0 10.126915140219353 1.4951493904377458 0 0 0 0 -1.9308208150978317 11.371029632276986 0 11.371029632276986 3.9015271551870683 0 0 0 0 -1.6154217063685792 11.048642779396687 0 11.048642779396687 2.1965952762438974 0 0 0 0 75.865953540853781 32.859751564023099 0 32.859751564023099 16.000442704793386 0 0 0 0 1.1135793229755251 7.3548939583440287 0 7.3548939583440287 1.9931017374705355 0 0 0 0 0.43717874157846381 10.01686224131663 0 10.01686224131663 2.5673899583316597 0 0 0 0 0.68458743296469038 10.455016690269986 0 10.455016690269986 2.162229276987091 0 0 0 0 -6.8739483163018003 5.0548579593415006 0 5.0548579593415006 -0.11324553082238253 0 0 0 0 125.17243948098962 100.52997089583096 0 100.52997089583096 20.309160178901948 0 0 0 0 41.282904800014308 64.849347136587312 0 64.849347136587312 -12.951321173725319 0 0 0 0 86.107392924253588 138.27076164279515 0 138.27076164279515 59.550486726859617 0 0 0 0 -89.624481565892779 86.334567134413192 0 86.334567134413192 17.030944181930863 0 0 0 0 26.605386503096327 14.51926529654861 0 14.51926529654861 -57.205353011107945 0 0 0 0 -23.943240257849766 38.384778606914551 0 38.384778606914551 -61.771113697373949 0 0 0 0 -21.744297521283585 24.802404810381631 0 24.802404810381631 -197.21850884664673 0 0 0 0 -1.2638160727587353 0.99730871657321529 0 0.99730871657321529 -0.9189959249305133 0 0 0 0 -240.37081423199129 -15.05128233753112 0 -15.05128233753112 -25.001337164056167 0 0 0 0 54.379646778980259 36.120817607159552 0 36.120817607159552 -91.42022404223826 0 0 0 0 -6.8888738693168534 71.782535388138058 0 71.782535388138058 -103.48438606603122 0 0 0 0 -11.590548250563153 6.3432923709178795 0 6.3432923709178795 48.353771131434769 0 0 0 0 -40.098232757176675 18.549466502284304 0 18.549466502284304 2.6299115477031592 0 0 0 0 -53.902216932499186 -27.860482260341087 0 -27.860482260341087 -31.594851793840462 0 0 0 0 -5.3805295203565038 13.990509849514638 0 13.990509849514638 0.93565071557895862 0 0 0 0 -87.082325330411038 -44.216351749877958 0 -44.216351749877958 -18.397424645372666 0 0 0 0 -13.391702638168454 1.0472124063107913 0 1.0472124063107913 -22.355833321225873 0 0 0 0 -45.833680398396211 24.633380198645227 0 24.633380198645227 42.301571102909293 0 0 0 0 -1.9956323526460551 41.480665956627035 0 41.480665956627035 31.582286120208664 0 0 0 0 69.162736810596215 99.983125757845301 0 99.983125757845301 53.988301350413167 0 0 0 0 -6.6360467043517 7.7773442918987428 0 7.7773442918987428 -9.2167802228564639 0 0 0 0 2.2664201359239087 14.750689568839334 0 14.750689568839334 -11.394314974290864 0 0 0 0 1.8520098169938137 17.780725127939149 0 17.780725127939149 -2.7022818685850325 0 0 0 0 54.984228346435799 40.299200039448124 0 40.299200039448124 21.250374957617169 0 0 0 0 -30.03800637760321 60.96920310918722 0 60.96920310918722 73.05909496180584 0 0 0 0 3.1799887342695001 10.532634118902024 0 10.532634118902024 -6.5559183954974287 0 0 0 0 -2.1035177897331785 8.3051894819636125 0 8.3051894819636125 -5.107965858492733 0 0 0 0 2.4183574501054359 6.0190388255706964 0 6.0190388255706964 -2.0498855552490571 0 0 0 0 0.36609838307458631 10.701465348405236 0 10.701465348405236 -5.2987103025589022 0 0 0 0 -1.1837990575472759 5.8788702081571955 0 5.8788702081571955 -3.3243145758297032 0 0 0 0 0.70079337918650708 8.65931389349862 0 8.65931389349862 1.4799382999553927 0 0 0 0 0.61475325130816927 8.0040832455387836 0 8.0040832455387836 1.244193210338878 0 0 0 0 -1.1424884343177837 8.4866743851434876 0 8.4866743851434876 1.6714742562962783 0 0 0 0 0.14637589879021107 14.105671848865313 0 14.105671848865313 8.1511310273226627 0 0 0 0 -2.2948882142926585 5.7922912446847832 0 5.7922912446847832 -1.1327600114227856 0 0 0 0 -3.4886641032935586 5.6358563934863923 0 5.6358563934863923 -0.71700854366463318 0 0 0 0 1.48670977754864 7.4651364882124653 0 7.4651364882124653 -2.964553929831709 0 0 0 0 7.4482718403342005 7.969008657327322 0 7.969008657327322 -5.3826975805131951 0 0 0 0 0.76867778547511989 6.4124653722387848 0 6.4124653722387848 0.67516303905540553 0 0 0 0 7.6026528784623224 9.58301587384085 0 9.58301587384085 -0.79547495675433311 0 0 0 0 3.6620660614189546 9.8467443273902973 0 9.8467443273902973 0.44268336973073019 0 0 0 0 -3.4197226476857221 3.6496425687792762 0 3.6496425687792762 -1.2569133289233676 0 0 0 0 0.095389802096633503 4.6989026759492845 0 4.6989026759492845 -0.61429828511973028 0 0 0 0 -0.50389902714232448 7.6129066097482792 0 7.6129066097482792 -1.5002151794842575 0 0 0 0 5.1033619975114561 7.6432629241217001 0 7.6432629241217001 -0.36404511132786865 0 0 0 0 5.0583234926480998 5.8512235031420801 0 5.8512235031420801 -0.18322989262014744 0 0 0 0 -0.10622721203246854 3.2814606297951832 0 3.2814606297951832 -4.5490050118874485 0 0 0 0 3.4075749083131086 7.7849842438154155 0 7.7849842438154155 -0.13780809322346954 0 0 0 0 3.5359514741412568 7.7817639837776369 0 7.7817639837776369 -0.30659663450933294 0 0 0 0 2.7341739062812849 5.7428061604111917 0 5.7428061604111917 -0.16812545540778956 0 0 0 0 1.6224491955854319 6.6504816752149054 0 6.6504816752149054 0.56496839932879084 0 0 0 0 3.4321381334884791 7.6203231587278424 0 7.6203231587278424 -0.14034128959087866 0 0 0 0 3.4630841060243256 7.5570551311320742 0 7.5570551311320742 -0.52485552297548566 0 0 0 0 2.2294559723386556 6.2471765323275577 0 6.2471765323275577 -1.5121625739520823 0 0 0 0 0.73041401097847292 3.8523949996080233 0 3.8523949996080233 -0.62157205558623474 0 0 0 0 -2.3570968009146895 5.3238782979374832 0 5.3238782979374832 -0.93122331845552253 0 0 0 0 0.79702097403787775 6.4709245252697656 0 6.4709245252697656 0.23326303541580273 0 0 0 0 0.68964932921338473 1.994110554791412 0 1.994110554791412 2.7801817753931921 0 0 0 0 1.2581910970675381 4.8067806441649736 0 4.8067806441649736 -0.88049206350001441 0 0 0 0 -8.5349774058049661 20.63635568569407 0 20.63635568569407 -3.6152109327695143 0 0 0 0 -22.090785685555261 11.229446981960223 0 11.229446981960223 -4.9833095887133823 0 0 0 0 -1.7742639223743026 5.9719867640369557 0 5.9719867640369557 -8.0302719701921887 0 0 0 0 -18.088437870923372 6.8161487019879132 0 6.8161487019879132 0.068594662880059332 0 0 0 0 -9.7130231283881585 15.933795947348699 0 15.933795947348699 -9.7758184335689293 0 0 0 0 0.35285745114056533 0.51620041303958963 0 0.51620041303958963 0.050349454717171227 0 0 0 0 -8.2471009100549963 7.1856083937691437 0 7.1856083937691437 14.341999382284484 0 0 0 0 9.8622445167084152 12.633858737805895 0 12.633858737805895 3.407518696909392 0 0 0 0 -9.5170098959270604 9.0342747009254936 0 9.0342747009254936 3.0674001820116246 0 0 0 0 11.676517042298656 11.795512712042182 0 11.795512712042182 -7.7524192736646 0 0 0 0 -0.55718119256528098 6.4007408777566184 0 6.4007408777566184 -0.93670157202723203 0 0 0 0 -2.5055157848521503 7.7422678187011797 0 7.7422678187011797 0.19634694623709947 0 0 0 0 -0.22166586624371121 13.777339153668436 0 13.777339153668436 -6.6260693748627091 0 0 0 0 2.6578429384396554 4.0353203982209607 0 4.0353203982209607 2.6224057551798978 0 0 0 0 -1.3658654970698585 4.7977945008886405 0 4.7977945008886405 -0.014775950559512196 0 0 0 0 -1.7880165672106614 5.3533220973381503 0 5.3533220973381503 0.16956873911476578 0 0 0 0 1.887187325346531 6.7019446430476819 0 6.7019446430476819 0.60507035575574264 0 0 0 0 -0.51818890670365159 4.1846176176874383 0 4.1846176176874383 -1.4973776927329325 0 0 0 0 2.5281381795348352 5.6566546299172842 0 5.6566546299172842 -1.1929047417070251 0 0 0 0 0.62784951156390889 6.8419444319933973 0 6.8419444319933973 5.4973219611129025 0 0 0 0 2.0849881223780358 6.0986562430680351 0 6.0986562430680351 -1.2205196653812891 0 0 0 0 1.4073190971104879 0.98939722028300103 0 0.98939722028300103 -0.51075148542076221 0 0 0 0 -0.39410453567325021 7.9336143632835956 0 7.9336143632835956 4.9748205557134497 0 0 0 0 -0.73606491466671287 5.31536517382483 0 5.31536517382483 2.435263658679105 0 0 0 0 0.22847393102347269 7.119565820616117 0 7.119565820616117 -1.4379271846264601 0 0 0 0 -1.1956847375272091 4.3804534970132423 0 4.3804534970132423 -1.5976930222443393 0 0 0 0 -4.2788183745961721 5.7518186992583153 0 5.7518186992583153 6.4611125157217373 0 0 0 0 -1.9849435382197385 4.1338767365087961 0 4.1338767365087961 -3.4818641292731627 0 0 0 0 0.99970097218178955 6.4746100201667112 0 6.4746100201667112 -2.2011137984541094 0 0 0 0 2.8011108587679701 9.1536696598304843 0 9.1536696598304843 -6.4097127603718036 0 0 0 0 3.1647077056595663 11.789557609616168 0 11.789557609616168 -1.9562612722691028 0 0 0 0 1.1212594629014347 9.4195770200985862 0 9.4195770200985862 3.6946937288957997 0 0 0 0 0.49496355776682321 6.2934826483124198 0 6.2934826483124198 -1.013856216766726 0 0 0 0 -1.5572083395891241 13.202785721510736 0 13.202785721510736 3.4084061141011261 0 0 0 0 -1.3660006695704965 5.35784109746686 0 5.35784109746686 2.2898695840867731 0 0 0 0 1.5104485719706027 4.9813648541168831 0 4.9813648541168831 5.7196890276354182 0 0 0 0 4.4440307608147123 17.311796497160685 0 17.311796497160685 5.4159434927478287 0 0 0 0 -9.2999262756707139 4.0207569671583769 0 4.0207569671583769 12.31525870241785 0 0 0 0 -8.160860386006334 4.8845614664060122 0 4.8845614664060122 9.8257831476867068 0 0 0 0 -0.05141497518644611 4.428384430670115 0 4.428384430670115 3.828443906406342 0 0 0 0 -7.5458983256830834 0.12796615584829851 0 0.12796615584829851 1.1624677284562495 0 0 0 0 0.29206661581247317 17.369719571092901 0 17.369719571092901 -33.58769272828431 0 0 0 0 -2.7081931363315714 1.0590139905746518 0 1.0590139905746518 0.186492293791094 0 0 0 0 4.365822054196542 5.9316913898792336 0 5.9316913898792336 -0.29586806496854479 0 0 0 0 0.55792446879793545 4.1252492427749381 0 4.1252492427749381 1.4203377295621991 0 0 0 0 4.9879247853332345 2.9207924301990715 0 2.9207924301990715 -5.8471408590003193 0 0 0 0 10.584202990240556 2.3392724158092619 0 2.3392724158092619 -7.5498449302940571 0 0 0 0 -7.9663550901877898 -16.100543845379889 0 -16.100543845379889 56.174623968183369 0 0 0 0 0.2439982603861921 0.35072791869331255 0 0.35072791869331255 0.19646465160763249 0 0 0 0 -51.920346481940214 44.625984968482953 0 44.625984968482953 44.198263271722226 0 0 0 0 -14.276759591770315 70.14107863994559 0 70.14107863994559 -66.164105128255756 0 0 0 0 -24.819522888305983 50.317827918521971 0 50.317827918521971 -9.1806039841048914 0 0 0 0 31.057579793966397 47.635180210198087 0 47.635180210198087 -24.768164923458244 0 0 0 0 -0.34374560295885193 0.73426796072682521 0 0.73426796072682521 -0.2596677056220642 0 0 0 0 -27.834518062809991 32.878465217309156 0 32.878465217309156 -28.285232266527601 0 0 0 0 -1.1284212354671581 -0.05037718809063918 0 -0.05037718809063918 0.023376826404248874 0 0 0 0 -2.6987811170647547 14.424455861582828 0 14.424455861582828 -35.768668591605092 0 0 0 0 1.5868551680023302 26.157920636998369 0 26.157920636998369 -124.99651846586221 0 0 0 0 23.000905991430614 11.275198550289474 0 11.275198550289474 -39.452838508448622 0 0 0 0 -22.265969944308381 48.357407003360095 0 48.357407003360095 -7.6755634888841087 0 0 0 0 -35.15141849339625 34.346712654033581 0 34.346712654033581 -2.2784820924152882 0 0 0 0 -9.8882282008821676 11.079780517668041 0 11.079780517668041 -8.7007475836780941 0 0 0 0 -7.3718841095542302 19.257655798546693 0 19.257655798546693 3.6290734327069458 0 0 0 0 -86.779180378987803 41.175613857571079 0 41.175613857571079 -17.41349363844347 0 0 0 0 -71.328015233330007 56.922775016716514 0 56.922775016716514 28.723888979461663 0 0 0 0 -9.2563707714953125 0.48201143259029777 0 0.48201143259029777 14.605603384665301 0 0 0 0 -19.316504400840586 -17.57560701692978 0 -17.57560701692978 -9.3218247735348996 0 0 0 0 -6.3114645628966173 5.7143322727688428 0 5.7143322727688428 11.658356166894009 0 0 0 0 -19.700625043123637 15.539660538271164 0 15.539660538271164 37.486052401702182 0 0 0 0 35.876698138540632 63.229466138037424 0 63.229466138037424 23.028258498065725 0 0 0 0 6.5248369750624988 9.5555617879072088 0 9.5555617879072088 -3.7925008438651275 0 0 0 0 6.0309791770508809 11.585281585938787 0 11.585281585938787 -3.3122615024694824 0 0 0 0 -4.45575713850174 5.4076922538746839 0 5.4076922538746839 -3.6808373929172085 0 0 0 0 3.7841875865969996 33.127468216232046 0 33.127468216232046 29.75103186929573 0 0 0 0 4.2541700694191604 12.828405979781564 0 12.828405979781564 21.522434418620833 0 0 0 0 -0.18434969675591262 0.77824391248739033 0 0.77824391248739033 -3.1369686444527947 0 0 0 0 1.1730435519473303 14.475577469229393 0 14.475577469229393 -5.2267307732981863 0 0 0 0 -7.8091263105434336 11.134914253427269 0 11.134914253427269 -18.0148134569381 0 0 0 0 5.8410285503796331 6.516791213536635 0 6.516791213536635 -16.356565464018786 0 0 0 0 0.24006055883507038 8.8822050499546279 0 8.8822050499546279 -10.057513005160146 0 0 0 0 6.9638809647384363 15.052954335188133 0 15.052954335188133 2.0096745748051035 0 0 0 0 6.9579391962524824 14.854951267159777 0 14.854951267159777 1.4487100221049332 0 0 0 0 2.3614988313488645 1.8178632900725162 0 1.8178632900725162 -4.3577289444243377 0 0 0 0 3.659919470301098 7.8448004186113955 0 7.8448004186113955 0.95524113761327634 0 0 0 0 5.1774036437482209 14.729320819202258 0 14.729320819202258 -13.008206931554014 0 0 0 0 5.1465961492299357 10.760611302205689 0 10.760611302205689 -2.7173297678491508 0 0 0 0 1.5988581023011648 13.871970829950442 0 13.871970829950442 0.46839924653977505 0 0 0 0 0.55073648599227454 12.403925685112881 0 12.403925685112881 2.0206660397379892 0 0 0 0 0.39379375877979328 13.639330189439534 0 13.639330189439534 5.5363907752434898 0 0 0 0 4.1142052566224265 12.003861681658236 0 12.003861681658236 1.5229245674490812 0 0 0 0 5.9226170323167935 14.196702366391037 0 14.196702366391037 3.6635615846334986 0 0 0 0 12.829005398016307 10.86327855026866 0 10.86327855026866 0.689409951033781 0 0 0 0 7.662085801939611 13.041027554089851 0 13.041027554089851 0.50953651676536538 0 0 0 0 6.0487174171903462 12.008162553269358 0 12.008162553269358 -4.1706125033197168 0 0 0 0 6.08334178515031 11.497425950456773 0 11.497425950456773 -0.38161483727162704 0 0 0 0 6.465486152574158 16.062574330524512 0 16.062574330524512 -4.980813330381352 0 0 0 0 6.0330507546477747 16.717236924874669 0 16.717236924874669 -0.89585438404901652 0 0 0 0 10.672975475526073 9.8796312439062604 0 9.8796312439062604 2.3539559167535344 0 0 0 0 4.0212703991314811 5.7023648427093576 0 5.7023648427093576 -0.297318297009042 0 0 0 0 0.25935562355717501 1.6122280032019294 0 1.6122280032019294 -2.2335127544221365 0 0 0 0 10.59049348399958 9.6661679313192508 0 9.6661679313192508 1.8027123769497848 0 0 0 0 12.266166356118788 8.2095565024146708 0 8.2095565024146708 2.1413353650350473 0 0 0 0 19.339746875597939 10.290359361158153 0 10.290359361158153 1.2159980146552698 0 0 0 0 -8.1313507926597595 -3.1543146994836206 0 -3.1543146994836206 -3.099100752634854 0 0 0 0 -1.537589140523977 3.4213563180207682 0 3.4213563180207682 -4.2348216396978557 0 0 0 0 -0.48029454037670172 0.81628870934746711 0 0.81628870934746711 2.6104676867882759 0 0 0 0 -0.80327926221442736 4.0938671107298408 0 4.0938671107298408 -0.85862118511425223 0 0 0 0 -11.641312277443831 2.2650014553592541 0 2.2650014553592541 2.0054521255078726 0 0 0 0 6.1350297086664796 7.797602040665879 0 7.797602040665879 -0.66164735466372804 0 0 0 0 1.9068957667909672 4.5758781726444795 0 4.5758781726444795 0.22317515461872972 0 0 0 0 -1.5783472906252101 4.7655773898114777 0 4.7655773898114777 -2.5198617622824244 0 0 0 0 1.5037893623745138 5.2162709631463109 0 5.2162709631463109 5.6437506905082451 0 0 0 0 -2.3602765313953569 20.680647207263974 0 20.680647207263974 13.477668477985219 0 0 0 0 -1.2545807335282007 6.7571601057652515 0 6.7571601057652515 0.054590357402048539 0 0 0 0 -6.6837710852269083 17.940494110989675 0 17.940494110989675 12.149006853229366 0 0 0 0 0.36583157201815397 4.7050551998091645 0 4.7050551998091645 2.3356731203282592 0 0 0 0 -12.166948474427784 6.9546053119035491 0 6.9546053119035491 16.373499517294476 0 0 0 0 3.0452610483825993 14.32831159422949 0 14.32831159422949 18.147472797039882 0 0 0 0 -0.020972308282154017 0.22027794582086813 0 0.22027794582086813 0.94508405701356146 0 0 0 0 -0.9131128468488896 4.9456595370347713 0 4.9456595370347713 17.41232574841888 0 0 0 0 -0.38934059759004103 2.7202579727107423 0 2.7202579727107423 8.5021508608483529 0 0 0 0 -3.3246721300238278 5.9395817551721848 0 5.9395817551721848 24.287739456643067 0 0 0 0 3.5322359202637017 8.7149984090629005 0 8.7149984090629005 4.4476990744315117 0 0 0 0 2.0178984928329555 6.3318212602125641 0 6.3318212602125641 -4.3096978073826904 0 0 0 0 0.87958244379160533 5.995381216383521 0 5.995381216383521 -5.2313520077186695 0 0 0 0 5.5104406279397153 -0.92192925884592114 0 -0.92192925884592114 4.0761536772397449 0 0 0 0 2.1421497459405145 5.0642992926050283 0 5.0642992926050283 3.8120757376602796 0 0 0 0 10.84839180602512 9.1443970682348663 0 9.1443970682348663 0.95439201105909888 0 0 0 0 0.072017621446320845 -16.859839424910206 0 -16.859839424910206 -3.4514840088795609 0 0 0 0 -0.22900340407412001 2.1716432129703893 0 2.1716432129703893 4.7219432123266927 0 0 0 0 6.6237296007557234 -8.963882988813566 0 -8.963882988813566 5.9390149018981901 0 0 0 0 -0.2125241862358962 7.7265102709443454 0 7.7265102709443454 2.3853509940840922 0 0 0 0 -6.8555705212220346 -5.0216774725076903 0 -5.0216774725076903 -21.212439092403656 0 0 0 0 -10.943185814654498 -9.1978168271052709 0 -9.1978168271052709 12.466487825823378 0 0 0 0 -6.0226678957069453 -4.2404316233141799 0 -4.2404316233141799 32.974012514234346 0 0 0 0 -3.6268617032092152 -10.288881930375283 0 -10.288881930375283 12.386751975162724 0 0 0 0 -5.1356696522725542 -3.2272891622324096 0 -3.2272891622324096 3.267685863405859 0 0 0 0 -5.6552974642336267 6.0536968111891838 0 6.0536968111891838 14.343995012804953 0 0 0 0 -9.6437966042147991 6.5373094023450449 0 6.5373094023450449 21.100153779880202 0 0 0 0 0.59115764366470103 14.21627226064993 0 14.21627226064993 23.005868288441889 0 0 0 0 0.2075279383051587 0.83003504297562358 0 0.83003504297562358 -2.6409260526403404 0 0 0 0 0.99071543698482856 16.287980566095939 0 16.287980566095939 -19.53930605050482 0 0 0 0 -7.461772771912365 12.129690530790867 0 12.129690530790867 62.219549942663434 0 0 0 0 -49.820020972925704 74.760472907883013 0 74.760472907883013 -54.268570005858237 0 0 0 0 -80.563594426058444 126.54041565242187 0 126.54041565242187 -97.878708234609803 0 0 0 0 45.035579028219217 67.456691805738956 0 67.456691805738956 -131.82322595385585 0 0 0 0 13.36544591144775 115.15966516653498 0 115.15966516653498 -125.83044222103035 0 0 0 0 -202.88228139569401 62.900765836840947 0 62.900765836840947 -0.090456491410805029 0 0 0 0 -11.654110243449395 68.670414579333737 0 68.670414579333737 -63.196246086210635 0 0 0 0 65.563493124102934 6.9107780049598659 0 6.9107780049598659 -64.926329626425286 0 0 0 0 51.114226663797353 27.153062248975857 0 27.153062248975857 7.8083634388858627 0 0 0 0 0.36533810417621448 -0.10079610807460071 0 -0.10079610807460071 0.19052082565017514 0 0 0 0 0.48582210410391724 0.7381280414137894 0 0.7381280414137894 -1.3048228074920303 0 0 0 0 -5.584506323099049 -13.238016832088761 0 -13.238016832088761 -28.007407084438455 0 0 0 0 -0.21492926459698358 2.6572826001459777 0 2.6572826001459777 -1.6090754394216518 0 0 0 0 -6.5816274166227231 14.582972783895457 0 14.582972783895457 -14.590878464377965 0 0 0 0 -95.822618676573256 84.256532831037475 0 84.256532831037475 -40.939068858106111 0 0 0 0 -94.63537450601325 29.455122579769522 0 29.455122579769522 9.4699330194189315 0 0 0 0 -63.533789955871271 44.718990194152411 0 44.718990194152411 -10.140487627759285 0 0 0 0 -51.504167745663693 37.099826531408439 0 37.099826531408439 -18.118290358157537 0 0 0 0 -14.760382784776994 5.120907830591932 0 5.120907830591932 4.624665445602659 0 0 0 0 -0.2565675589761911 2.5491886638928598 0 2.5491886638928598 1.2384770950004267 0 0 0 0 22.715874304561112 11.921803020658444 0 11.921803020658444 -25.390723257589343 0 0 0 0 12.369472904756321 -3.5936982016389152 0 -3.5936982016389152 -7.1117084364086622 0 0 0 0 0.0028445801081034006 5.8742439686475336 0 5.8742439686475336 5.5042298264543206 0 0 0 0 20.371911713915893 3.3244321710258191 0 3.3244321710258191 -6.7647405850620999 0 0 0 0 -0.59857581710078378 1.2084480596850398 0 1.2084480596850398 -2.2106572360974468 0 0 0 0 -1.4964218414019683 -8.012757515624287 0 -8.012757515624287 -5.8298992826312315 0 0 0 0 9.5168000080120692 26.625966167503975 0 26.625966167503975 10.761362368746632 0 0 0 0 0.72462180828460987 1.0888726571620282 0 1.0888726571620282 12.934149520723281 0 0 0 0 1.699443802548176 -0.69506966167556783 0 -0.69506966167556783 -0.38524634729888163 0 0 0 0 20.183272479450352 21.574630368139879 0 21.574630368139879 9.5482422234745172 0 0 0 0 -5.9978760289541242 19.422277674033467 0 19.422277674033467 7.8346630285668653 0 0 0 0 4.0440001069164282 9.7059296226161678 0 9.7059296226161678 8.9076521759095613 0 0 0 0 15.961010491533671 4.526869128781982 0 4.526869128781982 1.773413301149958 0 0 0 0 -2.9141320700555298 33.488406354326798 0 33.488406354326798 -28.058087745728699 0 0 0 0 -11.562022353275097 12.491563601820417 0 12.491563601820417 30.176166906980143 0 0 0 0 -10.449889568587423 16.551971291699374 0 16.551971291699374 5.9869751741243817 0 0 0 0 0.041010701754560897 -0.13371686126783899 0 -0.13371686126783899 0.57013367808026061 0 0 0 0 -35.059943452123662 -5.7627207658088082 0 -5.7627207658088082 16.054173302239178 0 0 0 0 -0.72051348316290387 26.855942092810437 0 26.855942092810437 40.838880016410258 0 0 0 0 83.602458844085589 27.870112717579616 0 27.870112717579616 5.836345450967201 0 0 0 0 9.2517029666032613 14.213409839700944 0 14.213409839700944 12.034314516133236 0 0 0 0 -2.1942315663086447 8.3725991438323035 0 8.3725991438323035 -5.2293607088067802 0 0 0 0 0.066328015703003729 -0.090178741772275472 0 -0.090178741772275472 1.6537956249849728 0 0 0 0 -35.358986045801885 6.3382370831041044 0 6.3382370831041044 14.988411947004352 0 0 0 0 5.7666704792717383 -4.1434317504757701 0 -4.1434317504757701 -4.1793500892235897 0 0 0 0 -9.7345875936125594 15.943895882182005 0 15.943895882182005 10.940513834026206 0 0 0 0 17.982119576228797 8.8476708502603287 0 8.8476708502603287 4.0386104468980193 0 0 0 0 27.067285621786141 19.216678763119489 0 19.216678763119489 6.8059824236861459 0 0 0 0 45.868177333901599 9.1561685202982517 0 9.1561685202982517 0.64166676410241053 0 0 0 0 8.1933520626625977 12.272028610876987 0 12.272028610876987 9.5298092255343363 0 0 0 0 8.0029995421887179 13.550157900559384 0 13.550157900559384 4.836731665469415 0 0 0 0 9.1006313213256362 12.257763740646624 0 12.257763740646624 3.6313189451417429 0 0 0 0 15.0914766382773 16.254688174722105 0 16.254688174722105 4.8884835508579272 0 0 0 0 -1.6905175414804035 11.523704195824848 0 11.523704195824848 4.8230543413810665 0 0 0 0 1.1982374253984744 15.657659958307704 0 15.657659958307704 7.0917862677997618 0 0 0 0 -5.0950313310304409 14.574130949929895 0 14.574130949929895 8.6655135131895804 0 0 0 0 10.633782340472635 13.456656554990559 0 13.456656554990559 3.2740938947881659 0 0 0 0 -23.936710254050922 -0.18167226404557368 0 -0.18167226404557368 11.138327740839486 0 0 0 0 14.684364525507135 7.5862691545380585 0 7.5862691545380585 -8.1607204200809065 0 0 0 0 -4.8162963879782161 3.4201023185552266 0 3.4201023185552266 -0.64305108737970329 0 0 0 0 34.016364300723808 32.451914050189771 0 32.451914050189771 22.682204462966183 0 0 0 0 0.42994599708995107 0.0416310166467877 0 0.0416310166467877 -0.5627109841736484 0 0 0 0 30.613122888275825 25.517390900591636 0 25.517390900591636 23.289632715757762 0 0 0 0 14.283842663612631 7.3803362685666798 0 7.3803362685666798 -28.018921768451037 0 0 0 0 -4.3202799843283319 2.8753035883435363 0 2.8753035883435363 -0.30643210085239048 0 0 0 0 -20.213651664139888 -25.483510344109163 0 -25.483510344109163 4.2938502262695692 0 0 0 0 27.227334029710335 42.180959594862315 0 42.180959594862315 3.8772956373395573 0 0 0 0 8.2531847430755079 -1.901930913230899 0 -1.901930913230899 10.536309454237653 0 0 0 0 23.68729592747286 -2.7322833780308429 0 -2.7322833780308429 -2.7491241253774206 0 0 0 0 0.10740792193655579 5.7717151147926415 0 5.7717151147926415 4.0315747703898523 0 0 0 0 10.144328445950123 -4.4283425993062338 0 -4.4283425993062338 -35.788227140546951 0 0 0 0 -0.80528100515994083 0.55150971354851208 0 0.55150971354851208 -18.964446218464218 0 0 0 0 5.0980451567244032 -0.69616862246131817 0 -0.69616862246131817 -0.84256949119444258 0 0 0 0 5.1370111633448232 0.89964642650102178 0 0.89964642650102178 -0.88307886683651304 0 0 0 0 4.1375521601817127 -0.21313246101453842 0 -0.21313246101453842 -0.69042156175419223 0 0 0 0 5.765003774498382 0.77697093102688086 0 0.77697093102688086 0.0049674899037199793 0 0 0 0 9.3294508612226537 -2.8382275466785813 0 -2.8382275466785813 -1.6589662964452145 0 0 0 0 8.4140222329178869 -0.012417317546351114 0 -0.012417317546351114 -0.68236623695338494 0 0 0 0 5.4450532568538961 -0.41570376660980912 0 -0.41570376660980912 -0.83072811722083628 0 0 0 0 6.9885737288705059 -2.8423400868200588 0 -2.8423400868200588 -1.6577484846311563 0 0 0 0 14.927754606734652 -2.3274081319759716 0 -2.3274081319759716 -9.0323552700687628 0 0 0 0 14.814092831701601 5.0462277946462564 0 5.0462277946462564 -9.1135573996361927 0 0 0 0 18.688280991376814 12.745373825356182 0 12.745373825356182 -0.1013409573934041 0 0 0 0 1.5061826102778468 9.7885749807851425 0 9.7885749807851425 7.611539553035982 0 0 0 0 2.3644319725915466 2.2690632013027141 0 2.2690632013027141 0.81152139216981567 0 0 0 0 6.8379337919504906 0.30923209184402367 0 0.30923209184402367 -1.6982320003153291 0 0 0 0 2.3477198236732875 0.93342972701248073 0 0.93342972701248073 -0.00046680054305554608 0 0 0 0 0.042884634215145212 -0.18318541687194312 0 -0.18318541687194312 0.38899619559715859 0 0 0 0 0.12255307235766466 0.45568570476657122 0 0.45568570476657122 -0.3069842494797328 0 0 0 0 1.3694352031025563 0.60322667559674414 0 0.60322667559674414 -0.55589935296133319 0 0 0 0 -45.559410039257273 -3.3634787027253878 0 -3.3634787027253878 1.1740660228497291 0 0 0 0 0.94531160852875473 1.3035254771439213 0 1.3035254771439213 0.29250203449373657 0 0 0 0 1.6973327984887874 0.86233910361625021 0 0.86233910361625021 0.00043365612691559363 0 0 0 0 2.3181032860090909 0.98485432977849996 0 0.98485432977849996 0.023976593141924241 0 0 0 0 -1.3369839433474162 0.27002490991278805 0 0.27002490991278805 0.49693829460990457 0 0 0 0 -30.249960879054015 -0.79785991969583847 0 -0.79785991969583847 -1.3296464542563626 0 0 0 0 14.773453731438167 -4.2158298360955087 0 -4.2158298360955087 -14.615772653834938 0 0 0 0 -7.8543743701138737 25.038585435901496 0 25.038585435901496 3.8411926308253896 0 0 0 0 -3.2286739389804762 2.6270243934943469 0 2.6270243934943469 -0.075273416516687064 0 0 0 0 -5.339391787029399 -3.475793280103062 0 -3.475793280103062 -12.434994058505254 0 0 0 0 24.966468712899655 5.5052889882554155 0 5.5052889882554155 -4.8039565002982272 0 0 0 0 -3.9919363231725811 11.442594025496192 0 11.442594025496192 -0.82265183698655164 0 0 0 0 34.025258617017244 -18.187506233891327 0 -18.187506233891327 20.220870282824762 0 0 0 0 25.858818895928891 41.378526039726808 0 41.378526039726808 16.870432141546189 0 0 0 0 -15.709664569342749 21.72208613233397 0 21.72208613233397 7.8697523557439126 0 0 0 0 -17.575553450814368 45.098463356250249 0 45.098463356250249 -1.5132339165588746 0 0 0 0 -20.760842465747828 46.413480856472461 0 46.413480856472461 4.5445742273041105 0 0 0 0 -29.008997837084962 70.873455457287037 0 70.873455457287037 -23.775345054888021 0 0 0 0 12.008780430573097 40.043632139480906 0 40.043632139480906 -29.130747410279582 0 0 0 0 -42.128658327691483 38.796239359250649 0 38.796239359250649 6.5508307182280987 0 0 0 0 -35.51611605519156 40.817822903186425 0 40.817822903186425 5.1414772030493623 0 0 0 0 -35.812857925064236 34.311386196306557 0 34.311386196306557 -0.97041811975441306 0 0 0 0 -0.33581439129761748 0.018267030251038818 0 0.018267030251038818 0.21841554499713567 0 0 0 0 -50.63521338742521 24.288298383583424 0 24.288298383583424 -0.065507844377975744 0 0 0 0 -32.562294779808212 12.107722504857861 0 12.107722504857861 2.9329834121381282 0 0 0 0 -47.739249382176126 9.2009024266401411 0 9.2009024266401411 5.0012314063460508 0 0 0 0 -127.70621892162853 -27.191550858409755 0 -27.191550858409755 14.657019712230976 0 0 0 0 0.24125757450452312 0.32192790636229773 0 0.32192790636229773 -0.16037973768187896 0 0 0 0 -0.36740094214474084 1.1010614848637488 0 1.1010614848637488 0.0056547515850979835 0 0 0 0 0.28019357374062714 0.0021829534057111744 0 0.0021829534057111744 -0.16511480025208414 0 0 0 0 -63.527551780993235 44.887119111742777 0 44.887119111742777 -0.012277203342819121 0 0 0 0 -34.257754337146253 32.999226815913971 0 32.999226815913971 2.0405209499131161 0 0 0 0 -46.370787925167633 36.116934346084008 0 36.116934346084008 9.9817263381737575 0 0 0 0 -34.222686771320696 32.255578094708994 0 32.255578094708994 13.953766066269964 0 0 0 0 -13.492891801867245 31.770508384371624 0 31.770508384371624 7.5767289605901169 0 0 0 0 -16.335718263730087 37.224255483559318 0 37.224255483559318 0.0050608739111060157 0 0 0 0 -24.684781161787214 13.503571744158762 0 13.503571744158762 55.274463074336381 0 0 0 0 -19.365849103391156 34.980150427327317 0 34.980150427327317 23.614595723032835 0 0 0 0 -22.831394722633149 29.917235192291628 0 29.917235192291628 43.226591635080695 0 0 0 0 -15.901859461993809 12.158644231203652 0 12.158644231203652 30.155749423185625 0 0 0 0 -34.805197380188019 37.497291125731181 0 37.497291125731181 20.099585307692905 0 0 0 0 -26.463778941486453 40.957246731411033 0 40.957246731411033 11.745513410453441 0 0 0 0 -53.992175815345945 66.661387126405316 0 66.661387126405316 33.135873915541197 0 0 0 0 -101.68186409263944 137.20142388506656 0 137.20142388506656 -42.90220358773513 0 0 0 0 -3.9416974208670581 -11.185670070449305 0 -11.185670070449305 37.115238027425221 0 0 0 0 -154.24172253332472 22.287014445854766 0 22.287014445854766 -44.35144792917572 0 0 0 0 -0.49009250790980374 0.083400345951428534 0 0.083400345951428534 0.75545359361984055 0 0 0 0 0.56180151015471003 -0.27834318892363097 0 -0.27834318892363097 -0.094268588558172439 0 0 0 0 2.2071271609866017 -2.3517897481833643 0 -2.3517897481833643 6.6825827614520676 0 0 0 0 -38.395349625543304 -30.691333739989432 0 -30.691333739989432 -19.481395400485781 0 0 0 0 -14.876068146595571 -37.685957190895351 0 -37.685957190895351 -30.538954044182447 0 0 0 0 -19.911454028728258 -24.68153868297486 0 -24.68153868297486 -27.076263173594725 0 0 0 0 1.9725421489395103 1.5428340271564593 0 1.5428340271564593 2.1608646863205649 0 0 0 0 2.5954700800142878 0.05905746981819604 0 0.05905746981819604 -0.81028400586553317 0 0 0 0 0.34140969487409223 -0.12360916419862233 0 -0.12360916419862233 0.83941799770232706 0 0 0 0 33.323223843379878 17.309261164138661 0 17.309261164138661 3.1725478709631716 0 0 0 0 29.094250008297593 14.918563861358962 0 14.918563861358962 8.3518867827151553 0 0 0 0 22.743806512248227 21.809430816724671 0 21.809430816724671 2.053882545860688 0 0 0 0 1.1283190455915388 27.667811070715288 0 27.667811070715288 -4.1020212587973219 0 0 0 0 12.38176283505932 14.005801578842693 0 14.005801578842693 6.7762256960540981 0 0 0 0 -6.6293588757957025 44.098904663842404 0 44.098904663842404 42.237991964937464 0 0 0 0 -6.3629369162186888 49.568780991434068 0 49.568780991434068 -32.518052882001939 0 0 0 0 0.69332681069900604 0.26246324652145603 0 0.26246324652145603 -0.17276743362135605 0 0 0 0 23.756464680153499 19.671595514342698 0 19.671595514342698 2.1608301864489476 0 0 0 0 23.814814806485742 24.79879080639148 0 24.79879080639148 16.67206052887741 0 0 0 0 -7.1210622468967131 21.358279395428326 0 21.358279395428326 -23.684076071389427 0 0 0 0 -51.986225696467045 46.103190222311241 0 46.103190222311241 -39.637500083630584 0 0 0 0 -10.260830716891434 -10.678217999630988 0 -10.678217999630988 1.3107301930504036 0 0 0 0 -0.91888992278879655 21.461110606516286 0 21.461110606516286 -47.944524787988485 0 0 0 0 0.33565190325991656 0.21633831292739814 0 0.21633831292739814 -0.29832779980968738 0 0 0 0 20.88005973219289 36.444531794238628 0 36.444531794238628 -81.066160272519483 0 0 0 0 -8.3255841938710624 54.98908601675646 0 54.98908601675646 -66.623199461886543 0 0 0 0 -8.0221235884462594 59.07251642618121 0 59.07251642618121 -68.73874045845514 0 0 0 0 -67.958905761693131 88.092544699524296 0 88.092544699524296 -79.937782475746644 0 0 0 0 -174.89015995657309 4.6076276666799458 0 4.6076276666799458 -40.037538851494901 0 0 0 0 -3.2611586161842752 17.562807577382955 0 17.562807577382955 -42.046975937624666 0 0 0 0 -83.435383260898675 -81.258054266585532 0 -81.258054266585532 -129.46277000239661 0 0 0 0 -46.46803293840469 -28.589901164033108 0 -28.589901164033108 -66.341743106830108 0 0 0 0 -14.133887611282603 -46.960013928173794 0 -46.960013928173794 -95.888035951819347 0 0 0 0 -43.87663818272847 -27.292492416695495 0 -27.292492416695495 -19.885231254511382 0 0 0 0 0.069381318710718953 -0.29016021574647066 0 -0.29016021574647066 -0.13633440418642095 0 0 0 0 -95.644889952910376 -71.181422492170896 0 -71.181422492170896 -44.219488930293664 0 0 0 0 -10.481198379439093 -31.412760114214507 0 -31.412760114214507 -25.398281155972654 0 0 0 0 18.937410980392372 -10.138622625188418 0 -10.138622625188418 -24.658206998494279 0 0 0 0 -12.211614947168471 -47.79999278829473 0 -47.79999278829473 -47.934395018586656 0 0 0 0 35.258130893367934 -12.910177021749405 0 -12.910177021749405 -41.183021350295348 0 0 0 0 12.364453975411891 2.6507891537330579 0 2.6507891537330579 -39.522648235153611 0 0 0 0 66.963767330348162 33.715829616569408 0 33.715829616569408 -11.363002593010606 0 0 0 0 33.134368908891474 -17.765534762786046 0 -17.765534762786046 -29.428915419135137 0 0 0 0 51.681337535562079 31.863539748659605 0 31.863539748659605 39.517706678883769 0 0 0 0 76.078725777428531 15.747061481084529 0 15.747061481084529 -1.6289427291812899 0 0 0 0 29.50021379782595 -8.242763045402171 0 -8.242763045402171 -20.950073743089888 0 0 0 0 49.553765289321859 22.653543149577672 0 22.653543149577672 4.4779862018312997 0 0 0 0 -2.2361722103264583 11.533110302815658 0 11.533110302815658 5.6923074312871904 0 0 0 0 -5.8589699673138798 4.4769425493864112 0 4.4769425493864112 -1.4075001222145858 0 0 0 0 88.358225143219158 75.145741641337509 0 75.145741641337509 9.6222820509301528 0 0 0 0 -3.3677522986604345 10.235476818871575 0 10.235476818871575 4.2551244929154564 0 0 0 0 38.999088644052108 -0.88509316627460066 0 -0.88509316627460066 9.0147399161412167 0 0 0 0 0.33733297456454681 0.06453843335695808 0 0.06453843335695808 -0.41807093402362483 0 0 0 0 -5.4874335223378461 4.0244246304822138 0 4.0244246304822138 -1.0259394520783118 0 0 0 0 -10.492741740389192 4.7749961160225212 0 4.7749961160225212 4.1085235902296517 0 0 0 0 34.665906823549221 23.232912962076625 0 23.232912962076625 17.52447555081929 0 0 0 0 42.305397353147555 45.160441057183561 0 45.160441057183561 16.748411181688425 0 0 0 0 9.6268476039072084 -14.368272539696591 0 -14.368272539696591 -2.4386362028144504 0 0 0 0 4.2729846753212541 9.8076506088664246 0 9.8076506088664246 -20.213393603167788 0 0 0 0 34.04214272515739 -3.4095299538393817 0 -3.4095299538393817 -16.999507470365643 0 0 0 0 34.497507216604568 32.595407342345261 0 32.595407342345261 -2.3523974681065738 0 0 0 0 0.44798878056828029 0.13760806232602363 0 0.13760806232602363 -0.69166090847949135 0 0 0 0 -20.294447718278207 -16.396693583157685 0 -16.396693583157685 -16.845459606919576 0 0 0 0 27.603805594260507 -6.3346979048601497 0 -6.3346979048601497 -22.49687083689787 0 0 0 0 49.20999104015209 41.043847770807588 0 41.043847770807588 11.471200903475619 0 0 0 0 -11.183372982863489 -6.0441978700673644 0 -6.0441978700673644 -2.7847870146997593 0 0 0 0 6.8574317450219269 -35.346481131818109 0 -35.346481131818109 -55.831443576099446 0 0 0 0 3.8881606320413993 -0.41189953005375557 0 -0.41189953005375557 -0.80684503136370012 0 0 0 0 3.9706783700266186 1.9572061832013929 0 1.9572061832013929 0.9980631924008776 0 0 0 0 5.6403399815045532 0.58238165211696469 0 0.58238165211696469 0.067639993631019024 0 0 0 0 5.9076510259587849 0.7989545532664124 0 0.7989545532664124 -0.052236790045753878 0 0 0 0 3.546395074404245 2.0909486171403842 0 2.0909486171403842 -0.061352112401436898 0 0 0 0 5.964348108997001 0.050795494763406168 0 0.050795494763406168 -0.31642475047556218 0 0 0 0 -1.2762404594755026 -13.236082648533738 0 -13.236082648533738 -0.63598819689360653 0 0 0 0 16.697511520568128 3.1082398041544366 0 3.1082398041544366 -29.171710059610632 0 0 0 0 4.7573436458997076 -0.61585923348399163 0 -0.61585923348399163 -0.81122066585944808 0 0 0 0 15.988867209892078 -23.439304587674997 0 -23.439304587674997 -60.684203659608102 0 0 0 0 5.3729618418010432 -0.35467218759549723 0 -0.35467218759549723 -1.617556415098079 0 0 0 0 5.1279241071748629 -0.22008145390896061 0 -0.22008145390896061 0.15190202695339394 0 0 0 0 6.0578717738912928 0.6497577411569182 0 0.6497577411569182 -0.0027532745552889537 0 0 0 0 5.4138265333949676 0.42211425901041366 0 0.42211425901041366 -0.35352650317690859 0 0 0 0 5.4352227156432491 0.95443641603378637 0 0.95443641603378637 0.074238244937305353 0 0 0 0 0.51645137872424129 4.6246767336915582 0 4.6246767336915582 5.7151530693863606 0 0 0 0 8.1634841872051993 2.0878272001523328 0 2.0878272001523328 -0.53979134184555733 0 0 0 0 7.0809787506796056 -0.40078945509139885 0 -0.40078945509139885 0.67125085138377472 0 0 0 0 6.6955803846931303 2.0099914126994918 0 2.0099914126994918 2.2153432580407753 0 0 0 0 24.950447814684139 16.340117408534752 0 16.340117408534752 9.0581429254689283 0 0 0 0 8.8436263517075986 2.1992859052288622 0 2.1992859052288622 0.012285802416954539 0 0 0 0 39.108097267692756 8.5598829731170554 0 8.5598829731170554 0.0020611658565030666 0 0 0 0 37.587598921686435 18.706686653861652 0 18.706686653861652 12.594190673275079 0 0 0 0 69.636825115642978 22.477353547200437 0 22.477353547200437 1.1503466177418886 0 0 0 0 0.19403284529909803 -0.32895165878531518 0 -0.32895165878531518 -0.0067044040906836244 0 0 0 0 -4.9037146819454165 -0.70489627768711216 0 -0.70489627768711216 2.9300273475873837 0 0 0 0 3.4548958429242447 1.2906144149648071 0 1.2906144149648071 -0.84214751120453002 0 0 0 0 36.629344103752487 12.328033308839622 0 12.328033308839622 9.9453991824148034 0 0 0 0 53.359051656533438 16.391898420656844 0 16.391898420656844 -0.5083402061209199 0 0 0 0 0.13613806634893655 -0.2828203740516928 0 -0.2828203740516928 0.34394189152075683 0 0 0 0 29.040357339715797 13.919207098666448 0 13.919207098666448 7.5359907921156264 0 0 0 0 4.0394560776639814 0.3503869230034411 0 0.3503869230034411 0.50791443491834798 0 0 0 0 -0.0646178296801736 1.2828168130445192 0 1.2828168130445192 0.86726112365249719 0 0 0 0 7.1930276817579326 12.011002587976236 0 12.011002587976236 1.5105948203527078 0 0 0 0 29.147133196915888 13.840616236930146 0 13.840616236930146 -0.51960486756524915 0 0 0 0 15.160199113397823 21.466113010346362 0 21.466113010346362 4.4002381127993431 0 0 0 0 18.887783627212173 10.095154060408277 0 10.095154060408277 4.076042267870065 0 0 0 0 33.245949840539083 20.424912730771666 0 20.424912730771666 3.1653919724813022 0 0 0 0 5.7141383140452859 22.325871486073538 0 22.325871486073538 7.7261748169785278 0 0 0 0 17.118973249560643 16.882539879769027 0 16.882539879769027 4.1434122584250872 0 0 0 0 17.097189669337354 17.404927376230262 0 17.404927376230262 11.77812123187141 0 0 0 0 37.078300417607622 12.051855130134413 0 12.051855130134413 2.8676718289589189 0 0 0 0 22.069200695503511 20.501444264614292 0 20.501444264614292 0.0039935673230502289 0 0 0 0 6.0022882764992005 15.508078292759365 0 15.508078292759365 8.9098025311368474 0 0 0 0 0.15173343757304281 25.942126753320736 0 25.942126753320736 0.010437491282573319 0 0 0 0 -11.911925722409151 21.697156829648634 0 21.697156829648634 9.1812558401306887 0 0 0 0 -4.2752075717025946 42.172287171318658 0 42.172287171318658 7.5852374978385342 0 0 0 0 -10.917110225527267 33.715653466300864 0 33.715653466300864 0.0079088117454605318 0 0 0 0 -14.726757362013103 31.319965139520264 0 31.319965139520264 7.0991410385067866 0 0 0 0 -18.046411219175297 31.661271314590522 0 31.661271314590522 9.9323028050584981 0 0 0 0 -20.164486246875299 39.902996551545471 0 39.902996551545471 9.7185698531975504 0 0 0 0 -9.3244156039311292 42.777001240866412 0 42.777001240866412 6.330275270639504 0 0 0 0 -29.700729254293137 45.899593846942594 0 45.899593846942594 6.8055120238404925 0 0 0 0 -26.252071046368428 35.246770005498547 0 35.246770005498547 8.4205668130362028 0 0 0 0 -27.839374881217054 30.022064999885515 0 30.022064999885515 -0.015689908455897239 0 0 0 0 -43.550898719020893 39.591255917553099 0 39.591255917553099 -3.0824990463870563 0 0 0 0 -38.827732196022566 50.362232585552647 0 50.362232585552647 -16.074964182575059 0 0 0 0 -25.647712002132039 35.743012801312943 0 35.743012801312943 -8.1059921295036474 0 0 0 0 -11.603811665216028 27.691274104805416 0 27.691274104805416 7.236926086410449 0 0 0 0 -6.2453038665658767 12.297824181114265 0 12.297824181114265 6.8691771439789591 0 0 0 0 -23.313068716559741 19.819109583099021 0 19.819109583099021 3.5148575823204737 0 0 0 0 -29.77332213317834 28.544224441933693 0 28.544224441933693 3.3738376905781422 0 0 0 0 -7.9034528108969369 24.25704567685716 0 24.25704567685716 1.9506883184208164 0 0 0 0 -10.533347449388543 19.046482645615015 0 19.046482645615015 -6.1422866675311525 0 0 0 0 -8.5264023608843047 18.909824282640329 0 18.909824282640329 -9.9286099554810789 0 0 0 0 -31.364731580216755 27.982276713745705 0 27.982276713745705 -1.9835495469669695 0 0 0 0 -24.868726380139293 42.324333623440907 0 42.324333623440907 -5.7618196750868265 0 0 0 0 -20.276364617917068 39.005058143932729 0 39.005058143932729 -46.989270338965071 0 0 0 0 -48.949234582079953 34.467858251332473 0 34.467858251332473 -17.760852312356292 0 0 0 0 -26.306151394114778 34.155747788200188 0 34.155747788200188 -21.600125574101185 0 0 0 0 -36.998796047585301 19.832707526061313 0 19.832707526061313 -6.8868647050949221 0 0 0 0 -29.911020335995318 41.40449405167692 0 41.40449405167692 -19.07509001854487 0 0 0 0 -50.68888361298923 42.741464902850566 0 42.741464902850566 -17.886233213667765 0 0 0 0 -33.053784295835271 55.961316800712666 0 55.961316800712666 -34.816116501977376 0 0 0 0 -27.384135845938545 47.173033945164207 0 47.173033945164207 -23.138929772554548 0 0 0 0 -23.582006268759869 47.288545804680325 0 47.288545804680325 -35.066132666904139 0 0 0 0 -44.433470850343497 70.750596423553361 0 70.750596423553361 -56.180062615414499 0 0 0 0 -17.227069665879753 47.475864504487618 0 47.475864504487618 -47.798507734751183 0 0 0 0 5.7680386700076269 14.782865056958144 0 14.782865056958144 -38.95722503891011 0 0 0 0 -76.844088739296922 53.471437601236175 0 53.471437601236175 -21.823817617616442 0 0 0 0 -46.259772919133411 26.177401155270672 0 26.177401155270672 -70.963578217812028 0 0 0 0 -139.23015329223858 65.800821966231979 0 65.800821966231979 -20.240209715149831 0 0 0 0 -62.736168086305497 81.185702988843332 0 81.185702988843332 -71.030959412577332 0 0 0 0 0.007870262611639034 -0.30502250418332943 0 -0.30502250418332943 -0.58462397352324302 0 0 0 0 -59.078287414432339 28.371604442709213 0 28.371604442709213 -2.8475064426820609 0 0 0 0 -5.5199667882206995 38.558565668432493 0 38.558565668432493 -73.282858886726899 0 0 0 0 23.955169584824205 -8.785897649366575 0 -8.785897649366575 -23.495543185672432 0 0 0 0 -5.0781728125425616 4.4625105757959318 0 4.4625105757959318 5.2050755716336425 0 0 0 0 12.037714157912433 13.289877916640762 0 13.289877916640762 -5.9354125429454143 0 0 0 0 10.789195997348543 4.9466026535337733 0 4.9466026535337733 -0.6056671005426324 0 0 0 0 5.5677278661206282 3.0671216756896555 0 3.0671216756896555 0.80730765990790943 0 0 0 0 -20.489628805530046 22.60796886114025 0 22.60796886114025 -21.674544647517905 0 0 0 0 -28.475012339873388 17.739183290601432 0 17.739183290601432 -10.72280288384718 0 0 0 0 1.1341096108285409 0.43551405537440413 0 0.43551405537440413 -1.4580529401672635 0 0 0 0 -17.039996925944706 37.942002426669205 0 37.942002426669205 -47.752786504699543 0 0 0 0 -38.62700998972025 53.98186241210351 0 53.98186241210351 -29.686452321777324 0 0 0 0 -38.454654059310656 50.321528023139763 0 50.321528023139763 -45.398592155760525 0 0 0 0 -52.974943517652008 48.885439046096508 0 48.885439046096508 -44.374159531929763 0 0 0 0 -24.255942080825946 48.543797027682558 0 48.543797027682558 -30.964936430587841 0 0 0 0 -24.250123814131982 57.725892912974565 0 57.725892912974565 -44.736443363392027 0 0 0 0 -37.26643694701329 58.731707569235368 0 58.731707569235368 -36.985699107124674 0 0 0 0 -40.423594554879003 53.601769174926631 0 53.601769174926631 -45.037694177965022 0 0 0 0 -50.454636017555345 64.280961876054789 0 64.280961876054789 -38.452600869393791 0 0 0 0 13.66406981943328 -0.63185027080544387 0 -0.63185027080544387 12.95191572974727 0 0 0 0 65.737627763823582 9.4219867663819059 0 9.4219867663819059 15.503928949598048 0 0 0 0 67.835398950056515 -4.3626382636193739 0 -4.3626382636193739 -2.2996852538781241 0 0 0 0 44.552658904680356 -7.7244944145531917 0 -7.7244944145531917 4.8910592871434346 0 0 0 0 49.548581851672679 1.4081112072253745 0 1.4081112072253745 -2.4055169787880004 0 0 0 0 59.908441175864937 -3.4635073870749693 0 -3.4635073870749693 -0.1474380388535792 0 0 0 0 47.312242565876659 1.3000095200986834 0 1.3000095200986834 5.3227813137955309 0 0 0 0 42.137458620787015 0.22366493985964553 0 0.22366493985964553 5.7858663211336534 0 0 0 0 19.791062264075663 17.878464302515567 0 17.878464302515567 12.592952798677288 0 0 0 0 -1.8576663740050208 28.891809619794003 0 28.891809619794003 19.537122639519112 0 0 0 0 17.734808375870216 17.177272795646786 0 17.177272795646786 16.190057905492722 0 0 0 0 -8.85259261125384 24.817950713582832 0 24.817950713582832 14.45878848569555 0 0 0 0 12.268074446445553 -3.0177914782325388 0 -3.0177914782325388 10.377573710487923 0 0 0 0 16.696371425881807 -0.047337551208329387 0 -0.047337551208329387 8.2362929032788088 0 0 0 0 -13.560782007076568 -6.2611859289627319 0 -6.2611859289627319 15.835873483287287 0 0 0 0 -44.191720842296945 38.745133819060356 0 38.745133819060356 6.6055629539514484 0 0 0 0 -16.841411949468693 21.820368587266785 0 21.820368587266785 16.739590527104156 0 0 0 0 -58.891141342805895 34.246662671233935 0 34.246662671233935 5.2648845682651881 0 0 0 0 -40.850065973402707 35.320861418957065 0 35.320861418957065 -27.940758792807173 0 0 0 0 -61.934201879576904 14.474908803527796 0 14.474908803527796 13.87271950874424 0 0 0 0 109.81068535143868 -21.072513299302045 0 -21.072513299302045 -17.108912345690442 0 0 0 0 17.744189766152886 1.9563512285239995 0 1.9563512285239995 10.088785329999155 0 0 0 0 36.067707918021824 -23.363606678798533 0 -23.363606678798533 4.8931829322391422 0 0 0 0 106.37384432972362 0.34849703357758699 0 0.34849703357758699 -14.46273268047662 0 0 0 0 124.72664662417128 14.505866656878425 0 14.505866656878425 -17.076088472576885 0 0 0 0 59.323333597797955 -31.498465210837821 0 -31.498465210837821 16.450450482541783 0 0 0 0 87.342729902517931 11.27203148717399 0 11.27203148717399 227.33248839738371 0 0 0 0 0.82817968850514134 0.45386371862712593 0 0.45386371862712593 0.49347738522049411 0 0 0 0 0.26011969447414085 0.04483511302544585 0 0.04483511302544585 -1.2869433207813117 0 0 0 0 1.0260398299973765 0.39489902969674651 0 0.39489902969674651 -0.31925092922381992 0 0 0 0 0.95884936803622622 2.0545624535534444 0 2.0545624535534444 8.9516966101473372 0 0 0 0 -10.806330703480398 4.3775976406432164 0 4.3775976406432164 -0.5858593338944047 0 0 0 0 9.9685601992616739 1.3068196390831872 0 1.3068196390831872 -6.8553431891741639 0 0 0 0 1.3113834767783072 1.0169914613498836 0 1.0169914613498836 1.4150188290011911 0 0 0 0 57.227112218186221 -7.4025695238933622 0 -7.4025695238933622 -1.9392895187775139 0 0 0 0 0.26266655572982245 -0.31125304621929217 0 -0.31125304621929217 -0.26570623637174151 0 0 0 0 118.80183843388386 -9.933945482168383 0 -9.933945482168383 -11.356759163318202 0 0 0 0 49.367430119649271 40.616226198562799 0 40.616226198562799 34.980441162073475 0 0 0 0 59.479839688272477 -3.3651864898611166 0 -3.3651864898611166 2.9714606047709822 0 0 0 0 161.40214542533431 84.625673350601573 0 84.625673350601573 -230.06250976219599 0 0 0 0 0.25648979951167616 0.56143651765889668 0 0.56143651765889668 0.75481220418608785 0 0 0 0 63.59066746745566 -7.6632490933225199 0 -7.6632490933225199 -10.480380295583018 0 0 0 0 122.67062570289045 -9.5756818305580964 0 -9.5756818305580964 -16.151957869820762 0 0 0 0 103.61727339968866 1.6931544463386672 0 1.6931544463386672 -10.383255052180175 0 0 0 0 -18.708594736962368 29.577939263867847 0 29.577939263867847 -23.53031156632278 0 0 0 0 -19.542373972718451 29.550886424025521 0 29.550886424025521 -19.225773952099189 0 0 0 0 -8.9298249161954573 31.847688968089642 0 31.847688968089642 -28.712386066043109 0 0 0 0 -26.521170622199406 42.515142758058573 0 42.515142758058573 -32.872111771441269 0 0 0 0 -21.280280813155628 30.495641443748355 0 30.495641443748355 -20.265230278870149 0 0 0 0 -35.721800587484722 35.545801093423506 0 35.545801093423506 -20.822437158601588 0 0 0 0 -34.703155231693472 46.369224072112047 0 46.369224072112047 -21.721944295818503 0 0 0 0 220.07036687505251 12.905591806818848 0 12.905591806818848 -8.8232330045902927 0 0 0 0 0.061860303202604605 0.016978984988046619 0 0.016978984988046619 0.29284076730325381 0 0 0 0 -96.495708546311789 56.614476525335704 0 56.614476525335704 -1.3499226361964247 0 0 0 0 103.7417819599641 -14.265621213418854 0 -14.265621213418854 24.010075301720917 0 0 0 0 98.394554737495582 10.430591368631212 0 10.430591368631212 17.897812799747044 0 0 0 0 118.52604240404617 16.721549094403599 0 16.721549094403599 8.6315093717589662 0 0 0 0 55.871182264421122 34.954767896161684 0 34.954767896161684 35.513897871620429 0 0 0 0 69.569440341993868 19.23955103982189 0 19.23955103982189 11.100642906444591 0 0 0 0 51.421569952339269 9.7511512388882693 0 9.7511512388882693 5.661681426639916 0 0 0 0 50.457986063408015 22.486581793161008 0 22.486581793161008 10.628504869615426 0 0 0 0 62.062811859374733 25.739130493286439 0 25.739130493286439 10.652402130916016 0 0 0 0 64.234070888766837 13.917332780194556 0 13.917332780194556 6.5357064782292582 0 0 0 0 71.119883725416003 6.1643794348919982 0 6.1643794348919982 -1.5509643834739109 0 0 0 0 10.441283890500017 30.857994773585233 0 30.857994773585233 22.639460960805081 0 0 0 0 24.136133305019712 30.369992870205351 0 30.369992870205351 18.524898661067709 0 0 0 0 33.206582499621618 15.504004235328466 0 15.504004235328466 13.006194494898409 0 0 0 0 32.396768031254851 29.416521681450831 0 29.416521681450831 20.035024298347707 0 0 0 0 47.271940917312349 20.805481331905867 0 20.805481331905867 22.073756893550126 0 0 0 0 32.025557934102835 31.016468043867462 0 31.016468043867462 27.50486498862665 0 0 0 0 29.816202520662046 27.110669886575124 0 27.110669886575124 22.480861117901441 0 0 0 0 33.507334616178468 32.928885215864284 0 32.928885215864284 20.028632411827857 0 0 0 0 74.149002152989397 19.77139834233094 0 19.77139834233094 14.323580023303293 0 0 0 0 44.477290563937459 30.818557164979211 0 30.818557164979211 11.146604539449072 0 0 0 0 56.675670565240125 38.9978550611022 0 38.9978550611022 -4.3847976112865581 0 0 0 0 47.093541581913769 25.927590640622157 0 25.927590640622157 7.5539935106662597 0 0 0 0 -32.342047409983252 74.313738562585058 0 74.313738562585058 0.47963559363779495 0 0 0 0 88.921044696265881 65.30903040757039 0 65.30903040757039 20.550812949957617 0 0 0 0 37.884927311753913 61.749758121669174 0 61.749758121669174 -4.2876869245446869 0 0 0 0 40.252080863109768 40.319374281597447 0 40.319374281597447 9.1279528334371207 0 0 0 0 -11.318607653727895 52.375201215254492 0 52.375201215254492 6.3383453362912405 0 0 0 0 25.427336155115427 50.946049546539598 0 50.946049546539598 -0.91499570607220448 0 0 0 0 25.623129767199501 44.85107428075672 0 44.85107428075672 -1.1784817067746189 0 0 0 0 1.5743306235476666 37.357250958937584 0 37.357250958937584 0.014088305686527747 0 0 0 0 37.05083053677663 34.310303430778959 0 34.310303430778959 1.5759998011817515 0 0 0 0 34.835610249433557 34.294170291052978 0 34.294170291052978 1.8732354049561764 0 0 0 0 38.225419434758578 36.49433883047277 0 36.49433883047277 -0.018507029310057987 0 0 0 0 34.121791015188137 37.158510698739974 0 37.158510698739974 0.0088179713693534723 0 0 0 0 35.115876179434508 30.421424067964836 0 30.421424067964836 6.9029221061246062 0 0 0 0 26.573452772173368 34.432231749363382 0 34.432231749363382 5.0350680653477866 0 0 0 0 26.256662523585192 35.855241580521579 0 35.855241580521579 2.2808986561612983 0 0 0 0 7.2764077743427151 38.451474124377455 0 38.451474124377455 9.3725640332067996 0 0 0 0 18.530860296140872 40.613189349382083 0 40.613189349382083 -0.014526744536851766 0 0 0 0 -15.68668143445575 28.967240062850578 0 28.967240062850578 0.0012371405434606444 0 0 0 0 7.2564036030497236 32.040011996531945 0 32.040011996531945 -34.750680888095303 0 0 0 0 -1.0137270146160517 9.4720853086373609 0 9.4720853086373609 65.199154189036562 0 0 0 0 -0.23245889365110983 0.445212872203534 0 0.445212872203534 0.37778865438445663 0 0 0 0 14.428491026824759 33.18273608653908 0 33.18273608653908 12.13259578576799 0 0 0 0 18.341882503374372 33.501436458532197 0 33.501436458532197 14.527753962236602 0 0 0 0 20.205705289612524 33.237926087387677 0 33.237926087387677 12.132125094172267 0 0 0 0 14.088317910272963 25.033597075778744 0 25.033597075778744 15.814094765755726 0 0 0 0 18.477441868996074 40.448094966257287 0 40.448094966257287 34.762177575077658 0 0 0 0 19.599965078224159 35.78011796894134 0 35.78011796894134 12.164127435094997 0 0 0 0 18.84930982111382 30.912320830782846 0 30.912320830782846 0.88139879994196235 0 0 0 0 18.244898275102969 34.239817529916763 0 34.239817529916763 14.282103382200603 0 0 0 0 21.090581738779406 33.025082296353958 0 33.025082296353958 7.7358126600502146 0 0 0 0 19.640510204351926 34.409790293042306 0 34.409790293042306 13.997179996886189 0 0 0 0 18.287380993197985 33.086408574351481 0 33.086408574351481 16.791346456320753 0 0 0 0 19.009078223678443 32.941227359386176 0 32.941227359386176 20.141174562342712 0 0 0 0 29.616125970258508 28.346117561219216 0 28.346117561219216 16.169536145502207 0 0 0 0 22.17401308127944 32.510275487982881 0 32.510275487982881 14.109610762008742 0 0 0 0 21.763073171111273 31.429170954979782 0 31.429170954979782 14.088850533666118 0 0 0 0 -4.2944038799560076 13.913275402855106 0 13.913275402855106 -11.123175921445181 0 0 0 0 0.002719691621820175 0.0067756009462609512 0 0.0067756009462609512 0.28518625939147313 0 0 0 0 -0.54524164248788054 0.19181197387873183 0 0.19181197387873183 0.22490657581530371 0 0 0 0 -0.41025914351121173 0.2430826754480222 0 0.2430826754480222 0.20512030772079015 0 0 0 0 27.933191656236886 26.631459358713983 0 26.631459358713983 -6.3173905830262811 0 0 0 0 -0.3066683336674032 1.2997931696700107 0 1.2997931696700107 -3.9404555465334852 0 0 0 0 -0.045657989089249895 0.043070705186892155 0 0.043070705186892155 -0.97574031782460224 0 0 0 0 -0.042695060931027484 0.51056870921232189 0 0.51056870921232189 0.25359599342706574 0 0 0 0 -0.1168803933246636 0.11508224199542383 0 0.11508224199542383 -0.0033407144746888662 0 0 0 0 0.061608250740391668 0.034069857214490185 0 0.034069857214490185 -0.090716854315360251 0 0 0 0 0.22087107535662653 0.52415824405079547 0 0.52415824405079547 -0.1177294994413387 0 0 0 0 0.41877792904324451 2.4566470751560701 0 2.4566470751560701 8.2507963314890276 0 0 0 0 0.24935818326805048 0.22439734758064134 0 0.22439734758064134 -0.55532746478895945 0 0 0 0 0.30149420368934443 0.69180990309541812 0 0.69180990309541812 -0.0029266351866681362 0 0 0 0 0.47014694399566004 -0.023194153436268294 0 -0.023194153436268294 -0.43349712986277922 0 0 0 0 -28.982130225988385 12.621350613726008 0 12.621350613726008 -4.9113680267601012 0 0 0 0 -0.22469524557103782 0.70629568440509516 0 0.70629568440509516 0.44265447843278949 0 0 0 0 -1.4896862501891519 1.640177409253738 0 1.640177409253738 15.870289853583017 0 0 0 0 2.2656123773372201 5.0555239533091481 0 5.0555239533091481 10.411851806669802 0 0 0 0 3.4186417774762958 17.126556573372 0 17.126556573372 26.802862314956656 0 0 0 0 14.761318603765858 25.975701215714707 0 25.975701215714707 8.146137350693607 0 0 0 0 13.173825343972567 26.93837190359227 0 26.93837190359227 8.9805885354389829 0 0 0 0 18.874740070012194 30.794442945683841 0 30.794442945683841 -2.7008376565645449 0 0 0 0 11.608059335183498 25.345273942923086 0 25.345273942923086 -3.7068425461329753 0 0 0 0 12.638055638705737 24.172383223389716 0 24.172383223389716 -5.295052861511067 0 0 0 0 6.1510674442233721 16.920233286193252 0 16.920233286193252 -6.8522265775491178 0 0 0 0 6.1597881735269766 23.580338238545664 0 23.580338238545664 -4.4750466679652163 0 0 0 0 11.611530061905796 26.040869135538742 0 26.040869135538742 -12.013373844180023 0 0 0 0 8.0283975277725403 24.674669678290229 0 24.674669678290229 -11.912109798977326 0 0 0 0 5.4068177512963302 25.325540325236943 0 25.325540325236943 -17.212882230462128 0 0 0 0 2.3711208658078249 22.443202082627977 0 22.443202082627977 -15.130568008877162 0 0 0 0 6.4599392532618367 27.152842229450471 0 27.152842229450471 -14.2277513639674 0 0 0 0 5.9212926489817619 21.901587569071125 0 21.901587569071125 -13.749957976287988 0 0 0 0 3.3130505471599463 24.420336494044022 0 24.420336494044022 -11.430159724837722 0 0 0 0 2.9524074188775558 22.046206669048843 0 22.046206669048843 -11.346137311629718 0 0 0 0 5.6676756384676992 18.162347883824623 0 18.162347883824623 -8.2548944232803478 0 0 0 0 5.587233037364058 16.313619838427257 0 16.313619838427257 -12.077071154555597 0 0 0 0 2.9175748007037328 7.8469093111889379 0 7.8469093111889379 8.8387418315621744 0 0 0 0 2.1888489594857674 14.566727485893352 0 14.566727485893352 -1.2531057872583915 0 0 0 0 6.9099616871781109 21.687846009214809 0 21.687846009214809 8.2342559853823332 0 0 0 0 1.2824559245464116 10.225460332671901 0 10.225460332671901 5.4617701140086865 0 0 0 0 7.5580698026906248 7.7527873648759851 0 7.7527873648759851 -1.7564511010968999 0 0 0 0 0.36654924805783651 -0.12923299596986126 0 -0.12923299596986126 -0.29217254181533292 0 0 0 0 5.9805208791331097 14.188563608671757 0 14.188563608671757 -3.708804631154635 0 0 0 0 20.548613271537761 -8.8021110589161253 0 -8.8021110589161253 0.86950460029038368 0 0 0 0 0.082799892101286687 -0.009663996220730553 0 -0.009663996220730553 -0.14869339081441524 0 0 0 0 -0.038543390909296704 -0.062689270327656921 0 -0.062689270327656921 0.073974612463722167 0 0 0 0 -1.3531982389176846 12.626330626888375 0 12.626330626888375 -105.10851127526257 0 0 0 0 11.688292337530584 51.739808074336906 0 51.739808074336906 -58.548865206423216 0 0 0 0 -25.972173619185924 92.203886580697144 0 92.203886580697144 -84.577180137312098 0 0 0 0 -83.105098776864907 27.182478682114379 0 27.182478682114379 -23.765713136905106 0 0 0 0 -1.9362450350818108 15.621859895552916 0 15.621859895552916 -15.34151984696291 0 0 0 0 2.2257054452820739 18.009885738469166 0 18.009885738469166 -14.323301926717249 0 0 0 0 5.9463951760517375 11.292857381216891 0 11.292857381216891 -12.922940853854016 0 0 0 0 2.1171683530046721 19.296872103972419 0 19.296872103972419 -11.37946362094317 0 0 0 0 0.45138764177954727 22.984973886063017 0 22.984973886063017 -20.191321561374934 0 0 0 0 2.5792215600458803 17.293191599925194 0 17.293191599925194 -17.503914738830645 0 0 0 0 -1.5289590733300429 22.076266182590189 0 22.076266182590189 -19.00938798734569 0 0 0 0 -5.2630902134078497 25.757534511765698 0 25.757534511765698 -18.776520371742663 0 0 0 0 -1.2337732764426619 23.297279187572713 0 23.297279187572713 -14.867739785700905 0 0 0 0 2.9662271878114552 20.680189151153172 0 20.680189151153172 -16.491972615185659 0 0 0 0 -1.229161592447781 25.235990545541426 0 25.235990545541426 -14.837370163825653 0 0 0 0 -1.2787397867141408 24.768203288029326 0 24.768203288029326 -18.318220066790673 0 0 0 0 -7.2601787359585614 24.616446050114519 0 24.616446050114519 -15.499658012777218 0 0 0 0 -7.9802157713602355 23.371750573322061 0 23.371750573322061 -16.063019017223269 0 0 0 0 -15.077136127307313 21.916506147586915 0 21.916506147586915 -17.49980402530673 0 0 0 0 -10.909609180369443 26.376763495645719 0 26.376763495645719 -16.627530379999371 0 0 0 0 -12.50636465133357 23.867934454909118 0 23.867934454909118 -16.526957729896822 0 0 0 0 -7.3663817839124022 25.530521911180585 0 25.530521911180585 -18.640340443511377 0 0 0 0 -20.286570677788404 21.053093288633136 0 21.053093288633136 -16.922175456718833 0 0 0 0 -17.884857449633273 26.198507755241735 0 26.198507755241735 -16.089678888420167 0 0 0 0 -18.279472726513632 23.316659793616054 0 23.316659793616054 -15.838246752275154 0 0 0 0 -26.807458334226794 20.209177915573491 0 20.209177915573491 -17.989843308343552 0 0 0 0 -12.813132045121165 26.247645791263494 0 26.247645791263494 -17.113220595776511 0 0 0 0 -12.829849458394165 25.768311589716177 0 25.768311589716177 -18.362064041182748 0 0 0 0 -19.050888038669655 25.160076627515082 0 25.160076627515082 -17.899040956101089 0 0 0 0 -11.518608636466524 28.762066645431332 0 28.762066645431332 -21.422123945114436 0 0 0 0 -6.0400665484703495 24.629130745684961 0 24.629130745684961 -19.923428684887767 0 0 0 0 -5.7229820736320107 21.845193965476938 0 21.845193965476938 -18.193089338489699 0 0 0 0 -4.4572797666551196 24.515377069641545 0 24.515377069641545 -22.634867475244391 0 0 0 0 8.8336825524456799 16.661227976408554 0 16.661227976408554 -27.702850375688286 0 0 0 0 -15.882852640723286 33.195674877701094 0 33.195674877701094 -28.103861539348145 0 0 0 0 -24.702570663339429 28.63121679654796 0 28.63121679654796 -16.952393193074386 0 0 0 0 -17.404574983018392 28.320551953695031 0 28.320551953695031 -20.19524739930057 0 0 0 0 -41.880223782311077 30.011395205292501 0 30.011395205292501 -18.191281550403801 0 0 0 0 -32.401225514840917 21.235585959613672 0 21.235585959613672 -23.069963965797797 0 0 0 0 -37.564817883256183 22.953414574687486 0 22.953414574687486 -17.469543671875726 0 0 0 0 -32.274315812095665 11.208222352430312 0 11.208222352430312 -27.167294713624869 0 0 0 0 -25.61849442321909 13.049588697294894 0 13.049588697294894 -20.495905333860719 0 0 0 0 -28.080925625701639 16.877489905269613 0 16.877489905269613 -19.538056868492276 0 0 0 0 -25.812451333720674 15.672184952509269 0 15.672184952509269 -18.199248864155379 0 0 0 0 -25.577989692661504 15.488051382140839 0 15.488051382140839 -19.091113274647796 0 0 0 0 -27.50076864739458 22.174905756652151 0 22.174905756652151 -15.253718004179973 0 0 0 0 -21.442444367650751 18.102425258472067 0 18.102425258472067 -17.622292066672344 0 0 0 0 -22.21089058963662 18.76473259436716 0 18.76473259436716 -17.77504336048878 0 0 0 0 -22.124219688359517 16.44145606854363 0 16.44145606854363 -20.884040738981639 0 0 0 0 -21.12953090376368 17.218058060546355 0 17.218058060546355 -20.3321419290005 0 0 0 0 -20.321800370704295 15.384748849046446 0 15.384748849046446 -20.388451873406666 0 0 0 0 -21.990576238329595 13.813756315565115 0 13.813756315565115 -20.599250356404809 0 0 0 0 -22.606801153880042 15.278599388855582 0 15.278599388855582 -13.772508560876304 0 0 0 0 -27.622435368119113 22.657134684171069 0 22.657134684171069 -15.841564246889902 0 0 0 0 -28.034895823187298 26.138496512267579 0 26.138496512267579 -10.524225843884778 0 0 0 0 -0.17122049987430366 -0.1299045000318495 0 -0.1299045000318495 0.0080313500274087346 0 0 0 0 -26.58509916881485 17.87250817061431 0 17.87250817061431 -34.462843326162329 0 0 0 0 -25.79684190214175 20.885389957071311 0 20.885389957071311 -23.1793779997397 0 0 0 0 -73.564387980584797 39.564057370191222 0 39.564057370191222 -3.4474906284631288 0 0 0 0 -40.942974165875057 11.661998660842073 0 11.661998660842073 -27.190467077118228 0 0 0 0 -21.660928088836954 26.835304481838648 0 26.835304481838648 -32.901957620837493 0 0 0 0 -21.613085639010023 28.558277267246012 0 28.558277267246012 -24.009069346078832 0 0 0 0 -13.153879503774078 27.340922063913013 0 27.340922063913013 -28.408051911774237 0 0 0 0 -21.412113858244538 23.492208520755412 0 23.492208520755412 -21.663727809202101 0 0 0 0 -19.059998011642165 20.814315231535147 0 20.814315231535147 -24.992777605351876 0 0 0 0 -19.093291350897971 21.123466362632712 0 21.123466362632712 -18.415155253002013 0 0 0 0 -16.014403632208996 21.975232287768449 0 21.975232287768449 -18.942975279187522 0 0 0 0 -18.584813446343105 21.158273064329478 0 21.158273064329478 -24.617169268045473 0 0 0 0 -14.136954186506046 25.127775114900942 0 25.127775114900942 -22.208913332309749 0 0 0 0 -13.175575337068949 22.827498170001491 0 22.827498170001491 -20.104446455496145 0 0 0 0 -6.4775467861309153 26.240231976498762 0 26.240231976498762 -19.906567058904329 0 0 0 0 -10.729588196732948 22.303534022314125 0 22.303534022314125 -18.733750440209405 0 0 0 0 -15.454204649671738 24.599647932973312 0 24.599647932973312 -16.672507859384496 0 0 0 0 -0.35873068167529709 24.643719101515671 0 24.643719101515671 -18.930307627775619 0 0 0 0 -6.5878788962108956 27.192540754153015 0 27.192540754153015 -16.788263099011601 0 0 0 0 3.8712731693194655 25.852762988339236 0 25.852762988339236 -22.303008179624157 0 0 0 0 -6.4848021062489352 26.348052203709585 0 26.348052203709585 -16.958851978903112 0 0 0 0 12.043757082046795 29.059337177752241 0 29.059337177752241 -27.541416791307711 0 0 0 0 -3.8015000866833475 26.402810225537792 0 26.402810225537792 -20.269163568558724 0 0 0 0 -3.7753829585981293 26.631850593199488 0 26.631850593199488 -24.770298737068515 0 0 0 0 -13.965580332072932 24.048476724161901 0 24.048476724161901 -23.603046789125074 0 0 0 0 -0.9150679100312118 28.313420396314541 0 28.313420396314541 -27.95357073660125 0 0 0 0 -0.82130524911553948 24.857817873524255 0 24.857817873524255 -27.017006701345963 0 0 0 0 12.304959784416496 31.871262264365214 0 31.871262264365214 -21.643958707763886 0 0 0 0 27.679925289407038 35.746705453406321 0 35.746705453406321 -29.885483340136489 0 0 0 0 19.835690950364096 36.724791025212653 0 36.724791025212653 -17.585458547917369 0 0 0 0 19.079195539907232 33.672788167026738 0 33.672788167026738 -23.010852848816285 0 0 0 0 6.8455978310048522 30.61319555868613 0 30.61319555868613 -17.851258417860663 0 0 0 0 11.665767318932922 27.646789655125758 0 27.646789655125758 -20.815002466732949 0 0 0 0 7.3376294602312555 25.911696009650768 0 25.911696009650768 -18.70903498073676 0 0 0 0 0.46661494139061688 27.139947056950405 0 27.139947056950405 -14.951180826370546 0 0 0 0 11.347112674582604 30.56021786382189 0 30.56021786382189 -13.863520046954363 0 0 0 0 14.263736101449467 28.703739003763985 0 28.703739003763985 -15.412118205756997 0 0 0 0 15.655980684696715 33.745609688562581 0 33.745609688562581 -14.263893278028263 0 0 0 0 21.494302066570526 34.980590766857858 0 34.980590766857858 -19.661193348903907 0 0 0 0 17.665613609977299 32.866780218340864 0 32.866780218340864 -10.327003055195746 0 0 0 0 19.804735373036237 35.012499204045525 0 35.012499204045525 -1.9203491168154869 0 0 0 0 18.236941344439401 31.645765045145708 0 31.645765045145708 -8.6053432510452694 0 0 0 0 23.201818633738185 38.447546413228338 0 38.447546413228338 -12.890817965993847 0 0 0 0 29.432210548459807 44.494908481968196 0 44.494908481968196 -16.621765165349643 0 0 0 0 21.819019706887275 37.366455769534468 0 37.366455769534468 -13.733046155928605 0 0 0 0 29.403213556024639 44.261967065824138 0 44.261967065824138 -20.041828263836578 0 0 0 0 25.818112084333734 39.007635757419848 0 39.007635757419848 -23.472418700275739 0 0 0 0 26.850588677742053 46.025150366892376 0 46.025150366892376 -13.609520041103679 0 0 0 0 34.698348639509163 54.258230759501316 0 54.258230759501316 -13.789596695489308 0 0 0 0 34.206099909408465 45.536040268229385 0 45.536040268229385 -25.28756110188624 0 0 0 0 44.376946098010194 55.39255110564045 0 55.39255110564045 -21.596170353124762 0 0 0 0 37.146451601976878 57.294928536892257 0 57.294928536892257 -16.106049985417485 0 0 0 0 37.219037988418677 59.768516405533774 0 59.768516405533774 -10.68895998068183 0 0 0 0 42.747419710460235 63.850234064810138 0 63.850234064810138 -12.32158846875609 0 0 0 0 38.563282469325713 79.02769134690061 0 79.02769134690061 25.262580814469402 0 0 0 0 41.420420763661241 71.200374121061031 0 71.200374121061031 3.3307770276078372 0 0 0 0 46.099774585742125 72.327499491961134 0 72.327499491961134 2.2090265051901952 0 0 0 0 56.500975272143478 60.043308398752743 0 60.043308398752743 -25.913951209840889 0 0 0 0 53.124163198792303 68.858499583953744 0 68.858499583953744 -8.8041526430606609 0 0 0 0 56.174958744064497 51.107432028296898 0 51.107432028296898 -40.032021737401919 0 0 0 0 29.211544335707629 48.949576038422492 0 48.949576038422492 -22.700257955322741 0 0 0 0 27.39455152881601 34.987454809754126 0 34.987454809754126 -31.095339902742126 0 0 0 0 37.148734054691886 49.813986333943831 0 49.813986333943831 -20.21048477077602 0 0 0 0 43.164220308010044 44.906394179719427 0 44.906394179719427 -35.60533582217613 0 0 0 0 19.891231379225246 35.064931549056382 0 35.064931549056382 -26.563023432179762 0 0 0 0 20.429783611847824 31.924482944427382 0 31.924482944427382 -32.88796736981385 0 0 0 0 -2.7697500471608691 30.689739213186158 0 30.689739213186158 -35.380099711415824 0 0 0 0 -13.481158981836415 20.734060878361561 0 20.734060878361561 -30.881721229241521 0 0 0 0 -0.43937613972593681 21.816185686799145 0 21.816185686799145 -34.133004303708731 0 0 0 0 27.595729423344892 36.083485342045606 0 36.083485342045606 -41.097851272348635 0 0 0 0 -1.0193998094247085 -0.49738131667670515 0 -0.49738131667670515 -0.33193074279298429 0 0 0 0 29.041238580483878 45.960603789440938 0 45.960603789440938 -56.632900081044227 0 0 0 0 1.0935986043587036 15.403466566774114 0 15.403466566774114 -51.960015050728543 0 0 0 0 -44.957054456953756 -59.845474894286781 0 -59.845474894286781 22.044408725440007 0 0 0 0 -2.7163477898436703 -1.869884479012434 0 -1.869884479012434 -1.3148898358780627 0 0 0 0 -26.713304588834035 41.613962901461491 0 41.613962901461491 -49.451893015826499 0 0 0 0 -29.852046224541482 23.541174550422511 0 23.541174550422511 -30.538057197374656 0 0 0 0 -29.479454671560234 24.71504250930775 0 24.71504250930775 -33.469208922842881 0 0 0 0 8.8070981144755933 51.626572342091094 0 51.626572342091094 10.055122678655607 0 0 0 0 13.730718913920782 47.664733368410907 0 47.664733368410907 7.970451282159047 0 0 0 0 -3.1610809663598047 42.117721891390829 0 42.117721891390829 17.193745815198326 0 0 0 0 16.434742853314674 38.349055564796799 0 38.349055564796799 16.637862438463799 0 0 0 0 9.2166863316306262 41.950457533641384 0 41.950457533641384 18.699093586936215 0 0 0 0 28.634022221860505 28.252468537916684 0 28.252468537916684 20.669945062883926 0 0 0 0 18.505318462178366 36.009456069653424 0 36.009456069653424 18.97803136501534 0 0 0 0 14.966625794379979 34.512252635458935 0 34.512252635458935 23.016516818403034 0 0 0 0 17.601320330037197 41.904529872770581 0 41.904529872770581 13.314478814154427 0 0 0 0 14.139544500940247 40.962489209943669 0 40.962489209943669 16.200648441552403 0 0 0 0 17.225117566876179 44.942222940817373 0 44.942222940817373 3.1835051390462468 0 0 0 0 19.744477230785378 40.489324800246322 0 40.489324800246322 9.2394047944958402 0 0 0 0 20.177970992656356 35.838740675850204 0 35.838740675850204 -7.2729855125107861 0 0 0 0 21.719375436689916 39.770610840057998 0 39.770610840057998 -3.1102685656296671 0 0 0 0 20.850720332765377 39.006098184230723 0 39.006098184230723 3.4697639382056877 0 0 0 0 23.231943783399402 45.193147843172483 0 45.193147843172483 -0.70057861143868649 0 0 0 0 23.81431263864215 41.196383394551958 0 41.196383394551958 -4.1620440018468798 0 0 0 0 28.506696989586999 49.443943364523875 0 49.443943364523875 -6.5651952769276249 0 0 0 0 23.782269039446874 43.637677248384534 0 43.637677248384534 -9.3850031686015427 0 0 0 0 23.617172120037139 52.503372325489181 0 52.503372325489181 -8.4518514128776587 0 0 0 0 21.947446006482551 46.058951314827027 0 46.058951314827027 0.65491988018038683 0 0 0 0 21.843671224653917 53.383685562321261 0 53.383685562321261 1.4765907510118268 0 0 0 0 21.167784458519236 58.59817357075076 0 58.59817357075076 -0.43664094051928259 0 0 0 0 15.160721789557556 57.879625389431567 0 57.879625389431567 -0.23427491126858513 0 0 0 0 26.24562118212998 60.912082239105075 0 60.912082239105075 -3.4099925067821459 0 0 0 0 21.660356116671664 61.191404741792894 0 61.191404741792894 -3.41358768412465 0 0 0 0 13.510579946368125 59.653529067171803 0 59.653529067171803 -0.25552000802417751 0 0 0 0 29.028380535692122 58.511280700317002 0 58.511280700317002 -8.2441276077443035 0 0 0 0 29.577842843777034 55.785011287642192 0 55.785011287642192 -6.8498805991184781 0 0 0 0 31.283744460813978 51.764860325140035 0 51.764860325140035 -15.589658609854268 0 0 0 0 33.217678863462424 61.66293709634374 0 61.66293709634374 -6.1345643829117762 0 0 0 0 32.872818013236611 62.027865942120116 0 62.027865942120116 -6.301843979736077 0 0 0 0 35.630989297473207 68.233430908601804 0 68.233430908601804 3.9455618839056115 0 0 0 0 29.325749380464003 64.706184970659706 0 64.706184970659706 1.2339095981587889 0 0 0 0 22.834963109138698 57.436145738744017 0 57.436145738744017 5.549621846050286 0 0 0 0 30.281311221220676 64.017851671986136 0 64.017851671986136 5.7493997061210393 0 0 0 0 26.194099890741654 66.178605683617207 0 66.178605683617207 23.63009621729725 0 0 0 0 22.23349707975558 63.862221604409569 0 63.862221604409569 -1.2977094690104423 0 0 0 0 21.078726970686148 60.118860954637057 0 60.118860954637057 9.5609239312361751 0 0 0 0 17.009604565444533 54.019026307218155 0 54.019026307218155 0.97307073753427176 0 0 0 0 17.082503645186989 57.065416460683991 0 57.065416460683991 -11.37525863990777 0 0 0 0 5.1343584319341176 58.349357913842141 0 58.349357913842141 -14.562784068435576 0 0 0 0 -14.8738580123063 63.61119714229244 0 63.61119714229244 -2.4594383250587271 0 0 0 0 5.0812768511059403 58.33081868131012 0 58.33081868131012 -2.4101458211480349 0 0 0 0 9.1608675700908861 64.12632922622106 0 64.12632922622106 -3.8855715657082328 0 0 0 0 4.6304742360121054 56.48350284150365 0 56.48350284150365 0.12816128899794421 0 0 0 0 -9.8766499144157933 59.344780800784065 0 59.344780800784065 7.0345496289774019 0 0 0 0 8.87280513546375 51.915456054302922 0 51.915456054302922 9.2780355023278389 0 0 0 0 3.157962429676445 40.82569647715718 0 40.82569647715718 14.30864372158976 0 0 0 0 -5.988903643442768 40.667360691416661 0 40.667360691416661 15.3713986281291 0 0 0 0 -30.033429255464398 54.357552606776153 0 54.357552606776153 7.7725009599689656 0 0 0 0 -13.86890881137424 50.951732395422368 0 50.951732395422368 -9.1157850880845217 0 0 0 0 -25.887181116497231 70.678677775515098 0 70.678677775515098 -19.326648005451716 0 0 0 0 -41.327291928013437 48.840199774673238 0 48.840199774673238 -8.018963291030559 0 0 0 0 -38.352571526819702 55.989011049124201 0 55.989011049124201 -56.584022043189179 0 0 0 0 -58.192116995432116 96.944381763994897 0 96.944381763994897 -93.311884735230706 0 0 0 0 23.128297091089735 -2.8600408525353487 0 -2.8600408525353487 -27.225423883312033 0 0 0 0 0.44964641268634864 0.57498367707245635 0 0.57498367707245635 -1.2208959781609252 0 0 0 0 -60.37272704386487 86.103983050528768 0 86.103983050528768 -99.41960493298393 0 0 0 0 2.2185235519199615 5.4831250627479271 0 5.4831250627479271 -0.99385523748909321 0 0 0 0 -0.1609782103660109 8.1702727443553158 0 8.1702727443553158 5.857066742790721 0 0 0 0 0.29169135518941403 8.2812448382537696 0 8.2812448382537696 1.9115573548333487 0 0 0 0 7.5626180299959742 21.297946441000022 0 21.297946441000022 -1.5087321618721035 0 0 0 0 10.474922020473286 18.128614213478613 0 18.128614213478613 -18.597726850672188 0 0 0 0 11.688817507474596 48.038328913586156 0 48.038328913586156 -57.493546892645099 0 0 0 0 7.2973897839310666 42.350233307593044 0 42.350233307593044 3.9630421034926258 0 0 0 0 7.9678038392098642 28.788525181582372 0 28.788525181582372 28.420752264410112 0 0 0 0 11.787478467504116 38.229297125710218 0 38.229297125710218 5.2890692576547735 0 0 0 0 20.590389195026091 60.414879787389509 0 60.414879787389509 42.378406123993045 0 0 0 0 20.046141047578203 57.087569500274185 0 57.087569500274185 22.118881484780104 0 0 0 0 14.543891113315112 51.023803089579815 0 51.023803089579815 45.586527551033214 0 0 0 0 2.3016522490452509 5.3301471254816306 0 5.3301471254816306 -1.8340277473111648 0 0 0 0 3.4774390370785113 35.255761308018918 0 35.255761308018918 71.944411830270838 0 0 0 0 3.9398772036765877 14.5409053938547 0 14.5409053938547 59.680860532120278 0 0 0 0 5.8799188345637958 25.93708286565743 0 25.93708286565743 41.077935825268014 0 0 0 0 6.2383446830690445 26.595077535661403 0 26.595077535661403 26.701728335168809 0 0 0 0 2.1991890814182611 5.2862974029693959 0 5.2862974029693959 -1.9090798430486799 0 0 0 0 2.4476339509174068 9.1162433919553223 0 9.1162433919553223 0.63250351815986505 0 0 0 0 2.679746828827092 9.1350531895923268 0 9.1350531895923268 0.40524151641511708 0 0 0 0 6.913780112317454 6.6820980987445182 0 6.6820980987445182 -6.7810002322239598 0 0 0 0 11.785075186921404 25.555562483881204 0 25.555562483881204 -13.076216174858928 0 0 0 0 8.3651499340227282 4.6673629860461432 0 4.6673629860461432 0.30915288657399742 0 0 0 0 2.558307045636866 9.0725310601392266 0 9.0725310601392266 0.42473332325243973 0 0 0 0 3.3091203672738629 22.655825419666144 0 22.655825419666144 -11.731304052689666 0 0 0 0 4.5426513571883795 5.5960372670811829 0 5.5960372670811829 4.6990971549982206 0 0 0 0 2.4950205733680377 9.337161586030561 0 9.337161586030561 -0.6376977947929845 0 0 0 0 0.29104355392769321 8.8113804765032455 0 8.8113804765032455 2.4751486834866228 0 0 0 0 -2.5826445137627161 12.196214183299162 0 12.196214183299162 0.095145806268192246 0 0 0 0 0.22054591161895587 9.1422946644904641 0 9.1422946644904641 0.98843853922880953 0 0 0 0 3.1264281815338109 7.9400459333692197 0 7.9400459333692197 1.3517012955835526 0 0 0 0 89.253841493629807 -219.90331362603683 0 -219.90331362603683 -21.417625938833226 0 0 0 0 286.67084148770084 353.41450298346194 0 353.41450298346194 107.36162897455142 0 0 0 0 352.29506582965587 -95.718544365503476 0 -95.718544365503476 -76.662886447276833 0 0 0 0 55.110189058264041 -66.908962061163948 0 -66.908962061163948 -44.110141607870901 0 0 0 0 -154.65767092980013 -207.40354871775344 0 -207.40354871775344 66.613393155996164 0 0 0 0 -6.0292140502888287 -47.725966745806545 0 -47.725966745806545 -7.1633463910402497 0 0 0 0 135.2645602404682 26.480085401020915 0 26.480085401020915 -36.83513884959757 0 0 0 0 98.789372505144001 59.108040727842535 0 59.108040727842535 -51.769481328534312 0 0 0 0 9.4331195391996516 73.662590864917547 0 73.662590864917547 275.62176292872027 0 0 0 0 -38.63663008864296 39.296949891178883 0 39.296949891178883 273.12166909596192 0 0 0 0 -32.953945225071948 110.98826717793418 0 110.98826717793418 437.02184347275579 0 0 0 0 329.68962134627787 238.44901698356534 0 238.44901698356534 191.48809989050278 0 0 0 0 2.8608667304203497 1.8126795923923176 0 1.8126795923923176 -0.057115556434496284 0 0 0 0 77.199541589739056 40.677072189678256 0 40.677072189678256 19.007882315141615 0 0 0 0 -13.052869939552693 79.09085276276528 0 79.09085276276528 293.6954689374852 0 0 0 0 21.414977162081414 -48.593954968342587 0 -48.593954968342587 218.57049982875105 0 0 0 0 2.592733889432715 0.37438987256840051 0 0.37438987256840051 -1.1128674939759549 0 0 0 0 110.9148063951443 167.20720399017046 0 167.20720399017046 24.369869201647816 0 0 0 0 84.067162706749514 61.435783955421357 0 61.435783955421357 -56.782792142137623 0 0 0 0 87.156814530737847 116.83602784640038 0 116.83602784640038 37.64342474584555 0 0 0 0 65.455685275948781 75.938524103978125 0 75.938524103978125 -15.172686591931779 0 0 0 0 52.481750733550143 102.60018445799142 0 102.60018445799142 49.62140032590105 0 0 0 0 59.619087926340399 186.02705448218057 0 186.02705448218057 195.40094791157026 0 0 0 0 40.860615592611794 120.3518638110977 0 120.3518638110977 123.91941176575347 0 0 0 0 23.340003457478815 75.071670392182568 0 75.071670392182568 57.116247582045617 0 0 0 0 56.499358674939458 98.644692974368354 0 98.644692974368354 38.221622617846151 0 0 0 0 22.449847304787909 76.394174012517396 0 76.394174012517396 63.177844311445369 0 0 0 0 -1.3514021309456439 35.473526274177857 0 35.473526274177857 83.324259862894905 0 0 0 0 2.7712814193891973 45.244292684310494 0 45.244292684310494 99.235583546738781 0 0 0 0 0.36557986231673567 40.169573655752174 0 40.169573655752174 141.98535182529758 0 0 0 0 1.8971296922580088 1.1708965939663756 0 1.1708965939663756 -2.6523768403427184 0 0 0 0 14.765430467768965 -0.93092215981869231 0 -0.93092215981869231 -15.219724690883595 0 0 0 0 4.5285099713363657 5.5442966357315733 0 5.5442966357315733 -0.69669964008753915 0 0 0 0 -5.769050873528613 -1.025699417834403 0 -1.025699417834403 126.10104707183564 0 0 0 0 7.5631035343195308 3.9924854588325669 0 3.9924854588325669 -0.78434256967373983 0 0 0 0 1.942265324134496 5.2399141068999597 0 5.2399141068999597 -5.5070502604648937 0 0 0 0 6.0770833619808933 2.1478090040231024 0 2.1478090040231024 -2.7618778304895812 0 0 0 0 13.07104388217158 13.959281675905004 0 13.959281675905004 -15.04036944132713 0 0 0 0 9.858621809007218 1.0993317167019541 0 1.0993317167019541 -4.7149336603215488 0 0 0 0 23.838273791138363 401.85920337051334 0 401.85920337051334 262.29459958102962 0 0 0 0 3.8826436454325837 2.3923414752642547 0 2.3923414752642547 0.17614941034301523 0 0 0 0 33.048783517244374 -3.9123427712956982 0 -3.9123427712956982 -7.7379092601267985 0 0 0 0 26.851551319788996 4.6091253929589584 0 4.6091253929589584 -15.66779373698796 0 0 0 0 27.96685616929426 -14.124085508863573 0 -14.124085508863573 3.8485359395986052 0 0 0 0 14.115712685282233 -4.4274526310173314 0 -4.4274526310173314 5.5032962345285341 0 0 0 0 -252.77476607358403 -214.23750240615072 0 -214.23750240615072 -8.831047289459093 0 0 0 0 25.513858879976397 -101.47860298094929 0 -101.47860298094929 -279.05383120660736 0 0 0 0 12.061826573902866 0.79563572068273558 0 0.79563572068273558 -5.5050894429077744 0 0 0 0 17.964675689812793 32.502211401691966 0 32.502211401691966 -189.72291423636489 0 0 0 0 11.491840178385246 0.39344046611950034 0 0.39344046611950034 -5.7138318001489097 0 0 0 0 6.6579717440376882 2.4334972603840868 0 2.4334972603840868 -0.26255283656628592 0 0 0 0 4.5841993939992456 1.2134855561540441 0 1.2134855561540441 -2.5168007111797692 0 0 0 0 12.069745458349644 2.3973348689232807 0 2.3973348689232807 -3.9550737016979838 0 0 0 0 209.73882646181482 -18.525224269582395 0 -18.525224269582395 1.8020204271233524 0 0 0 0 0.56234793427551111 -0.42007753950336735 0 -0.42007753950336735 0.29720534897611195 0 0 0 0 44.271752089747679 -73.849324516035267 0 -73.849324516035267 119.73170497160754 0 0 0 0 -0.90299483101807709 18.900725794822392 0 18.900725794822392 -49.08041187400886 0 0 0 0 158.10495613078774 41.576513830410022 0 41.576513830410022 -184.31278641991594 0 0 0 0 109.64006792075998 -47.721743623493239 0 -47.721743623493239 -193.30563706869725 0 0 0 0 58.394639706501039 41.362254894657781 0 41.362254894657781 -177.95668832910269 0 0 0 0 42.084663405796164 -52.73146499536233 0 -52.73146499536233 -143.36952266930894 0 0 0 0 85.192566098954558 -6.7621955084105139 0 -6.7621955084105139 -95.452472698412748 0 0 0 0 30.472587925423795 56.515029267661703 0 56.515029267661703 -129.67315780244098 0 0 0 0 8.5155131749804251 11.672871306360149 0 11.672871306360149 1.3897304483901465 0 0 0 0 -267.82625158621158 207.06085327356368 0 207.06085327356368 195.13878131224919 0 0 0 0 9.2307708340341765 13.715794798025279 0 13.715794798025279 7.6647304312613826 0 0 0 0 293.33667577156848 -11.105344719170716 0 -11.105344719170716 -164.9922801209832 0 0 0 0 31.1510988243881 68.012646809463376 0 68.012646809463376 90.007756781589705 0 0 0 0 -6.2650581126647609 4.5126587408078578 0 4.5126587408078578 -0.42815568746376798 0 0 0 0 21.813100462045895 -32.900445697442137 0 -32.900445697442137 35.317007391284278 0 0 0 0 -14.226546742662322 -5.1858158499690035 0 -5.1858158499690035 -13.03606198595935 0 0 0 0 -40.625594823613028 27.696568746152934 0 27.696568746152934 24.89174359005483 0 0 0 0 3.7926367328882762 -1.1488152033417798 0 -1.1488152033417798 1.4539347831389371 0 0 0 0 -73.158811899386819 13.260758420820821 0 13.260758420820821 63.701515872894561 0 0 0 0 37.830698653799118 37.378320440585412 0 37.378320440585412 -99.99501330192777 0 0 0 0 0.70954260764582777 1.3162285702000283 0 1.3162285702000283 1.4066319999982966 0 0 0 0 273.67473138499918 132.40406161683495 0 132.40406161683495 63.142940839021321 0 0 0 0 -16.255976552947686 -0.99337248260417255 0 -0.99337248260417255 156.18095433944836 0 0 0 0 -27.665630093943037 98.186844018664488 0 98.186844018664488 193.81482887925722 0 0 0 0 -27.939574045485642 19.412998451872227 0 19.412998451872227 52.252787392724713 0 0 0 0 117.52847692178875 191.28027582562845 0 191.28027582562845 111.3816935521063 0 0 0 0 140.44039550795878 112.52754619131315 0 112.52754619131315 -152.17796239922245 0 0 0 0 112.68127760890457 70.112507319902761 0 70.112507319902761 -204.11865226179361 0 0 0 0 -141.11873710431428 -75.135379633587036 0 -75.135379633587036 -90.936967427503077 0 0 0 0 -123.08188506229089 4.8380314802429893 0 4.8380314802429893 28.41060102519441 0 0 0 0 -34.84819990469623 64.939728409101008 0 64.939728409101008 93.03133654784142 0 0 0 0 -99.895799659516342 -23.458763355065457 0 -23.458763355065457 61.226547329407367 0 0 0 0 -1.8008334273282287 0.36515801184228991 0 0.36515801184228991 -0.25029061282879894 0 0 0 0 -116.35821937575201 -56.382012430693521 0 -56.382012430693521 -6.3615862304723123 0 0 0 0 19.096626588234358 -8.9537713252911999 0 -8.9537713252911999 -14.141699842526577 0 0 0 0 -20.789309521450377 -7.4239660622620249 0 -7.4239660622620249 -49.455739944804009 0 0 0 0 45.822333000077379 -31.518346787996961 0 -31.518346787996961 -173.64383694760363 0 0 0 0 -1.1495990620756871 1.1253218207369642 0 1.1253218207369642 -0.83945391835493233 0 0 0 0 -173.94331755416897 34.490709405936286 0 34.490709405936286 27.480537139567787 0 0 0 0 -104.25449587892945 94.704977475652413 0 94.704977475652413 -102.83683637080048 0 0 0 0 -169.05312555507044 -10.78669298073055 0 -10.78669298073055 -13.271834688628587 0 0 0 0 -277.27564714325126 -36.951473501139844 0 -36.951473501139844 174.4336249473472 0 0 0 0 56.141566319720368 38.744137451182723 0 38.744137451182723 -98.046667987522596 0 0 0 0 16.738298107586161 -44.358128928974111 0 -44.358128928974111 -105.39595468398693 0 0 0 0 39.99952515106088 44.970107095920639 0 44.970107095920639 -8.8701433907044702 0 0 0 0 36.120360306700604 -38.016249203562438 0 -38.016249203562438 123.75998414785863 0 0 0 0 -105.15179003630328 97.297153908602922 0 97.297153908602922 -4.6733533342485316 0 0 0 0 -165.95216881595115 -40.835492957907263 0 -40.835492957907263 81.108555488684942 0 0 0 0 217.01665389179288 -9.9176634771256431 0 -9.9176634771256431 -41.17190847776692 0 0 0 0 249.3986263404995 134.78900184941403 0 134.78900184941403 28.372956044542661 0 0 0 0 110.03073869551372 58.466529431079834 0 58.466529431079834 -13.289825532226359 0 0 0 0 105.60417770395725 -53.676941642667771 0 -53.676941642667771 -77.619775831743482 0 0 0 0 105.98665916425307 45.428609037724527 0 45.428609037724527 -11.74381658611469 0 0 0 0 117.28598294601034 -14.040069418530948 0 -14.040069418530948 54.150098691654421 0 0 0 0 0.30263218347702292 0.23041041751048574 0 0.23041041751048574 0.17162902815818804 0 0 0 0 99.972937985296085 49.289942953937498 0 49.289942953937498 5.4983269397016556 0 0 0 0 108.56811523736178 85.597268366467688 0 85.597268366467688 -51.751709871545245 0 0 0 0 45.379205498527881 61.44839227149896 0 61.44839227149896 32.055850796722552 0 0 0 0 96.773303371466682 49.584762303775278 0 49.584762303775278 17.495418634345697 0 0 0 0 77.58666997362252 86.590247768774589 0 86.590247768774589 54.206875932084586 0 0 0 0 -7.2012311254047745 39.426167836869809 0 39.426167836869809 83.722689135114706 0 0 0 0 115.02305116262505 68.865229727864062 0 68.865229727864062 4.6941622873025608 0 0 0 0 19.642732455624355 118.72722938753213 0 118.72722938753213 222.7744593642542 0 0 0 0 15.320244288370304 26.81744425175566 0 26.81744425175566 36.728099044167266 0 0 0 0 -5.5413463394954086 3.5262009943278585 0 3.5262009943278585 5.7724464872169499 0 0 0 0 -3.3235824500989111 8.4281690779625933 0 8.4281690779625933 7.5953554572388384 0 0 0 0 -1.7712015338582354 8.8959924519254692 0 8.8959924519254692 5.1914179805739238 0 0 0 0 -3.8995062842659536 6.5829376112997124 0 6.5829376112997124 6.2772132994505228 0 0 0 0 -2.6721544741237988 10.271413432946707 0 10.271413432946707 11.166800471457563 0 0 0 0 -12.857220513853463 21.005130606881721 0 21.005130606881721 37.328157901903978 0 0 0 0 3.3846714812170831 22.855906938169937 0 22.855906938169937 25.732801723254852 0 0 0 0 -0.55439256952825922 2.094291182452853 0 2.094291182452853 0.61888022199968162 0 0 0 0 26.758779376167695 7.9737869739874441 0 7.9737869739874441 16.544717728513206 0 0 0 0 -26.450001750319643 40.137866428708548 0 40.137866428708548 82.729684914091195 0 0 0 0 -1.0890449541037359 4.0311041805274783 0 4.0311041805274783 3.5180365996851606 0 0 0 0 16.885671334786821 19.114943908953137 0 19.114943908953137 17.414051342073435 0 0 0 0 -5.0626388539294567 6.6941355233248032 0 6.6941355233248032 40.143901222600107 0 0 0 0 -3.5836387604049378 14.124143414999708 0 14.124143414999708 23.683333271808806 0 0 0 0 -3.0254446329652183 11.798395406642157 0 11.798395406642157 28.144274776997918 0 0 0 0 13.223606881723754 4.132936567057186 0 4.132936567057186 29.352875083684921 0 0 0 0 45.81642779739559 12.369465836287418 0 12.369465836287418 16.59319664595796 0 0 0 0 -0.70513308137924469 7.4548455882213602 0 7.4548455882213602 -0.10767725268669892 0 0 0 0 2.0862014802711712 7.9160602179981652 0 7.9160602179981652 -3.9814724271636805 0 0 0 0 1.0597884757007705 8.8391009549395676 0 8.8391009549395676 -7.7087009324022802 0 0 0 0 1.6704316720274619 7.3885596938071103 0 7.3885596938071103 -4.4042289718563552 0 0 0 0 2.1125666433612764 7.286088794795802 0 7.286088794795802 0.30122250206295575 0 0 0 0 4.7851533607155829 5.095592576854548 0 5.095592576854548 4.1321035371202299 0 0 0 0 0.12523241612234415 14.038325506254296 0 14.038325506254296 1.167561738781842 0 0 0 0 7.0286103057792033 9.6998938261887346 0 9.6998938261887346 7.4851165216929516 0 0 0 0 -59.600920676100941 63.016808672528896 0 63.016808672528896 53.12368166514716 0 0 0 0 -8.0390110695989279 3.0431905180703325 0 3.0431905180703325 3.1140016215576907 0 0 0 0 45.045437765496899 -28.912174267157752 0 -28.912174267157752 5.5025057795141947 0 0 0 0 1.9645587555722912 1.0766327874328905 0 1.0766327874328905 0.014647479962619059 0 0 0 0 160.1942334845462 -39.683999343063078 0 -39.683999343063078 -14.755350866112167 0 0 0 0 -166.99396860833508 24.004277461278662 0 24.004277461278662 48.797647043760662 0 0 0 0 -75.427489115743811 48.344528331057518 0 48.344528331057518 55.262841988169384 0 0 0 0 142.28092081954674 -41.831760942544861 0 -41.831760942544861 24.868735079237013 0 0 0 0 -62.174454464044175 36.820884195408325 0 36.820884195408325 14.423020086669567 0 0 0 0 90.813890722038195 161.86318251088051 0 161.86318251088051 -6.0156501141973422 0 0 0 0 -202.3812032749629 74.730485477142793 0 74.730485477142793 41.147233993588088 0 0 0 0 -8.6642163129625125 5.8553019193150533 0 5.8553019193150533 7.8104023599581893 0 0 0 0 -12.746578143167426 1.2860998979303986 0 1.2860998979303986 16.126984987909282 0 0 0 0 -2.4315425206374215 1.7472508540514582 0 1.7472508540514582 1.8894477006308428 0 0 0 0 -6.0354079386816508 5.7505501566916095 0 5.7505501566916095 1.6348811225264068 0 0 0 0 -10.527752815482017 15.036662739960775 0 15.036662739960775 22.053918770285236 0 0 0 0 3.2887891813516035 21.553038806732729 0 21.553038806732729 2.5027080315387593 0 0 0 0 10.870211174345059 5.2013960432041131 0 5.2013960432041131 6.0094614990648552 0 0 0 0 3.4950623361000908 20.877746362088146 0 20.877746362088146 -0.44792795280591235 0 0 0 0 2.5660857560469594 24.002338699820029 0 24.002338699820029 2.4253331243005505 0 0 0 0 -3.8987879192438761 2.7467430239187252 0 2.7467430239187252 -1.9519721056787862 0 0 0 0 -5.4022656515625229 2.0174137941260746 0 2.0174137941260746 0.78777554690329055 0 0 0 0 -14.31518285801576 29.061131893846323 0 29.061131893846323 26.383768012718974 0 0 0 0 9.576476610132886 4.5563372482720297 0 4.5563372482720297 -51.800031568222948 0 0 0 0 12.478983153916488 34.636770071550927 0 34.636770071550927 -32.123612324616261 0 0 0 0 1.9045561369621282 23.619320373587698 0 23.619320373587698 11.642705781694531 0 0 0 0 9.4673081555174576 27.413695492494298 0 27.413695492494298 -12.739288018527077 0 0 0 0 1.4531139322884883 15.692823415239673 0 15.692823415239673 -12.698511739552487 0 0 0 0 10.094581689183542 25.118736812684801 0 25.118736812684801 -15.806376690640263 0 0 0 0 3.4218275289713347 28.244533406725168 0 28.244533406725168 -7.4071996770599071 0 0 0 0 10.263980899736453 25.851136029160443 0 25.851136029160443 -14.238931781605061 0 0 0 0 12.884164866951323 17.020822144993872 0 17.020822144993872 -30.432297570593619 0 0 0 0 17.204096965162535 35.448874641529983 0 35.448874641529983 -21.799068967522544 0 0 0 0 17.196335555340738 30.219549816978997 0 30.219549816978997 -8.9032431839514174 0 0 0 0 12.438483719275609 38.450626047459082 0 38.450626047459082 2.005606508029814 0 0 0 0 9.7446824106500571 28.877145259200006 0 28.877145259200006 -5.6539443747769838 0 0 0 0 2.5044291905117007 23.922434325517315 0 23.922434325517315 8.9576184032157471 0 0 0 0 -6.6891837166167534 3.9807329581526574 0 3.9807329581526574 26.580040099159987 0 0 0 0 7.1385822308020579 28.975527378011066 0 28.975527378011066 22.098783618846937 0 0 0 0 1.1625689322748523 8.979971347310558 0 8.979971347310558 7.0968764673257638 0 0 0 0 -2.0894462432061118 7.3631667440095043 0 7.3631667440095043 2.2832525578851346 0 0 0 0 -2.1088777199900761 9.698757515652261 0 9.698757515652261 9.7911272222149712 0 0 0 0 0.42950833288394819 11.469940787166834 0 11.469940787166834 13.184008443733944 0 0 0 0 2.9369647314651957 20.871455190397683 0 20.871455190397683 6.7802469386406301 0 0 0 0 2.9914876670945887 27.192052964388495 0 27.192052964388495 4.9422931501948142 0 0 0 0 -5.8608380002128797 -2.4873714017858219 0 -2.4873714017858219 73.832919020755071 0 0 0 0 6.1100119505845587 12.251907880778042 0 12.251907880778042 9.0452948303613852 0 0 0 0 -12.311195746334306 21.367304195271572 0 21.367304195271572 16.34533067047596 0 0 0 0 0.70609479930681118 19.756177692197525 0 19.756177692197525 15.228849872244609 0 0 0 0 7.7660357346503588 14.216813070066564 0 14.216813070066564 19.442950160857436 0 0 0 0 5.2034886915826064 23.846071497075172 0 23.846071497075172 15.994701095884011 0 0 0 0 10.087368432165022 17.77105972715799 0 17.77105972715799 5.4387336338877503 0 0 0 0 31.216708184919298 60.965165564277413 0 60.965165564277413 -107.46126775226185 0 0 0 0 -41.391570032151321 65.486942519673903 0 65.486942519673903 82.600930215347034 0 0 0 0 -24.066932257645931 136.08897241211798 0 136.08897241211798 -3.0917690027890785 0 0 0 0 11.623873998571071 32.480599534308567 0 32.480599534308567 -8.7284868596107117 0 0 0 0 -7.3337168997259141 -52.26629876572224 0 -52.26629876572224 40.463077366684274 0 0 0 0 -32.618278996758818 58.234830315373983 0 58.234830315373983 -49.204261903161296 0 0 0 0 15.20880398862073 19.071139195634714 0 19.071139195634714 -11.543807998419652 0 0 0 0 2.9356807810307455 9.4574713058899533 0 9.4574713058899533 9.4677805344434578 0 0 0 0 10.582278273530392 -108.77483683229093 0 -108.77483683229093 -96.507175979158092 0 0 0 0 0.6374971996892782 0.51617391165018489 0 0.51617391165018489 5.1032095361151733 0 0 0 0 -0.64529456262803753 8.3675497938165684 0 8.3675497938165684 6.9795143044658232 0 0 0 0 -0.93998270533302275 7.6345716247597011 0 7.6345716247597011 2.2705422158433066 0 0 0 0 0.20668849942738809 7.6896164070130588 0 7.6896164070130588 0.78809498065005457 0 0 0 0 1.7507594042121966 8.7332900494927799 0 8.7332900494927799 1.408740830246856 0 0 0 0 90.560682557143082 34.89758564983822 0 34.89758564983822 16.457291385173448 0 0 0 0 89.365914557283759 35.828162383906601 0 35.828162383906601 17.3352678323281 0 0 0 0 12.239439496308478 33.272826944696135 0 33.272826944696135 35.7892784186879 0 0 0 0 44.614275662908767 35.770267338295525 0 35.770267338295525 34.232183652904496 0 0 0 0 0.5537455968127073 2.5353569097984607 0 2.5353569097984607 0.60896614041948993 0 0 0 0 -18.427126149331002 20.509812764102207 0 20.509812764102207 4.6977359129086835 0 0 0 0 6.7982878172333585 17.875620535271992 0 17.875620535271992 -2.5303477201159694 0 0 0 0 16.870520448649586 7.8601630623743404 0 7.8601630623743404 7.4280797354913375 0 0 0 0 -13.30222242394575 10.876551260598717 0 10.876551260598717 14.520887972139462 0 0 0 0 8.260766492519906 8.5846785214853298 0 8.5846785214853298 -10.700917959956087 0 0 0 0 -3.3821213382716451 21.35430744029145 0 21.35430744029145 26.626282140914554 0 0 0 0 21.820110643552425 22.49423139093642 0 22.49423139093642 2.2981422360680881 0 0 0 0 -5.3767383208487445 16.966820473026019 0 16.966820473026019 17.429589196532106 0 0 0 0 -9.9867891762951331 16.659119846239264 0 16.659119846239264 27.002058399106318 0 0 0 0 -15.448795765165414 14.400182364912325 0 14.400182364912325 34.55292116181954 0 0 0 0 -11.834434460623015 20.292603568642335 0 20.292603568642335 36.584447448440187 0 0 0 0 109.96240939414201 58.222130766331247 0 58.222130766331247 -48.244906183619605 0 0 0 0 -18.350487831135979 14.188884891875205 0 14.188884891875205 39.589937696425523 0 0 0 0 -0.82484419736465853 0.47785782885684469 0 0.47785782885684469 -0.15822922616171908 0 0 0 0 -33.64499918943693 22.455530095547147 0 22.455530095547147 38.266002493008273 0 0 0 0 14.016285981875626 60.772509290447488 0 60.772509290447488 31.745832106746093 0 0 0 0 -11.132241825975143 16.095935622739489 0 16.095935622739489 -46.666263925759267 0 0 0 0 -191.23095848225603 -130.95192760800273 0 -130.95192760800273 30.987442843494136 0 0 0 0 -30.103640493272906 52.604086080533307 0 52.604086080533307 24.270486562902079 0 0 0 0 13.620524360686773 34.190233085777891 0 34.190233085777891 25.134627252045902 0 0 0 0 -7.9268731358151854 21.909749891539832 0 21.909749891539832 26.707802139341766 0 0 0 0 -75.156946479772614 119.96150386468435 0 119.96150386468435 114.41786265760311 0 0 0 0 121.92280706492193 47.680074990602407 0 47.680074990602407 -1.2204745494018425 0 0 0 0 15.771264215017254 50.830354325517419 0 50.830354325517419 26.825996113693691 0 0 0 0 77.463808378729482 10.201532671440873 0 10.201532671440873 4.1306750730809654 0 0 0 0 -0.036702319222995272 -0.19597919757537419 0 -0.19597919757537419 0.42384601022953916 0 0 0 0 74.136904440348644 85.328052438558188 0 85.328052438558188 72.487371896608238 0 0 0 0 46.688758781179786 34.881050283984223 0 34.881050283984223 17.072841542763854 0 0 0 0 -85.502342593301364 -7.5085638114032918 0 -7.5085638114032918 206.66766741310494 0 0 0 0 -37.1468864577364 6.3713138860621257 0 6.3713138860621257 122.48065836328533 0 0 0 0 -16.02302100860652 -37.220862903959642 0 -37.220862903959642 -33.363043707657198 0 0 0 0 0.18402254765706871 0.5033361667361671 0 0.5033361667361671 1.0272367012896169 0 0 0 0 25.040236747674498 44.844005940183706 0 44.844005940183706 -30.396913618329563 0 0 0 0 -87.17250815199148 45.444910910793681 0 45.444910910793681 118.43238615676091 0 0 0 0 -99.996826006433821 -83.987964468647988 0 -83.987964468647988 -39.181208058704215 0 0 0 0 10.791176811944752 16.316153673324152 0 16.316153673324152 -49.368648890209442 0 0 0 0 1.6594923316224595 23.313333743019029 0 23.313333743019029 -45.186347342510999 0 0 0 0 -22.780771316512983 22.950363088493759 0 22.950363088493759 -36.714287198745296 0 0 0 0 6.7219922053009213 13.081255851968308 0 13.081255851968308 -33.637323156603088 0 0 0 0 12.609617777732637 16.617128608209896 0 16.617128608209896 -32.008936510901549 0 0 0 0 11.054127007562784 21.577415009131073 0 21.577415009131073 -29.335012684585308 0 0 0 0 5.8814570168715363 23.95261896219472 0 23.95261896219472 -29.90753747796407 0 0 0 0 10.356782487779128 15.849811445528758 0 15.849811445528758 -41.538621570052783 0 0 0 0 2.5932578775245929 16.499352312093833 0 16.499352312093833 -25.646267436917697 0 0 0 0 7.9682973975759523 -2.0585591305243724 0 -2.0585591305243724 -48.130886072559861 0 0 0 0 -0.59164058971055056 0.55228779100974634 0 0.55228779100974634 -0.35053792697488007 0 0 0 0 10.557391296905621 20.251174351248096 0 20.251174351248096 -28.28894504228083 0 0 0 0 7.0682310490137752 7.7450513169605983 0 7.7450513169605983 -40.609460200863396 0 0 0 0 0.44968413686365238 10.457686799902149 0 10.457686799902149 -18.020598561197403 0 0 0 0 1.0737102924849751 10.690951593667705 0 10.690951593667705 -19.686492539549363 0 0 0 0 0.91891484836742165 12.171985280860099 0 12.171985280860099 -20.696235781233554 0 0 0 0 1.0075417028790525 20.613170235295911 0 20.613170235295911 -9.7346041146010975 0 0 0 0 0.36668626997743559 11.868504846599535 0 11.868504846599535 -19.057113531300274 0 0 0 0 -1.1649461593788146 13.844620641524671 0 13.844620641524671 -4.8321081636058807 0 0 0 0 0.65562744651651883 7.2933709726967209 0 7.2933709726967209 -12.647391813789 0 0 0 0 -0.71052354476705659 1.9348857317454531 0 1.9348857317454531 -24.910699352360098 0 0 0 0 0.52202039071562467 7.1826768292148699 0 7.1826768292148699 -12.270803872248507 0 0 0 0 -5.8649885773993446 -2.7111648807112942 0 -2.7111648807112942 -13.118376280103348 0 0 0 0 -5.0832792831552069 -5.930941828104551 0 -5.930941828104551 -20.160805906194582 0 0 0 0 -3.9211528586238273 2.466106197101908 0 2.466106197101908 -1.3984112579855719 0 0 0 0 -117.55819487740519 -47.446223047572857 0 -47.446223047572857 107.48945429648484 0 0 0 0 9.5259653754314968 20.781023912555611 0 20.781023912555611 7.1398885221024102 0 0 0 0 3.9961258054495374 14.643598787472001 0 14.643598787472001 1.4675988654125831 0 0 0 0 8.6794678668447887 23.345696597666574 0 23.345696597666574 0.32334197919772123 0 0 0 0 23.975469045518366 45.153405314530573 0 45.153405314530573 -14.113512564494158 0 0 0 0 14.680072995111914 37.027609892531473 0 37.027609892531473 27.608929678572167 0 0 0 0 38.456841375132626 74.824100270893723 0 74.824100270893723 -3.5183411951729795 0 0 0 0 28.356206785780159 81.343789902795834 0 81.343789902795834 30.208004614758465 0 0 0 0 30.177878647044054 58.901303798509616 0 58.901303798509616 9.787235166219034 0 0 0 0 42.537377583115813 59.08237915099744 0 59.08237915099744 -38.65866049156466 0 0 0 0 43.1913641265146 61.564908063132862 0 61.564908063132862 -29.388522397865017 0 0 0 0 -5.3209779434882876 28.820481904749613 0 28.820481904749613 90.299609353980486 0 0 0 0 0.14057142475667206 19.967566142948272 0 19.967566142948272 12.632665006092793 0 0 0 0 2.4458465695156519 5.0862482522170467 0 5.0862482522170467 27.86473241521162 0 0 0 0 -13.789110207185331 -5.3536966983342609 0 -5.3536966983342609 22.278373920045851 0 0 0 0 2.8095865266732289 -3.307426499970461 0 -3.307426499970461 -11.829485062907224 0 0 0 0 0.86002467427488227 9.5836107283157617 0 9.5836107283157617 8.0725578162127931 0 0 0 0 4.5149200849434692 9.0316210261489687 0 9.0316210261489687 -1.3312406698678387 0 0 0 0 8.6539236616140442 10.453199658204539 0 10.453199658204539 -1.2607832715401628 0 0 0 0 6.4017907773456955 18.390504449531363 0 18.390504449531363 5.9745583553994948 0 0 0 0 -4.4646083645697683 4.2988171693598005 0 4.2988171693598005 -4.8902928088351487 0 0 0 0 6.5176378405510604 6.6516933622947363 0 6.6516933622947363 1.3722798807393701 0 0 0 0 -2.1333517052389652 22.585375701622979 0 22.585375701622979 -27.935868785292769 0 0 0 0 4.0157306456541164 15.352439746666732 0 15.352439746666732 1.0005867851168659 0 0 0 0 -5.6851633865098847 26.237116428548688 0 26.237116428548688 -1.5713802135321657 0 0 0 0 -3.3613157386547527 6.3520767103601123 0 6.3520767103601123 -2.843444742962177 0 0 0 0 1.1328706007941491 9.7352972221897289 0 9.7352972221897289 2.694962721390084 0 0 0 0 -0.70428196244160335 8.80794246165655 0 8.80794246165655 -0.20288912482229904 0 0 0 0 2.5604752088157738 9.4382392548354801 0 9.4382392548354801 -3.6164530451624159 0 0 0 0 -4.4936247030746017 10.785729913664909 0 10.785729913664909 3.58428907511734 0 0 0 0 -15.163894671371054 18.44401532617303 0 18.44401532617303 -0.4599512589634287 0 0 0 0 1.510660254825325 17.219491049579119 0 17.219491049579119 -0.5930585814803635 0 0 0 0 -4.5516198441230244 24.163676501043483 0 24.163676501043483 -1.4629812101520656 0 0 0 0 -16.412434481699165 22.842691881569408 0 22.842691881569408 -1.584116249041017 0 0 0 0 5.6291031173626322 8.8650115754400076 0 8.8650115754400076 -0.33862259009401896 0 0 0 0 2.6587468571638055 23.839227929803201 0 23.839227929803201 -4.764983268524702 0 0 0 0 -10.038380195006946 12.108613046217663 0 12.108613046217663 -15.407997230682316 0 0 0 0 2.0639864254591203 22.698839492758452 0 22.698839492758452 -5.4128618416725658 0 0 0 0 1.4972742619593191 21.087194278748939 0 21.087194278748939 -5.9843397702925358 0 0 0 0 24.0456827519115 36.144689706425197 0 36.144689706425197 -25.441959100755412 0 0 0 0 0.63976962572403551 -0.61600525129397354 0 -0.61600525129397354 -0.15912365043925814 0 0 0 0 18.966685703162739 21.851033050476872 0 21.851033050476872 -63.111985174859001 0 0 0 0 -29.508646364466131 10.827228950171047 0 10.827228950171047 45.701259153510364 0 0 0 0 5.7245035747570228 47.819501499053786 0 47.819501499053786 25.226702583497172 0 0 0 0 -24.398004793987639 16.082721898577802 0 16.082721898577802 2.8114429904144345 0 0 0 0 12.767178234263156 56.283885765001287 0 56.283885765001287 65.649108767092912 0 0 0 0 15.257227061730646 -4.3732802942458875 0 -4.3732802942458875 12.039209971972923 0 0 0 0 1.5876936576169101 6.1019351004451892 0 6.1019351004451892 -2.1408679229898553 0 0 0 0 4.5601176807429056 15.865394348925292 0 15.865394348925292 6.6883215653724619 0 0 0 0 -2.8080819640479366 9.8976121208080876 0 9.8976121208080876 2.0074814091169344 0 0 0 0 -1.4282264689323005 5.7330815819412635 0 5.7330815819412635 -3.8857439325122982 0 0 0 0 -37.054229603721524 17.75024841512186 0 17.75024841512186 12.024278215735649 0 0 0 0 -23.313130657958595 9.9660388540974054 0 9.9660388540974054 -2.953231316532765 0 0 0 0 -5.6156189468821287 7.4962418746075166 0 7.4962418746075166 -4.0612468035702207 0 0 0 0 -42.432019082848001 -18.473317529464111 0 -18.473317529464111 5.352949852173424 0 0 0 0 -2.2153893813057119 5.8972281102126995 0 5.8972281102126995 4.4267211386734289 0 0 0 0 -3.6844737617248029 11.674208182204893 0 11.674208182204893 4.7922941793440259 0 0 0 0 3.6937770112826911 15.397047021602702 0 15.397047021602702 1.6020210774277075 0 0 0 0 6.8367753457164326 8.8549245733029238 0 8.8549245733029238 0.74393032865191344 0 0 0 0 13.980705143567775 8.7630970803511445 0 8.7630970803511445 0.74230248643652885 0 0 0 0 0.30603759111858153 4.4903004456091367 0 4.4903004456091367 -1.1848265112366789 0 0 0 0 -9.9627232887044705 19.288892280559878 0 19.288892280559878 14.423710822611611 0 0 0 0 -0.25295692792060415 4.8445191825678426 0 4.8445191825678426 3.4790113950519697 0 0 0 0 -28.668581540248567 2.7556518562414567 0 2.7556518562414567 18.422310041070887 0 0 0 0 6.4958686957338614 6.7847007669097366 0 6.7847007669097366 3.9256769829462428 0 0 0 0 -31.925931942598254 13.231212579847124 0 13.231212579847124 11.966790472560206 0 0 0 0 -37.959354820209683 -41.86120307031706 0 -41.86120307031706 -21.569954970634626 0 0 0 0 -6.0962394091748644 4.3073801244480947 0 4.3073801244480947 -3.1936536355893281 0 0 0 0 6.1299387828691998 29.504606861022125 0 29.504606861022125 28.388132722509908 0 0 0 0 -8.8678420177473072 1.1630016714898375 0 1.1630016714898375 25.655220384735117 0 0 0 0 -3.6028556325319578 2.8859034134967914 0 2.8859034134967914 -2.1498173432460561 0 0 0 0 16.788247851121202 12.524655913879428 0 12.524655913879428 16.558199364611937 0 0 0 0 6.2419541815873458 65.788714950069334 0 65.788714950069334 42.12838872514476 0 0 0 0 -43.406455062962408 -4.9305059674225049 0 -4.9305059674225049 15.504928593293243 0 0 0 0 -7.8922812553128239 -11.836653801540024 0 -11.836653801540024 -15.987431419733184 0 0 0 0 -0.46569199682697482 -0.014156135768345735 0 -0.014156135768345735 -0.031332191042679369 0 0 0 0 -34.094879454866174 57.668824237903209 0 57.668824237903209 -70.441864253452877 0 0 0 0 -27.780999760442626 2.1852891251428446 0 2.1852891251428446 -60.201819864425488 0 0 0 0 -13.643239862379602 43.651632779386091 0 43.651632779386091 -52.196058112422179 0 0 0 0 12.451231722878219 3.125010364375612 0 3.125010364375612 3.5041686876993481 0 0 0 0 15.195204696012524 5.8659289450056349 0 5.8659289450056349 1.6368979580765881 0 0 0 0 10.629493963045206 7.8371377417224721 0 7.8371377417224721 4.037939713734886 0 0 0 0 -6.3463427869990099 -5.2530084294555763 0 -5.2530084294555763 1.5731455334025668 0 0 0 0 -8.2870924295555426 4.6373785815817428 0 4.6373785815817428 -0.59914311398642894 0 0 0 0 0.12507914410196841 5.0932801618000685 0 5.0932801618000685 2.3270994854668317 0 0 0 0 -1.9392342074098921 1.0088948584140347 0 1.0088948584140347 0.52997262793137523 0 0 0 0 -12.990134250250435 -0.86455393862615892 0 -0.86455393862615892 1.3444362838613415 0 0 0 0 7.9095077381403485 4.6931215565265347 0 4.6931215565265347 1.4827818007543101 0 0 0 0 14.433154684573083 4.3408259326342886 0 4.3408259326342886 -0.7094788349531882 0 0 0 0 7.4320393950456491 3.0096479432577325 0 3.0096479432577325 -0.9509127765413723 0 0 0 0 11.49149509459312 2.4949450603298828 0 2.4949450603298828 3.8731309294271341 0 0 0 0 43.879314941800658 -13.187882296546377 0 -13.187882296546377 -4.5607653013767049 0 0 0 0 29.409040178560645 0.5859911849747732 0 0.5859911849747732 2.0990846954518929 0 0 0 0 15.25124658173047 5.4596468783761338 0 5.4596468783761338 4.4866621087421663 0 0 0 0 66.657415500508023 21.271019894628353 0 21.271019894628353 -0.030906572745152516 0 0 0 0 52.739870293595004 2.0023757715107422 0 2.0023757715107422 -7.676568439885159 0 0 0 0 34.900021134956887 11.329293328368749 0 11.329293328368749 5.4659438753842551 0 0 0 0 51.936323707143856 4.4745489235515379 0 4.4745489235515379 -5.1833749807810818 0 0 0 0 12.247560831870032 -45.985636712099222 0 -45.985636712099222 31.289013128443912 0 0 0 0 37.737222605291208 72.892463967249569 0 72.892463967249569 3.8266150852564351 0 0 0 0 -86.841734319600619 56.532806418046675 0 56.532806418046675 -24.603573855493778 0 0 0 0 -81.833582994593144 65.896784678913718 0 65.896784678913718 -54.502295122561918 0 0 0 0 -102.72726348963624 -28.049101028449513 0 -28.049101028449513 -16.291499881153868 0 0 0 0 8.0327992480251282 7.4046607956402113 0 7.4046607956402113 -26.118961461452272 0 0 0 0 11.071795982432377 -12.557605778729339 0 -12.557605778729339 -139.72763718277565 0 0 0 0 -180.15887749947706 6.1702563177132106 0 6.1702563177132106 -19.386231919582315 0 0 0 0 -76.520272643026601 122.27956722424551 0 122.27956722424551 -180.0466155423419 0 0 0 0 -195.67133985043711 102.39351708469621 0 102.39351708469621 -55.237176873887677 0 0 0 0 1.1947362455337815 3.9293256705460111 0 3.9293256705460111 5.8057652021045669 0 0 0 0 -126.21765861797394 42.77417298997716 0 42.77417298997716 14.312934279219917 0 0 0 0 -216.06201111591781 8.5392566336158779 0 8.5392566336158779 2.3769087816626779 0 0 0 0 -0.47635835800386594 1.1945697364453238 0 1.1945697364453238 1.0855666335927783 0 0 0 0 -116.10619891710166 107.85009950640324 0 107.85009950640324 -81.439988853544492 0 0 0 0 0.0984497439738794 0.57358265190716651 0 0.57358265190716651 -2.190289238303663 0 0 0 0 -121.14255033749669 26.85493051618505 0 26.85493051618505 50.81212750652594 0 0 0 0 171.00079131752091 57.360166890984146 0 57.360166890984146 -92.466280628703316 0 0 0 0 52.675930903383687 -8.1395752528615049 0 -8.1395752528615049 -6.2892760970589734 0 0 0 0 -67.536903170632286 112.60664845768224 0 112.60664845768224 -19.49657008090071 0 0 0 0 -61.752627805893553 113.46903906238367 0 113.46903906238367 -21.482283259676478 0 0 0 0 63.890312893344344 4.3291105065777629 0 4.3291105065777629 -40.407757232045697 0 0 0 0 -0.091509514344211063 0.50966497598020588 0 0.50966497598020588 -1.0537279120932865 0 0 0 0 -65.833452894770971 115.88530510518012 0 115.88530510518012 -15.552385800525371 0 0 0 0 0.74712516244961336 1.8075248392717 0 1.8075248392717 3.6728397365825884 0 0 0 0 -4.7122800355236905 6.448745717152633 0 6.448745717152633 2.3142064292749183 0 0 0 0 -5.4036868785144634 6.7109039902229597 0 6.7109039902229597 9.8722753112560895 0 0 0 0 -5.8608245461077786 7.0961784508181154 0 7.0961784508181154 19.519741974407225 0 0 0 0 -6.758186391187337 18.427204530475137 0 18.427204530475137 16.960363052854518 0 0 0 0 -3.7249471868890396 13.759505715290288 0 13.759505715290288 3.5468824015915743 0 0 0 0 -2.2520050553709865 20.915990005923646 0 20.915990005923646 -2.2755932455620496 0 0 0 0 -2.2532421853758393 21.056162320389944 0 21.056162320389944 -0.70170150727790315 0 0 0 0 -1.4216008392240838 19.38352960262273 0 19.38352960262273 -4.5957438700570492 0 0 0 0 -1.4064476209423447 18.995506758978081 0 18.995506758978081 -1.644364520063391 0 0 0 0 1.5124644299648935 19.463733441298245 0 19.463733441298245 -9.6826754852663726 0 0 0 0 -3.3513283240463352 14.12627108200104 0 14.12627108200104 -4.7194836845956161 0 0 0 0 52.786935403051757 27.56306537252749 0 27.56306537252749 -73.378541096395566 0 0 0 0 44.184164307971514 51.123612870796933 0 51.123612870796933 -85.852752880276967 0 0 0 0 -70.58016994179161 89.474069709365722 0 89.474069709365722 -70.354499564506114 0 0 0 0 15.193728852256754 32.130221417137363 0 32.130221417137363 3.6389152652845951 0 0 0 0 17.036607008425563 25.102782922749611 0 25.102782922749611 -17.315947612776654 0 0 0 0 0.25629853114151047 27.869413074142358 0 27.869413074142358 15.548081311833812 0 0 0 0 2.567318497094675 36.792962510276993 0 36.792962510276993 28.147435285654865 0 0 0 0 6.705103294156288 27.950903852201009 0 27.950903852201009 -8.2932064958804403 0 0 0 0 14.405137013185595 26.77594245212822 0 26.77594245212822 -18.41239358310122 0 0 0 0 11.962168640257005 26.615579092220287 0 26.615579092220287 -18.378506595705403 0 0 0 0 -230.47172218516789 -24.211935021627141 0 -24.211935021627141 -0.62980104816415405 0 0 0 0 32.337207256414331 67.361601577918918 0 67.361601577918918 -76.657904745083215 0 0 0 0 52.07432540397167 38.051472300521709 0 38.051472300521709 -64.649663231153681 0 0 0 0 32.93664105921431 58.454600488068763 0 58.454600488068763 -52.521679364392185 0 0 0 0 40.873004278457302 48.315611885860562 0 48.315611885860562 -41.960871570165182 0 0 0 0 43.865148698637313 39.569009663568067 0 39.569009663568067 -45.377371896844124 0 0 0 0 41.170333279891565 50.548712481562688 0 50.548712481562688 -28.147515020993524 0 0 0 0 48.238207495275674 38.014786076194468 0 38.014786076194468 -45.25949252605642 0 0 0 0 60.71726739726364 12.592078289842902 0 12.592078289842902 -48.796596662507 0 0 0 0 38.81202991745613 15.643167419688325 0 15.643167419688325 -18.630546548102984 0 0 0 0 44.042978829815411 36.375439569005721 0 36.375439569005721 -15.155019642705156 0 0 0 0 32.273115147841963 26.871659555881706 0 26.871659555881706 -19.847802045722347 0 0 0 0 26.681082775139657 27.391278661918477 0 27.391278661918477 1.0802339692709211 0 0 0 0 16.724226595666096 16.890356032950876 0 16.890356032950876 -4.9827878161049739 0 0 0 0 14.943693504314069 17.763284048076457 0 17.763284048076457 1.1046863430110534 0 0 0 0 23.978129357139551 14.531369712327432 0 14.531369712327432 -4.6563349820655731 0 0 0 0 29.87494124601335 9.5710383330506374 0 9.5710383330506374 -7.4176071551482892 0 0 0 0 16.272630075245615 6.8666629319532149 0 6.8666629319532149 -0.18026062328499393 0 0 0 0 23.420754156464682 0.58083041105601296 0 0.58083041105601296 4.2495198122719557 0 0 0 0 17.143833361928046 7.5660201180144213 0 7.5660201180144213 -0.26346721038135001 0 0 0 0 30.15117692355625 7.1710691076750663 0 7.1710691076750663 -6.9813646820475697 0 0 0 0 42.543600210506384 4.6725119082921083 0 4.6725119082921083 -15.442788271237077 0 0 0 0 44.100071622499854 -2.2603417423051724 0 -2.2603417423051724 11.21794093575636 0 0 0 0 35.39144496589779 -0.31514429443632253 0 -0.31514429443632253 2.9297647807470639 0 0 0 0 44.102622400932887 10.409701477439739 0 10.409701477439739 -18.070874957247725 0 0 0 0 34.260004297093474 -45.374438045994339 0 -45.374438045994339 3.6915279903951159 0 0 0 0 24.422039628840139 76.625447097292636 0 76.625447097292636 44.224928908797665 0 0 0 0 97.454305722860227 57.685925771182156 0 57.685925771182156 -123.14437046763123 0 0 0 0 0.66108137351008978 0.73198729205263113 0 0.73198729205263113 0.83246917122896491 0 0 0 0 -62.111027626044233 -42.794675025771085 0 -42.794675025771085 137.92637691494747 0 0 0 0 -0.0014676805167255225 2.0542061987675879 0 2.0542061987675879 2.893008010536505 0 0 0 0 0.34893323470204862 2.2062791937394266 0 2.2062791937394266 2.3844020436692119 0 0 0 0 -0.72134858154458925 2.7125364918142623 0 2.7125364918142623 2.5088394550007251 0 0 0 0 101.3068804548509 -22.641709339891236 0 -22.641709339891236 -22.092865115700988 0 0 0 0 -5.5670789843188686 40.813822795621036 0 40.813822795621036 8.7849224828678416 0 0 0 0 11.605857850390748 21.860430225688106 0 21.860430225688106 -8.129891172994121 0 0 0 0 1.9447744947392813 4.5906318215331936 0 4.5906318215331936 9.8248736890527368 0 0 0 0 -40.803140950609304 -12.100639593953019 0 -12.100639593953019 44.894560960482522 0 0 0 0 -47.260550065551342 26.675131974840042 0 26.675131974840042 14.980554398982349 0 0 0 0 -9.0243288917804421 18.82524209630219 0 18.82524209630219 -35.028555925782712 0 0 0 0 -84.708996143815966 79.329752089949579 0 79.329752089949579 -17.838616254392036 0 0 0 0 -26.513941919562058 23.401074647116729 0 23.401074647116729 -18.121745475535135 0 0 0 0 -13.427110813896434 73.854438168944398 0 73.854438168944398 56.384656675509177 0 0 0 0 48.156500029135714 113.90630886863255 0 113.90630886863255 -37.307279508015199 0 0 0 0 -54.904522490676754 -75.183441318453333 0 -75.183441318453333 75.83642940788468 0 0 0 0 -145.26731190231931 16.436389929282086 0 16.436389929282086 60.423054002319986 0 0 0 0 1.6746722444576569 4.1050395597639682 0 4.1050395597639682 8.7717898119526296 0 0 0 0 -50.964892629337555 12.404583916743832 0 12.404583916743832 13.093807171166191 0 0 0 0 -15.484569891691535 59.277041957017445 0 59.277041957017445 9.9167397592482303 0 0 0 0 60.585636469748351 36.57417289595287 0 36.57417289595287 16.591794417148776 0 0 0 0 -58.987270874640672 20.369421554396467 0 20.369421554396467 18.390847163903913 0 0 0 0 -68.150707914963277 56.090524265696786 0 56.090524265696786 13.938261415452871 0 0 0 0 -97.990743814889356 2.3810941719830225 0 2.3810941719830225 15.610006406812772 0 0 0 0 -35.545673584261294 -23.022165088976408 0 -23.022165088976408 -10.00228212271395 0 0 0 0 -0.56371177749133494 12.143993065170434 0 12.143993065170434 -15.568012975182683 0 0 0 0 1.3350227359933342 2.1762490948703999 0 2.1762490948703999 -3.5904829080463969 0 0 0 0 1.1439811336665429 2.8773034492358374 0 2.8773034492358374 6.0984836384409107 0 0 0 0 -43.817987290056408 31.109300632635041 0 31.109300632635041 15.560587030882743 0 0 0 0 26.725936689199443 22.996824270854631 0 22.996824270854631 -11.476380796137164 0 0 0 0 27.430427818986288 -0.67244249042786919 0 -0.67244249042786919 -31.738627569659002 0 0 0 0 23.720639179553245 -2.5188520265223815 0 -2.5188520265223815 -32.541776387290156 0 0 0 0 0.27494539591089673 1.9840850244844752 0 1.9840850244844752 3.1783760531340377 0 0 0 0 -0.06020789342437638 1.979075092698622 0 1.979075092698622 2.828563777718955 0 0 0 0 0.057118803222692804 1.8828399619660559 0 1.8828399619660559 2.8564840793721942 0 0 0 0 0.23015317068885643 1.8091516815370561 0 1.8091516815370561 2.5050885087785417 0 0 0 0 -5.1899114467241816 -1.4792427421216416 0 -1.4792427421216416 -3.2415992473652295 0 0 0 0 -0.5881841814625659 -4.7586081965400808 0 -4.7586081965400808 -21.130727559842853 0 0 0 0 -0.21085182796014124 308.08854770290918 0 308.08854770290918 694.99746009452292 0 0 0 0 0.0010004178366216365 2.0837458275395875 0 2.0837458275395875 2.1372373601407162 0 0 0 0 -5.1299151914445247 2.5132226335990708 0 2.5132226335990708 10.49613627780127 0 0 0 0 184.28681568869797 83.38142319648432 0 83.38142319648432 68.089819315071509 0 0 0 0 -153.33412365378172 168.2580818296301 0 168.2580818296301 872.91209474291099 0 0 0 0 -0.72727406018073992 0.68030197083018962 0 0.68030197083018962 2.344996012021249 0 0 0 0 -217.42621960597171 -335.57963109194679 0 -335.57963109194679 579.58486884388185 0 0 0 0 139.09424342089778 305.82573169489729 0 305.82573169489729 667.91566329879424 0 0 0 0 -0.023218673931763689 0.38616761643800857 0 0.38616761643800857 0.73413316917272908 0 0 0 0 0.34429240013611206 0.42005698777997225 0 0.42005698777997225 1.3017806095969746 0 0 0 0 -52.694749947399941 -163.28771128936069 0 -163.28771128936069 579.60694150591189 0 0 0 0 106.86676355294185 290.88380253294235 0 290.88380253294235 353.20754529312035 0 0 0 0 -0.47784941416461635 0.15332404190543691 0 0.15332404190543691 1.6066245463511919 0 0 0 0 -35.398958572940501 373.36553953315479 0 373.36553953315479 477.36935759622065 0 0 0 0 52.263475014402502 183.73131759318221 0 183.73131759318221 851.15795927058207 0 0 0 0 46.362298165832271 424.55892701482264 0 424.55892701482264 266.80212263670182 0 0 0 0 122.3326667183037 342.52779894993137 0 342.52779894993137 0.13063226791473426 0 0 0 0 26.373673443981716 277.35710231036796 0 277.35710231036796 73.476265944625993 0 0 0 0 67.959749552706853 352.17813095754082 0 352.17813095754082 179.14475581253464 0 0 0 0 -63.475268991190205 168.45790464076026 0 168.45790464076026 116.80929297689181 0 0 0 0 -29.901655066068997 217.24154515096734 0 217.24154515096734 184.98830235096284 0 0 0 0 -66.059797205574796 245.88389113145422 0 245.88389113145422 189.97883668648069 0 0 0 0 -65.948916120154536 89.54010594571173 0 89.54010594571173 206.11923822362587 0 0 0 0 -1.2589497747827565 0.16567629851495269 0 0.16567629851495269 1.0988511436741177 0 0 0 0 -52.101300124404588 59.524751141484558 0 59.524751141484558 14.337035975197068 0 0 0 0 -142.05149560333484 31.788510732876148 0 31.788510732876148 197.38183830486014 0 0 0 0 -52.516938595284955 53.437201035664657 0 53.437201035664657 12.049854467726618 0 0 0 0 -125.8558399510639 31.931710515815212 0 31.931710515815212 5.5624173880842136 0 0 0 0 -72.265758377273414 71.401047797450929 0 71.401047797450929 -28.135596631558656 0 0 0 0 -24.252518879671698 132.42926317302317 0 132.42926317302317 26.586432053594308 0 0 0 0 -79.34155184670044 75.166913086334034 0 75.166913086334034 57.755712538777516 0 0 0 0 27.871308352585402 222.97535472833488 0 222.97535472833488 0.054288285549773718 0 0 0 0 -67.270305994313276 95.453413672287752 0 95.453413672287752 0.54433745534333866 0 0 0 0 153.45921789567728 155.94939858885755 0 155.94939858885755 8.627259930697619 0 0 0 0 -0.018799415320208013 0.26270385323213219 0 0.26270385323213219 0.76557727843253076 0 0 0 0 -158.3076650217763 19.585932939807435 0 19.585932939807435 25.410858076696968 0 0 0 0 -34.08042808497521 57.156404917817781 0 57.156404917817781 -0.106349052221254 0 0 0 0 -99.512245980427906 75.020277662724766 0 75.020277662724766 6.3735821704697173 0 0 0 0 -41.26696824218152 19.189759702577476 0 19.189759702577476 16.36811541003226 0 0 0 0 -0.024277468696846327 0.70422199012002196 0 0.70422199012002196 1.5965640491780206 0 0 0 0 -92.446563470016372 103.54177635020642 0 103.54177635020642 11.689564926156891 0 0 0 0 -210.86593091478562 89.417888548429801 0 89.417888548429801 60.68093177391529 0 0 0 0 -0.10981527975210081 0.2850461709097285 0 0.2850461709097285 0.90034621399736636 0 0 0 0 54.682094546501503 116.67265426318954 0 116.67265426318954 2.439651200002686 0 0 0 0 4.2901515226112679 124.79468241001359 0 124.79468241001359 88.815549611261304 0 0 0 0 -54.168383684602304 138.18084093607467 0 138.18084093607467 85.767095518885071 0 0 0 0 -140.3222581240052 120.31483529853358 0 120.31483529853358 -11.492570559948945 0 0 0 0 -19.917049225371898 77.699638251314127 0 77.699638251314127 -1.7980628502537002 0 0 0 0 -54.081095457366246 118.67530275275385 0 118.67530275275385 -29.692743764622719 0 0 0 0 -33.803284831842006 177.23283248962161 0 177.23283248962161 83.554097021247799 0 0 0 0 -64.384131387492744 78.981361147069038 0 78.981361147069038 23.321229342167499 0 0 0 0 -55.040050319763395 50.595113119989037 0 50.595113119989037 8.7391552173066884 0 0 0 0 -49.893501533293602 54.624019674347437 0 54.624019674347437 9.6026679397546104 0 0 0 0 -25.287776779094202 49.883369193583349 0 49.883369193583349 31.520364746405903 0 0 0 0 -31.515650058188839 80.340399561713639 0 80.340399561713639 3.898145399576606 0 0 0 0 -49.847424035970107 78.508751083601055 0 78.508751083601055 18.350614500523989 0 0 0 0 -9.1654033375325525 30.972269984074956 0 30.972269984074956 17.690021759023239 0 0 0 0 -11.448864558245987 49.498753575954652 0 49.498753575954652 -38.001155764135547 0 0 0 0 -20.168058180241133 15.234767473199099 0 15.234767473199099 79.332877975989049 0 0 0 0 0.97999677881531966 0.94985181142654618 0 0.94985181142654618 0.71773506730046321 0 0 0 0 -13.936085745954188 25.877617256359372 0 25.877617256359372 -34.643845006808192 0 0 0 0 -11.070006260275477 19.891752260346038 0 19.891752260346038 -25.476598849531001 0 0 0 0 -5.7293972282968753 9.8881260137586651 0 9.8881260137586651 -20.402184782517452 0 0 0 0 3.4139453726311189 2.4323173555940745 0 2.4323173555940745 2.1713936934622851 0 0 0 0 -6.3314980669147189 10.999491324136216 0 10.999491324136216 -4.3966413623038534 0 0 0 0 40.106573609667294 -18.383040541820037 0 -18.383040541820037 -65.848998392264548 0 0 0 0 -0.12356741682168071 -0.54554435188743788 0 -0.54554435188743788 -1.4322739642537456 0 0 0 0 15.75074297700121 101.8111827121038 0 101.8111827121038 -197.19024635234382 0 0 0 0 18.321196110435267 78.506189319211444 0 78.506189319211444 -10.406856117993811 0 0 0 0 27.314587130331347 69.105789831962284 0 69.105789831962284 -118.03914602677014 0 0 0 0 0.10249901072893408 86.108924767338976 0 86.108924767338976 -203.48604374528804 0 0 0 0 -4.5017481489740021 35.514365332797752 0 35.514365332797752 -43.841933837778924 0 0 0 0 3.1901215433035759 28.830567388391501 0 28.830567388391501 -52.042277767010091 0 0 0 0 -115.5431900841229 143.81195817458615 0 143.81195817458615 -138.05751162363049 0 0 0 0 16.316002763585857 33.178665351462769 0 33.178665351462769 -312.35188688292874 0 0 0 0 122.09985363531268 68.976741310227226 0 68.976741310227226 -237.08385812367851 0 0 0 0 -108.64107312981207 -7.8414207538613141 0 -7.8414207538613141 -36.093186376088852 0 0 0 0 62.074747760589162 -47.729852405897418 0 -47.729852405897418 -40.509009670135129 0 0 0 0 -75.168193616815188 183.35257958641159 0 183.35257958641159 -188.57924786329568 0 0 0 0 137.16395434731658 18.895287964528961 0 18.895287964528961 -16.801029464544627 0 0 0 0 -85.503534859247338 58.942188614995757 0 58.942188614995757 -14.431105352648956 0 0 0 0 57.763333269230316 -58.683868094570244 0 -58.683868094570244 5.5268167100985011 0 0 0 0 65.867511663218465 -17.376360069200018 0 -17.376360069200018 7.5372657404432175 0 0 0 0 28.67776335065264 -33.00150996496086 0 -33.00150996496086 64.017276231861615 0 0 0 0 -9.4244579467303993 69.305783777945635 0 69.305783777945635 55.148296908396333 0 0 0 0 -18.820536939075282 106.67478102643827 0 106.67478102643827 -43.660971319763121 0 0 0 0 27.002490487888281 64.758885691164323 0 64.758885691164323 -46.362415396244501 0 0 0 0 -1.7973430880465457 110.90523117342218 0 110.90523117342218 62.893401251740215 0 0 0 0 213.75844423240051 107.50274051655379 0 107.50274051655379 59.642549781777234 0 0 0 0 17.337391728556213 62.318973104419456 0 62.318973104419456 168.71554585914782 0 0 0 0 142.59772235484616 -22.74851392626806 0 -22.74851392626806 84.764367162453709 0 0 0 0 76.669937217719053 54.142648242564519 0 54.142648242564519 5.0678422868222697 0 0 0 0 40.282967722345347 25.665377700292083 0 25.665377700292083 84.500270655726354 0 0 0 0 -6.5425389215615724 81.352461816668438 0 81.352461816668438 21.688615240034778 0 0 0 0 68.715117479317087 33.918279860167786 0 33.918279860167786 -18.528048631826096 0 0 0 0 69.724876306872829 26.782935835459284 0 26.782935835459284 14.932766099786477 0 0 0 0 -34.092661440178517 57.198544796273836 0 57.198544796273836 0.078895256974647054 0 0 0 0 101.05247270509744 61.657126253406886 0 61.657126253406886 -0.081957039394183084 0 0 0 0 90.625707536018126 69.196695200488648 0 69.196695200488648 -0.47106315461860504 0 0 0 0 16.880110390804475 67.787902689600742 0 67.787902689600742 29.234548426762558 0 0 0 0 93.920608931926267 85.474801659406012 0 85.474801659406012 7.9188576927881513 0 0 0 0 107.30776146182052 124.91997367906561 0 124.91997367906561 51.249959098846375 0 0 0 0 188.03891148316961 72.651982146187947 0 72.651982146187947 -1.7263662705556726 0 0 0 0 151.383520204452 -100.8877824905303 0 -100.8877824905303 94.600363786008984 0 0 0 0 1.697752441734302 1.0817234199588075 0 1.0817234199588075 0.89252666892191712 0 0 0 0 -20.851483492643638 55.639569948734788 0 55.639569948734788 97.111655981850163 0 0 0 0 15.577466541584727 22.065159850744749 0 22.065159850744749 -25.09040626422393 0 0 0 0 -4.2427251303547564 30.682081897634362 0 30.682081897634362 -12.479408626197255 0 0 0 0 -25.94197270751647 33.493030344107865 0 33.493030344107865 -10.597851405111214 0 0 0 0 1.4176847273697604 47.481493596916607 0 47.481493596916607 7.8363383900123154 0 0 0 0 -21.06619095685528 30.050873343283456 0 30.050873343283456 8.9868997694248947 0 0 0 0 20.150358096087075 61.041338626971992 0 61.041338626971992 15.764633417378718 0 0 0 0 -9.0812645861451529 34.322030021846786 0 34.322030021846786 31.782467531089424 0 0 0 0 -0.45388042375634541 48.735508820698669 0 48.735508820698669 17.246451001874448 0 0 0 0 11.177723758711181 49.841992830201434 0 49.841992830201434 0.015148752119785058 0 0 0 0 41.767273753773225 57.833181675904598 0 57.833181675904598 0.033012650430464419 0 0 0 0 35.757924994993118 71.026831467675038 0 71.026831467675038 15.437146740292008 0 0 0 0 11.295270325245383 45.527362867628881 0 45.527362867628881 3.2262466317715734 0 0 0 0 -1.8227439993352164 40.234204084123121 0 40.234204084123121 2.2956286221160553 0 0 0 0 4.8038013713776309 52.319665987303324 0 52.319665987303324 12.124505489930016 0 0 0 0 -10.027997522291116 39.772096162558228 0 39.772096162558228 8.6320415223772216 0 0 0 0 -7.8579039647638638 38.762021932483549 0 38.762021932483549 5.5313646264057752 0 0 0 0 -20.059736710712968 23.201407132986787 0 23.201407132986787 -8.2133353972521945 0 0 0 0 -5.9047333442886156 35.653195743347169 0 35.653195743347169 -6.3733939965750324 0 0 0 0 -13.158601666930736 17.597342468685383 0 17.597342468685383 -20.046136679246047 0 0 0 0 -9.7342227448393714 27.46279373678135 0 27.46279373678135 -12.7385418202648 0 0 0 0 -19.750257416795648 15.022172209101882 0 15.022172209101882 -31.633928526005548 0 0 0 0 -27.727565262548524 19.546290218534523 0 19.546290218534523 -13.285466014476697 0 0 0 0 -21.25902356194274 16.507611430413363 0 16.507611430413363 -19.439582424609398 0 0 0 0 -17.159341502965617 22.316982089172598 0 22.316982089172598 -28.159895015884103 0 0 0 0 -19.538796904464107 15.091881011001533 0 15.091881011001533 -21.693680213920743 0 0 0 0 -20.839353839076011 18.665225876719887 0 18.665225876719887 -26.083472338104912 0 0 0 0 -22.951826061680549 21.442455336666171 0 21.442455336666171 -24.170997937300854 0 0 0 0 -20.951570703373818 23.244545573525556 0 23.244545573525556 -37.127988169479067 0 0 0 0 -27.195760690850648 33.293703641824777 0 33.293703641824777 -36.34602740209084 0 0 0 0 -20.754155859911862 23.864784332097315 0 23.864784332097315 -31.165216154258815 0 0 0 0 -30.271320730484604 30.470191303155843 0 30.470191303155843 -29.286637006571254 0 0 0 0 -25.23075386124583 26.360693923255894 0 26.360693923255894 -25.783884113225213 0 0 0 0 -28.729495168387075 32.302242987019781 0 32.302242987019781 -28.322012278301372 0 0 0 0 -47.722427690430777 48.778779119713363 0 48.778779119713363 -40.188883030347824 0 0 0 0 0.4646025472182771 -0.1737978850793791 0 -0.1737978850793791 -0.34375674506483023 0 0 0 0 -36.97406005799985 31.675759212152116 0 31.675759212152116 -28.370665626967821 0 0 0 0 -19.474218639721585 28.895929227412125 0 28.895929227412125 -51.984170700870891 0 0 0 0 -25.475821114025166 22.049560331324756 0 22.049560331324756 -27.573896979450183 0 0 0 0 3.9294568063660336 26.987453741218815 0 26.987453741218815 -50.625542848498299 0 0 0 0 53.213216971566908 -54.37755705911195 0 -54.37755705911195 64.378711617726367 0 0 0 0 4.2732649496711019 32.975592410890386 0 32.975592410890386 -31.397167801257638 0 0 0 0 5.6561794251489523 2.878399270362582 0 2.878399270362582 1.5537238833037854 0 0 0 0 42.654913569769633 -10.266846058657393 0 -10.266846058657393 23.037953092547468 0 0 0 0 24.239571031524065 -39.200156393827456 0 -39.200156393827456 40.081929425638009 0 0 0 0 7.5835165148002837 5.6923594672970097 0 5.6923594672970097 3.2819456172133279 0 0 0 0 14.554106804111143 1.3173406914120278 0 1.3173406914120278 -16.734494168515084 0 0 0 0 18.057552706044589 21.666381564489711 0 21.666381564489711 27.531458069972359 0 0 0 0 66.682581193390433 -14.675127299067753 0 -14.675127299067753 12.595187606611944 0 0 0 0 -59.924107378041299 81.979770943206859 0 81.979770943206859 -41.912572593682853 0 0 0 0 0.76090650689216588 0.73983158078478173 0 0.73983158078478173 -0.11749200265447968 0 0 0 0 179.73386435155408 -45.880552380927838 0 -45.880552380927838 -54.189707972886026 0 0 0 0 -21.223350907193435 -15.27269199035959 0 -15.27269199035959 9.1142792850732803 0 0 0 0 8.1916289521723229 19.008392343768719 0 19.008392343768719 -50.615963141326574 0 0 0 0 2.0548758538807306 -10.856754040836677 0 -10.856754040836677 38.198938547906437 0 0 0 0 -2.3443736551234906 -10.913949860003413 0 -10.913949860003413 -40.604610264312214 0 0 0 0 -32.961525280614296 30.352393619485383 0 30.352393619485383 -29.291281230272944 0 0 0 0 -6.7278015654787033 -2.0547560461929564 0 -2.0547560461929564 -0.31658555795666388 0 0 0 0 -56.452936147089076 14.1118186963281 0 14.1118186963281 40.624000175019319 0 0 0 0 62.839538872107369 -32.967679288274667 0 -32.967679288274667 0.6364068050388596 0 0 0 0 8.155516494739782 11.39212092245139 0 11.39212092245139 8.5661523957323027 0 0 0 0 21.04016661317678 27.924756285512558 0 27.924756285512558 -35.188622547253544 0 0 0 0 -30.269975759991212 42.727002427246589 0 42.727002427246589 -10.925986801790714 0 0 0 0 12.470095879605651 7.2994244020756014 0 7.2994244020756014 11.555286146353865 0 0 0 0 30.369732370867496 32.611614802789518 0 32.611614802789518 -11.33846404511678 0 0 0 0 8.3087316078087969 12.90743316324272 0 12.90743316324272 9.8053068047983203 0 0 0 0 74.969024097730653 -6.7225269137798023 0 -6.7225269137798023 -24.231907647012122 0 0 0 0 -283.51274848880803 21.751700811656519 0 21.751700811656519 56.774393678813794 0 0 0 0 42.904177203953623 39.430927620152488 0 39.430927620152488 -12.907701938864193 0 0 0 0 -20.755135350784258 4.573257962821117 0 4.573257962821117 -14.76486692195067 0 0 0 0 1.2934768188860915 1.6280528605861191 0 1.6280528605861191 0.33216263950909308 0 0 0 0 -76.699218460596967 70.198512490385838 0 70.198512490385838 -16.683701053121695 0 0 0 0 18.448760994182521 136.11431504984103 0 136.11431504984103 -123.38146548226359 0 0 0 0 13.833826817319277 109.5152118043668 0 109.5152118043668 -51.310321547118292 0 0 0 0 -42.753061276084736 79.328682866600957 0 79.328682866600957 -47.183769286300958 0 0 0 0 1.2110879711851155 1.6974414572244569 0 1.6974414572244569 0.67018724943109476 0 0 0 0 -123.66965674997118 124.67191369476632 0 124.67191369476632 7.72304388601151 0 0 0 0 -103.55696851019411 32.569160380483709 0 32.569160380483709 12.159444695218554 0 0 0 0 22.439269436275936 160.05543953923097 0 160.05543953923097 52.498701636257351 0 0 0 0 -19.240226950781107 60.359188180449564 0 60.359188180449564 37.683543122338961 0 0 0 0 -86.707250258620661 74.592389954417968 0 74.592389954417968 116.47399203990062 0 0 0 0 -156.90574185147489 45.695402855058092 0 45.695402855058092 80.821728500975951 0 0 0 0 0.69013178395982422 0.86705348563791951 0 0.86705348563791951 0.16092727013156605 0 0 0 0 79.153320179531875 20.335313750507794 0 20.335313750507794 -20.801872773152354 0 0 0 0 15.22810868385568 16.441093176663344 0 16.441093176663344 -20.796539836732336 0 0 0 0 13.268260386066686 53.105157238665015 0 53.105157238665015 -5.6972097364559886 0 0 0 0 -42.560458906280473 23.103624346627839 0 23.103624346627839 63.586723588789027 0 0 0 0 54.578338878416616 64.245289504017819 0 64.245289504017819 -5.3608749190107119 0 0 0 0 -18.07103103227746 6.1108099664379552 0 6.1108099664379552 8.1654137412060663 0 0 0 0 11.373726294345033 -17.929713421644919 0 -17.929713421644919 22.935799224293078 0 0 0 0 -58.114895687018361 42.177944225083593 0 42.177944225083593 80.906927721596276 0 0 0 0 -33.955854184817554 6.1740861623565024 0 6.1740861623565024 22.749602520812914 0 0 0 0 -37.823281534277385 -23.951108163498418 0 -23.951108163498418 -12.16808982999828 0 0 0 0 -5.1774752679611495 1.4770488889862641 0 1.4770488889862641 -0.36131335284418142 0 0 0 0 -7.1646440231652377 39.869752918360064 0 39.869752918360064 76.842976149678179 0 0 0 0 18.070298616934451 21.197117826833164 0 21.197117826833164 28.625436795741734 0 0 0 0 -17.167494798983626 102.55336247362447 0 102.55336247362447 -37.967186488440348 0 0 0 0 -45.904793445312862 78.59604060304855 0 78.59604060304855 -17.558788987214029 0 0 0 0 51.032889601588977 65.745302977393294 0 65.745302977393294 -8.3218480352697952 0 0 0 0 -47.817960527048854 91.852436236204085 0 91.852436236204085 5.7116530715684348 0 0 0 0 7.9620568588488823 35.222664786371297 0 35.222664786371297 18.408949736945942 0 0 0 0 35.555915251923579 62.979366749586006 0 62.979366749586006 42.717151913850103 0 0 0 0 -2.759715958631773 -0.10591510693637574 0 -0.10591510693637574 0.59071220391685131 0 0 0 0 -161.23561268421236 -28.200508100494972 0 -28.200508100494972 66.819831954635447 0 0 0 0 -102.34969212554097 120.91500621100931 0 120.91500621100931 -2.3494801510701109 0 0 0 0 -1.7669298445048724 0.62037060069237882 0 0.62037060069237882 -0.22112355534348538 0 0 0 0 35.471773532650332 -24.952539433187667 0 -24.952539433187667 -86.060664144879411 0 0 0 0 -173.92358743648151 95.904312228388392 0 95.904312228388392 -36.905174075705872 0 0 0 0 -21.359121983407022 -3.5815753265478634 0 -3.5815753265478634 26.765467325772988 0 0 0 0 -152.15733940291102 -81.134688467182968 0 -81.134688467182968 -39.002523170552195 0 0 0 0 -122.54999097330619 -5.5978178879167899 0 -5.5978178879167899 45.594035410138531 0 0 0 0 -115.49783663298797 54.802584468880468 0 54.802584468880468 50.276921455742922 0 0 0 0 -17.058352696165457 -9.3522028394545487 0 -9.3522028394545487 88.198677493634023 0 0 0 0 -8.2505171700140636 52.086353563785451 0 52.086353563785451 89.233660892119588 0 0 0 0 31.65962224307259 65.233635064249938 0 65.233635064249938 98.313379504425029 0 0 0 0 74.589858117004042 71.353734133858325 0 71.353734133858325 41.069347108301372 0 0 0 0 9.409725478757764 29.133344250417395 0 29.133344250417395 24.24680166107828 0 0 0 0 23.997853327837674 1.7049782923552357 0 1.7049782923552357 46.887167892113212 0 0 0 0 -23.422306344466051 28.882485707492378 0 28.882485707492378 31.543133646678143 0 0 0 0 20.920240619447213 6.5163884085141035 0 6.5163884085141035 -37.435060274444368 0 0 0 0 23.826524124856405 -38.973378558508557 0 -38.973378558508557 1.2638991286603414 0 0 0 0 0.45941964024349602 0.82389777655374274 0 0.82389777655374274 -0.88314971662446595 0 0 0 0 39.648760623294947 63.658407603664273 0 63.658407603664273 -92.44608890778045 0 0 0 0 49.452785340106857 13.236248524221082 0 13.236248524221082 -8.4343034494941094 0 0 0 0 2.6695267103527129 5.5444701286815636 0 5.5444701286815636 4.6803505843279094 0 0 0 0 -51.310725732104402 58.676738947621743 0 58.676738947621743 88.55037781691135 0 0 0 0 95.525899611695422 30.0850909284718 0 30.0850909284718 -80.338584063030794 0 0 0 0 -3.0893141267101107 0.054800480060048784 0 0.054800480060048784 1.6715763382884887 0 0 0 0 -20.767290755937211 7.6980694338099056 0 7.6980694338099056 20.132293644703168 0 0 0 0 -52.380926376845309 80.611802975279716 0 80.611802975279716 -8.8495159913563839 0 0 0 0 2.361287326004561 4.9121173475550597 0 4.9121173475550597 6.6402156347413523 0 0 0 0 -16.275213931687176 -3.3009781092500816 0 -3.3009781092500816 -7.2695630499019899 0 0 0 0 2.558916839727317 -51.122415901267232 0 -51.122415901267232 63.651074896350103 0 0 0 0 91.146549372896914 -51.029843544992559 0 -51.029843544992559 -23.528587310473085 0 0 0 0 17.794653736465079 -42.367020732589253 0 -42.367020732589253 -44.322465812777409 0 0 0 0 40.623940749923349 50.1191992062586 0 50.1191992062586 57.292990874316274 0 0 0 0 -18.086838427918337 -1.4971222873518855 0 -1.4971222873518855 -40.903335309938484 0 0 0 0 0.462146841451613 96.478674689784384 0 96.478674689784384 51.855975459839101 0 0 0 0 1.4416113922095661 -0.75747358728270342 0 -0.75747358728270342 -2.6026009961441474 0 0 0 0 6.2830779997821082 59.440067069343058 0 59.440067069343058 96.376577728919074 0 0 0 0 20.161162409247481 50.326812580035039 0 50.326812580035039 68.068391473843803 0 0 0 0 3.3354258457725621 4.0478059202826557 0 4.0478059202826557 -3.0676280228292523 0 0 0 0 24.134265997517559 82.616694350643655 0 82.616694350643655 101.53683132783772 0 0 0 0 23.623459605888172 70.972263421316825 0 70.972263421316825 93.417566502819682 0 0 0 0 4.9976192076737789 85.053448603197467 0 85.053448603197467 113.03241882726616 0 0 0 0 -0.45643826269792953 72.142606771550277 0 72.142606771550277 84.306475084842532 0 0 0 0 0.46214684143706108 96.47867468977347 0 96.47867468977347 51.855975459853653 0 0 0 0 31.58920177791515 74.283672823454253 0 74.283672823454253 85.452483428057349 0 0 0 0 31.864969192421995 70.59916763975707 0 70.59916763975707 73.140227784948365 0 0 0 0 0.46214684143342311 96.47867468979166 0 96.47867468979166 51.855975459834781 0 0 0 0 29.884547240284519 89.508591916239311 0 89.508591916239311 111.36413610516138 0 0 0 0 39.927702687018609 67.974820087543776 0 67.974820087543776 91.608928632536163 0 0 0 0 3.89136336543379 66.293788298120489 0 66.293788298120489 92.151894652819465 0 0 0 0 46.925142650128691 81.674432794996392 0 81.674432794996392 94.334180353482679 0 0 0 0 23.763954445828858 95.138947774436929 0 95.138947774436929 170.28332551628228 0 0 0 0 41.823604814696409 88.515837637901768 0 88.515837637901768 112.69617245097834 0 0 0 0 28.03736936459245 68.916409022913285 0 68.916409022913285 130.85894539508172 0 0 0 0 -0.053000745714839148 -0.19161623606930611 0 -0.19161623606930611 0.71301989268808796 0 0 0 0 63.356295944687645 88.097521022944079 0 88.097521022944079 104.67357409027682 0 0 0 0 19.793759716891145 -15.154051020687803 0 -15.154051020687803 1.5168308028455613 0 0 0 0 6.0581458260203362 11.466106329777176 0 11.466106329777176 -11.310105156483132 0 0 0 0 0.30380530599191502 2.342125635099606 0 2.342125635099606 0.8401765669715715 0 0 0 0 -7.9533084949187014 23.153705048188613 0 23.153705048188613 231.7455159491019 0 0 0 0 18.840717527265952 120.02141963899112 0 120.02141963899112 231.819153484249 0 0 0 0 -14.840075786918533 73.78491759566441 0 73.78491759566441 168.43647010987297 0 0 0 0 111.49517918547281 149.72515649553497 0 149.72515649553497 153.78017024789278 0 0 0 0 148.36939137826607 -22.364077499287191 0 -22.364077499287191 115.2313568216141 0 0 0 0 -11.804513819586646 100.23309480635271 0 100.23309480635271 251.49716593098947 0 0 0 0 121.67271475620691 151.71652116975247 0 151.71652116975247 26.069549430809275 0 0 0 0 65.474986559389436 -6.5882746283905362 0 -6.5882746283905362 -16.921670382726916 0 0 0 0 2.3807101138410189 0.98206144747437207 0 0.98206144747437207 0.7761245961231964 0 0 0 0 45.189451117981662 83.409586770068017 0 83.409586770068017 -34.668145841786099 0 0 0 0 17.367233871045755 101.88168567115008 0 101.88168567115008 -36.175091571045755 0 0 0 0 -97.165315683823792 188.57452887484021 0 188.57452887484021 -97.114563806731894 0 0 0 0 -62.467838659045356 11.119729659063296 0 11.119729659063296 23.595165353814082 0 0 0 0 -2.4533447065412162 1.0920140448012674 0 1.0920140448012674 -0.70612180033495875 0 0 0 0 -5.0538518307734108 4.3150032769048714 0 4.3150032769048714 -2.434344001330718 0 0 0 0 -8.9816102815366321 22.904077440879519 0 22.904077440879519 -54.783273718709097 0 0 0 0 3.3611100636139781 20.769435402925865 0 20.769435402925865 -0.63198861131422746 0 0 0 0 -17.253901410824255 29.237636280201514 0 29.237636280201514 -46.809678393831746 0 0 0 0 -1.1967369705234887 3.1618126039829804 0 3.1618126039829804 -3.8552589234232073 0 0 0 0 4.5686945006310395 4.3931915340106542 0 4.3931915340106542 1.152947686647888 0 0 0 0 4.4553229257089697 19.035183694811622 0 19.035183694811622 -5.2780929404179915 0 0 0 0 1.7106554098772904 15.653169025596071 0 15.653169025596071 -5.9711449016649567 0 0 0 0 5.8459445963908365 18.126719853288705 0 18.126719853288705 -5.969739169053355 0 0 0 0 -12.412016550338194 11.338415307560354 0 11.338415307560354 7.2097690815717215 0 0 0 0 0.84767889641807415 14.596122102982918 0 14.596122102982918 -7.9708937482404281 0 0 0 0 -0.24681662742295885 22.232970290788217 0 22.232970290788217 -8.8753510490075769 0 0 0 0 -7.5843413320471882 17.507254036750965 0 17.507254036750965 -3.5813252009556891 0 0 0 0 -6.4105677256483418 9.1284629712669023 0 9.1284629712669023 -5.4952174362425019 0 0 0 0 0.841513406679951 5.7315280493230603 0 5.7315280493230603 -1.8097488762596186 0 0 0 0 -19.290714555265367 0.036424892317882041 0 0.036424892317882041 -2.9440550123581488 0 0 0 0 1.8462598280430385 11.199003377418181 0 11.199003377418181 -4.5136855513875531 0 0 0 0 1.6242201130080502 6.4609714895923389 0 6.4609714895923389 -4.0869524813024327 0 0 0 0 2.325799085747672 9.4371695513587852 0 9.4371695513587852 -1.8275121297017201 0 0 0 0 -1.5259456721045304 10.795418950863173 0 10.795418950863173 -5.9728522208258354 0 0 0 0 15.115747705065587 16.000956827035225 0 16.000956827035225 -13.494165166419407 0 0 0 0 -0.47729889382393598 1.21516157488138 0 1.21516157488138 -4.5249393438211811 0 0 0 0 4.7707110754221986 5.4652253669195421 0 5.4652253669195421 0.83976547582074801 0 0 0 0 12.374473821680112 20.279858150498967 0 20.279858150498967 -13.777675973660735 0 0 0 0 9.3994709357712054 21.279441213662722 0 21.279441213662722 -12.908523520185554 0 0 0 0 -5.3680127662337327 21.978040594380218 0 21.978040594380218 -8.8740143806930973 0 0 0 0 -11.095893042056559 14.551697574510399 0 14.551697574510399 -7.9525766401711735 0 0 0 0 -7.2324796710745431 27.527944833824222 0 27.527944833824222 -26.714973343536258 0 0 0 0 -6.0789976366613701 22.571928868343093 0 22.571928868343093 -19.748558387154162 0 0 0 0 -10.592646590966979 21.518025526048405 0 21.518025526048405 -5.1211179250240093 0 0 0 0 -8.0976588209086913 15.461059250617836 0 15.461059250617836 -23.440846783637426 0 0 0 0 -12.146267883168548 24.082617597759963 0 24.082617597759963 -19.620495724462671 0 0 0 0 -12.826391237515054 20.236701950154384 0 20.236701950154384 -0.79163929336209549 0 0 0 0 -14.17452710951693 25.681778495198159 0 25.681778495198159 -16.156546147403787 0 0 0 0 2.62906058470071 32.527696358195499 0 32.527696358195499 -0.19099262565345043 0 0 0 0 -11.216527462459453 4.936459702130378 0 4.936459702130378 8.2543188071940676 0 0 0 0 -1.5540495556317016 2.0995768669046768 0 2.0995768669046768 1.1086532915093272 0 0 0 0 -0.27219531168780975 2.092929849520857 0 2.092929849520857 1.915653128759466 0 0 0 0 10.585254461722798 11.72617694269502 0 11.72617694269502 -0.66468824505136581 0 0 0 0 -32.777958281876636 11.407079856195196 0 11.407079856195196 7.862957550189094 0 0 0 0 -16.624368160519225 18.71777919546912 0 18.71777919546912 -5.7072041971969156 0 0 0 0 -14.463536814232157 20.42294245431458 0 20.42294245431458 10.843406304733435 0 0 0 0 -7.7072104490980244 7.7055248384788015 0 7.7055248384788015 -5.1612553369403038 0 0 0 0 -8.3871668706187847 5.9853766979317697 0 5.9853766979317697 6.0358198954927502 0 0 0 0 -18.572258682572283 0.074820677673415048 0 0.074820677673415048 7.5273620706466318 0 0 0 0 -7.9674004041888757 4.5796400840352467 0 4.5796400840352467 4.9902581497994305 0 0 0 0 -2.0025450036321857 -0.83599795999214876 0 -0.83599795999214876 2.4445899410960337 0 0 0 0 -3.0555979085770186 7.0293238012481751 0 7.0293238012481751 2.4146802359706214 0 0 0 0 -5.8322686807296122 11.889250650590384 0 11.889250650590384 -21.652032460740884 0 0 0 0 -5.9755815473599796 5.4161480199991274 0 5.4161480199991274 10.689250703849211 0 0 0 0 -1.0429292367752154 5.5013324855823598 0 5.5013324855823598 5.2605464823426438 0 0 0 0 -3.382860334997531 8.0378419570006372 0 8.0378419570006372 0.60497578102513216 0 0 0 0 1.8383194391899451 13.315239935374848 0 13.315239935374848 3.8819332873154053 0 0 0 0 -0.66085850099895005 1.1445122077931451 0 1.1445122077931451 -0.75356884435452542 0 0 0 0 -1.8313432582090172 9.7459033998857194 0 9.7459033998857194 7.0111956136352092 0 0 0 0 -6.5092701560174646 5.7614289430514418 0 5.7614289430514418 4.3821040975199139 0 0 0 0 -12.128427004472542 4.1158341516711516 0 4.1158341516711516 20.150971465321163 0 0 0 0 -1.4800300479347044 5.654727415934083 0 5.654727415934083 6.5264568443052511 0 0 0 0 -20.723083162272815 -6.3059043224257039 0 -6.3059043224257039 9.4148740935906972 0 0 0 0 -0.87211262522590971 1.0191264396775583 0 1.0191264396775583 -1.2933972849546365 0 0 0 0 6.1577235008735443 36.702348091139356 0 36.702348091139356 23.461581058902084 0 0 0 0 -2.5879649502703614 16.898007378036482 0 16.898007378036482 18.603802066494609 0 0 0 0 -25.051530782833879 18.580733604211446 0 18.580733604211446 10.740238160433364 0 0 0 0 -7.8255552517039177 -1.5866276471351739 0 -1.5866276471351739 -33.865366936604914 0 0 0 0 12.987960413793189 8.6259204859725287 0 8.6259204859725287 12.514562859682883 0 0 0 0 1.8888101209267916 15.037051369024994 0 15.037051369024994 -6.8836417277780129 0 0 0 0 -18.912750287967356 11.746851657193474 0 11.746851657193474 41.037742592688119 0 0 0 0 3.8289080990650746 24.402512512139879 0 24.402512512139879 12.744135894277861 0 0 0 0 0.2989990867808956 4.1452183911451357 0 4.1452183911451357 -7.7343707404135102 0 0 0 0 -4.5371025853869469 9.1401109167832146 0 9.1401109167832146 6.9307646755351016 0 0 0 0 -22.055256300355722 23.60842901616752 0 23.60842901616752 3.3312365259662329 0 0 0 0 7.3460266133315599 14.570308444979673 0 14.570308444979673 -3.7780797849883925 0 0 0 0 -3.9633443633847492 30.397685166118208 0 30.397685166118208 -0.35427997785700427 0 0 0 0 -11.524380672162806 50.392928086596839 0 50.392928086596839 128.75270799765167 0 0 0 0 -37.007372386457973 -13.640410767524372 0 -13.640410767524372 40.932824186364087 0 0 0 0 28.23037842246049 106.13781261829808 0 106.13781261829808 106.78751146499326 0 0 0 0 22.330963287105988 102.15514393192552 0 102.15514393192552 119.20907915098746 0 0 0 0 1.6450761507594507 72.634538479504954 0 72.634538479504954 89.878194355787855 0 0 0 0 0.28170394911012409 28.439320895077685 0 28.439320895077685 35.70638677675197 0 0 0 0 10.087563683071494 70.545683195842685 0 70.545683195842685 88.958694360047048 0 0 0 0 -15.985268656848348 111.05096800588763 0 111.05096800588763 202.11621987391936 0 0 0 0 115.82950213954064 153.28521389846992 0 153.28521389846992 110.59969409257974 0 0 0 0 10.062467535488395 78.126085395492282 0 78.126085395492282 74.508359559949895 0 0 0 0 -30.146146639719518 71.339440089293021 0 71.339440089293021 123.8879885701549 0 0 0 0 9.2886085243990237 95.980063090780277 0 95.980063090780277 134.17347896563842 0 0 0 0 -28.012970644806046 7.4931641395605766 0 7.4931641395605766 83.145146849059529 0 0 0 0 4.9498301881030784 59.7289363797845 0 59.7289363797845 117.63823363540359 0 0 0 0 -65.772365904360413 45.524491757500073 0 45.524491757500073 188.38031176330514 0 0 0 0 -33.484055937960875 61.482080904552276 0 61.482080904552276 168.90528671022912 0 0 0 0 101.71009694881104 -98.610979209795005 0 -98.610979209795005 -50.863233715470415 0 0 0 0 2.15640282915043 3.9374841946779426 0 3.9374841946779426 -5.0237426762108726 0 0 0 0 -6.1873245403021429 9.417856111419951 0 9.417856111419951 5.143944769899008 0 0 0 0 -17.935637579759941 -8.9849742650604867 0 -8.9849742650604867 1.6880294552393025 0 0 0 0 -11.847255771794153 3.1442195975946561 0 3.1442195975946561 9.7550162110337624 0 0 0 0 2.9994779687588675 3.7947880448685218 0 3.7947880448685218 -3.5232639245006734 0 0 0 0 69.36244118866307 158.07296723331729 0 158.07296723331729 162.06196133611229 0 0 0 0 59.922565654151185 126.51017889769628 0 126.51017889769628 61.048179010313106 0 0 0 0 44.069768087138073 94.128009139052665 0 94.128009139052665 56.883040118551662 0 0 0 0 112.34278585464926 28.26171835750938 0 28.26171835750938 -65.529749592314147 0 0 0 0 -0.48621208906843094 -8.4977220818182104 0 -8.4977220818182104 -79.429453500113596 0 0 0 0 45.614711036963854 4.1856506524345605 0 4.1856506524345605 -1.2489093992553535 0 0 0 0 -12.386368759260222 -65.647505111319333 0 -65.647505111319333 -131.85353262889475 0 0 0 0 -0.19742994038851691 1.5534917260844985 0 1.5534917260844985 0.19720783221183069 0 0 0 0 -125.92626600044969 -16.013029086271672 0 -16.013029086271672 169.39393606498925 0 0 0 0 291.43660142322915 143.33320497014938 0 143.33320497014938 -117.20634781975696 0 0 0 0 299.83083842611813 218.48169170283199 0 218.48169170283199 118.5936266002318 0 0 0 0 402.61125670071851 -160.60766777413119 0 -160.60766777413119 208.81216913204571 0 0 0 0 0.65671063530374596 1.4033342445421884 0 1.4033342445421884 3.6150258717523371 0 0 0 0 -31.524083929478138 118.69662562070229 0 118.69662562070229 506.77239482406185 0 0 0 0 -38.965280879403508 -31.445683452172034 0 -31.445683452172034 493.94007422657501 0 0 0 0 -25.032336805033538 -25.191960929364541 0 -25.191960929364541 161.50071697730891 0 0 0 0 -5.7638299697046023 54.094514673251979 0 54.094514673251979 300.13577923605772 0 0 0 0 154.56345731566762 327.43513260618442 0 327.43513260618442 320.71272981699622 0 0 0 0 0.79308163392382625 0.071977970248660483 0 0.071977970248660483 0.36924545430766642 0 0 0 0 32.992160902934302 44.324716791260016 0 44.324716791260016 37.887571386356285 0 0 0 0 70.177559316518455 48.928083663485268 0 48.928083663485268 19.916427584615121 0 0 0 0 53.349652218348638 72.865845573142906 0 72.865845573142906 55.889750153906789 0 0 0 0 9.3167626727899915 22.433657664481871 0 22.433657664481871 48.111900886443436 0 0 0 0 -12.743868758070676 1.4822805133053407 0 1.4822805133053407 26.306269781429364 0 0 0 0 0.43261939276724881 3.6494178516347198 0 3.6494178516347198 10.008999722310257 0 0 0 0 14.105205242181 24.957669710859591 0 24.957669710859591 17.866960603845655 0 0 0 0 30.474453325625291 3.4378765158116948 0 3.4378765158116948 -4.5207724614532481 0 0 0 0 95.875795878455392 -80.926262971044707 0 -80.926262971044707 -95.741226800499135 0 0 0 0 69.759513276296275 105.87738286175681 0 105.87738286175681 133.88142593244811 0 0 0 0 -526.36319020965311 -67.405855825854815 0 -67.405855825854815 1080.5068142874443 0 0 0 0 -88.809465180402185 -149.75447261344289 0 -149.75447261344289 126.3169883242299 0 0 0 0 -0.64020760662377896 0.88886886522624664 0 0.88886886522624664 -2.80993851626706 0 0 0 0 -83.00050280377036 71.003771148927626 0 71.003771148927626 217.49659388034706 0 0 0 0 -64.933175920536087 -24.180703415754579 0 -24.180703415754579 123.50354101413086 0 0 0 0 -46.713111019005737 1.5248713950040838 0 1.5248713950040838 155.69791297887423 0 0 0 0 -4.1898876809864305 27.651930808219731 0 27.651930808219731 84.766202233008698 0 0 0 0 -67.853187534750759 16.536345603502014 0 16.536345603502014 154.28128787177945 0 0 0 0 -178.54442929254583 -63.821264969556978 0 -63.821264969556978 69.965084843043769 0 0 0 0 -260.16236033801215 -57.164404231428307 0 -57.164404231428307 153.66345230600018 0 0 0 0 -213.12813543910306 20.135197728484854 0 20.135197728484854 197.79940961974808 0 0 0 0 -66.2232158588522 5.1688650660598796 0 5.1688650660598796 105.40797698563256 0 0 0 0 -49.070867843029191 10.087857761439409 0 10.087857761439409 5.1008596448009484 0 0 0 0 -63.474675105453571 38.223720229284481 0 38.223720229284481 115.33331453202391 0 0 0 0 0.057134493668854702 40.411530800793798 0 40.411530800793798 73.767599058844098 0 0 0 0 96.081059099666163 43.404091667963257 0 43.404091667963257 22.97953248229669 0 0 0 0 -242.7407198543533 20.962611469820786 0 20.962611469820786 -519.26591408518289 0 0 0 0 0.059564636552588368 -0.67471555164709685 0 -0.67471555164709685 5.1549935278262708 0 0 0 0 226.47237647422298 172.72220708192594 0 172.72220708192594 130.3732936738561 0 0 0 0 43.352745566367958 61.611725360518903 0 61.611725360518903 143.20117129221944 0 0 0 0 34.98144769465307 88.529708012225001 0 88.529708012225001 140.06407566708913 0 0 0 0 -0.068154524684359785 80.318191323646261 0 80.318191323646261 139.52698086935425 0 0 0 0 -20.757301451583771 180.19029223283087 0 180.19029223283087 356.85336023357377 0 0 0 0 22.30322105493542 1.4693250697619078 0 1.4693250697619078 331.37511958906225 0 0 0 0 79.468948865120183 23.407913364955675 0 23.407913364955675 236.3028963747347 0 0 0 0 173.38306147987441 -12.441631683787364 0 -12.441631683787364 -39.259723642384415 0 0 0 0 0.19060370071365007 0.63937546966717917 0 0.63937546966717917 -0.21393790383049094 0 0 0 0 141.68272604626327 -60.708374941018519 0 -60.708374941018519 -112.52017327086332 0 0 0 0 -74.820167024292459 -1.5864615093555585 0 -1.5864615093555585 66.377022060592026 0 0 0 0 -32.256780175355743 20.846089830963138 0 20.846089830963138 -8.6649325468029019 0 0 0 0 0.0086217076141196936 31.335593625251654 0 31.335593625251654 -14.101609687754717 0 0 0 0 -0.021906631212914363 7.8935315229941807 0 7.8935315229941807 -4.8296718732449335 0 0 0 0 -0.59236225081622251 11.315681180507454 0 11.315681180507454 22.650550728193139 0 0 0 0 0.33632858004458477 1.4036319760400211 0 1.4036319760400211 -0.19917544292833611 0 0 0 0 129.18389028502611 3.089556726749322 0 3.089556726749322 -28.890892395724222 0 0 0 0 -6.9187926167123805 71.646449447806845 0 71.646449447806845 -18.086602167210003 0 0 0 0 -72.949879635659272 -5.2542106811320082 0 -5.2542106811320082 7.3630290954033626 0 0 0 0 -3.4785784236028121 38.353396005653849 0 38.353396005653849 -6.4958498376128659 0 0 0 0 -1.4231945790032761 3.9939412574298387 0 3.9939412574298387 10.105527026432497 0 0 0 0 -1.6895096553703866 6.0276333801695117 0 6.0276333801695117 -7.2801664258880692 0 0 0 0 -6.5286891323312375 13.156686344160789 0 13.156686344160789 4.6926810716595355 0 0 0 0 0.63515402751570704 4.9608110156146203 0 4.9608110156146203 2.439963051410114 0 0 0 0 -7.7786489946702204 6.0355013389889791 0 6.0355013389889791 14.569998504308387 0 0 0 0 -1.7235542594196787 6.4788354225679186 0 6.4788354225679186 4.6839671325182834 0 0 0 0 -1.5673695208940899 5.3087247125345129 0 5.3087247125345129 -0.12869018598576076 0 0 0 0 -50.161025011433594 35.174006673320946 0 35.174006673320946 11.256193379290664 0 0 0 0 -12.166164870091961 9.8554932196370828 0 9.8554932196370828 -0.78688424668871448 0 0 0 0 -28.351344684786454 47.20381253355572 0 47.20381253355572 -18.154912215577497 0 0 0 0 2.2208906256797505 3.2905034717190027 0 3.2905034717190027 1.9036071153763032 0 0 0 0 -9.3872652649297379 3.8741654962886969 0 3.8741654962886969 4.2659204163044251 0 0 0 0 -2.0319820355056208 1.213068325829826 0 1.213068325829826 4.2335377018656999 0 0 0 0 4.718654276090092 8.6926906307016907 0 8.6926906307016907 2.0860316032449191 0 0 0 0 -1.5047694789517223 3.6245415943035173 0 3.6245415943035173 8.0734641329361168 0 0 0 0 -6.7992675608074933 5.1692106174450601 0 5.1692106174450601 2.4364434009912657 0 0 0 0 -1.6580675180480426 5.2199678138988919 0 5.2199678138988919 5.2145660850312936 0 0 0 0 -0.8077512926756647 8.1136200254561501 0 8.1136200254561501 2.6150370036151855 0 0 0 0 2.069655627441918 5.1171337509329895 0 5.1171337509329895 8.4601679417490345 0 0 0 0 -17.969096325423379 0.18417189531373879 0 0.18417189531373879 17.457945458156246 0 0 0 0 -17.354434888069591 19.104809636981827 0 19.104809636981827 -17.498909732315951 0 0 0 0 -16.39246249095595 28.137761019292611 0 28.137761019292611 -4.5423514562444325 0 0 0 0 18.960500751742074 -23.8069313590604 0 -23.8069313590604 -0.21128948246223445 0 0 0 0 0.99223165643799049 2.3490961220133517 0 2.3490961220133517 2.8814253666697311 0 0 0 0 15.874664266048057 0.72309155149196158 0 0.72309155149196158 -1.5875374433053366 0 0 0 0 -0.19938691259503116 0.030625400846111539 0 0.030625400846111539 0.28428997156354896 0 0 0 0 8.7306463418399289 20.540805840352277 0 20.540805840352277 2.0953419348443276 0 0 0 0 6.9464619711980049 44.889288071963165 0 44.889288071963165 -33.466269682450729 0 0 0 0 6.2136773963502492 16.104757032298949 0 16.104757032298949 21.06067671193523 0 0 0 0 34.877941080354503 13.766901511307879 0 13.766901511307879 -33.941388782503282 0 0 0 0 31.022664510041068 -12.133022875785173 0 -12.133022875785173 -3.9355622040930029 0 0 0 0 5.0745844619526679 15.223354731583925 0 15.223354731583925 12.778403248630639 0 0 0 0 0.0020915991763149574 2.7272960879937651 0 2.7272960879937651 0.91469175228485256 0 0 0 0 -6.2991792438169796 6.0852816502738278 0 6.0852816502738278 -0.86988032721092168 0 0 0 0 38.571513171584229 45.728080852057246 0 45.728080852057246 6.6065870722582076 0 0 0 0 0.39233839690996319 1.9158003586541028 0 1.9158003586541028 0.71092213536309146 0 0 0 0 88.005780750920167 12.41434094014744 0 12.41434094014744 -28.351988193084253 0 0 0 0 44.226129760638287 50.951591391430156 0 50.951591391430156 32.590054919995509 0 0 0 0 19.940743153609219 28.771310504867415 0 28.771310504867415 21.11775562455864 0 0 0 0 18.940504436435731 19.225917451602072 0 19.225917451602072 11.702554136874369 0 0 0 0 35.912590168987663 18.343640681685429 0 18.343640681685429 2.0661979469014113 0 0 0 0 -0.055696405452181352 26.190830187031679 0 26.190830187031679 -29.682898084320186 0 0 0 0 20.744481854701007 -6.0324080123746171 0 -6.0324080123746171 -12.079640228114386 0 0 0 0 53.588044198582793 16.74611160356244 0 16.74611160356244 -25.474201472480672 0 0 0 0 -3.9431324623055843 56.251971535506982 0 56.251971535506982 17.523267364970479 0 0 0 0 23.237863769729302 61.066916007939653 0 61.066916007939653 -12.861804213287542 0 0 0 0 0.82932607848685791 -0.15456393704544613 0 -0.15456393704544613 -0.31226926069226213 0 0 0 0 1.5461602339728415 18.576432103938487 0 18.576432103938487 75.414912880767588 0 0 0 0 22.504147163615357 45.656502056542067 0 45.656502056542067 -41.036226647775948 0 0 0 0 0.071181927056187533 1.4624571786237448 0 1.4624571786237448 0.96666292307870894 0 0 0 0 -84.799210200212656 -28.74490237969917 0 -28.74490237969917 34.571383292290193 0 0 0 0 -7.986751168340561 3.2102433052577908 0 3.2102433052577908 10.370412226660619 0 0 0 0 -2.162578932089751 8.4142190522328946 0 8.4142190522328946 6.7731649489577688 0 0 0 0 2.6776942998658342 18.635442140296391 0 18.635442140296391 13.715095963596355 0 0 0 0 -2.3148320259315369 3.8288756349149935 0 3.8288756349149935 35.358301406899045 0 0 0 0 0.66481089145599981 2.9439083155139087 0 2.9439083155139087 7.8286379759952069 0 0 0 0 3.4283129680889033 16.076648151056418 0 16.076648151056418 12.077287197293117 0 0 0 0 -4.0102388487630378 12.408183259269663 0 12.408183259269663 9.6899642801768096 0 0 0 0 -4.1266632437008344 7.1826747489923299 0 7.1826747489923299 6.8986409192974385 0 0 0 0 3.37843945151144 13.295613252699923 0 13.295613252699923 9.7469952678479785 0 0 0 0 5.7635646868966433 14.052190426192055 0 14.052190426192055 3.7004151000369347 0 0 0 0 4.0697216115950141 10.508942410122927 0 10.508942410122927 1.3484206585017091 0 0 0 0 5.4566100777046813 7.6014656932893558 0 7.6014656932893558 -1.7616593163625112 0 0 0 0 7.3030892608858267 12.812777122892385 0 12.812777122892385 2.9362972920025641 0 0 0 0 12.325111872702109 8.8655216134807233 0 8.8655216134807233 -1.5479955390628675 0 0 0 0 10.188362073640747 4.224172380293453 0 4.224172380293453 -2.020531037947876 0 0 0 0 17.796863291383488 16.889653253600045 0 16.889653253600045 3.2535939482748688 0 0 0 0 13.254473202086956 8.3601685783141875 0 8.3601685783141875 -0.4477322950715461 0 0 0 0 -0.23593705817351207 0.33811617657785575 0 0.33811617657785575 -0.33786848330741925 0 0 0 0 6.6074591651104129 -3.2670025828924736 0 -3.2670025828924736 -0.11726010567963385 0 0 0 0 -5.2630966533806713 7.2369536163499788 0 7.2369536163499788 -7.00696806452288 0 0 0 0 -0.0044157073298265459 -0.62293311137841556 0 -0.62293311137841556 -0.064083998920978047 0 0 0 0 15.528668547774942 7.2118989536475056 0 7.2118989536475056 -1.2507191546374088 0 0 0 0 2.7847096425903146 2.673793037863561 0 2.673793037863561 3.5457115325452833 0 0 0 0 7.4353571421979723 5.3069558345882797 0 5.3069558345882797 -1.6267169142265629 0 0 0 0 0.23536518888484892 1.2396415886070926 0 1.2396415886070926 -0.98255129504141081 0 0 0 0 2.8940478759213875 2.4669064613822229 0 2.4669064613822229 1.4942309618127183 0 0 0 0 0.0069427076250576647 3.3729089916751036 0 3.3729089916751036 6.9196039159878637 0 0 0 0 0.79432448526495136 6.3658628607345236 0 6.3658628607345236 11.190376571880734 0 0 0 0 0.2322283413162296 0.37618073787753303 0 0.37618073787753303 0.11122072139509598 0 0 0 0 7.916720715818883 5.7828995540512551 0 5.7828995540512551 -2.9032393903817137 0 0 0 0 7.1959882175542589 9.9892119784885836 0 9.9892119784885836 -1.5850729339645113 0 0 0 0 3.8541388230405573 4.783093621291755 0 4.783093621291755 -2.4576081898740085 0 0 0 0 0.16127722572777969 4.7044369401073602 0 4.7044369401073602 3.0232101580123434 0 0 0 0 0.12809477268365299 10.552845189371283 0 10.552845189371283 -1.6035432458365904 0 0 0 0 3.2347382759135144 5.5016950169078882 0 5.5016950169078882 26.813505259386147 0 0 0 0 -0.68013168505422072 4.4745768165412301 0 4.4745768165412301 8.2153572567158335 0 0 0 0 -1.0481805707240284 9.6237769335785934 0 9.6237769335785934 5.5993220269039066 0 0 0 0 0.08103011843638086 -0.90431488829193007 0 -0.90431488829193007 5.6414158236828733 0 0 0 0 0.72940320624093147 6.1637331559750237 0 6.1637331559750237 12.449068594502023 0 0 0 0 -0.98818082786646855 5.0305672314906147 0 5.0305672314906147 9.0408677949177054 0 0 0 0 1.5883580165500462 2.516744682994613 0 2.516744682994613 34.536375466238951 0 0 0 0 0.028427678449588711 6.1018449396033247 0 6.1018449396033247 28.790965631348627 0 0 0 0 3.4416310751303172 4.6119175748756334 0 4.6119175748756334 28.083271275243533 0 0 0 0 2.8916235323467845 7.1262863793431279 0 7.1262863793431279 23.303283079856556 0 0 0 0 -0.52334600435933964 -2.4804497935593588 0 -2.4804497935593588 22.890914200684577 0 0 0 0 -48.326617054481176 19.817857218349673 0 19.817857218349673 29.437850204166352 0 0 0 0 -19.152244050559602 40.991237457730676 0 40.991237457730676 22.561484302908866 0 0 0 0 0.17822450738602669 -2.0633737264662884 0 -2.0633737264662884 14.484449272418644 0 0 0 0 -144.31768245504281 6.1053840978031531 0 6.1053840978031531 68.390070286082846 0 0 0 0 28.356910245272957 19.753867016746881 0 19.753867016746881 41.49232295066372 0 0 0 0 38.970662296326736 30.178787833795695 0 30.178787833795695 35.243321494951488 0 0 0 0 84.282294691304742 66.772282804186489 0 66.772282804186489 38.963352772707367 0 0 0 0 59.877494700047009 120.2312736832755 0 120.2312736832755 96.522785380455389 0 0 0 0 -40.193863611597408 43.981732697903681 0 43.981732697903681 60.395576776431881 0 0 0 0 -34.628494286462228 8.5997601604840384 0 8.5997601604840384 11.606030942763027 0 0 0 0 -4.3180360891283271 32.544933492827568 0 32.544933492827568 15.498467497549427 0 0 0 0 44.524061500396783 7.4478422919895593 0 7.4478422919895593 -30.37356606438334 0 0 0 0 33.280863450840116 61.253821444287496 0 61.253821444287496 20.565416677623034 0 0 0 0 3.8161221270802343 7.1948149929039573 0 7.1948149929039573 -5.6257781365547999 0 0 0 0 1.222296505178555 9.86231332117924 0 9.86231332117924 -2.3017266337718763 0 0 0 0 -10.644632501293927 34.73940309855584 0 34.73940309855584 17.053730015275505 0 0 0 0 2.28166355585563 10.209304879654155 0 10.209304879654155 -3.9505631552610794 0 0 0 0 5.3029754734034213 12.111884875094802 0 12.111884875094802 -5.8791394906593268 0 0 0 0 2.9747801386377475 6.134935155519476 0 6.134935155519476 0.019591752781790817 0 0 0 0 1.8926156700290448 7.8605979617741468 0 7.8605979617741468 -1.4928061552996041 0 0 0 0 4.8896848057029274 13.437374593966069 0 13.437374593966069 5.3591451210249943 0 0 0 0 5.4578202627326391 10.096514262220808 0 10.096514262220808 -8.3928707526902144 0 0 0 0 4.6321256872701895 7.9325844010234849 0 7.9325844010234849 3.1834128233921373 0 0 0 0 -21.83711789586232 9.4620842552212707 0 9.4620842552212707 3.3386971578884186 0 0 0 0 -2.3947354956956701 3.9205543435111574 0 3.9205543435111574 2.1185429017822468 0 0 0 0 -8.0591299033985706 9.3564484430053199 0 9.3564484430053199 0.99541161298384395 0 0 0 0 -0.39925369933371258 -1.1545915976648757 0 -1.1545915976648757 0.38529609345641802 0 0 0 0 -1.9106714376648597 3.177264216682488 0 3.177264216682488 -10.153535458272017 0 0 0 0 -12.041378901267308 -2.7255719466629671 0 -2.7255719466629671 -2.9854312886454863 0 0 0 0 -4.2396595978243568 -0.43518054465221212 0 -0.43518054465221212 -2.66452989360846 0 0 0 0 -0.27816415561028407 2.0704556041519027 0 2.0704556041519027 -4.1771967429976939 0 0 0 0 2.9469900528692961 2.1234167524007717 0 2.1234167524007717 -4.192425090695906 0 0 0 0 -2.3209198733711673 5.7855143793258321 0 5.7855143793258321 -6.5131913940822415 0 0 0 0 5.7214778583070256 5.2226830835759301 0 5.2226830835759301 -12.429477469677295 0 0 0 0 -0.88138289156407801 6.1972396602275666 0 6.1972396602275666 -3.0722105617405617 0 0 0 0 2.7305021554566338 9.8688526661676406 0 9.8688526661676406 -0.036086599114241835 0 0 0 0 4.7496545392080947 8.1512228242344484 0 8.1512228242344484 -8.3993172852549005 0 0 0 0 -1.982352433644337 6.9414370734389195 0 6.9414370734389195 -2.804341258299246 0 0 0 0 4.1328100209284457 10.873671128846354 0 10.873671128846354 -3.881161557120322 0 0 0 0 19.269628327972896 16.836070720592943 0 16.836070720592943 -15.031389643685543 0 0 0 0 2.1952774656529073 7.5688581740078007 0 7.5688581740078007 -16.597100806879098 0 0 0 0 1.0273618210899258 1.0396699141357217 0 1.0396699141357217 -3.411880438721246 0 0 0 0 4.9647789137579821 8.4497510586970748 0 8.4497510586970748 -5.9106922998580558 0 0 0 0 7.643667287144126 4.1964028599090852 0 4.1964028599090852 -18.619178469934923 0 0 0 0 11.844828458839402 3.979406573009328 0 3.979406573009328 -24.522922531863969 0 0 0 0 1.3701631921474942 4.117231770663242 0 4.117231770663242 -16.335068861616023 0 0 0 0 1.8452681597264018 12.537413577792449 0 12.537413577792449 -20.739410705160481 0 0 0 0 23.257052980913159 18.242389776478717 0 18.242389776478717 -26.571626162643952 0 0 0 0 12.458640750981431 74.88382698645546 0 74.88382698645546 -9.0338912735167014 0 0 0 0 -19.899818754725857 23.289918628140185 0 23.289918628140185 -9.0306749001028948 0 0 0 0 6.3500286868602416 2.1358859366823708 0 2.1358859366823708 -21.610815931402612 0 0 0 0 0.79659172339789563 2.3128610290864273 0 2.3128610290864273 -12.989494296805503 0 0 0 0 2.2903831325909252 0.37274590819569653 0 0.37274590819569653 -2.9626340664833677 0 0 0 0 1.104563501654745 0.52329759054762448 0 0.52329759054762448 -0.61066575448316662 0 0 0 0 10.74201862107293 -11.293341018623323 0 -11.293341018623323 -40.029901656336733 0 0 0 0 3.7170377481670585 5.0488587298914354 0 5.0488587298914354 -14.902307888130963 0 0 0 0 12.863944141336106 7.1716706425449956 0 7.1716706425449956 -28.852350692459368 0 0 0 0 0.54379539636315144 0.092512017052091444 0 0.092512017052091444 -0.056985391292975862 0 0 0 0 4.0267590020557691 1.2895182780121104 0 1.2895182780121104 -27.415689805001875 0 0 0 0 7.0264167657251164 5.6835624090208512 0 5.6835624090208512 -21.506543039991811 0 0 0 0 4.9234811478163465 1.4618175897267065 0 1.4618175897267065 -18.970524901878889 0 0 0 0 2.326237962461164 6.2409308182213863 0 6.2409308182213863 -16.08899733166345 0 0 0 0 -3.8012156879231043 1.4690098850710456 0 1.4690098850710456 -19.56293400397044 0 0 0 0 -5.7892742351534707 13.530304961132401 0 13.530304961132401 -20.357568378933138 0 0 0 0 5.991944424175017 4.15755528341424 0 4.15755528341424 -18.044181411876707 0 0 0 0 2.9649646273810504 6.7896125349711838 0 6.7896125349711838 -5.2259842625626334 0 0 0 0 6.6252907978305302 1.2241878375061788 0 1.2241878375061788 -13.783818510145466 0 0 0 0 2.9460861865300103 1.9973462865882539 0 1.9973462865882539 -6.0199475312547293 0 0 0 0 4.383106836132356 1.1941341546007607 0 1.1941341546007607 -10.511333408056089 0 0 0 0 3.6329254427455453 -0.85291838046532575 0 -0.85291838046532575 -2.6912652607779819 0 0 0 0 10.924124618457427 3.1077390186865159 0 3.1077390186865159 -6.0895590685002503 0 0 0 0 7.5504579278785968 4.9085342271782793 0 4.9085342271782793 -1.1871826548690478 0 0 0 0 7.266198943809286 5.0430221911378794 0 5.0430221911378794 1.0477502510611885 0 0 0 0 21.884367343858685 11.248971110100683 0 11.248971110100683 1.7028275669683239 0 0 0 0 14.855776689788399 6.9055761670288121 0 6.9055761670288121 -5.5177145018471947 0 0 0 0 17.990076101889827 10.621014819167613 0 10.621014819167613 13.399657156282046 0 0 0 0 30.988008854225882 20.431492737948247 0 20.431492737948247 15.951386931693378 0 0 0 0 17.06976452519848 8.4957296684035555 0 8.4957296684035555 29.530955198875745 0 0 0 0 22.162707109582698 28.741089051464314 0 28.741089051464314 26.416536060709632 0 0 0 0 21.194773601006773 30.522344565775597 0 30.522344565775597 76.404459840405252 0 0 0 0 15.714428369296002 15.658319088954613 0 15.658319088954613 11.704095416273958 0 0 0 0 10.571783621849136 0.99843276455703744 0 0.99843276455703744 3.8433094981664908 0 0 0 0 8.8728041300919358 3.0028282525963732 0 3.0028282525963732 4.249734990293291 0 0 0 0 -7.9971463265246712 6.6087589552125792 0 6.6087589552125792 5.8062396596719736 0 0 0 0 -9.4452152906960691 9.8495745565769539 0 9.8495745565769539 -0.73953656620051333 0 0 0 0 -3.6997014560386443 7.7472796269484299 0 7.7472796269484299 7.2582014214270991 0 0 0 0 -26.911462829817538 -6.8182479043548483 0 -6.8182479043548483 6.4988067782796861 0 0 0 0 5.815055913897595 13.33438011416979 0 13.33438011416979 5.2479345660347008 0 0 0 0 -16.906859763646935 -3.0117475470669888 0 -3.0117475470669888 -5.1554726962895074 0 0 0 0 -35.363628396836475 -4.147337906656503 0 -4.147337906656503 9.320440719870021 0 0 0 0 -1.6301913278275606 -3.2396850777167856 0 -3.2396850777167856 -0.055175873846565082 0 0 0 0 5.0971854638537479 15.356804575931619 0 15.356804575931619 20.436138425899117 0 0 0 0 9.9429410302623182 24.348948422599278 0 24.348948422599278 32.557060770416683 0 0 0 0 24.257809485854523 3.12159059597343 0 3.12159059597343 -10.588864861928414 0 0 0 0 -20.02686035780971 22.502827139295277 0 22.502827139295277 3.7462186075999853 0 0 0 0 66.532913749559157 15.711822280497017 0 15.711822280497017 -14.037916021110959 0 0 0 0 87.156996275676647 55.632073997524458 0 55.632073997524458 14.017497616735 0 0 0 0 47.501379298872052 54.09544086215169 0 54.09544086215169 29.586264129989104 0 0 0 0 33.023703520080744 36.889844466105842 0 36.889844466105842 46.031725012831885 0 0 0 0 32.436196095415653 50.021791870445668 0 50.021791870445668 48.016475632192396 0 0 0 0 22.215357775419761 37.706921446358137 0 37.706921446358137 75.719468337173566 0 0 0 0 2.6486403150902333 1.7119128084864315 0 1.7119128084864315 10.697894560668828 0 0 0 0 0.22696642458986105 -0.19978163868245602 0 -0.19978163868245602 0.1634841663547757 0 0 0 0 22.323607711994555 39.93891363360899 0 39.93891363360899 43.381603216376107 0 0 0 0 17.912019233663159 34.27309173704316 0 34.27309173704316 39.815011561240681 0 0 0 0 42.62062562741994 56.61819671347348 0 56.61819671347348 52.743907087903608 0 0 0 0 24.568164221829647 23.791251863637171 0 23.791251863637171 9.9783820673371793 0 0 0 0 23.114053238089696 39.02845837447191 0 39.02845837447191 44.226100689477789 0 0 0 0 -8.2144269725547048 -2.0119015052066338 0 -2.0119015052066338 5.4610271516742674 0 0 0 0 1.9664006190923828 1.0342843857579282 0 1.0342843857579282 27.595670216462167 0 0 0 0 -9.0134069455307326 3.0697383055548926 0 3.0697383055548926 70.756332599115922 0 0 0 0 -2.2399774442073976 8.905188259960596 0 8.905188259960596 16.133230841385739 0 0 0 0 1.4420994434162822 1.6579034876476726 0 1.6579034876476726 11.037791985409058 0 0 0 0 -0.10358537624380659 3.5084601288060249 0 3.5084601288060249 5.31489174935205 0 0 0 0 -2.903552768453439 1.9060480770818877 0 1.9060480770818877 7.6527645388096985 0 0 0 0 -2.2885743182851002 0.6265754779742565 0 0.6265754779742565 2.1676419410578092 0 0 0 0 -3.0897269486086749 3.1133939908004802 0 3.1133939908004802 5.7358960515519577 0 0 0 0 -0.30770068907764525 0.11298845592158102 0 0.11298845592158102 0.82206900549082462 0 0 0 0 42.071313995176752 10.717245918647677 0 10.717245918647677 6.1579689211512232 0 0 0 0 62.440246158879745 29.993088110867575 0 29.993088110867575 13.306669878909361 0 0 0 0 5.736767208612946 5.081882054030757 0 5.081882054030757 6.5852611974073625 0 0 0 0 1.1188738356521313 0.4824201938958943 0 0.4824201938958943 1.0702191621740536 0 0 0 0 4.6670756847743178 4.7011999950118479 0 4.7011999950118479 6.9860592442710185 0 0 0 0 -0.87176831328349458 3.0354597303180988 0 3.0354597303180988 2.8795412457945595 0 0 0 0 -38.231924566245652 13.933586917050889 0 13.933586917050889 16.086959523772521 0 0 0 0 2.8176720118244702 8.3789314229675256 0 8.3789314229675256 3.396636597547058 0 0 0 0 2.9580533119749148 5.3233767885929506 0 5.3233767885929506 7.4257790298492026 0 0 0 0 -38.417437738515218 3.368106307177186 0 3.368106307177186 38.115638728974773 0 0 0 0 50.791352103393365 48.53449730536795 0 48.53449730536795 21.08152995782757 0 0 0 0 -22.323852746155126 -3.0749528757315829 0 -3.0749528757315829 73.339879742667108 0 0 0 0 45.814074543985043 -13.827712991590488 0 -13.827712991590488 -7.6127870262646411 0 0 0 0 -26.25883582806091 -0.85211997683290974 0 -0.85211997683290974 13.545589248216857 0 0 0 0 -22.136121354682473 -6.1557244700229603 0 -6.1557244700229603 20.038563388226976 0 0 0 0 -0.42627947123673948 18.879100401952883 0 18.879100401952883 35.659677489747992 0 0 0 0 -5.6721189340596538 10.540730112282972 0 10.540730112282972 23.173723350077125 0 0 0 0 8.9528528894643387 -27.263636690743624 0 -27.263636690743624 -10.860126724735892 0 0 0 0 -4.1492145311299282 9.4293216270079938 0 9.4293216270079938 18.695378131587859 0 0 0 0 -7.8025708647737773 -2.1752476715637243 0 -2.1752476715637243 5.2647794614555039 0 0 0 0 -6.6016963247311651 9.3314538589538643 0 9.3314538589538643 18.79590766911133 0 0 0 0 -0.1217177396738407 7.8650990033684138 0 7.8650990033684138 7.7033178596593643 0 0 0 0 6.9124447928725203 19.802457860929962 0 19.802457860929962 19.861827000282574 0 0 0 0 8.67954649127023 17.592339524625459 0 17.592339524625459 18.333244219325934 0 0 0 0 22.658853248376545 28.852857498326557 0 28.852857498326557 6.8490918659663294 0 0 0 0 22.040177150616728 29.534476130295843 0 29.534476130295843 8.363060959667564 0 0 0 0 9.1413993209553155 22.632917480561446 0 22.632917480561446 21.687250715685423 0 0 0 0 16.053148114485339 41.162491196366773 0 41.162491196366773 53.785035960783716 0 0 0 0 40.137508597574197 5.3533795564649154 0 5.3533795564649154 37.727298494718525 0 0 0 0 50.355250139862619 32.479894794800202 0 32.479894794800202 18.425313371595621 0 0 0 0 30.914048452599673 21.058210522211311 0 21.058210522211311 3.8788938571397011 0 0 0 0 19.239016031051506 29.640404685955218 0 29.640404685955218 18.443148965191583 0 0 0 0 10.0916651463167 18.439631945658107 0 18.439631945658107 4.3526851562237425 0 0 0 0 9.9828424634597468 33.24314047398002 0 33.24314047398002 7.0501743080194501 0 0 0 0 11.179887209469598 16.249494139638045 0 16.249494139638045 -1.0351695409208332 0 0 0 0 20.928869806546572 29.611504643417902 0 29.611504643417902 7.0488781670044318 0 0 0 0 23.576496437844071 31.400792487784429 0 31.400792487784429 -0.79156390840398672 0 0 0 0 20.701852337555465 36.940460939026707 0 36.940460939026707 6.9270737873184771 0 0 0 0 13.047178870184325 43.894467530330985 0 43.894467530330985 26.731919598889363 0 0 0 0 -13.146561797617323 19.692863392456729 0 19.692863392456729 12.021387439940099 0 0 0 0 25.72729397886178 35.209667280867507 0 35.209667280867507 -0.3710869385577098 0 0 0 0 -0.073474378323226119 12.616447498034177 0 12.616447498034177 0.48776093870446857 0 0 0 0 1.2017700453837747 0.41639064916209989 0 0.41639064916209989 0.043927057285126025 0 0 0 0 4.6729970474225411 16.900119508200078 0 16.900119508200078 -38.806554577645329 0 0 0 0 -0.33566875976976007 2.4149169974875804 0 2.4149169974875804 -23.396822592973876 0 0 0 0 0.83687488593923831 0.15004320180198949 0 0.15004320180198949 -0.069957446292502112 0 0 0 0 136.65338414680627 -45.486297686663875 0 -45.486297686663875 -35.860326189947045 0 0 0 0 -10.969086938035616 44.891705976289813 0 44.891705976289813 63.322659718178947 0 0 0 0 -8.8533208664430276 26.604436593814626 0 26.604436593814626 -24.692850713376174 0 0 0 0 -54.693856437728755 -5.4383944227997745 0 -5.4383944227997745 6.3205403082438352 0 0 0 0 -4.9637245051308128 -14.692408175672426 0 -14.692408175672426 5.5032315921844202 0 0 0 0 0.51398439876400914 0.70519588595969651 0 0.70519588595969651 1.2308444960216569 0 0 0 0 1.2586484303274794 2.2088079654650912 0 2.2088079654650912 3.9263316856983543 0 0 0 0 -20.893679660344333 20.524177917517363 0 20.524177917517363 6.4872332065206137 0 0 0 0 80.459390672036534 9.4838970233440705 0 9.4838970233440705 -46.802989417273352 0 0 0 0 84.504169954889221 30.576327717737513 0 30.576327717737513 60.831523836837732 0 0 0 0 -24.139533297997332 -0.65163549583576241 0 -0.65163549583576241 -4.1576724502997422 0 0 0 0 -66.872337532713573 37.862161969329691 0 37.862161969329691 2.2172764382612513 0 0 0 0 -36.396197962871611 17.980912696160658 0 17.980912696160658 5.8766128377847053 0 0 0 0 82.580969362832548 64.014818450775238 0 64.014818450775238 1.0149146391368049 0 0 0 0 122.0087034094031 -6.5257395303842713 0 -6.5257395303842713 -46.661329243823275 0 0 0 0 3.5225233237215434 -19.828420197056403 0 -19.828420197056403 -21.627592765466488 0 0 0 0 30.253316184538562 35.868030076434479 0 35.868030076434479 -11.458690878907873 0 0 0 0 53.373712877655635 20.58009493073223 0 20.58009493073223 -5.4816335345813059 0 0 0 0 16.530718181822522 12.545718827260771 0 12.545718827260771 -7.2165437916137307 0 0 0 0 26.43453076824153 26.835213503572049 0 26.835213503572049 5.459771629433817 0 0 0 0 -4.8357700293800008 8.8208970841910741 0 8.8208970841910741 3.4849133387106122 0 0 0 0 -31.892619101652599 21.419571290056865 0 21.419571290056865 7.2748265697082388 0 0 0 0 2.0640573623065031 3.6413350183994151 0 3.6413350183994151 6.4463640740263308 0 0 0 0 10.563108149865002 13.891849464750521 0 13.891849464750521 4.0230114895862243 0 0 0 0 -36.753244794337661 27.706369086026825 0 27.706369086026825 2.4764081403791351 0 0 0 0 -36.418473443949551 31.004426937091921 0 31.004426937091921 22.378299897818579 0 0 0 0 -43.144459636399915 46.521062404047569 0 46.521062404047569 -6.8639277724723797 0 0 0 0 0.34650118725556212 0.70352838312230226 0 0.70352838312230226 1.4047411501327289 0 0 0 0 -14.859557511524145 -0.92554457226697195 0 -0.92554457226697195 3.7045681106264965 0 0 0 0 -40.875562070023989 34.513894033762881 0 34.513894033762881 4.5515949389318848 0 0 0 0 0.98981372245079058 2.1450620248378245 0 2.1450620248378245 4.009265053875577 0 0 0 0 -35.741489944362911 14.171549176287954 0 14.171549176287954 -8.8042571228470479 0 0 0 0 -38.322263338353878 16.93402233191955 0 16.93402233191955 14.54509999685115 0 0 0 0 0.90531013849795272 -3.1501525195594695 0 -3.1501525195594695 0.39109249814680425 0 0 0 0 -28.519347570651007 8.6057977459740869 0 8.6057977459740869 31.14820358340512 0 0 0 0 -29.485545879332676 30.33551287046248 0 30.33551287046248 5.9104033366911608 0 0 0 0 -13.902945377416472 -21.812140691878085 0 -21.812140691878085 40.999838959429326 0 0 0 0 1.6773948087550146 3.3295640575752303 0 3.3295640575752303 6.2526262333896767 0 0 0 0 10.065479865421366 -7.4778949853593986 0 -7.4778949853593986 -3.5403402372648998 0 0 0 0 -60.681600669116051 53.056189304962118 0 53.056189304962118 -7.0172123895299592 0 0 0 0 46.056045243222798 141.67100130025938 0 141.67100130025938 -197.24068208527297 0 0 0 0 -78.282672791874575 137.40829703190229 0 137.40829703190229 -51.890661086815726 0 0 0 0 -1.6931399504379812 0.3682500002260678 0 0.3682500002260678 0.67706275529113924 0 0 0 0 -7.4682268610445135 -13.942366255356774 0 -13.942366255356774 54.556780468197758 0 0 0 0 8.5794111425811934 1.9261788001881541 0 1.9261788001881541 14.279835006718713 0 0 0 0 2.6018763277752441 -10.336816243705584 0 -10.336816243705584 104.7026238426206 0 0 0 0 -0.29295808956387503 0.19712374990450421 0 0.19712374990450421 0.11245204677507914 0 0 0 0 7.7988783393666381 24.189265766340668 0 24.189265766340668 19.652826361572806 0 0 0 0 -7.6102125926045119 12.676878517551813 0 12.676878517551813 27.289566295095938 0 0 0 0 21.934799381187986 34.3705941979415 0 34.3705941979415 4.5092941270313531 0 0 0 0 11.834959873725893 17.383868288759913 0 17.383868288759913 -23.447201449955173 0 0 0 0 23.864800995002952 50.397377858234904 0 50.397377858234904 -8.0377950941592644 0 0 0 0 21.491431024463964 33.073568546207298 0 33.073568546207298 13.999101377094121 0 0 0 0 3.9046692835945578 40.134481928336754 0 40.134481928336754 13.343920813716977 0 0 0 0 1.237290185466918 45.027905263620141 0 45.027905263620141 15.789906795593197 0 0 0 0 37.030377417495401 31.842776678937753 0 31.842776678937753 -16.238152908260417 0 0 0 0 3.2841105800362129 26.065422834340097 0 26.065422834340097 14.732700571836176 0 0 0 0 124.68528910954956 25.935445433349742 0 25.935445433349742 -2.3436350102747383 0 0 0 0 19.091487854051593 53.735694771990893 0 53.735694771990893 -9.6430468290745921 0 0 0 0 13.349006884175651 56.812453203484893 0 56.812453203484893 39.564926859407933 0 0 0 0 18.284483258801629 19.031927686116433 0 19.031927686116433 54.758777921784713 0 0 0 0 -53.529669606061361 -91.928830484875107 0 -91.928830484875107 46.142429274046663 0 0 0 0 -0.70933234631339559 1.2567712331748808 0 1.2567712331748808 1.3012448096333404 0 0 0 0 10.538013075161871 161.13140522919321 0 161.13140522919321 8.3828683736537641 0 0 0 0 0.97316464801856029 4.6121815248528897 0 4.6121815248528897 9.3169003096420901 0 0 0 0 -11.649030469930949 27.742543170239514 0 27.742543170239514 -38.359002121233971 0 0 0 0 -7.6987158615193039 15.87718926441994 0 15.87718926441994 -10.196064721028506 0 0 0 0 -1.5439103659991815 0.23870673961391731 0 0.23870673961391731 3.0487468773362707 0 0 0 0 -0.9920802258818906 -0.26406075897404868 0 -0.26406075897404868 0.57624438128549826 0 0 0 0 -26.568194121056877 23.079432947915393 0 23.079432947915393 18.6322645364653 0 0 0 0 -74.221177948733384 -20.845421430582064 0 -20.845421430582064 -3.0323167428505258 0 0 0 0 -14.773847674285207 66.755138539660948 0 66.755138539660948 30.698012496514025 0 0 0 0 -129.89721688731333 50.760845658492144 0 50.760845658492144 29.854499813571238 0 0 0 0 -1.9101243975728721 27.295181055023932 0 27.295181055023932 27.229017162621858 0 0 0 0 9.7497738220499741 53.807690541406828 0 53.807690541406828 21.989620817387731 0 0 0 0 41.239500003051944 49.95792760313816 0 49.95792760313816 29.190291153297949 0 0 0 0 -0.82133968639755039 -3.8964852791514204 0 -3.8964852791514204 52.78885303152083 0 0 0 0 -8.0748264234462113 29.851750652070223 0 29.851750652070223 76.761910602338503 0 0 0 0 -3.0726705274082633 25.127003207151574 0 25.127003207151574 30.518295933055924 0 0 0 0 -7.2919285653892985 26.845998408025935 0 26.845998408025935 29.918566347678279 0 0 0 0 0.53778255720317247 25.900592295775368 0 25.900592295775368 27.524615533531687 0 0 0 0 1.899814344202241 16.223701418080054 0 16.223701418080054 2.2718090974294682 0 0 0 0 -9.722525511529966 12.819949619235103 0 12.819949619235103 8.8353212109486776 0 0 0 0 -2.875606049441128 1.3450234112101498 0 1.3450234112101498 -0.65607157836855556 0 0 0 0 8.7680317217021866 14.506796529930455 0 14.506796529930455 -0.60940010385638743 0 0 0 0 -0.60359238673754589 3.3543059183048172 0 3.3543059183048172 -1.431656541457869 0 0 0 0 -2.1828443752483508 9.3224859488325365 0 9.3224859488325365 -7.9088620044576601 0 0 0 0 0.23989277328178105 3.7522986788503658 0 3.7522986788503658 -1.2971872887128484 0 0 0 0 4.0070604028387606 3.776066765124142 0 3.776066765124142 -1.6769909222880415 0 0 0 0 -1.2633822129901091 -6.5579556234997654 0 -6.5579556234997654 19.486841122954274 0 0 0 0 -3.7871775346611685 3.5192673680830922 0 3.5192673680830922 0.59104192048380355 0 0 0 0 -4.0839458242097919 2.5758622981595849 0 2.5758622981595849 -0.84216271299988499 0 0 0 0 -1.5125457369360902 3.0623320956582916 0 3.0623320956582916 -8.9234140959451906 0 0 0 0 0.58319477461373026 7.4511805318452389 0 7.4511805318452389 1.7119048768072389 0 0 0 0 0.36042125481253606 1.4142699217245536 0 1.4142699217245536 -1.0014243730711314 0 0 0 0 0.38546591720190859 2.6237566973452147 0 2.6237566973452147 -1.2654621081482986 0 0 0 0 0.22116953966944308 0.92624623799576611 0 0.92624623799576611 0.36897951471874535 0 0 0 0 50.135048106581962 15.656884171044112 0 15.656884171044112 4.6845703664730536 0 0 0 0 75.091268811869668 -0.4833759596353957 0 -0.4833759596353957 -6.6644699598400621 0 0 0 0 1.1650171392183424 2.9900766868050006 0 2.9900766868050006 -2.5653395006792437 0 0 0 0 -0.27170698797014836 2.8542706486975327 0 2.8542706486975327 -1.6045432863784974 0 0 0 0 0.5943363657243701 0.15356502701909491 0 0.15356502701909491 0.15817749527776215 0 0 0 0 29.200443424697369 -12.351536925759774 0 -12.351536925759774 -10.752582443008578 0 0 0 0 14.226271618486862 -9.106015852638393 0 -9.106015852638393 17.587769676843891 0 0 0 0 3.6319106862210901 1.3994255715260806 0 1.3994255715260806 15.053953730674039 0 0 0 0 -27.330394384172905 9.1566787112869861 0 9.1566787112869861 -12.261390571549782 0 0 0 0 63.07228236830997 4.1737653443105955 0 4.1737653443105955 -19.691138222440713 0 0 0 0 1.039918808864523 2.7982879596409482 0 2.7982879596409482 -1.6655993545094923 0 0 0 0 -1.6144254828977864 6.7749143244600418 0 6.7749143244600418 -1.3098838850623906 0 0 0 0 1.2165160028305468 2.2135529802464884 0 2.2135529802464884 -0.38670629806555468 0 0 0 0 -2.0167311215091104 4.8444308739458393 0 4.8444308739458393 -1.9679634229578369 0 0 0 0 4.0777574868874176 5.1248492095998639 0 5.1248492095998639 5.0225791561188693 0 0 0 0 3.089743720093054 21.292354468393626 0 21.292354468393626 -27.770718793248307 0 0 0 0 6.9351550322076037 9.8369794882758015 0 9.8369794882758015 -33.001581310740221 0 0 0 0 -21.500023043354304 -31.404425807219013 0 -31.404425807219013 20.95409462956377 0 0 0 0 -19.717578888732533 55.502458055168972 0 55.502458055168972 -12.012170369872592 0 0 0 0 1.501423960649845 8.262014991039905 0 8.262014991039905 2.5829906884122238 0 0 0 0 0.22253356667533808 9.646975855913297 0 9.646975855913297 2.9001926435760197 0 0 0 0 1.0877997736243967 2.1721361975806097 0 2.1721361975806097 -0.14158345333392219 0 0 0 0 -0.8933858991949819 8.1871313415413169 0 8.1871313415413169 0.90324436016453546 0 0 0 0 3.512103173919872 6.6852756048526043 0 6.6852756048526043 0.24372094248091258 0 0 0 0 0.16762919059272008 7.5277095178750955 0 7.5277095178750955 2.2011927651492442 0 0 0 0 12.470612833058112 9.5888400292860752 0 9.5888400292860752 -8.8006737594641891 0 0 0 0 1.2211629991879818 3.5034705409457274 0 3.5034705409457274 -1.8519329914136051 0 0 0 0 -1.8285742626783232 2.891783540212236 0 2.891783540212236 0.71765870124688114 0 0 0 0 -1.4028150583071692 6.2420063413883327 0 6.2420063413883327 0.38563933561545127 0 0 0 0 0.45271511426847932 4.1587831342546924 0 4.1587831342546924 -1.8994608932403878 0 0 0 0 -0.36196963303032703 5.7325679704709778 0 5.7325679704709778 6.347384427962611 0 0 0 0 -0.98363294755766262 4.5969332574678727 0 4.5969332574678727 2.4304434302857949 0 0 0 0 -1.4473511811393109 5.5805398230963874 0 5.5805398230963874 0.71296676096790179 0 0 0 0 -1.5808770611101863 5.9747613349372841 0 5.9747613349372841 -0.44035492909824825 0 0 0 0 2.235776518872246 3.0156833186074099 0 3.0156833186074099 0.30468080884152826 0 0 0 0 -0.8650658434307843 3.7479831483524322 0 3.7479831483524322 -1.8003086148155489 0 0 0 0 -1.1005510784566468 3.5582007530522333 0 3.5582007530522333 2.3499719220326369 0 0 0 0 0.043667552516126307 6.1064562354849841 0 6.1064562354849841 0.88009643451505326 0 0 0 0 0.80122383774005357 6.0017756549228807 0 6.0017756549228807 0.43946158072139951 0 0 0 0 -1.0852523319340381 0.89409713449808947 0 0.89409713449808947 0.34580575245199441 0 0 0 0 -1.1140603415806254 5.9828836054566636 0 5.9828836054566636 0.96905455477735813 0 0 0 0 0.5114273123726889 4.9651594414526699 0 4.9651594414526699 0.56983005293841416 0 0 0 0 0.21664360389315362 4.1362857212789557 0 4.1362857212789557 -1.2477061546883417 0 0 0 0 -1.3244115785419126 5.9813874142710119 0 5.9813874142710119 0.13072245451621711 0 0 0 0 -5.5639741167542525 3.8748867647809675 0 3.8748867647809675 1.5947810685138393 0 0 0 0 -5.9074643209628448 4.5865794066174566 0 4.5865794066174566 4.4424337557983442 0 0 0 0 -4.9837770210851886 10.514490345683043 0 10.514490345683043 -0.12633591193298344 0 0 0 0 1.6744872194176423 4.5348607300766162 0 4.5348607300766162 3.069464405411054 0 0 0 0 -3.4437540305768017 4.1383702052702453 0 4.1383702052702453 -0.75144208702157655 0 0 0 0 -1.0005118757107994 8.6865335888996924 0 8.6865335888996924 4.3389833716141766 0 0 0 0 -0.522897753478901 1.6770108693990551 0 1.6770108693990551 5.6310225140423427 0 0 0 0 3.9422305239168054 7.2934263920042213 0 7.2934263920042213 -0.027771507166448828 0 0 0 0 0.73732601893152605 1.3743683963557984 0 1.3743683963557984 -1.671409315361128 0 0 0 0 3.7490513423636003 5.3130583994879998 0 5.3130583994879998 -1.3366971936084155 0 0 0 0 -5.3105825372222171 4.1128233741578697 0 4.1128233741578697 -0.51449274836431869 0 0 0 0 -1.1793191832360623 1.9609083041981972 0 1.9609083041981972 1.1055818181296129 0 0 0 0 2.073726725007873 2.0525057120494239 0 2.0525057120494239 1.0435830188980617 0 0 0 0 -1.0768506517053993 8.4601718671738695 0 8.4601718671738695 -2.6779838087168173 0 0 0 0 0.48716288222917115 2.5525917590580249 0 2.5525917590580249 2.6612376287050665 0 0 0 0 -0.05262493729287776 2.3146351780748304 0 2.3146351780748304 -1.2768966394865284 0 0 0 0 -1.4805865007656394 6.370357485002387 0 6.370357485002387 -1.2111645377851801 0 0 0 0 -4.7856250516082532 2.7810631333910365 0 2.7810631333910365 1.3233159003431787 0 0 0 0 -3.672109592374909 5.8543227385835053 0 5.8543227385835053 2.278646357532125 0 0 0 0 2.948378997841246 5.6848531460923368 0 5.6848531460923368 1.312326658911843 0 0 0 0 3.0314921292392683 4.9395480118168962 0 4.9395480118168962 -3.8970223309270295 0 0 0 0 3.1902054822239734 3.1174598003108258 0 3.1174598003108258 3.4163673089706208 0 0 0 0 1.2074967391945393 4.8541897304726263 0 4.8541897304726263 3.2201792697419478 0 0 0 0 0.14803379459408461 2.990225835550973 0 2.990225835550973 1.8175251952061444 0 0 0 0 -3.8243646364269352 4.6416495563440208 0 4.6416495563440208 6.6829929528221328 0 0 0 0 -1.4061304977112741 9.042566441490635 0 9.042566441490635 10.797966691816328 0 0 0 0 -1.205181319993244 3.1331333362149572 0 3.1331333362149572 2.5574381144975042 0 0 0 0 3.2091195692612473 6.1314125317759931 0 6.1314125317759931 3.6844438857865498 0 0 0 0 2.1950336427331081 5.8048288863712694 0 5.8048288863712694 4.5071966470671532 0 0 0 0 -0.11269132754332745 1.3601764229747637 0 1.3601764229747637 1.167220284941699 0 0 0 0 0.18467652322215145 3.407835300449733 0 3.407835300449733 2.6774016991794269 0 0 0 0 -0.088647626263206547 3.397593748913331 0 3.397593748913331 2.0361516345115227 0 0 0 0 0.22954376792705133 2.6662551860861061 0 2.6662551860861061 2.291627717338526 0 0 0 0 -1.6563946894543413 2.6127539008591434 0 2.6127539008591434 2.27573251719868 0 0 0 0 -1.3801432037435006 2.6612305260605353 0 2.6612305260605353 3.0714088442719003 0 0 0 0 3.999950873079797 4.2532469042771481 0 4.2532469042771481 4.240826673655647 0 0 0 0 -2.4681609896696344 3.0010497317798333 0 3.0010497317798333 1.8512855202791112 0 0 0 0 -1.398670162221606 5.5345716632175481 0 5.5345716632175481 2.317633842356372 0 0 0 0 0.014861059683425992 3.8775727845302299 0 3.8775727845302299 2.3724494891412178 0 0 0 0 0.059306897754954235 3.0137898932936551 0 3.0137898932936551 0.87664740522425966 0 0 0 0 5.6074960561672924 4.5067557907066202 0 4.5067557907066202 3.0958341906002715 0 0 0 0 3.3210920059518685 4.878641158719347 0 4.878641158719347 4.1200650235305147 0 0 0 0 4.9858179659913731 5.1626346887489944 0 5.1626346887489944 2.9655858638629979 0 0 0 0 5.7464508079142433 6.9329432607323156 0 6.9329432607323156 -2.1499240508182993 0 0 0 0 -0.86419597803397785 0.94122197372481509 0 0.94122197372481509 0.45329334413619904 0 0 0 0 4.8897479349798232 6.6161604923308914 0 6.6161604923308914 1.486538741334698 0 0 0 0 -17.165785880210024 -4.4074720228849174 0 -4.4074720228849174 0.43313067771703118 0 0 0 0 5.6810447688874604 6.2180071237557151 0 6.2180071237557151 -0.1818061283941006 0 0 0 0 -2.345040051642842 5.7191061962735059 0 5.7191061962735059 -1.7209542633142161 0 0 0 0 -7.5786128426425421 0.33669323638120829 0 0.33669323638120829 -19.69258399700027 0 0 0 0 7.2522386201508198 9.2509807344312094 0 9.2509807344312094 0.79919718968005782 0 0 0 0 4.3989012099345928 6.5654682661981951 0 6.5654682661981951 3.8240120464374741 0 0 0 0 -2.6352791144072398 2.1712654424169955 0 2.1712654424169955 -33.341922204717548 0 0 0 0 -0.13594110183254315 0.27213363176674932 0 0.27213363176674932 1.1637424179213136 0 0 0 0 -4.3654426792973027 4.5064576327745272 0 4.5064576327745272 11.945756758092102 0 0 0 0 -7.141862333557583 5.7339701078391272 0 5.7339701078391272 6.5791671978167869 0 0 0 0 -3.3194119640328843 5.8877290761518548 0 5.8877290761518548 7.9387804705981999 0 0 0 0 -6.4074388590288436 3.5464997857525304 0 3.5464997857525304 -1.2760466980028013 0 0 0 0 -0.78949237390887106 5.3902274816153479 0 5.3902274816153479 -0.62205837944737574 0 0 0 0 8.8942391100730447 -0.9764363985397253 0 -0.9764363985397253 0.49161376168012794 0 0 0 0 1.1655558130710162 1.5735013852787585 0 1.5735013852787585 -0.1357942920999351 0 0 0 0 -6.0124777985256515 11.512855554947009 0 11.512855554947009 -1.9855816721785686 0 0 0 0 -3.9044302269066975 5.4231099675549785 0 5.4231099675549785 -0.40005911012167417 0 0 0 0 -28.485865382279371 11.303532291395413 0 11.303532291395413 22.836282769946592 0 0 0 0 -2.1396685853191091 3.5947825878736754 0 3.5947825878736754 0.83789031074386067 0 0 0 0 -1.1366857025343775 3.0346049763181284 0 3.0346049763181284 0.80721166124216648 0 0 0 0 1.6197767929970723 4.3100104061238653 0 4.3100104061238653 1.456531424708146 0 0 0 0 -1.0795871188311352 3.1788726861645795 0 3.1788726861645795 1.4965537837467067 0 0 0 0 -0.27054653715727506 3.6864750745108843 0 3.6864750745108843 2.2744416135515575 0 0 0 0 -1.4097606431932945 4.6678574270852096 0 4.6678574270852096 2.2496573440876091 0 0 0 0 -0.01247362225301174 2.6766447927817758 0 2.6766447927817758 0.23340908924337533 0 0 0 0 -1.9852261534651916 5.0446373391791894 0 5.0446373391791894 2.9284943258141993 0 0 0 0 2.2207116451445472 4.2311368318726181 0 4.2311368318726181 0.83140453357964361 0 0 0 0 -0.43237371512881173 3.8426178842474457 0 3.8426178842474457 2.0803258870777501 0 0 0 0 -6.2174134270115928 3.8664245037465008 0 3.8664245037465008 2.899216176014761 0 0 0 0 -8.9265693442284828 1.6487763923194052 0 1.6487763923194052 1.2209082170400052 0 0 0 0 -0.79869301285179972 5.1787879557190308 0 5.1787879557190308 -3.0536812579134676 0 0 0 0 4.501509550076662 15.52312510712477 0 15.52312510712477 7.6470337343637311 0 0 0 0 -2.5175478119981562 0.33214502118357814 0 0.33214502118357814 4.8939747503018225 0 0 0 0 0.17096985549142119 8.576158755778124 0 8.576158755778124 2.150864450699487 0 0 0 0 -3.5410416897811956 3.649781061487829 0 3.649781061487829 1.9294111019858065 0 0 0 0 0.75073901440307234 4.0692951994434168 0 4.0692951994434168 1.1426710539333857 0 0 0 0 -5.0581564359636104 5.655571546552892 0 5.655571546552892 2.247339850010917 0 0 0 0 -5.0884852906319793 5.6602153359197018 0 5.6602153359197018 -0.44628843426471576 0 0 0 0 -0.32778978167458561 1.7597966716832723 0 1.7597966716832723 1.5884924214891729 0 0 0 0 2.7441987136901389 7.1190898028033303 0 7.1190898028033303 3.0080710705115052 0 0 0 0 -2.624394444983642 9.660666289707514 0 9.660666289707514 1.812849417497052 0 0 0 0 -6.9786638343134655 7.5254521234136291 0 7.5254521234136291 2.5969773526130666 0 0 0 0 -2.7828018519066973 2.5336522735160543 0 2.5336522735160543 -0.66319336366723292 0 0 0 0 2.5331132315966798 5.5132963375735438 0 5.5132963375735438 1.5402170139859224 0 0 0 0 12.396255448211377 -3.2097169424600906 0 -3.2097169424600906 -16.628728493324161 0 0 0 0 1.8953175619044487 5.8527890023153759 0 5.8527890023153759 2.6040988716977154 0 0 0 0 -0.16643969315235618 4.6738763327227701 0 4.6738763327227701 5.3282516687754953 0 0 0 0 0.14784115029851819 3.1058830876742149 0 3.1058830876742149 28.022335690220643 0 0 0 0 -2.8568813704405329 15.491707969558206 0 15.491707969558206 19.945143050126717 0 0 0 0 0.63287995429143251 -0.0020445372523880678 0 -0.0020445372523880678 -1.7756287154721049 0 0 0 0 -1.3625030562652682 3.5068847443112645 0 3.5068847443112645 22.799929365842672 0 0 0 0 -2.6036183021460602 8.9284073334736149 0 8.9284073334736149 -0.80991957780133816 0 0 0 0 -4.1065633790458378 10.281969869788782 0 10.281969869788782 8.9243320941039883 0 0 0 0 -2.8971725699193485 11.263733675463754 0 11.263733675463754 9.2280365518337248 0 0 0 0 -3.4120091597287683 10.412006785000358 0 10.412006785000358 8.3449313747303222 0 0 0 0 -3.9298906910444202 9.7635581425220153 0 9.7635581425220153 8.4944472979925081 0 0 0 0 -2.2814931968950987 12.544143087837654 0 12.544143087837654 16.93775304737278 0 0 0 0 -2.4753817995597274 10.601264260780795 0 10.601264260780795 8.2276330277700254 0 0 0 0 -2.5803296064204915 11.151557077004441 0 11.151557077004441 6.9262124149915962 0 0 0 0 -3.0559898969895585 11.122576812057332 0 11.122576812057332 8.1518472723550133 0 0 0 0 -2.0786221266025677 10.739652917623516 0 10.739652917623516 8.2297062613238268 0 0 0 0 -9.0497781782942184 9.5969085864641102 0 9.5969085864641102 2.0846904692295993 0 0 0 0 -4.0390135636844207 6.2062210598226102 0 6.2062210598226102 4.3781094773892164 0 0 0 0 3.4187528282354833 4.5319953097884991 0 4.5319953097884991 9.2814424873508869 0 0 0 0 -0.24044279309873673 9.9114742076228026 0 9.9114742076228026 1.3856498509521771 0 0 0 0 -2.9966147577142692 7.9345245112619978 0 7.9345245112619978 1.7854142495240239 0 0 0 0 -2.0746059711636917 8.518369280114257 0 8.518369280114257 -3.4528978537050534 0 0 0 0 2.4483559624914051 6.7267126299013853 0 6.7267126299013853 -2.7603915985346248 0 0 0 0 -4.8918342872420908 5.2961829714581654 0 5.2961829714581654 -3.6389586893775174 0 0 0 0 -10.170736067648249 6.4005395854883318 0 6.4005395854883318 0.2337075800051025 0 0 0 0 -2.8674020373218809 8.557445409652189 0 8.557445409652189 -3.8058491413298725 0 0 0 0 4.8172856029268587 12.583897360877472 0 12.583897360877472 -2.8869941712996479 0 0 0 0 2.0354558484777954 11.153547641629757 0 11.153547641629757 2.8164085491831088 0 0 0 0 2.1377256351551068 9.883736201900156 0 9.883736201900156 0.79486884059656404 0 0 0 0 2.6695711633183237 7.3442605286260232 0 7.3442605286260232 -2.7083846711329898 0 0 0 0 12.242341775667228 9.5304920836766769 0 9.5304920836766769 0.73068466295995904 0 0 0 0 4.6120909809169461 13.543717138352235 0 13.543717138352235 2.7429777034810741 0 0 0 0 8.3007076457615767 18.710305528325023 0 18.710305528325023 9.9740310879483332 0 0 0 0 -3.3083592607108585 10.952071483680697 0 10.952071483680697 21.107946247616042 0 0 0 0 -0.5340226078723731 1.2622537497782735 0 1.2622537497782735 0.22934542059071727 0 0 0 0 13.481916565924621 16.597639926667966 0 16.597639926667966 2.9655260545791862 0 0 0 0 3.9777658646180498 5.8878786255451132 0 5.8878786255451132 -2.0519419529342713 0 0 0 0 9.7628605204713494 5.5128375722598122 0 5.5128375722598122 -3.0125616384341356 0 0 0 0 7.4619632368230668 5.7540286408521979 0 5.7540286408521979 -2.991981526886093 0 0 0 0 3.935394923117201 10.356825533179517 0 10.356825533179517 -5.3385359710935063 0 0 0 0 -0.39802700739521413 5.9565735634017081 0 5.9565735634017081 -0.088055367916407334 0 0 0 0 4.4748011947145372 6.5881024494780513 0 6.5881024494780513 4.8652587298590966 0 0 0 0 4.4431437249368173 5.6020187624958453 0 5.6020187624958453 8.9191387050491358 0 0 0 0 0.4433405457311892 10.357151562692138 0 10.357151562692138 0.013383960624082647 0 0 0 0 3.5190223563031395 13.84136366806672 0 13.84136366806672 -5.6479726740458318 0 0 0 0 2.1180194733678945 5.3152676872919074 0 5.3152676872919074 6.2518401247066322 0 0 0 0 4.0631347292124573 5.3769388240429628 0 5.3769388240429628 4.3905767367248068 0 0 0 0 3.0909909303281893 7.4017505073243228 0 7.4017505073243228 3.0777487863606439 0 0 0 0 2.2573121006971633 6.0603147280316989 0 6.0603147280316989 4.6469734508118563 0 0 0 0 3.3427132240471167 5.1802261433805432 0 5.1802261433805432 2.9044367008578238 0 0 0 0 0.31088482889572333 9.960242314009065 0 9.960242314009065 2.8850349256650816 0 0 0 0 0.30319154557253114 6.6957385189472944 0 6.6957385189472944 3.86995513272268 0 0 0 0 4.4251255622148165 7.3278149737361673 0 7.3278149737361673 4.3802620773135459 0 0 0 0 0.74606243403081862 6.7871505335822349 0 6.7871505335822349 5.6945149897483134 0 0 0 0 4.7436466645861763 5.4313027936947762 0 5.4313027936947762 6.0185283947868733 0 0 0 0 -26.912512894103202 79.661837596459009 0 79.661837596459009 -12.835380872502355 0 0 0 0 7.320799820987304 73.319812599518627 0 73.319812599518627 -26.237653667578115 0 0 0 0 -32.454778960526454 9.6455860554521706 0 9.6455860554521706 17.77615270930437 0 0 0 0 40.114800789420769 -4.2249081367172039 0 -4.2249081367172039 -21.484879941951306 0 0 0 0 -33.938439242715987 55.993324454360277 0 55.993324454360277 -8.2986192911612306 0 0 0 0 4.8867163089236172 5.6124091105070892 0 5.6124091105070892 6.2680823225863911 0 0 0 0 0.91856921963972127 10.536590922943333 0 10.536590922943333 3.5329463279922493 0 0 0 0 3.1857053684907441 5.8792266471809853 0 5.8792266471809853 5.1662594991958031 0 0 0 0 4.2481889595019311 3.0735485311997763 0 3.0735485311997763 3.8903113422902607 0 0 0 0 6.3108784066971566 4.7510835807661351 0 4.7510835807661351 3.7491329912454603 0 0 0 0 9.3252783434327284 8.9576121905315631 0 8.9576121905315631 5.1068926554717109 0 0 0 0 -0.31013915605011988 3.5350310750317249 0 3.5350310750317249 3.15356071920543 0 0 0 0 6.8299487942640553 6.9430726521966335 0 6.9430726521966335 -0.27602871767521719 0 0 0 0 7.905612363330782 3.4746746900201302 0 3.4746746900201302 1.211906379563084 0 0 0 0 3.3612099418729997 1.2928010714102793 0 1.2928010714102793 0.45934617960568769 0 0 0 0 -7.1073262008503661 -23.374821307869752 0 -23.374821307869752 216.33043113495933 0 0 0 0 7.2731067437471211 7.5206023190376072 0 7.5206023190376072 -13.883929719482694 0 0 0 0 -219.60001754560471 -298.49540090980304 0 -298.49540090980304 -411.35054198731405 0 0 0 0 3.5861773501092102 179.23487008914253 0 179.23487008914253 -169.7522021735731 0 0 0 0 6.0443131838110276 8.5067759442349598 0 8.5067759442349598 -7.7290837490563717 0 0 0 0 7.2738780723375385 2.2272365326007275 0 2.2272365326007275 -6.3154838102223039 0 0 0 0 17.173101582069648 -57.351418062273297 0 -57.351418062273297 138.26371929232118 0 0 0 0 0.028026602951285895 -6.1682849512108078 0 -6.1682849512108078 152.42936311273388 0 0 0 0 11.229552088414493 -14.553490554492782 0 -14.553490554492782 121.59832329726305 0 0 0 0 2.2976945762929972 22.944676353299656 0 22.944676353299656 120.57310969754167 0 0 0 0 -3.4188530195133353 -0.3180349512392695 0 -0.3180349512392695 205.43991228062987 0 0 0 0 2.1489242820971413 -3.9926340376950975 0 -3.9926340376950975 147.04071117462445 0 0 0 0 3.3272537050943356 28.054212736002228 0 28.054212736002228 163.09970795405388 0 0 0 0 7.7889059002045542 52.714631095396726 0 52.714631095396726 195.21985151190211 0 0 0 0 -8.8224820201139664 39.458050890856612 0 39.458050890856612 247.89249865206511 0 0 0 0 14.903062472949387 97.353626902524411 0 97.353626902524411 253.62268926831166 0 0 0 0 7.1334990977193229 6.8592923225642153 0 6.8592923225642153 -1.8900243109455914 0 0 0 0 8.1243887017495311 6.2868094274643447 0 6.2868094274643447 3.3516683151094808 0 0 0 0 212.21783308619342 519.17377164734626 0 519.17377164734626 256.49867070295386 0 0 0 0 6.3238492355776543 4.7580181735711449 0 4.7580181735711449 -3.7145294389656556 0 0 0 0 6.5298799650518049 6.8019673680601045 0 6.8019673680601045 -1.7569435136647371 0 0 0 0 4.3648944877318172 2.4184904284909408 0 2.4184904284909408 4.2145805043255677 0 0 0 0 6.6119864377517388 1.9630737186994907 0 1.9630737186994907 -6.3746172140308772 0 0 0 0 6.697647855446121 0.98912698805179389 0 0.98912698805179389 2.0950277101574102 0 0 0 0 4.9317241383721466 -3.1201829120195725 0 -3.1201829120195725 -10.487316173427644 0 0 0 0 4.7652867219949258 -3.2802143878398056 0 -3.2802143878398056 3.0672602346276108 0 0 0 0 -0.072778108814283371 -0.10894259608747703 0 -0.10894259608747703 0.25597745562158636 0 0 0 0 -12.95915742329089 -7.7303933790244628 0 -7.7303933790244628 31.111739239984672 0 0 0 0 7.069446734217081 3.6727744623805165 0 3.6727744623805165 -14.7329421259019 0 0 0 0 37.344638778147782 74.936788825897565 0 74.936788825897565 85.507095225793591 0 0 0 0 53.823795582152684 -197.8242858604892 0 -197.8242858604892 -352.43750741637359 0 0 0 0 19.051363076869166 45.095277341758447 0 45.095277341758447 112.39738784410565 0 0 0 0 3.1913523286508436 0.90536730245415065 0 0.90536730245415065 -0.0066358352872448734 0 0 0 0 35.028911985907826 61.962195338255356 0 61.962195338255356 117.86098904017126 0 0 0 0 12.685774006534132 8.7987338643779935 0 8.7987338643779935 3.7669242002702603 0 0 0 0 -17.380882260353587 398.3435737006655 0 398.3435737006655 143.16811041656092 0 0 0 0 19.081814002427564 13.833638476033684 0 13.833638476033684 -10.889536884981226 0 0 0 0 12.35608914705972 -31.062862978526482 0 -31.062862978526482 -21.122829957938848 0 0 0 0 73.368259269303962 84.594749325547127 0 84.594749325547127 54.074529982283252 0 0 0 0 15.398319788571825 1.7110680771666011 0 1.7110680771666011 -8.7551540631357057 0 0 0 0 17.423692193553507 9.7005670204201238 0 9.7005670204201238 -1.0055257646281461 0 0 0 0 13.448357892200875 19.03580379215191 0 19.03580379215191 21.377233913285181 0 0 0 0 -3.4854993225553699 12.598923636627774 0 12.598923636627774 24.023780115387126 0 0 0 0 0.84310406863914977 17.045029357156864 0 17.045029357156864 31.400203081176187 0 0 0 0 -0.39698456718906527 1.7332221132037375 0 1.7332221132037375 4.5995579060609089 0 0 0 0 3.2919706311113259 20.434458559749601 0 20.434458559749601 28.233708200989895 0 0 0 0 -1.4718240739275643 22.609824423632972 0 22.609824423632972 48.527351680857464 0 0 0 0 -0.086296736699296162 14.054701395201391 0 14.054701395201391 36.572202350718271 0 0 0 0 -4.3319873783329967 23.24426435064106 0 23.24426435064106 48.402618273613143 0 0 0 0 1.5282672899720637 21.070117464277473 0 21.070117464277473 32.184888195616622 0 0 0 0 3.8558818743767915 27.538180146438663 0 27.538180146438663 42.50560496475191 0 0 0 0 3.605721656964306 26.710767072113413 0 26.710767072113413 44.772448342791904 0 0 0 0 -16.385635815960995 75.77863851906568 0 75.77863851906568 -223.82678135652532 0 0 0 0 16.148889861142379 14.536192519120959 0 14.536192519120959 6.5545418680685543 0 0 0 0 9.9643794260334388 4.5238646497460318 0 4.5238646497460318 1.8931714881189361 0 0 0 0 24.89075948381651 -18.295973419296388 0 -18.295973419296388 3.6996060217939544 0 0 0 0 3.2919973351235967 17.609157771601076 0 17.609157771601076 20.569068440967385 0 0 0 0 7.0430826461088145 4.6255951997736702 0 4.6255951997736702 25.113623927165918 0 0 0 0 7.5129260991443516 1.2160634534852761 0 1.2160634534852761 49.607043264719323 0 0 0 0 0.35977442458533915 8.0335003742575282 0 8.0335003742575282 51.025094188315961 0 0 0 0 0.066138970410975162 15.462414256292959 0 15.462414256292959 44.006285713811849 0 0 0 0 -0.15529672215052415 8.5879531887221674 0 8.5879531887221674 55.114715973357306 0 0 0 0 -6.0692959294356115 20.972833425680619 0 20.972833425680619 61.293184173745431 0 0 0 0 -6.2077476384147303 18.673594388005768 0 18.673594388005768 55.782040609899695 0 0 0 0 -7.0211639488479705 15.264412313617868 0 15.264412313617868 77.708762088552248 0 0 0 0 -3.9095014362519578 0.63053511374931759 0 0.63053511374931759 98.757918193110527 0 0 0 0 -3.8020992841265979 1.6952005215634927 0 1.6952005215634927 60.928659939708268 0 0 0 0 24.82101894558582 -48.872206446838845 0 -48.872206446838845 72.852237748896187 0 0 0 0 3.223633839719696 1.2548001497334553 0 1.2548001497334553 91.533041962491552 0 0 0 0 -0.18733834184968146 24.739043336798204 0 24.739043336798204 86.481370137120393 0 0 0 0 7.0135684500128264 43.060523261833168 0 43.060523261833168 93.822346932953224 0 0 0 0 2.5407386114820838 17.51462314781179 0 17.51462314781179 103.55956359824995 0 0 0 0 7.2983405476552434 45.284435391171428 0 45.284435391171428 73.375506844701022 0 0 0 0 3.1719430260927766 33.569712116020582 0 33.569712116020582 76.01516904365235 0 0 0 0 0.74261584997293539 39.910857035149093 0 39.910857035149093 63.355772970395719 0 0 0 0 -3.6233619693593937 30.936061548777161 0 30.936061548777161 67.939217063963042 0 0 0 0 -3.6898857508858782 21.760882008782119 0 21.760882008782119 85.225265428045532 0 0 0 0 -1.3214920597092714 37.223754114995245 0 37.223754114995245 81.75319558148658 0 0 0 0 -6.525675709155621 30.951963870482814 0 30.951963870482814 74.919086781527767 0 0 0 0 -4.1565789131855126 24.76505528663597 0 24.76505528663597 69.269394988084969 0 0 0 0 -7.0097965826062136 29.191367227830142 0 29.191367227830142 60.181446119256179 0 0 0 0 -7.0967847341453307 30.125946385080169 0 30.125946385080169 61.263366034361752 0 0 0 0 -6.5510995085096511 28.966042988719437 0 28.966042988719437 60.112063391427 0 0 0 0 -1.8242315249372041 36.196843292774247 0 36.196843292774247 60.243162742233835 0 0 0 0 -1.8207933762678294 34.355096928638886 0 34.355096928638886 49.509064405438039 0 0 0 0 -3.7101051779536647 35.705227554955854 0 35.705227554955854 56.429031407247749 0 0 0 0 -0.21662401239882456 34.360998522139198 0 34.360998522139198 42.231179478979357 0 0 0 0 -4.7783410247648135 29.731691313804731 0 29.731691313804731 46.498299350432717 0 0 0 0 -0.45072478170186514 31.876384537555168 0 31.876384537555168 39.012642178670831 0 0 0 0 1.2162677978922147 37.528005513157041 0 37.528005513157041 47.199410744216948 0 0 0 0 4.5846042617486091 37.197874050992141 0 37.197874050992141 37.848214398511118 0 0 0 0 2.1138195820713008 34.294119911541429 0 34.294119911541429 40.649601164166597 0 0 0 0 9.0442245523008751 40.08066288417649 0 40.08066288417649 40.406886804311853 0 0 0 0 12.673508341948036 39.236073266926724 0 39.236073266926724 40.589678905916116 0 0 0 0 12.795172861959145 42.88081135818129 0 42.88081135818129 57.366990679123774 0 0 0 0 14.219976340911671 41.251480801341586 0 41.251480801341586 57.319123011458942 0 0 0 0 4.6708153604195104 36.846428543365619 0 36.846428543365619 56.872276564727144 0 0 0 0 4.3347129444591701 39.220847322867485 0 39.220847322867485 46.213931622201017 0 0 0 0 4.1452617773320526 39.866481821353773 0 39.866481821353773 56.960551219819536 0 0 0 0 10.811924800644192 30.210618744893509 0 30.210618744893509 45.436144518814217 0 0 0 0 -0.34990877460950287 31.228821829966364 0 31.228821829966364 55.083651288444344 0 0 0 0 -0.31570226140320301 31.665679536446078 0 31.665679536446078 57.682626247404187 0 0 0 0 -4.4238240054619382 28.293528325611533 0 28.293528325611533 53.270926880610205 0 0 0 0 -3.9978145038694493 25.480837957028598 0 25.480837957028598 53.016801912568553 0 0 0 0 -7.2117050956239837 31.359056795490233 0 31.359056795490233 57.350195959095799 0 0 0 0 -5.9810705610652803 29.066733243012095 0 29.066733243012095 58.727695347582085 0 0 0 0 -5.1723078964050728 31.626081747056219 0 31.626081747056219 53.489376204741347 0 0 0 0 -6.3271142520970898 29.83878267685941 0 29.83878267685941 55.583578820948787 0 0 0 0 -4.2220743239231524 26.597757926205759 0 26.597757926205759 43.673384269469352 0 0 0 0 -5.3458633151894901 26.377556126319178 0 26.377556126319178 54.609640136896587 0 0 0 0 -3.2516223671591433 28.689715679735855 0 28.689715679735855 56.168817916361149 0 0 0 0 -5.0599708017944067 31.195560335936989 0 31.195560335936989 53.318535999678716 0 0 0 0 0.71825044594152132 30.886593155066748 0 30.886593155066748 54.558789223221538 0 0 0 0 -3.7595779656912782 28.723708128099588 0 28.723708128099588 56.935963877541326 0 0 0 0 2.7459266294026747 28.193219537894493 0 28.193219537894493 56.117947493182101 0 0 0 0 5.5000993547946564 33.973720377128757 0 33.973720377128757 66.227500301551117 0 0 0 0 22.797762948379386 19.906212835006954 0 19.906212835006954 -23.862420026249765 0 0 0 0 8.2514383190828084 -14.25344123134505 0 -14.25344123134505 44.215303302327811 0 0 0 0 1.7481559595289582 21.392165788640114 0 21.392165788640114 59.625466332010546 0 0 0 0 -1.3883386501911446 14.346752812816476 0 14.346752812816476 45.385722094856646 0 0 0 0 3.4750052315430366 15.915361977106386 0 15.915361977106386 14.279898754124588 0 0 0 0 2.9620419637794839 16.10227512578922 0 16.10227512578922 40.792821677348911 0 0 0 0 -0.90569763812527526 29.279649972358129 0 29.279649972358129 39.739662325604513 0 0 0 0 2.0996232331453939 22.011132454900689 0 22.011132454900689 36.273166680625309 0 0 0 0 21.539681472568191 1.4959658126185786 0 1.4959658126185786 -16.86023135263622 0 0 0 0 8.7114747338514462 22.219358509188623 0 22.219358509188623 9.0150397926790902 0 0 0 0 8.7910563101329444 23.740313775131995 0 23.740313775131995 6.3151686288056226 0 0 0 0 11.160456980738672 -10.348641133061847 0 -10.348641133061847 0.37878228922545532 0 0 0 0 13.302218730001186 30.54630291878857 0 30.54630291878857 -21.693913237996185 0 0 0 0 2.7272645128250588 28.678153987803853 0 28.678153987803853 14.399834268085328 0 0 0 0 9.3891857876296854 31.936974700630344 0 31.936974700630344 14.594609383158968 0 0 0 0 7.3416860386096232 31.198168927251345 0 31.198168927251345 5.3434780186798889 0 0 0 0 6.6227085368300322 26.16649996444994 0 26.16649996444994 8.9745757591863367 0 0 0 0 8.7069374241873447 25.190695894609121 0 25.190695894609121 2.0754852560021391 0 0 0 0 13.384629737294745 32.994734227696426 0 32.994734227696426 11.424312678276237 0 0 0 0 12.541128394841508 29.126509123670985 0 29.126509123670985 16.799409580838983 0 0 0 0 7.912349987149355 32.864056531961069 0 32.864056531961069 29.313760452253518 0 0 0 0 7.8283512026609969 35.835830302348313 0 35.835830302348313 26.233837294455952 0 0 0 0 5.375639531557681 34.120147556293887 0 34.120147556293887 28.524659203507326 0 0 0 0 1.9011259835824603 31.964589110726592 0 31.964589110726592 28.378874404720364 0 0 0 0 -0.33473398166097468 27.15072233466492 0 27.15072233466492 29.857645001797209 0 0 0 0 3.8271665767824743 24.364014528892312 0 24.364014528892312 10.591878587627434 0 0 0 0 2.949066452216357 29.218545395297951 0 29.218545395297951 29.596088196460755 0 0 0 0 7.7311347884387942 33.39101196050251 0 33.39101196050251 7.7964341103834158 0 0 0 0 4.9451349443334038 27.616679493057973 0 27.616679493057973 15.223830038230517 0 0 0 0 2.7322129811363993 33.96858894088291 0 33.96858894088291 -2.3282451864974973 0 0 0 0 6.0013485565978044 27.314867202528148 0 27.314867202528148 6.03051937213786 0 0 0 0 10.633869777331711 31.0164434232247 0 31.0164434232247 -1.7906337817321401 0 0 0 0 8.802342407987453 29.393004950905379 0 29.393004950905379 -2.4264791097066336 0 0 0 0 10.615234065258846 28.464172537240756 0 28.464172537240756 -8.5916101254624664 0 0 0 0 0.97213567311700899 33.911145822615254 0 33.911145822615254 -10.098484285034829 0 0 0 0 -10.53405225618917 24.544917597238964 0 24.544917597238964 -6.8477177307395323 0 0 0 0 -7.0649963488831418 23.58936793509929 0 23.58936793509929 -9.238357028883911 0 0 0 0 -1.2408019954309566 29.023456945897124 0 29.023456945897124 -5.2009875710728011 0 0 0 0 3.5146869972668355 25.93672818955838 0 25.93672818955838 -3.2112760365507711 0 0 0 0 0.96653861195409263 28.293349715470072 0 28.293349715470072 5.2443169072375895 0 0 0 0 2.0962434277553257 21.96922285493315 0 21.96922285493315 1.4571906648816366 0 0 0 0 4.231163795091561 24.361470967138303 0 24.361470967138303 -4.1720854291070282 0 0 0 0 5.5092888033859708 15.018874896435136 0 15.018874896435136 -10.022330345076625 0 0 0 0 -4.6676637736527482 2.2187510624535207 0 2.2187510624535207 -19.310242308537909 0 0 0 0 -5.0838863410863269 11.388446028638555 0 11.388446028638555 -8.9144788888552284 0 0 0 0 -5.310959472473769 18.397839029531951 0 18.397839029531951 -5.0984247456890444 0 0 0 0 -1.2764086323586525 18.013521225685508 0 18.013521225685508 -8.1284504412305978 0 0 0 0 -21.6802400816523 13.041781631223785 0 13.041781631223785 -9.0078845849752724 0 0 0 0 2.2632004262777627 2.3807699221970324 0 2.3807699221970324 -17.715228943114198 0 0 0 0 20.256536735148984 2.2622214763036936 0 2.2622214763036936 -33.254491149573369 0 0 0 0 5.3655857815901982 6.891171831882275 0 6.891171831882275 -17.764330126127788 0 0 0 0 8.4012667141578277 20.706979540290376 0 20.706979540290376 -2.0086493264498131 0 0 0 0 14.194958582280378 9.7869716682134822 0 9.7869716682134822 -17.668423522477138 0 0 0 0 8.7379695877716586 5.5628692852878885 0 5.5628692852878885 -21.996872362446084 0 0 0 0 47.900319324944576 27.43946534719862 0 27.43946534719862 1.1213617541270651 0 0 0 0 22.066052668036718 -1.211232479215596 0 -1.211232479215596 -20.107333659766482 0 0 0 0 39.868652711033064 12.543070749507933 0 12.543070749507933 -19.691491517099053 0 0 0 0 16.037813895103682 25.085642178522676 0 25.085642178522676 2.2022331158241286 0 0 0 0 10.105084469316353 18.577332188903711 0 18.577332188903711 -0.073861677878085175 0 0 0 0 17.091882541120867 17.755486980703154 0 17.755486980703154 -3.4428478576701309 0 0 0 0 23.697976032512088 18.071517037637932 0 18.071517037637932 -4.4736933180047345 0 0 0 0 27.518784440151649 28.405338824966748 0 28.405338824966748 13.516029254565183 0 0 0 0 11.375286192793283 31.529701267697419 0 31.529701267697419 25.823363711734601 0 0 0 0 21.210010515314934 32.916475540067495 0 32.916475540067495 13.740832429321927 0 0 0 0 20.426106123883073 34.848171659610671 0 34.848171659610671 25.283018762625943 0 0 0 0 24.378655015905679 42.873101201030295 0 42.873101201030295 34.90859108748009 0 0 0 0 23.08118233084133 39.800855285898024 0 39.800855285898024 44.614779510575318 0 0 0 0 30.617916910588974 47.438155693452245 0 47.438155693452245 47.21557057155951 0 0 0 0 44.323952361377451 35.046964552755071 0 35.046964552755071 13.681219541850624 0 0 0 0 34.880700353674911 25.350462409898455 0 25.350462409898455 18.133671167426655 0 0 0 0 56.549437032103015 45.691113985534685 0 45.691113985534685 23.137987099622478 0 0 0 0 40.286409394568182 54.382000201396295 0 54.382000201396295 72.071016027328596 0 0 0 0 72.505545345709834 74.873043120119291 0 74.873043120119291 67.332453323777372 0 0 0 0 65.112369923322603 13.711862986303686 0 13.711862986303686 5.058296250602325 0 0 0 0 75.285635784233818 123.86769180537794 0 123.86769180537794 170.2827366587826 0 0 0 0 9.7127689128246857 52.173732036171714 0 52.173732036171714 187.10869088414438 0 0 0 0 31.052325367296362 70.923473397234147 0 70.923473397234147 145.95211237052717 0 0 0 0 9.9472745215898613 26.40532358582368 0 26.40532358582368 140.67442131783537 0 0 0 0 5.7897014814079739 16.706518362108909 0 16.706518362108909 127.05726989586765 0 0 0 0 17.074138606985798 51.924540104257176 0 51.924540104257176 116.98180619462232 0 0 0 0 17.017751193860022 51.788296065896702 0 51.788296065896702 82.412952408103592 0 0 0 0 13.357969623266399 36.891929871378579 0 36.891929871378579 83.567032139442745 0 0 0 0 23.56432299836888 43.701298610149024 0 43.701298610149024 86.642689941951176 0 0 0 0 34.973266738401435 62.883218884856433 0 62.883218884856433 87.188608792237574 0 0 0 0 -110.0502958830366 -55.913481552363692 0 -55.913481552363692 4.4512953667813235 0 0 0 0 87.971032756271597 -12.632691131787396 0 -12.632691131787396 -66.282969788646824 0 0 0 0 171.40326114979689 150.5708396213081 0 150.5708396213081 124.14997036973136 0 0 0 0 108.06380700247064 67.631831979699655 0 67.631831979699655 25.5930900801186 0 0 0 0 40.721948889888154 25.727732258158085 0 25.727732258158085 -0.13842826753079862 0 0 0 0 41.545034008568109 -8.7061146150705326 0 -8.7061146150705326 -35.533158721030304 0 0 0 0 9.1395959219444194 -78.813250206885186 0 -78.813250206885186 -40.860227962662634 0 0 0 0 13.519837462517899 -15.681901962938582 0 -15.681901962938582 -30.203281507488214 0 0 0 0 4.3739721099846065 -3.261244840917243 0 -3.261244840917243 -23.904876786701607 0 0 0 0 -1.7622237524152986 4.4654847623285399 0 4.4654847623285399 -1.1225559757123813 0 0 0 0 -21.057232721810578 -12.076175076895709 0 -12.076175076895709 -25.825338977620049 0 0 0 0 -1.8659817530715372 28.372320776984452 0 28.372320776984452 -9.3442844035376247 0 0 0 0 -4.6711987317248713 15.916065988239097 0 15.916065988239097 -9.5316770482809794 0 0 0 0 7.7411466639878199 -0.53835254928219456 0 -0.53835254928219456 -38.38750991317238 0 0 0 0 3.2218401700873756 3.2228819300097449 0 3.2228819300097449 0.80531377246037428 0 0 0 0 6.0814155800180743 -6.8589104802686052 0 -6.8589104802686052 -34.78898843083698 0 0 0 0 -8.027942610622631 5.8073659806753994 0 5.8073659806753994 6.6350768416423307 0 0 0 0 -7.0667345836955064 6.0746377696601712 0 6.0746377696601712 3.8783587360628644 0 0 0 0 -9.4511115190434793 20.059082810969358 0 20.059082810969358 23.719586270411128 0 0 0 0 -1.4797028943430632 8.0608765789405652 0 8.0608765789405652 -1.5696473427752835 0 0 0 0 -2.9494496457164328 5.7662212908876675 0 5.7662212908876675 1.8393636999342036 0 0 0 0 -6.6760739224100689 4.9553213880966496 0 4.9553213880966496 10.468861465240707 0 0 0 0 3.7805373796927597 14.186634439711554 0 14.186634439711554 4.213959853153483 0 0 0 0 3.696115833154181 14.18160026330338 0 14.18160026330338 4.4955763203123524 0 0 0 0 -2.5194292066036699 6.7573194076987164 0 6.7573194076987164 2.8231510486853946 0 0 0 0 -5.255072912608739 5.849853992155829 0 5.849853992155829 3.8653652545681325 0 0 0 0 3.8304226286023351 9.0295183806242569 0 9.0295183806242569 3.9659992675626512 0 0 0 0 3.0463926742631884 13.035143011148307 0 13.035143011148307 5.8027390690372158 0 0 0 0 2.8124750319148006 4.3822948229193628 0 4.3822948229193628 -9.0281314691981152 0 0 0 0 2.2677892314786732 3.6869893505394415 0 3.6869893505394415 -8.1596808096781501 0 0 0 0 2.2729236947816389 8.9375439544127602 0 8.9375439544127602 -3.0775733332130386 0 0 0 0 1.493843795338428 3.3027402361878231 0 3.3027402361878231 0.79711266994169483 0 0 0 0 -4.577013411309963 5.7029681057373409 0 5.7029681057373409 0.83137809690822451 0 0 0 0 0.69624707108960138 1.5777563875645342 0 1.5777563875645342 3.2230343780722706 0 0 0 0 0.91561462945674066 1.9075529883903641 0 1.9075529883903641 2.9695674583772416 0 0 0 0 1.4156812493355631 1.3744493921201979 0 1.3744493921201979 0.87145256809438609 0 0 0 0 0.21372340493974917 -0.18943000554736855 0 -0.18943000554736855 1.0049893668236525 0 0 0 0 0.97614077112848463 9.5151981116960656 0 9.5151981116960656 26.33631409694533 0 0 0 0 15.633498572902681 11.855790848440961 0 11.855790848440961 21.823364267237366 0 0 0 0 2.3422203586596879 13.018182744759997 0 13.018182744759997 23.385203667633959 0 0 0 0 -8.16289853246235 1.1792255881490519 0 1.1792255881490519 3.9414604444366432 0 0 0 0 -0.93066918797194376 25.765564526308708 0 25.765564526308708 39.703561251989868 0 0 0 0 -0.072748254923673983 -0.16860782686525511 0 -0.16860782686525511 0.25621781930811238 0 0 0 0 2.8687605700489485 1.3965856267764689 0 1.3965856267764689 0.49756206736416075 0 0 0 0 -4.2191352082882077 57.403925220687597 0 57.403925220687597 -157.45489857179837 0 0 0 0 14.309993186485372 17.813995571366604 0 17.813995571366604 8.4196631396162047 0 0 0 0 -27.855624015865033 5.4804955373194844 0 5.4804955373194844 35.907467372972405 0 0 0 0 -36.185142377071315 29.460033725606991 0 29.460033725606991 12.526555709351669 0 0 0 0 -23.61220653874625 11.607438234175788 0 11.607438234175788 -14.676358582283683 0 0 0 0 -9.5594499192302465 31.872140182533258 0 31.872140182533258 -40.52906787343727 0 0 0 0 -10.321142797413358 18.239123411931644 0 18.239123411931644 20.572763917595694 0 0 0 0 7.7549362148856744 13.852228483627869 0 13.852228483627869 17.713165702426977 0 0 0 0 -10.707511368309497 30.377043926094302 0 30.377043926094302 -11.156442867402802 0 0 0 0 -28.926923974548117 18.581303259017659 0 18.581303259017659 -10.294443681005305 0 0 0 0 -25.074227640565368 -0.71759389456747158 0 -0.71759389456747158 -15.387204341646793 0 0 0 0 -14.956508817682334 -3.9025361789485942 0 -3.9025361789485942 -127.90076184953978 0 0 0 0 -0.58329903191042831 9.7150888241262692 0 9.7150888241262692 22.373343407132211 0 0 0 0 0.0096315599579668287 0.059914310522054426 0 0.059914310522054426 -0.10033917199869546 0 0 0 0 0.23213469951224397 11.605515009210649 0 11.605515009210649 23.775668428696122 0 0 0 0 -25.57751323912089 57.170918599822471 0 57.170918599822471 -154.58736584044095 0 0 0 0 4.6302389647280506 11.285496126384714 0 11.285496126384714 18.960392947985383 0 0 0 0 -6.4452170787953946 6.305357304979907 0 6.305357304979907 20.763422640662611 0 0 0 0 2.5953874589067709 10.444494339299013 0 10.444494339299013 21.429401376590704 0 0 0 0 -0.58579712977552845 -1.7687554812931694 0 -1.7687554812931694 -4.6338383319912282 0 0 0 0 -8.6545809188646672 -1.3975695161853992 0 -1.3975695161853992 15.951288048098831 0 0 0 0 4.7851339257813379 15.323049971389196 0 15.323049971389196 -20.42999068274014 0 0 0 0 -21.4946922825402 22.489793236278956 0 22.489793236278956 8.6356524018935943 0 0 0 0 -6.0852330838461057 13.869114211086526 0 13.869114211086526 14.898524886196356 0 0 0 0 0.44942008641282882 0.38575809970461705 0 0.38575809970461705 18.358788051901229 0 0 0 0 -0.49211272475395162 -15.672529178627641 0 -15.672529178627641 58.804029740159422 0 0 0 0 -5.3800034979904012 6.079833661446628 0 6.079833661446628 27.395765172816368 0 0 0 0 1.8580750578748848 8.9361894428075175 0 8.9361894428075175 25.001196274563284 0 0 0 0 -3.6036360526704811 10.656334551412556 0 10.656334551412556 15.177485775681674 0 0 0 0 -3.9032372656874941 7.0356753958444642 0 7.0356753958444642 25.281864041576 0 0 0 0 -6.5307741609503864 3.7006248626651086 0 3.7006248626651086 26.446634827786056 0 0 0 0 1.450888713927057 0.58084548313202333 0 0.58084548313202333 0.23890590970004277 0 0 0 0 -0.5969180394913991 0.62668034728948463 0 0.62668034728948463 0.43348370257838942 0 0 0 0 -2.4950297819186744 1.0340613111430628 0 1.0340613111430628 33.087138288058895 0 0 0 0 0.57045524440070394 0.48895731528069447 0 0.48895731528069447 1.2771749372719228 0 0 0 0 0.57045524440218287 3.6683864695972659 0 3.6683864695972659 1.3743275144759792 0 0 0 0 -2.1040146679897589 -10.200893460700428 0 -10.200893460700428 -26.310178691289934 0 0 0 0 0.87507025637569313 -1.0103027830664359 0 -1.0103027830664359 -12.470504020709626 0 0 0 0 3.9430206138531503 1.0541017258148884 0 1.0541017258148884 -11.569207252073426 0 0 0 0 0.99364201590651646 1.2399205468566592 0 1.2399205468566592 1.045790178817553 0 0 0 0 -0.62646024400457634 0.080481042201599351 0 0.080481042201599351 0.052353939996196058 0 0 0 0 0.75259019617260492 3.9747631294473997 0 3.9747631294473997 3.8050720967564189 0 0 0 0 -0.15418266917549772 3.7471953903781241 0 3.7471953903781241 -2.9172811174763638 0 0 0 0 0.0020227683725111091 2.9566186341788141 0 2.9566186341788141 -4.1608892927449688 0 0 0 0 -0.40500426078688179 0.92780072131529323 0 0.92780072131529323 1.1729014821303849 0 0 0 0 -5.8358282620247337 -22.670900159252369 0 -22.670900159252369 102.01055533345675 0 0 0 0 0.41655943120553474 -0.20185672346944461 0 -0.20185672346944461 -0.087232413203110593 0 0 0 0 -12.542919660700136 12.520573559760123 0 12.520573559760123 42.033776899045165 0 0 0 0 0.8481714894289567 0.15621422839084964 0 0.15621422839084964 0.072739953071325303 0 0 0 0 9.6191198703454575 3.0826030253656427 0 3.0826030253656427 19.808073388682715 0 0 0 0 -19.298230631611659 -4.1459078880252491 0 -4.1459078880252491 18.238129937589008 0 0 0 0 -0.00010176335490541533 38.477787013077091 0 38.477787013077091 20.688740186354039 0 0 0 0 0.11406289784941492 -0.087015120735653928 0 -0.087015120735653928 0.044006708534084504 0 0 0 0 26.531577939402268 16.836408490681151 0 16.836408490681151 -55.191945763532658 0 0 0 0 5.5449772158644919 15.254782172668001 0 15.254782172668001 16.240444987068713 0 0 0 0 0.01863117461289221 43.133268845891848 0 43.133268845891848 80.98710050705904 0 0 0 0 -28.311846193065321 6.6653655574187951 0 6.6653655574187951 9.5849052893518092 0 0 0 0 -6.677580392712116 -8.5651219879732707 0 -8.5651219879732707 77.120309013969745 0 0 0 0 -2.5168468459160067 36.072286231184307 0 36.072286231184307 41.10355593162808 0 0 0 0 -29.566354813447106 -6.7120682077684251 0 -6.7120682077684251 136.75000117031414 0 0 0 0 5.7936713582930679 -11.546133376373291 0 -11.546133376373291 74.721618998350436 0 0 0 0 0.040252051894043461 0.2690457046318821 0 0.2690457046318821 0.017455970165661583 0 0 0 0 -21.224262477033335 65.645342368520232 0 65.645342368520232 -12.343975458135901 0 0 0 0 -145.53482833468297 118.04651114224453 0 118.04651114224453 134.753504832624 0 0 0 0 -16.463245526596438 7.2114768011942942 0 7.2114768011942942 75.582456688098887 0 0 0 0 3.9522014004639914 4.111025356318919 0 4.111025356318919 73.952676219671048 0 0 0 0 -39.603534419053176 18.733954884787181 0 18.733954884787181 160.23297355906016 0 0 0 0 0.94365215085696974 0.59637440873615555 0 0.59637440873615555 0.25855744485965282 0 0 0 0 31.485577533077958 6.3112498500991023 0 6.3112498500991023 -111.15183527023942 0 0 0 0 6.6078661257342901 -9.3522625675195741 0 -9.3522625675195741 83.069338398033324 0 0 0 0 4.4913236479042098 25.274663113035785 0 25.274663113035785 94.821869101497668 0 0 0 0 4.159024162501737 16.295866263561038 0 16.295866263561038 69.830946861233315 0 0 0 0 69.748242580384613 64.828228478022766 0 64.828228478022766 46.838724250941596 0 0 0 0 15.068686505979713 29.760284625890563 0 29.760284625890563 54.291812914419097 0 0 0 0 11.797072988658329 32.753342618291754 0 32.753342618291754 63.403125398608609 0 0 0 0 14.680049914182746 37.773907872248856 0 37.773907872248856 80.753635033294813 0 0 0 0 13.101886961740092 29.596817059777322 0 29.596817059777322 70.548355267404986 0 0 0 0 23.764164028201776 40.058879006573989 0 40.058879006573989 65.810359954429941 0 0 0 0 24.411055224867596 56.409825907371442 0 56.409825907371442 82.325185940726442 0 0 0 0 35.623174495951389 50.010056098938549 0 50.010056098938549 72.361051778307228 0 0 0 0 24.765656727140595 39.443760841936182 0 39.443760841936182 62.081214186966463 0 0 0 0 10.908345100036968 43.875588471003994 0 43.875588471003994 77.327090198399674 0 0 0 0 33.463838489451064 63.057815422904525 0 63.057815422904525 79.16793621825127 0 0 0 0 64.037165662579355 44.069331925667029 0 44.069331925667029 27.222708891951243 0 0 0 0 48.458661100208701 50.142311209345735 0 50.142311209345735 54.199731642188453 0 0 0 0 29.054372479375161 27.786827910479587 0 27.786827910479587 32.144798742324383 0 0 0 0 13.02321998905245 34.934193689780841 0 34.934193689780841 54.461992418044332 0 0 0 0 -126.1329038658414 -0.96729832059793353 0 -0.96729832059793353 19.326116633581933 0 0 0 0 -0.35146679097965361 0.367174521693034 0 0.367174521693034 -0.78486677385511072 0 0 0 0 -64.209362661746127 75.026908327905176 0 75.026908327905176 31.528279301151088 0 0 0 0 90.808376920154842 56.598563508149255 0 56.598563508149255 -25.275283653225415 0 0 0 0 -25.507642322780157 24.219516310720337 0 24.219516310720337 0.47615284159383009 0 0 0 0 33.269076380907791 18.317682024612623 0 18.317682024612623 10.105381928495262 0 0 0 0 13.065661914370139 9.3384100207715619 0 9.3384100207715619 11.44985213011654 0 0 0 0 56.674641510864603 37.489690550477007 0 37.489690550477007 24.336274633792982 0 0 0 0 1.4888991013267976 2.5771311573820945 0 2.5771311573820945 -1.9618396217968019 0 0 0 0 13.965718316263519 14.411202564579639 0 14.411202564579639 0.94809676330351067 0 0 0 0 -21.550074425611456 20.75521029824904 0 20.75521029824904 -6.8304875714850368 0 0 0 0 -28.35248386080093 20.284394679238517 0 20.284394679238517 -4.6888252076905701 0 0 0 0 3.9889623512644903 25.47606227334154 0 25.47606227334154 -32.84707485531726 0 0 0 0 -20.241745895470103 25.887643622060523 0 25.887643622060523 -6.3744284194790453 0 0 0 0 11.963159486655059 42.319590175005033 0 42.319590175005033 -10.879994963396314 0 0 0 0 0.032480925247000414 42.098772921200066 0 42.098772921200066 -6.4090190719809925 0 0 0 0 -6.8274244497151813 28.851191347494478 0 28.851191347494478 21.548212700893828 0 0 0 0 -25.66588831573165 26.087684881206627 0 26.087684881206627 -6.3231233715946473 0 0 0 0 -4.5533502528905956 38.18177489278969 0 38.18177489278969 -3.696125490587292 0 0 0 0 5.5798646682815161 10.315051146963015 0 10.315051146963015 -1.2282652659341693 0 0 0 0 -2.1769633426602013 15.784651666632271 0 15.784651666632271 16.925325314565271 0 0 0 0 -2.1893588868915685 16.402400352246332 0 16.402400352246332 5.7200177220302066 0 0 0 0 0.62378697914300574 21.948958867895271 0 21.948958867895271 8.98345716690892 0 0 0 0 1.5480297135904948 19.972902730528858 0 19.972902730528858 9.2410217931319494 0 0 0 0 22.163798129746283 27.118773986236192 0 27.118773986236192 -6.3308744994828885 0 0 0 0 9.8546341063338332 -2.5921732046335819 0 -2.5921732046335819 33.771938273544947 0 0 0 0 -9.0052545657196674 45.014165820702658 0 45.014165820702658 -23.289321086605923 0 0 0 0 5.8616626289349369 30.307159516773027 0 30.307159516773027 26.716109381547994 0 0 0 0 -14.934270050885061 1.1998605720045816 0 1.1998605720045816 63.929492386787388 0 0 0 0 -1.5774154324322733 1.8921084740958953 0 1.8921084740958953 -1.7282800359062023 0 0 0 0 28.399808661256429 7.3133716026968614 0 7.3133716026968614 -25.766442390282464 0 0 0 0 -1.6431932698988021 22.083362431207661 0 22.083362431207661 -4.4047596322151321 0 0 0 0 5.1348555103750186 22.388951841614471 0 22.388951841614471 -4.5202576459723787 0 0 0 0 -18.988184343198554 45.039362877209896 0 45.039362877209896 -24.360920928217524 0 0 0 0 -21.936754837676631 19.267492283840227 0 19.267492283840227 5.7181863412661187 0 0 0 0 2.9545914938644273 17.585833390865673 0 17.585833390865673 -4.7747180815285901 0 0 0 0 -1.1293254447418803 17.035927042367348 0 17.035927042367348 -4.8172861819687114 0 0 0 0 1.3431822014372301 19.502482383185452 0 19.502482383185452 -4.8979331786890725 0 0 0 0 8.359578756870178 21.246719102853604 0 21.246719102853604 -5.1064391096872441 0 0 0 0 0.46772658313352622 19.122304888401459 0 19.122304888401459 11.734824458311778 0 0 0 0 0.28010355990591052 17.796736535701712 0 17.796736535701712 5.2933867376818853 0 0 0 0 -1.4237816303907493 18.684247619015423 0 18.684247619015423 3.3139836942591501 0 0 0 0 -1.2865543680782139 17.754526782845915 0 17.754526782845915 5.445209970977885 0 0 0 0 -1.539446433934927 18.123195209961523 0 18.123195209961523 7.1754667979475926 0 0 0 0 -1.6440866822217686 17.755329759017286 0 17.755329759017286 6.1983372085851443 0 0 0 0 2.894243570320441 12.61607710346334 0 12.61607710346334 8.3883015767760298 0 0 0 0 2.1070611006571198 14.915559615792517 0 14.915559615792517 1.6729972327530049 0 0 0 0 -0.36795569772084491 10.93064625709485 0 10.93064625709485 -4.7178120478838537 0 0 0 0 0.79860753219600156 17.21446399884735 0 17.21446399884735 0.16510804502195242 0 0 0 0 -2.0463624169486661 8.2207365624071151 0 8.2207365624071151 -13.12957228663598 0 0 0 0 -5.09848345538785 14.527448791263396 0 14.527448791263396 5.1553487600162953 0 0 0 0 0.79921310220245623 14.75701532336171 0 14.75701532336171 -2.5398994997030968 0 0 0 0 1.6987626706904848 21.835570446930433 0 21.835570446930433 -0.94603812696414025 0 0 0 0 0.15817034612564385 21.841483293539795 0 21.841483293539795 2.9228707718211808 0 0 0 0 1.5528830913081038 21.662497131603232 0 21.662497131603232 2.79553187980855 0 0 0 0 1.1600447189866827 22.299204131231818 0 22.299204131231818 8.0979289272945607 0 0 0 0 -0.34602187555719865 20.878255456998886 0 20.878255456998886 8.4804642188091748 0 0 0 0 -0.13195758397978352 19.155267333508164 0 19.155267333508164 1.7910924046736909 0 0 0 0 2.7669505633567724 13.59959753738724 0 13.59959753738724 -1.1032454789656185 0 0 0 0 -4.6516489614353285 8.4257774479478318 0 8.4257774479478318 -6.1325422016876754 0 0 0 0 -3.3203422584142572 9.8541740951750398 0 9.8541740951750398 -3.94448084948408 0 0 0 0 12.918264868643746 15.150248654548705 0 15.150248654548705 -5.2976491064964648 0 0 0 0 1.5028138648916114 4.2276586191559566 0 4.2276586191559566 2.428054986853331 0 0 0 0 -2.5007018874309779 9.3499082760311012 0 9.3499082760311012 -4.3173538431483394 0 0 0 0 2.1053343886569564 9.3621256432329574 0 9.3621256432329574 -5.8349421530238033 0 0 0 0 -2.1515350036082737 8.2909212009486737 0 8.2909212009486737 -3.8165274597768075 0 0 0 0 7.9051559596680594 4.6873215579973566 0 4.6873215579973566 3.5210366757256875 0 0 0 0 -5.1619439604904755 19.69156134115201 0 19.69156134115201 -12.812496298736278 0 0 0 0 1.9083697926675995 14.311358428858512 0 14.311358428858512 -9.6854441739174035 0 0 0 0 -4.1526840673418768 18.489880066919568 0 18.489880066919568 -13.129233088506226 0 0 0 0 -4.2710211101911018 17.635696173634472 0 17.635696173634472 -12.013611612590466 0 0 0 0 -2.7566743285694315 12.415411435390979 0 12.415411435390979 -3.6320854576160855 0 0 0 0 3.9286215897780021 5.9910866602479249 0 5.9910866602479249 0.94622714361632276 0 0 0 0 -2.4167997763759104 11.85371135750961 0 11.85371135750961 -7.192431417046464 0 0 0 0 -2.023193057728065 15.943731156476133 0 15.943731156476133 -5.8475648753101268 0 0 0 0 6.3845650756070427 10.663858397425429 0 10.663858397425429 -4.8227432427547683 0 0 0 0 2.5796337229270505 4.4625974835147337 0 4.4625974835147337 -6.1925419925196419 0 0 0 0 17.949649012326972 23.688156881894884 0 23.688156881894884 -13.062086317285434 0 0 0 0 0.36376738722174196 6.3830187504554488 0 6.3830187504554488 -2.3585968383736713 0 0 0 0 6.8329073975108887 7.6950814418602054 0 7.6950814418602054 -1.305317059961066 0 0 0 0 20.386910697435269 1.8027097803587822 0 1.8027097803587822 -8.1845880956168457 0 0 0 0 -21.638621543608465 30.756266124063359 0 30.756266124063359 -19.041158904665281 0 0 0 0 -6.2791619191167811 18.857474260607887 0 18.857474260607887 -9.9581219122319453 0 0 0 0 7.2295194239619596 5.8739387887989194 0 5.8739387887989194 1.4584632612643738 0 0 0 0 29.277518013939698 33.632562347349449 0 33.632562347349449 -11.421624722061551 0 0 0 0 -22.007509144892992 37.205876207589426 0 37.205876207589426 -5.3550935337689225 0 0 0 0 30.418188499787902 4.2997726045041418 0 4.2997726045041418 -14.28695974088896 0 0 0 0 -1.3934911684509643 4.6794944971834411 0 4.6794944971834411 -2.184846680774541 0 0 0 0 -1.2510965788240047 2.5711342346422779 0 2.5711342346422779 -5.1526171500012481 0 0 0 0 45.51699996136449 -9.9869298734829499 0 -9.9869298734829499 -2.3844786985082465 0 0 0 0 32.170163530870923 33.785287690148834 0 33.785287690148834 21.729591263321709 0 0 0 0 21.775292992192362 19.352640912403444 0 19.352640912403444 3.7015712855109086 0 0 0 0 -0.24709384017825897 0.95956186574242253 0 0.95956186574242253 -1.026775511102108 0 0 0 0 47.107372531936562 3.0914908912727697 0 3.0914908912727697 -1.2463743163907566 0 0 0 0 -11.153670074303591 4.5325448547841916 0 4.5325448547841916 21.131855831749363 0 0 0 0 -4.1056520670358623 7.8226572415273949 0 7.8226572415273949 1.2943702067050253 0 0 0 0 31.269827043583291 20.853671407669708 0 20.853671407669708 -8.8552938545817597 0 0 0 0 34.136262795758739 14.63593976421771 0 14.63593976421771 4.5158961334251444 0 0 0 0 0.0041092504561675014 28.250789008624452 0 28.250789008624452 6.7772088509827881 0 0 0 0 0.72508538957572455 14.156054658767516 0 14.156054658767516 -5.7372289271015688 0 0 0 0 -5.7465850020954941 8.6682610232830246 0 8.6682610232830246 -4.4310927338922301 0 0 0 0 -27.754157774237228 27.404733643296822 0 27.404733643296822 -1.5605822545458068 0 0 0 0 1.586572536567985 10.941142833893082 0 10.941142833893082 -4.4709031636903092 0 0 0 0 5.202682659360077 7.9242839659563433 0 7.9242839659563433 -0.12217911593484132 0 0 0 0 4.530977732340304 19.574079613443359 0 19.574079613443359 1.0570420122603537 0 0 0 0 4.3158898252804647 19.628721899929133 0 19.628721899929133 2.1361293163845403 0 0 0 0 -2.2578192961254899 0.27703129980500307 0 0.27703129980500307 -3.9396677119165702 0 0 0 0 -4.286200959961552 8.7618541544016111 0 8.7618541544016111 -7.7012382411363092 0 0 0 0 4.3987909508884151 17.782373494510125 0 17.782373494510125 4.6814889631350525 0 0 0 0 9.8872343822354196 22.190907655349292 0 22.190907655349292 -5.0838498021794294 0 0 0 0 -12.456659090007406 7.4335264155561163 0 7.4335264155561163 7.5238935345732898 0 0 0 0 -2.5500705011590048 3.4147541906825865 0 3.4147541906825865 0.23254819038892727 0 0 0 0 1.5805276214913189 11.350955688142292 0 11.350955688142292 2.8288098611606216 0 0 0 0 1.8807975687681679 11.173270949125648 0 11.173270949125648 3.6196930607876041 0 0 0 0 12.866751768157883 9.8548064154065287 0 9.8548064154065287 -3.8581137800065335 0 0 0 0 11.555766998389117 12.475204435582782 0 12.475204435582782 3.2700134873803108 0 0 0 0 2.1738242661644511 2.0086454650267562 0 2.0086454650267562 1.1715968514773287 0 0 0 0 13.396588514400719 5.1343250960326259 0 5.1343250960326259 10.660345601114386 0 0 0 0 -0.069270646258701163 6.8924014312269719 0 6.8924014312269719 -3.6263070962777419 0 0 0 0 1.6746998074344628 8.9747716687420649 0 8.9747716687420649 2.0531081331737795 0 0 0 0 -2.295161937838202 9.5074943290392184 0 9.5074943290392184 -1.184307990663001 0 0 0 0 -7.1142744806165865 23.152405547473563 0 23.152405547473563 -9.20579132540297 0 0 0 0 3.0790964107682441 25.107750228412897 0 25.107750228412897 -5.006143409969809 0 0 0 0 -0.38718095354155135 9.2909292890624187 0 9.2909292890624187 -0.37519655686195819 0 0 0 0 -2.6575077212498486 8.4144050075810277 0 8.4144050075810277 -11.279070056836296 0 0 0 0 6.5881784661723941 15.795857552166126 0 15.795857552166126 -1.3234628202462773 0 0 0 0 6.6178175841122453 16.766104840887365 0 16.766104840887365 -6.9065716709301341 0 0 0 0 -1.2871234368042979 8.8294610693813773 0 8.8294610693813773 -13.283418968822296 0 0 0 0 13.886417677732197 19.041718835761458 0 19.041718835761458 -18.017240127743207 0 0 0 0 11.446290949661034 13.474734392117171 0 13.474734392117171 -14.737666138822533 0 0 0 0 4.0833942838627308 17.333848617946387 0 17.333848617946387 -16.34903468488119 0 0 0 0 3.8374919030707133 18.417800801984413 0 18.417800801984413 -18.3844444529459 0 0 0 0 -2.4937136136450135 14.695405894017313 0 14.695405894017313 -14.405528206455415 0 0 0 0 -7.373109622895754 14.303671424055665 0 14.303671424055665 -15.305191931973241 0 0 0 0 -2.6604272393826705 21.227896979189609 0 21.227896979189609 -13.990475025631895 0 0 0 0 0.4263686541385141 15.370835725438155 0 15.370835725438155 -3.3098487583654332 0 0 0 0 -2.3564954142480055 5.374682375678832 0 5.374682375678832 -6.4697374329135862 0 0 0 0 32.685066587058827 11.452308238101523 0 11.452308238101523 -8.8518791910519603 0 0 0 0 31.355206104138233 18.56926767259074 0 18.56926767259074 -3.9526487808161619 0 0 0 0 5.2721329810703139 13.900359334504031 0 13.900359334504031 -6.4232745869549035 0 0 0 0 5.3319312928097133 12.997633207007311 0 12.997633207007311 2.0610196228914575 0 0 0 0 8.893735765823914 4.1857567827696425 0 4.1857567827696425 -4.0750617167839494 0 0 0 0 5.5943806734412647 12.874745289690054 0 12.874745289690054 -5.9410051438821938 0 0 0 0 5.9296715164996385 14.095948635191235 0 14.095948635191235 -6.5145199785386012 0 0 0 0 32.080311513786 35.619505067556929 0 35.619505067556929 -35.756879081617853 0 0 0 0 5.8235143941407159 5.8927716467341043 0 5.8927716467341043 -18.881491377514067 0 0 0 0 -7.4279747248157122 12.668372334897644 0 12.668372334897644 -14.636886635479534 0 0 0 0 0.48314312855336539 21.436671126799411 0 21.436671126799411 -6.3827321413282334 0 0 0 0 3.9285100791723835 18.611936162687925 0 18.611936162687925 -5.9849862620230851 0 0 0 0 8.7330016243538182 15.628181182630556 0 15.628181182630556 -21.5522512621028 0 0 0 0 0.86178940556890282 3.1268208499881003 0 3.1268208499881003 0.23648775666175226 0 0 0 0 1.3311493123628679 20.376306796553763 0 20.376306796553763 -18.204114473810478 0 0 0 0 -9.6264827030317974 23.469065481795042 0 23.469065481795042 -16.765553668868961 0 0 0 0 5.5737052208164215 15.199684003303616 0 15.199684003303616 -17.246762320592097 0 0 0 0 5.366432282925814 12.482006531959655 0 12.482006531959655 -24.283429283532314 0 0 0 0 5.5145936353014804 16.163729650832465 0 16.163729650832465 -19.114966138502496 0 0 0 0 9.5630060799549845 8.1493710508189245 0 8.1493710508189245 -1.952567066072703 0 0 0 0 8.8134489639251115 17.527041496783568 0 17.527041496783568 -17.681416786652335 0 0 0 0 3.2692665580625544 17.711879528715144 0 17.711879528715144 -5.2710929727973053 0 0 0 0 5.9840676722597976 16.536347579339974 0 16.536347579339974 -4.8421801857875835 0 0 0 0 -4.182236346358394 10.487041381467435 0 10.487041381467435 -2.874248109275868 0 0 0 0 -0.12176487068026276 6.2101243633841623 0 6.2101243633841623 5.9809488228899248 0 0 0 0 1.4136913153254 9.8267740973053854 0 9.8267740973053854 -2.3550999432013029 0 0 0 0 -8.3454037104884264 7.9743932894616592 0 7.9743932894616592 -14.119329523095075 0 0 0 0 -12.080380116672131 34.393366544501987 0 34.393366544501987 -22.386881135477779 0 0 0 0 -0.20246136948098048 0.074073974744889526 0 0.074073974744889526 0.7894516494967263 0 0 0 0 -49.098249635157117 50.840382633317859 0 50.840382633317859 -21.581907856448197 0 0 0 0 -20.560255614146627 38.354999251301706 0 38.354999251301706 -23.894929007461542 0 0 0 0 4.5642140165320919 8.4057659490350094 0 8.4057659490350094 4.0098166208466601 0 0 0 0 27.298940937101946 68.679690456138175 0 68.679690456138175 -21.687159472705389 0 0 0 0 97.025821913067375 -53.864946861906901 0 -53.864946861906901 -3.0148692830134678 0 0 0 0 -52.446394808973764 22.555125801751615 0 22.555125801751615 -16.100850582817657 0 0 0 0 43.150002149268516 3.3206397903494462 0 3.3206397903494462 16.286069270405278 0 0 0 0 -13.531870237926341 21.046123924705171 0 21.046123924705171 -14.424930341623167 0 0 0 0 -15.082444892217154 16.764772321145756 0 16.764772321145756 -22.587996085834675 0 0 0 0 -29.865643684814586 29.189235830890539 0 29.189235830890539 -17.791967740061864 0 0 0 0 -22.191453036465191 14.821317174154501 0 14.821317174154501 -10.564681202220527 0 0 0 0 0.058286514426941771 0.50671161054459191 0 0.50671161054459191 1.8496006574238351 0 0 0 0 45.496919534244626 -6.7321942951075471 0 -6.7321942951075471 -11.702051522263901 0 0 0 0 48.870177370471538 -18.549386737088753 0 -18.549386737088753 -13.811472304372728 0 0 0 0 26.188294547908413 30.190505747012537 0 30.190505747012537 -44.084905457726563 0 0 0 0 22.569150416496996 -4.0870723662610544 0 -4.0870723662610544 2.8020512926850643 0 0 0 0 13.484072808649671 13.838174531807454 0 13.838174531807454 -19.620133383694338 0 0 0 0 2.1103888799952646 8.9148680480333056 0 8.9148680480333056 6.7745309869968207 0 0 0 0 1.3738637041330408 2.9345396670523014 0 2.9345396670523014 0.11211822591127429 0 0 0 0 -12.280729429814528 20.159812159160992 0 20.159812159160992 4.1991672495068997 0 0 0 0 4.7058483524406256 10.874813702180973 0 10.874813702180973 -14.971425773616829 0 0 0 0 1.3393116340340629 7.9777009635499851 0 7.9777009635499851 5.5686070746031575 0 0 0 0 0.324061636631086 21.60667591731999 0 21.60667591731999 -15.309512675033147 0 0 0 0 -3.1711872446167035 15.513048089900167 0 15.513048089900167 -6.8002030173755657 0 0 0 0 -47.929940574627835 12.085986771893658 0 12.085986771893658 -26.285802532300295 0 0 0 0 -84.735383842323245 53.697724638510408 0 53.697724638510408 0.10798525311838603 0 0 0 0 -0.13910706561832875 -0.614358849310225 0 -0.614358849310225 -0.39542180730136067 0 0 0 0 -32.475230049472884 73.449149641539407 0 73.449149641539407 -32.481047105430889 0 0 0 0 9.3905741695452889 34.713474014754865 0 34.713474014754865 -34.2724168796085 0 0 0 0 0.32757677138389418 7.4172611659038274 0 7.4172611659038274 5.7173034709632251 0 0 0 0 0.84975701554765237 12.857873821231919 0 12.857873821231919 -1.9597008896580519 0 0 0 0 -2.4098559752937945 17.718377461335876 0 17.718377461335876 -19.006243297026231 0 0 0 0 -14.264628545016876 29.103832512535064 0 29.103832512535064 -10.453531009854487 0 0 0 0 -16.418951846614164 26.360848008238008 0 26.360848008238008 1.0815633740498924 0 0 0 0 -10.430213050683506 34.46896548656423 0 34.46896548656423 -3.1066049625605956 0 0 0 0 -55.152118243609948 24.533539795423167 0 24.533539795423167 -10.734645989967248 0 0 0 0 4.5103992627664411 17.334523711009751 0 17.334523711009751 -16.807073082010902 0 0 0 0 5.2547121989809966 1.5127845020670065 0 1.5127845020670065 3.01341298155603 0 0 0 0 66.762001640991457 39.779768996053463 0 39.779768996053463 54.79986836721946 0 0 0 0 0.90324360130096593 0.67990477290908924 0 0.67990477290908924 -1.8167002714941134 0 0 0 0 18.646859831963411 26.89429739881416 0 26.89429739881416 -11.117072993934926 0 0 0 0 13.363359875998867 45.617652335458843 0 45.617652335458843 -0.15917033259756863 0 0 0 0 11.219636470080104 33.703463317388241 0 33.703463317388241 7.7215976291336119 0 0 0 0 3.1868913229936879 26.678108882338165 0 26.678108882338165 32.486741399028688 0 0 0 0 27.219623752684129 37.428781952479767 0 37.428781952479767 -5.8698677594220499 0 0 0 0 15.682175415546226 20.262316739479502 0 20.262316739479502 12.851748399501957 0 0 0 0 36.895543740436551 37.440807499024231 0 37.440807499024231 25.845831969036226 0 0 0 0 62.702205250170664 12.10953213810717 0 12.10953213810717 14.553459271854081 0 0 0 0 25.75855979858477 19.383603448118038 0 19.383603448118038 19.634467659903748 0 0 0 0 24.077999232848015 -56.923439451212801 0 -56.923439451212801 -115.70868721919396 0 0 0 0 86.191631518807299 34.487027908835444 0 34.487027908835444 20.131605344053241 0 0 0 0 85.093873976380564 37.87678988985499 0 37.87678988985499 17.739719797104499 0 0 0 0 0.61495215775827283 0.57359884184626253 0 0.57359884184626253 0.63344940407862893 0 0 0 0 -76.384761150638042 44.890241279021211 0 44.890241279021211 4.5007183859397628 0 0 0 0 -37.543875029139826 26.341550430614916 0 26.341550430614916 5.9321957295105676 0 0 0 0 1.203778329780107 34.818109179072053 0 34.818109179072053 -3.317647285584826 0 0 0 0 -28.455803939982616 54.193448415629064 0 54.193448415629064 4.2790096300414007 0 0 0 0 2.9280312082785258 21.81054761707037 0 21.81054761707037 -11.882789028430125 0 0 0 0 -67.107560954773362 2.2515857737034821 0 2.2515857737034821 4.6892276911348745 0 0 0 0 -0.0059318167134190247 0.65285431810231032 0 0.65285431810231032 -1.8979006415538784 0 0 0 0 4.5462086627376266 -16.706590746400252 0 -16.706590746400252 -80.780611374128057 0 0 0 0 -8.7420746307648187 -1.2279685955145396 0 -1.2279685955145396 3.6506383579685462 0 0 0 0 -0.81036766383597403 3.642406874302214 0 3.642406874302214 -1.5860641507289586 0 0 0 0 -1.2161244942990272 8.4859590979931063 0 8.4859590979931063 3.6007699066413341 0 0 0 0 -0.6963443064846615 9.4358987043606248 0 9.4358987043606248 3.9320914288537097 0 0 0 0 3.6082400716165921 12.187023148054095 0 12.187023148054095 2.0355969272386574 0 0 0 0 3.6194115285861699 12.398418201238201 0 12.398418201238201 -2.3253387491640751 0 0 0 0 9.8333657295997909 5.8265422303702508 0 5.8265422303702508 -6.6763598934303445 0 0 0 0 13.352716492574473 20.476159926754917 0 20.476159926754917 -9.3129634137203539 0 0 0 0 6.2247352183003386 20.744038746388469 0 20.744038746388469 -5.6685393994266633 0 0 0 0 6.3377814931336616 19.473004146238964 0 19.473004146238964 4.3459495244424033 0 0 0 0 6.4709420214476268 18.737316000871942 0 18.737316000871942 3.4230299152623047 0 0 0 0 8.8955561403618049 15.422766264068741 0 15.422766264068741 3.4819417723174411 0 0 0 0 123.94074980024016 122.22201842171489 0 122.22201842171489 -18.822747388305288 0 0 0 0 -3.7400740381544892 12.358900359088693 0 12.358900359088693 70.313419496964343 0 0 0 0 4.7151498687410154 3.1755338948331033 0 3.1755338948331033 1.9770379457955247 0 0 0 0 -8.2109820184105047 22.657378988871642 0 22.657378988871642 93.783818253699792 0 0 0 0 31.485224862520226 -0.2202493914110164 0 -0.2202493914110164 -9.1182804346863122 0 0 0 0 -32.640100277487363 24.016234112998063 0 24.016234112998063 -16.862805686032516 0 0 0 0 -1.5568397965465834 1.4557996369100188 0 1.4557996369100188 -0.41659083734808888 0 0 0 0 -40.650854263723886 -6.790448724158523 0 -6.790448724158523 -76.179473870016864 0 0 0 0 2.9242221334534406 13.907622025969431 0 13.907622025969431 9.5113891713317571 0 0 0 0 -14.64902203195561 38.665296876319189 0 38.665296876319189 -20.567271682654791 0 0 0 0 6.9487824162941578 6.6534134963748492 0 6.6534134963748492 0.75686401060248265 0 0 0 0 -9.2119713421762395 11.805416250809579 0 11.805416250809579 -7.192283001886981 0 0 0 0 -7.291633814913439 12.697879851392827 0 12.697879851392827 -10.004269682066479 0 0 0 0 -9.7150043986803212 20.249199501025942 0 20.249199501025942 0.14704747197538381 0 0 0 0 -16.950611264761392 -0.50918595076836937 0 -0.50918595076836937 6.5969681909045903 0 0 0 0 -2.1424306007938068 1.8062807805008951 0 1.8062807805008951 0.99380108264384859 0 0 0 0 0.57258219951472711 4.1645610075429431 0 4.1645610075429431 -1.9016129527662997 0 0 0 0 4.3077320320135186 12.58641012859789 0 12.58641012859789 -4.0636537856989889 0 0 0 0 -4.4704241249390861 5.9907058183553161 0 5.9907058183553161 -4.4549507581336769 0 0 0 0 -11.709548647011342 8.2656927689963826 0 8.2656927689963826 -2.5693322269099887 0 0 0 0 -4.5631078448449287 5.9856901399404734 0 5.9856901399404734 -5.2459508593418107 0 0 0 0 -1.0586118404498848 -4.5143439860694343 0 -4.5143439860694343 -16.373371921301441 0 0 0 0 -4.9527030372992158 -1.9379697126132669 0 -1.9379697126132669 0.93518715410391451 0 0 0 0 -1.2116537673427956 11.209091913820885 0 11.209091913820885 0.49730261877357407 0 0 0 0 1.470012752488401 9.3927588659189496 0 9.3927588659189496 -7.6335097435912758 0 0 0 0 -4.1498883090935124 8.2440277377427265 0 8.2440277377427265 -2.3630225798406173 0 0 0 0 -4.2178659954250008 12.594199087284707 0 12.594199087284707 -17.92547245838432 0 0 0 0 -10.36556420089255 17.11161275665836 0 17.11161275665836 -9.7070602398271149 0 0 0 0 -3.3229086643206189 5.3852271423918445 0 5.3852271423918445 -5.2714094761678787 0 0 0 0 -1.4577260147070774 4.5496685963380514 0 4.5496685963380514 -3.5282393010929809 0 0 0 0 -0.27465487613567596 1.8458814149444507 0 1.8458814149444507 0.89195221022262672 0 0 0 0 24.736052962444319 70.001707193253878 0 70.001707193253878 45.428089617973455 0 0 0 0 -8.431584183290397 12.228851233927344 0 12.228851233927344 -7.5017500173198073 0 0 0 0 -1.1101432181029978 5.0521043419584544 0 5.0521043419584544 -5.5967847313322068 0 0 0 0 -4.2240932561548199 6.9499143128000487 0 6.9499143128000487 -4.7644986319288876 0 0 0 0 1.1055164785933087 0.47469215363038231 0 0.47469215363038231 -0.44634901387871651 0 0 0 0 126.74600014103271 15.330569293373628 0 15.330569293373628 -45.527250938452198 0 0 0 0 6.3484254858285567 -3.4316291594559516 0 -3.4316291594559516 -10.91738241890198 0 0 0 0 -3.1222642399147666 2.2894404774565711 0 2.2894404774565711 -1.0660126033508277 0 0 0 0 -21.879380166402825 12.717946671875325 0 12.717946671875325 -5.0027161834432263 0 0 0 0 -6.8406985672172596 11.212317757472647 0 11.212317757472647 -10.281093764438083 0 0 0 0 -11.359910383873284 14.230233734473131 0 14.230233734473131 -10.146814366533363 0 0 0 0 -6.6417172476094493 10.895946372356775 0 10.895946372356775 -9.8511919145789761 0 0 0 0 0.23747886890896552 10.588563932415354 0 10.588563932415354 -13.720697961778569 0 0 0 0 -5.2025761807744857 15.13832713811189 0 15.13832713811189 -16.710004560450216 0 0 0 0 4.6808053306358488 67.244529639347093 0 67.244529639347093 -53.544293141831076 0 0 0 0 0.53558760236433045 0.31508787231639968 0 0.31508787231639968 -0.046656143827075169 0 0 0 0 16.224084632049653 24.125371950951489 0 24.125371950951489 -50.709283028074424 0 0 0 0 4.6279960279698571 24.04147135549465 0 24.04147135549465 -40.237944409998818 0 0 0 0 -8.5497791934758425 21.826686816119036 0 21.826686816119036 -38.847667665202607 0 0 0 0 -40.102198287291685 11.57185547569452 0 11.57185547569452 -40.559811496665134 0 0 0 0 -17.429044142227212 58.363587241754431 0 58.363587241754431 -48.01313088034567 0 0 0 0 -14.208969635643371 20.152938158230427 0 20.152938158230427 -41.529234375528176 0 0 0 0 -17.870691970321786 1.1046090594390989 0 1.1046090594390989 -35.73301127187915 0 0 0 0 -47.59737697917808 27.014658133422927 0 27.014658133422927 -28.013304870388311 0 0 0 0 1.0531570323593442 0.74369374168898172 0 0.74369374168898172 0.24395057773138973 0 0 0 0 -168.41758483918238 -120.8941704256431 0 -120.8941704256431 187.37406306204753 0 0 0 0 -14.452019374161409 2.7283861259820696 0 2.7283861259820696 -69.882672211298996 0 0 0 0 -23.989473694207845 -18.886845062434077 0 -18.886845062434077 -62.964387043557508 0 0 0 0 1.7130468416728277 1.4960181580058958 0 1.4960181580058958 0.98805353798102757 0 0 0 0 95.122753920057221 -47.323214066544097 0 -47.323214066544097 -24.017659144445133 0 0 0 0 52.330641384634873 79.96746213012284 0 79.96746213012284 49.240609344171389 0 0 0 0 40.435717321788616 44.393413872272504 0 44.393413872272504 -20.711162618357776 0 0 0 0 46.43620085454495 108.03166945458088 0 108.03166945458088 -14.035316204089213 0 0 0 0 71.168095064022054 83.258674342934682 0 83.258674342934682 7.231423035304033 0 0 0 0 -30.751823682827307 -52.967664274657182 0 -52.967664274657182 5.5873047170389327 0 0 0 0 -47.534800641333277 30.763136073552232 0 30.763136073552232 55.214963781569622 0 0 0 0 0.69314289831250164 0.41597747569324994 0 0.41597747569324994 0.072615706180844342 0 0 0 0 -42.171091555865132 50.038844585616971 0 50.038844585616971 19.809496269604608 0 0 0 0 79.302932843724193 42.834770532806942 0 42.834770532806942 -46.137852965244747 0 0 0 0 -46.180776700409297 39.520975296085908 0 39.520975296085908 2.716228816738294 0 0 0 0 0.3133023875069032 0.43845327698895176 0 0.43845327698895176 0.44012431343340097 0 0 0 0 152.37370301720512 -21.179225113206485 0 -21.179225113206485 -36.807223987219913 0 0 0 0 149.857743270014 18.032408670068975 0 18.032408670068975 -55.963683030924585 0 0 0 0 14.133211629711241 -7.2862721686548184 0 -7.2862721686548184 -1.5434746935752628 0 0 0 0 -24.148912912807646 55.568607711532422 0 55.568607711532422 19.330207753964714 0 0 0 0 -19.200464438796189 -1.7471377977981319 0 -1.7471377977981319 -26.14369611193797 0 0 0 0 -27.44156621592083 42.323482252731083 0 42.323482252731083 6.5285323217094628 0 0 0 0 -29.83143122875299 35.174978906683464 0 35.174978906683464 38.169992020070822 0 0 0 0 -14.03828113560121 49.328548380246502 0 49.328548380246502 22.131372274187015 0 0 0 0 -11.003420744386858 10.617938998716909 0 10.617938998716909 -27.552641906220742 0 0 0 0 -48.249662454953068 25.664564482454807 0 25.664564482454807 6.3906021139437144 0 0 0 0 -8.7834121446403515 5.2060865209496114 0 5.2060865209496114 33.965892584781614 0 0 0 0 -18.177811272131294 23.603466632841446 0 23.603466632841446 52.30503433577087 0 0 0 0 12.343978856051763 27.916959665065406 0 27.916959665065406 -15.456862164402082 0 0 0 0 -18.933097495069887 27.945072064480883 0 27.945072064480883 28.490153703224934 0 0 0 0 1.2709318771958351 26.280194499934623 0 26.280194499934623 28.545194485000138 0 0 0 0 -3.9533599629276068 12.356850889189445 0 12.356850889189445 -3.4843223351508641 0 0 0 0 5.3083026325366518 46.769932170550419 0 46.769932170550419 -10.205625654058167 0 0 0 0 5.2596070173931366 47.443936882872549 0 47.443936882872549 29.865637607642384 0 0 0 0 -8.9177733242249815 54.859226632829177 0 54.859226632829177 -50.484593963439693 0 0 0 0 -25.178732156020487 37.751507949828465 0 37.751507949828465 33.560369842365617 0 0 0 0 -14.520816669856686 33.118573848828419 0 33.118573848828419 18.842810006377476 0 0 0 0 0.56605733702463112 40.459747033150279 0 40.459747033150279 33.340037838275748 0 0 0 0 -20.860872699822721 38.421189334657356 0 38.421189334657356 39.860335555900747 0 0 0 0 16.898929479222261 -27.167441895135653 0 -27.167441895135653 10.296959229994172 0 0 0 0 -80.932574185464546 54.322089713898094 0 54.322089713898094 18.842464140201976 0 0 0 0 -38.263396098091107 -42.249067064730298 0 -42.249067064730298 -75.419359019671901 0 0 0 0 1.2598966117020609 13.247861851167727 0 13.247861851167727 -1.3380303937824465 0 0 0 0 1.1751907379524127 0.9109899003454025 0 0.9109899003454025 0.83112262226060807 0 0 0 0 17.5553482519108 -30.755067380915079 0 -30.755067380915079 1.9476831107040198 0 0 0 0 -17.780659434787594 6.0480841910607523 0 6.0480841910607523 15.930449381061408 0 0 0 0 0.29654783106451177 0.32629795647433912 0 0.32629795647433912 0.22595104902052299 0 0 0 0 -14.5422827706725 10.561456407178866 0 10.561456407178866 -7.3430012881344737 0 0 0 0 -14.302503591012282 8.6996608324498084 0 8.6996608324498084 -16.337058049007737 0 0 0 0 -6.2440978295562672 43.478941236116952 0 43.478941236116952 -11.239958667343672 0 0 0 0 -13.62891544508193 6.0150761684774352 0 6.0150761684774352 -5.7486698665252334 0 0 0 0 -19.120331907653963 9.2870675187086817 0 9.2870675187086817 0.68418432774706162 0 0 0 0 -20.336738291238362 12.483032035124779 0 12.483032035124779 -6.1110876506841123 0 0 0 0 -14.32834822395489 14.004223580686812 0 14.004223580686812 -4.0090653037805168 0 0 0 0 -2.4876044811454747 3.0985133032422096 0 3.0985133032422096 1.5397611145285239 0 0 0 0 23.024805955088596 2.3278689699509414 0 2.3278689699509414 -4.5278096588135668 0 0 0 0 -3.3836401900492703 8.916961539888808 0 8.916961539888808 -0.5676888054805147 0 0 0 0 7.6043822279225424 18.868774439934896 0 18.868774439934896 -4.2559014854328012 0 0 0 0 -22.043162012325411 23.189629596549821 0 23.189629596549821 0.89896818323904881 0 0 0 0 -5.0014748907069588 22.668602238676613 0 22.668602238676613 0.070852239460236888 0 0 0 0 13.985483874339934 29.273277039353161 0 29.273277039353161 -35.00456093370849 0 0 0 0 -79.547237409435184 55.408397574394712 0 55.408397574394712 -11.53341458784962 0 0 0 0 -21.622830603699185 20.133701109938613 0 20.133701109938613 3.7319062936512637 0 0 0 0 -26.98170625669627 21.518412220683786 0 21.518412220683786 3.8170292180019487 0 0 0 0 -4.0649087070203223 -0.16085267588778152 0 -0.16085267588778152 4.3152207735829506 0 0 0 0 7.1017610820339314 0.54574515454521588 0 0.54574515454521588 -66.585769936391443 0 0 0 0 -65.791142562640744 -9.7133952322260484 0 -9.7133952322260484 7.9937799869130686 0 0 0 0 -1.1721155634435334 0.38208749044518342 0 0.38208749044518342 -0.096792893146197656 0 0 0 0 -24.337027603001843 28.109489404727356 0 28.109489404727356 4.753908447527067 0 0 0 0 -9.6299403713105676 6.3312572141530836 0 6.3312572141530836 -14.276044851289043 0 0 0 0 35.149543060283122 16.286048721623956 0 16.286048721623956 -2.4252308150998942 0 0 0 0 -0.16408709626755424 0.034917204632348042 0 0.034917204632348042 0.2828164021564028 0 0 0 0 -2.2987086855641792 12.861103732388983 0 12.861103732388983 -6.4941107523231949 0 0 0 0 6.7712700031918018 8.5427140126426764 0 8.5427140126426764 -4.5141363523780456 0 0 0 0 -18.847892207648329 20.599427666729753 0 20.599427666729753 -15.001848517673352 0 0 0 0 0.19437674237548919 0.036045469478018344 0 0.036045469478018344 0.40437957044250084 0 0 0 0 2.7139788971726375 7.5809273748400301 0 7.5809273748400301 -8.8412571026385649 0 0 0 0 -4.1444756282435264 5.4259611325646802 0 5.4259611325646802 -12.202882469849101 0 0 0 0 -15.837638844801859 7.1305304605843389 0 7.1305304605843389 -5.497760032266342 0 0 0 0 -2.3231847173731843 1.0887761103668052 0 1.0887761103668052 -0.261360715218661 0 0 0 0 -2.6522254358378223 8.745022420017083 0 8.745022420017083 -7.3035341370452542 0 0 0 0 1.037756669123155 21.239984607824226 0 21.239984607824226 -18.783079306803984 0 0 0 0 -15.793497210117494 15.318199736460087 0 15.318199736460087 -8.8667266751635907 0 0 0 0 -12.194540313757443 8.5504987796125533 0 8.5504987796125533 0.93377719134332438 0 0 0 0 0.14775504105673676 -0.23868242175531407 0 -0.23868242175531407 0.29221997072942685 0 0 0 0 -33.314046712248228 23.451898744645632 0 23.451898744645632 2.0087744546854083 0 0 0 0 -2.3247430086398708 11.012868060754727 0 11.012868060754727 -6.9283157931331516 0 0 0 0 -13.244409409863692 1.8918498397533767 0 1.8918498397533767 -6.8530326100155889 0 0 0 0 -3.6095126027612974 8.7955318125284254 0 8.7955318125284254 -5.1877918338914313 0 0 0 0 -7.2972192034876571 8.8364889693120858 0 8.8364889693120858 -2.0931758790047752 0 0 0 0 19.825464997587915 15.160103437608996 0 15.160103437608996 -0.63842113835062264 0 0 0 0 -0.36108975654087772 28.594498119186142 0 28.594498119186142 0.64408690870732244 0 0 0 0 -2.3151504557908993 24.630131743490892 0 24.630131743490892 4.8115301410971369 0 0 0 0 -0.23840072448729188 23.225375664327657 0 23.225375664327657 9.0417301954330469 0 0 0 0 0.84572154859961302 18.768925620348455 0 18.768925620348455 -0.72237542991024384 0 0 0 0 3.5615648831890212 27.090473308770015 0 27.090473308770015 6.8521512574661756 0 0 0 0 16.908693934699841 5.7868214199506838 0 5.7868214199506838 -1.0735030523328533 0 0 0 0 6.2916192549882908 28.569695642252555 0 28.569695642252555 4.7523933724982612 0 0 0 0 13.282677361118658 20.203203460326222 0 20.203203460326222 1.963090127623218 0 0 0 0 0.64964227133077657 14.637042306777857 0 14.637042306777857 -0.024313030997291207 0 0 0 0 -2.9296282977652481 11.159431151276522 0 11.159431151276522 -8.0112112584474744 0 0 0 0 0.21052054761373107 1.5665899374595851 0 1.5665899374595851 -2.7229835394882982 0 0 0 0 -79.333790250326729 36.065516677529104 0 36.065516677529104 216.68404837013713 0 0 0 0 0.41195141820753634 14.932879959349066 0 14.932879959349066 -16.872885974657947 0 0 0 0 -2.8115834700267897 11.300779171162638 0 11.300779171162638 -0.71980469479453169 0 0 0 0 -37.773100583071937 7.785002255543759 0 7.785002255543759 14.715109188424776 0 0 0 0 -8.087815717128251 14.866285467866419 0 14.866285467866419 0.25114167845822521 0 0 0 0 4.1368863641464486 32.036340285210372 0 32.036340285210372 13.144272102255854 0 0 0 0 -3.9919743669115633 19.504427064259744 0 19.504427064259744 -5.8137750804835377 0 0 0 0 -13.724190338692097 12.897405144290133 0 12.897405144290133 25.322182620631793 0 0 0 0 -3.9053205996220139 1.3752310326481409 0 1.3752310326481409 0.41603976617913219 0 0 0 0 -19.798041918345916 2.5461951754127767 0 2.5461951754127767 9.4604950634238776 0 0 0 0 -11.241385174180323 26.888705536676753 0 26.888705536676753 26.199841190697953 0 0 0 0 -0.19061378740342505 13.245933286030983 0 13.245933286030983 0.11950995476408499 0 0 0 0 10.426813612415117 8.0029742942951998 0 8.0029742942951998 -49.552539649976097 0 0 0 0 10.743481866869843 30.646197382548962 0 30.646197382548962 -17.528731371521644 0 0 0 0 24.065608933324256 47.572671180176258 0 47.572671180176258 -0.14560737759893527 0 0 0 0 7.4779938319379653 35.709085774607502 0 35.709085774607502 -33.391871741978832 0 0 0 0 6.688991431346949 5.5954191174641892 0 5.5954191174641892 -31.321276215534454 0 0 0 0 -1.0768113801619172 10.853159411540132 0 10.853159411540132 2.1653796967450303 0 0 0 0 -2.1040927890007879 -11.461913789780738 0 -11.461913789780738 7.9764355525085193 0 0 0 0 17.152538624058252 45.087465589961084 0 45.087465589961084 -24.343893379556903 0 0 0 0 28.23291955358809 49.746046326824626 0 49.746046326824626 17.901023292391073 0 0 0 0 8.3830807750382519 23.63438617799693 0 23.63438617799693 -13.30560551727558 0 0 0 0 1.7530775101010931 4.535937288766263 0 4.535937288766263 -25.54634853245625 0 0 0 0 69.785539910226362 16.357154655842351 0 16.357154655842351 -23.602701156125022 0 0 0 0 10.421920505290473 -30.989478525817049 0 -30.989478525817049 29.776042232117106 0 0 0 0 -36.441378611485561 15.563201243991443 0 15.563201243991443 43.422165457497158 0 0 0 0 88.365589803661578 1.9350576982399161 0 1.9350576982399161 -2.2236629353537865 0 0 0 0 75.14134975072966 44.651964818029569 0 44.651964818029569 -33.355010789096923 0 0 0 0 -1.7728013967571314 8.8083228249211061 0 8.8083228249211061 3.4367655444521006 0 0 0 0 -2.1167255930431566 5.8127751487336354 0 5.8127751487336354 32.441160988421757 0 0 0 0 -0.354188841781653 1.0609215988308738 0 1.0609215988308738 -0.176640105733048 0 0 0 0 13.924220275495486 13.007554261608846 0 13.007554261608846 1.1756288096275966 0 0 0 0 -2.3331445264100097 3.2506780334086223 0 3.2506780334086223 -1.4517724115961137 0 0 0 0 -33.939832457709599 29.847822462588283 0 29.847822462588283 17.271688224936838 0 0 0 0 5.9621301044398933 -0.053255255502335785 0 -0.053255255502335785 3.9454165567922246 0 0 0 0 -0.3416385102876518 0.74785165749724669 0 0.74785165749724669 1.7900286648012216 0 0 0 0 37.942220576017917 122.85494859055461 0 122.85494859055461 -70.545297162816041 0 0 0 0 -0.91683907733502856 0.91720416158197082 0 0.91720416158197082 -0.96968270531502121 0 0 0 0 2.9893751393819912 2.0920321796220378 0 2.0920321796220378 -65.264392833639704 0 0 0 0 -8.6129556581631732 45.218054176518763 0 45.218054176518763 -22.609874343059801 0 0 0 0 2.4994891350970647 5.7205079989935257 0 5.7205079989935257 1.1706597692736977 0 0 0 0 6.4706453610853032 34.879862021511684 0 34.879862021511684 -32.817297826918548 0 0 0 0 -45.102181045069301 9.6344320170596802 0 9.6344320170596802 0.15132938345868752 0 0 0 0 5.8055561231522006 2.8688126332463071 0 2.8688126332463071 -4.1569489667317612 0 0 0 0 -0.35208192251282355 0.36968639507432854 0 0.36968639507432854 0.13639813062069805 0 0 0 0 -42.051889391157601 7.5530446603256678 0 7.5530446603256678 5.7342566287352383 0 0 0 0 -23.591808932458662 12.916836823905669 0 12.916836823905669 -7.7890590502001942 0 0 0 0 -44.078977360797126 11.976478891858278 0 11.976478891858278 4.2746293639520445 0 0 0 0 -18.416236540002501 21.517674361419267 0 21.517674361419267 -6.5040987427350956 0 0 0 0 -16.568312371717184 19.250305633881908 0 19.250305633881908 -11.657346877943382 0 0 0 0 -0.52944338032011018 3.1492406240272626 0 3.1492406240272626 -1.767021155751622 0 0 0 0 -3.2794637499273449 23.700893500187249 0 23.700893500187249 -25.995349827798236 0 0 0 0 -12.818482367202705 24.852056984429964 0 24.852056984429964 0.65529299381523742 0 0 0 0 -10.52402207902287 18.355848495357122 0 18.355848495357122 16.538139079133543 0 0 0 0 -18.73000582511213 14.726697133347443 0 14.726697133347443 1.1745846426219941 0 0 0 0 -5.0131405678530427 17.101996180367678 0 17.101996180367678 3.176233952096652 0 0 0 0 -1.2040276422494571 15.52354487973912 0 15.52354487973912 3.0352788820273418 0 0 0 0 -4.9877484505433483 9.9085161049881698 0 9.9085161049881698 3.1510582183225608 0 0 0 0 -19.500554468858354 14.072071388462064 0 14.072071388462064 7.0470207380931242 0 0 0 0 -2.652652991964235 11.086157540855265 0 11.086157540855265 -14.308096195420044 0 0 0 0 4.3459024872336158 17.51022747931529 0 17.51022747931529 -21.068943412598856 0 0 0 0 -16.901600990386214 6.6182376605966056 0 6.6182376605966056 -15.320463951128431 0 0 0 0 -22.16127515406879 1.0549077473961006 0 1.0549077473961006 -12.173374941346083 0 0 0 0 -26.423785898119377 36.797428095274654 0 36.797428095274654 -35.744510510275177 0 0 0 0 -4.9181489141597972 8.4411364545690581 0 8.4411364545690581 -10.724013583770843 0 0 0 0 -21.658619362481659 11.79005369266747 0 11.79005369266747 -0.84114717298280084 0 0 0 0 -0.20747350791797103 2.4079674081084486 0 2.4079674081084486 -2.0784092754664401 0 0 0 0 1.3437793796583719 7.7380692746974091 0 7.7380692746974091 -4.6316262057807762 0 0 0 0 -12.970557280150715 4.9580352890977437 0 4.9580352890977437 -0.95678892966162499 0 0 0 0 -17.736865763883543 12.435466910191053 0 12.435466910191053 -1.2709215037657486 0 0 0 0 -11.934476634943167 14.154448295761313 0 14.154448295761313 -6.9918811377292513 0 0 0 0 -9.1710746555163496 13.404097355843987 0 13.404097355843987 -7.1937633070047013 0 0 0 0 -11.61559120658012 5.54027665754802 0 5.54027665754802 0.53356310615890834 0 0 0 0 -8.9649014578812221 4.402448245677915 0 4.402448245677915 -0.33103323872483403 0 0 0 0 -6.9386620703280641 5.1203810836831281 0 5.1203810836831281 5.140913103829007 0 0 0 0 -16.100988930556923 4.6979544393370816 0 4.6979544393370816 5.1214400646423428 0 0 0 0 -0.2067609388582099 0.16619801149625602 0 0.16619801149625602 -0.050143648905558003 0 0 0 0 -11.773694485320448 -8.694297499215736 0 -8.694297499215736 0.91827977124239624 0 0 0 0 -28.144668860215461 18.770467063930937 0 18.770467063930937 -2.6075637577564521 0 0 0 0 -0.42200826934470115 9.9037826397424169 0 9.9037826397424169 -17.480558209636001 0 0 0 0 -16.302167155943607 8.9460997058868088 0 8.9460997058868088 5.937354845886091 0 0 0 0 -6.4688251308507461 8.7270709839834808 0 8.7270709839834808 1.9744262359290587 0 0 0 0 -2.0873268268333049 -0.61976704562039231 0 -0.61976704562039231 -0.88465379036529157 0 0 0 0 -8.754370382772322 0.72238236077873808 0 0.72238236077873808 -1.1541056326905164 0 0 0 0 5.1765775420280988 31.248550190382048 0 31.248550190382048 -7.5462562655951047 0 0 0 0 -27.895539761074204 -9.3533787623148648 0 -9.3533787623148648 1.895077117157598 0 0 0 0 4.460588294399713 -5.488586826908886 0 -5.488586826908886 10.031770776008216 0 0 0 0 -22.813847443149825 6.9345575866727813 0 6.9345575866727813 3.6137624631192011 0 0 0 0 -2.7316907554810363 0.66335969011844398 0 0.66335969011844398 0.23508789129141761 0 0 0 0 -12.365029704138578 1.7991017010294854 0 1.7991017010294854 5.3265641004985014 0 0 0 0 -4.2779681418596738 7.650552033610154 0 7.650552033610154 -2.0094212352787508 0 0 0 0 1.8314198337307062 15.099910085664987 0 15.099910085664987 15.609278470848949 0 0 0 0 -6.392395576045601 4.9686965379803496 0 4.9686965379803496 17.190957834804067 0 0 0 0 -8.4746330567986661 10.446760380737942 0 10.446760380737942 28.851311581069695 0 0 0 0 -8.4509890692238514 6.6743570379767334 0 6.6743570379767334 4.8424566249603913 0 0 0 0 15.483695630983334 58.705775933363014 0 58.705775933363014 32.625262931381258 0 0 0 0 -2.7449001215166078 4.7245651434136047 0 4.7245651434136047 -4.9184848472521487 0 0 0 0 -7.2378477406671209 18.614926938641389 0 18.614926938641389 0.63219656037745153 0 0 0 0 -0.19804471493989695 13.524339748510783 0 13.524339748510783 -1.8745685122470377 0 0 0 0 -3.4870184770669539 23.423946456756511 0 23.423946456756511 -14.809581926100464 0 0 0 0 -0.08965984877977462 14.407466082066776 0 14.407466082066776 -3.2781122565519354 0 0 0 0 -0.78864167880237801 11.45742739452146 0 11.45742739452146 7.8158543505443276 0 0 0 0 -1.5265362909836995 15.854097960070931 0 15.854097960070931 4.6746391615924949 0 0 0 0 -4.5725062029745871 5.7163757205016408 0 5.7163757205016408 -5.6097469155436048 0 0 0 0 -4.8086938706301225 37.656608066410172 0 37.656608066410172 52.424991908232641 0 0 0 0 -0.69471725105177029 10.977634939233099 0 10.977634939233099 2.0310636834099682 0 0 0 0 -0.17157939735636774 12.508610654994044 0 12.508610654994044 -1.657659448849472 0 0 0 0 -5.6531012179350437 7.2754562403730345 0 7.2754562403730345 -4.233770076051055 0 0 0 0 -11.898907409513413 19.364887701456155 0 19.364887701456155 37.377580207010396 0 0 0 0 -25.516789614342088 0.36728687465233634 0 0.36728687465233634 27.729296174635238 0 0 0 0 -1.623810407842484 10.397836467787215 0 10.397836467787215 14.639763734704502 0 0 0 0 -3.9751259946201571 4.3430437927272578 0 4.3430437927272578 19.962783989654781 0 0 0 0 -66.240832491932451 -34.455015590749781 0 -34.455015590749781 77.887855697232681 0 0 0 0 3.9744868492616661 5.1325482171444037 0 5.1325482171444037 4.1733702443604273 0 0 0 0 2.8547960664982099 7.6056896129377094 0 7.6056896129377094 7.0940856962688486 0 0 0 0 3.1196064978789764 4.2084518258759545 0 4.2084518258759545 4.1041055292670308 0 0 0 0 -17.504533975278719 19.990854448344408 0 19.990854448344408 -10.011573897795643 0 0 0 0 4.0367052468354814 2.2282424614808178 0 2.2282424614808178 -7.7518884373230321 0 0 0 0 4.84889034120215 5.6398216347723746 0 5.6398216347723746 -1.0362655424828517 0 0 0 0 4.3231122985495691 5.2046951557859025 0 5.2046951557859025 3.2071902451071637 0 0 0 0 2.7526478448999114 33.760470689909653 0 33.760470689909653 -15.39294773673123 0 0 0 0 36.059435256153847 33.540522042909288 0 33.540522042909288 8.6021346537597765 0 0 0 0 8.3049092499159087 -10.230752158264067 0 -10.230752158264067 -6.4711281054335359 0 0 0 0 9.4022827806647911 63.17393116281437 0 63.17393116281437 1.1360534902480595 0 0 0 0 0.0046502457931225649 4.0078131895732572 0 4.0078131895732572 -3.8616589061765287 0 0 0 0 -8.9516306058926602 5.0441786339787882 0 5.0441786339787882 16.60632112056237 0 0 0 0 -2.9491446767024172 11.06368243448162 0 11.06368243448162 9.237312582093864 0 0 0 0 101.77462560457752 -13.083456252627911 0 -13.083456252627911 -15.546308128527016 0 0 0 0 6.5681375616959485 -5.1782343716475907 0 -5.1782343716475907 32.901440423569511 0 0 0 0 32.364597355541264 31.297749757298106 0 31.297749757298106 31.504883059826625 0 0 0 0 53.606468022610898 -5.7023550231731406 0 -5.7023550231731406 8.4094578578251458 0 0 0 0 18.714814575473611 25.793026440105223 0 25.793026440105223 27.005909420787248 0 0 0 0 31.847199809918493 31.82395476133388 0 31.82395476133388 30.970102942519134 0 0 0 0 -0.032159678092767763 0.11453523600043436 0 0.11453523600043436 0.078114322947410386 0 0 0 0 16.881046115031495 0.16711371639385675 0 0.16711371639385675 7.8036294221092248 0 0 0 0 -5.1154278553449331 14.68615517869091 0 14.68615517869091 9.4282284481273564 0 0 0 0 -9.7785576873457103 16.728657192215167 0 16.728657192215167 14.125926772240746 0 0 0 0 -6.4466595796729962 12.515700118790619 0 12.515700118790619 20.707299523553274 0 0 0 0 -5.0335797874840864 18.289210158342371 0 18.289210158342371 -14.472651042592588 0 0 0 0 -14.247364747473512 27.554913047616651 0 27.554913047616651 4.0283908094901903 0 0 0 0 -13.534421229501618 4.5515242637805891 0 4.5515242637805891 7.3568016210451788 0 0 0 0 37.190201711509872 -9.2471119794247443 0 -9.2471119794247443 -6.5896915786306636 0 0 0 0 20.478110057843878 13.44678474982652 0 13.44678474982652 6.7923309077516478 0 0 0 0 4.1860887290313258 4.8791141206836528 0 4.8791141206836528 -2.4991000295278809 0 0 0 0 -1.6103542707733141 -25.974080264992381 0 -25.974080264992381 -2.361222134655236 0 0 0 0 -2.5706496062080078 1.9226601706030806 0 1.9226601706030806 2.4239592755484409 0 0 0 0 -0.68995667470331801 1.5234913970120232 0 1.5234913970120232 1.0119978184873251 0 0 0 0 -0.66739539495301869 5.5260086296260056 0 5.5260086296260056 4.7655127191320616 0 0 0 0 -1.846039902400797 2.4226103205714393 0 2.4226103205714393 0.61969735611727961 0 0 0 0 3.8834003687428567 5.0863771226432757 0 5.0863771226432757 5.0074429052401808 0 0 0 0 -50.833720379105102 26.17800388057637 0 26.17800388057637 22.646431617703911 0 0 0 0 -2.5158802554837312 0.039444633406807483 0 0.039444633406807483 1.2761345920150062 0 0 0 0 -11.436845536282362 10.052372445626361 0 10.052372445626361 -6.767232959778994 0 0 0 0 -9.3625421115521021 -5.3113070288995914 0 -5.3113070288995914 3.6776553101835816 0 0 0 0 -0.1547695095704178 0.20716546346050713 0 0.20716546346050713 0.42490197298308718 0 0 0 0 -19.919282046326771 1.9101450255539021 0 1.9101450255539021 6.719586337405417 0 0 0 0 29.228968346491342 -19.990299913912096 0 -19.990299913912096 13.618387283242555 0 0 0 0 -3.4288446454634141 3.0793840262183494 0 3.0793840262183494 -7.6693880135285326 0 0 0 0 -2.7773362410864593 11.935575428914262 0 11.935575428914262 7.5115885780469398 0 0 0 0 -1.3102643666680969 0.078890428083775221 0 0.078890428083775221 1.0875852446506471 0 0 0 0 -26.326595610681125 -19.154923451499144 0 -19.154923451499144 56.462443997073933 0 0 0 0 -3.7308789455871896 3.11373967115059 0 3.11373967115059 4.9108470517540326 0 0 0 0 2.0967209555619775 6.5423857880959986 0 6.5423857880959986 8.0047565397806011 0 0 0 0 -1.6271411543029899 8.9839746006764472 0 8.9839746006764472 8.766825189724841 0 0 0 0 1.9197496213308565 5.4913953482002604 0 5.4913953482002604 3.8070504910455281 0 0 0 0 -32.902618505831924 52.336393072415149 0 52.336393072415149 5.958406128866045 0 0 0 0 0.033370664211918921 1.0835861158666358 0 1.0835861158666358 2.2760316929828983 0 0 0 0 4.2189260935779203 10.237079043295353 0 10.237079043295353 4.5652178229956917 0 0 0 0 -12.945693881603802 3.1202084520755307 0 3.1202084520755307 11.069966392338756 0 0 0 0 0.72064124384969119 8.0510066506886702 0 8.0510066506886702 1.1372136936497856 0 0 0 0 5.5946591258643821 13.661115069660354 0 13.661115069660354 12.533052217384011 0 0 0 0 -2.1038761554596093 3.0486083977033616 0 3.0486083977033616 1.4477759405814732 0 0 0 0 22.901141465327782 8.2455765967883963 0 8.2455765967883963 25.088633991058487 0 0 0 0 6.4483200315944487 16.78202820098204 0 16.78202820098204 20.965206604548712 0 0 0 0 0.16436102245279471 6.7804823110359393 0 6.7804823110359393 13.789434181229979 0 0 0 0 7.1510326260872716 10.972372905562224 0 10.972372905562224 10.257642106829735 0 0 0 0 -2.0590735692244397 1.1246596640030537 0 1.1246596640030537 -0.98690747902559028 0 0 0 0 5.2020941352034242 18.948611759143205 0 18.948611759143205 16.631517605316731 0 0 0 0 -2.4784067434434291 21.809490101216511 0 21.809490101216511 18.504960595434113 0 0 0 0 16.49313024626008 11.463816861431951 0 11.463816861431951 3.1265895824121799 0 0 0 0 0.20199767448395178 1.0735183854973442 0 1.0735183854973442 0.064472573602476047 0 0 0 0 3.0638783229396722 1.6457366860254297 0 1.6457366860254297 5.8050554860107013 0 0 0 0 1.7739007971972569 10.927802699997983 0 10.927802699997983 12.172523208129405 0 0 0 0 5.2948496357366821 10.997725867783515 0 10.997725867783515 10.866442820342854 0 0 0 0 -30.447553023326691 9.6532889712600536 0 9.6532889712600536 18.877451841282891 0 0 0 0 -24.665263816455081 16.299196210652553 0 16.299196210652553 7.2484883829588398 0 0 0 0 -19.13573773905091 -0.050106217691109123 0 -0.050106217691109123 11.784770513902458 0 0 0 0 -1.6798787976936183 9.0510223098472125 0 9.0510223098472125 11.310829210196061 0 0 0 0 8.728535683131156 4.7173484154059793 0 4.7173484154059793 -0.32975189720627895 0 0 0 0 -95.355899788151191 39.535115576285875 0 39.535115576285875 10.810024408214304 0 0 0 0 -60.910626349695804 -8.2404263087819345 0 -8.2404263087819345 15.267515243506296 0 0 0 0 -41.357641614231852 15.442364028712518 0 15.442364028712518 19.989289305895454 0 0 0 0 -0.83493409523430451 0.48936767309972407 0 0.48936767309972407 -0.21952672585524446 0 0 0 0 5.6616123109075716 31.689992040938535 0 31.689992040938535 -45.562798942298741 0 0 0 0 -5.5992532129926076 54.546013246033908 0 54.546013246033908 -55.289275352429513 0 0 0 0 -20.93325362786527 30.473082294223332 0 30.473082294223332 -44.481715352946367 0 0 0 0 -70.781839755166857 54.927075984763405 0 54.927075984763405 -26.680198604452698 0 0 0 0 -68.312326666143136 -15.482027208244212 0 -15.482027208244212 -8.803590758795508 0 0 0 0 -0.39043592390316917 0.7863160234917359 0 0.7863160234917359 5.7795146744289241 0 0 0 0 -19.278108883401273 12.346334822914741 0 12.346334822914741 17.054757609327368 0 0 0 0 -13.299700859622817 -1.9644090978802069 0 -1.9644090978802069 1.3931160363151776 0 0 0 0 -20.011604032138166 43.808243485379535 0 43.808243485379535 -30.730500456048162 0 0 0 0 -0.13272800544266694 0.10012517454956082 0 0.10012517454956082 -0.35411595501676629 0 0 0 0 6.2640771711271555 16.147362789098452 0 16.147362789098452 -35.684421754434879 0 0 0 0 -8.8829712553178979 26.811648246980894 0 26.811648246980894 -6.2149462534412123 0 0 0 0 -13.760572696127724 41.940499677865603 0 41.940499677865603 -31.551844561790858 0 0 0 0 -49.261660000555594 69.902123689072027 0 69.902123689072027 -39.206019683046179 0 0 0 0 13.159518427740295 50.174113659061732 0 50.174113659061732 -124.72825653883274 0 0 0 0 20.485582919582498 13.390760913227439 0 13.390760913227439 -27.659644570093405 0 0 0 0 34.729127833839812 -48.088335359421308 0 -48.088335359421308 -74.311529679626346 0 0 0 0 -9.6864668445973621 -1.2227583461317408 0 -1.2227583461317408 10.823601212986887 0 0 0 0 -3.0919784335110307 3.7850228529455308 0 3.7850228529455308 -31.573021342562697 0 0 0 0 -27.03094626810605 27.738974612774769 0 27.738974612774769 -21.035542125060601 0 0 0 0 -7.4194753623679901 15.193412140817522 0 15.193412140817522 -17.51169262377698 0 0 0 0 -6.3442647176025275 32.629206348613025 0 32.629206348613025 -40.604667880562829 0 0 0 0 -27.999783305435699 23.864271602817269 0 23.864271602817269 -4.1400418473945138 0 0 0 0 -21.921290492860408 17.643096526885302 0 17.643096526885302 -11.536820600229021 0 0 0 0 -28.962011022037586 4.4654291649908373 0 4.4654291649908373 9.9413083815152277 0 0 0 0 -17.387486482033637 6.2161531917531647 0 6.2161531917531647 5.7515146915552577 0 0 0 0 -13.685191177311253 -1.383154989863101 0 -1.383154989863101 4.6520598085235179 0 0 0 0 -5.8455561850414597 -1.6784787095789397 0 -1.6784787095789397 2.8685109211451163 0 0 0 0 -16.277695131735982 3.5486992849259877 0 3.5486992849259877 1.1539639855336645 0 0 0 0 -15.913286577797862 15.882347287752282 0 15.882347287752282 -12.046117074289214 0 0 0 0 -13.453360202271028 10.988297245667411 0 10.988297245667411 11.32456874716172 0 0 0 0 -10.921408741005507 6.0088835893714077 0 6.0088835893714077 5.6406263583058944 0 0 0 0 -5.1126337398354735 14.827205910467001 0 14.827205910467001 0.86086135021287191 0 0 0 0 -10.570404509563218 5.8451115568484795 0 5.8451115568484795 5.0888842026697603 0 0 0 0 -2.7620124366231149 8.6672551114464689 0 8.6672551114464689 -13.138265548933752 0 0 0 0 3.628632249772636 20.478741910590998 0 20.478741910590998 7.7821508619499582 0 0 0 0 2.4979036729328072 28.455992404663192 0 28.455992404663192 15.642128518160007 0 0 0 0 2.0557132453673148 17.005526864697458 0 17.005526864697458 -4.8415069477632642 0 0 0 0 33.028413775053195 26.906392905124449 0 26.906392905124449 -5.2486849827600963 0 0 0 0 6.1074804227009736 46.427439725463046 0 46.427439725463046 61.904732505548964 0 0 0 0 -3.2645832197825726 10.116850023054665 0 10.116850023054665 -11.235222632694462 0 0 0 0 -6.3909847598101805 -30.455276573740548 0 -30.455276573740548 70.315491029225996 0 0 0 0 -5.9886294943148641 19.426067520449124 0 19.426067520449124 19.621166159535733 0 0 0 0 -6.4873728928887431 21.782212797676948 0 21.782212797676948 13.682436595142576 0 0 0 0 9.5610757057074807 23.247118141328656 0 23.247118141328656 -2.3356504338125887 0 0 0 0 12.246857322658343 23.357025082626251 0 23.357025082626251 -4.2374326454030324 0 0 0 0 9.475968247250421 21.619503056738722 0 21.619503056738722 -1.7883224607685406 0 0 0 0 -3.7902708871463422 13.250407445143253 0 13.250407445143253 -2.099239361662276 0 0 0 0 -2.0549205303134661 1.8846678152380374 0 1.8846678152380374 -1.1685122668884809 0 0 0 0 -10.329884506573762 15.255965553082206 0 15.255965553082206 -14.920810234745318 0 0 0 0 -10.358501726208715 12.592210298456621 0 12.592210298456621 -7.7262763821718181 0 0 0 0 1.6288272407677091 4.5944456766596096 0 4.5944456766596096 1.2030044913077997 0 0 0 0 -3.0352097504510311 13.683809042623579 0 13.683809042623579 -4.5626834754430092 0 0 0 0 0.25653364637764753 13.045824472743334 0 13.045824472743334 -4.4726560625740603 0 0 0 0 6.0578604024949527 22.838172440404833 0 22.838172440404833 -0.83507711480251601 0 0 0 0 13.148755197270475 19.978301795023071 0 19.978301795023071 -1.8651600186813084 0 0 0 0 4.0938291417465011 9.3810809245820348 0 9.3810809245820348 3.8051553700231562 0 0 0 0 1.4037828565244581 18.019557292222544 0 18.019557292222544 -2.0053058713037899 0 0 0 0 7.9877846723115908 9.9181025305641697 0 9.9181025305641697 -7.2222323569612854 0 0 0 0 6.1885903381257776 10.914610878162648 0 10.914610878162648 -3.5537659745823476 0 0 0 0 6.2327069016337191 4.3720246124123605 0 4.3720246124123605 -2.0572719473309462 0 0 0 0 0.29338345073119854 4.2548732118311818 0 4.2548732118311818 1.3158540036797604 0 0 0 0 1.7160605671788183 1.8219145014823004 0 1.8219145014823004 2.1515346080521791 0 0 0 0 -9.8692274334117656 2.9661294211187794 0 2.9661294211187794 3.9322955503116646 0 0 0 0 0.50574738301301458 0.48162695945193956 0 0.48162695945193956 0.015430166617205643 0 0 0 0 17.400345335468501 21.493672791095833 0 21.493672791095833 -3.9934239667136353 0 0 0 0 19.900272757176481 4.0539517999109194 0 4.0539517999109194 -0.5958794939397194 0 0 0 0 19.619662313868048 3.7180872889134662 0 3.7180872889134662 -0.89725257005511594 0 0 0 0 0.16008220956072527 0.28294330184236216 0 0.28294330184236216 0.18705003643180973 0 0 0 0 46.548180704852257 24.505368955865265 0 24.505368955865265 -15.473779800493503 0 0 0 0 66.043472777515944 -9.0639102098402873 0 -9.0639102098402873 -5.753875734832036 0 0 0 0 25.060011774185341 -3.0129396445219072 0 -3.0129396445219072 5.1266865817115104 0 0 0 0 8.8556455470239435 -4.7652029218633967 0 -4.7652029218633967 -1.3024973557103294 0 0 0 0 -8.3579946855775233 3.0008813981596631 0 3.0008813981596631 3.8151416100699862 0 0 0 0 0.31169072836204814 0.93985069222482753 0 0.93985069222482753 0.30063035180403297 0 0 0 0 -3.1500750290970245 3.6810740677983631 0 3.6810740677983631 2.097798492136917 0 0 0 0 -12.553676683992308 -11.32627998673388 0 -11.32627998673388 16.875554800857799 0 0 0 0 12.224583805784313 18.376262364065951 0 18.376262364065951 24.794565339217115 0 0 0 0 53.031483865289829 29.254938701767969 0 29.254938701767969 -11.991918092520336 0 0 0 0 -5.9058924502626269 16.695971933928831 0 16.695971933928831 8.3234932539999136 0 0 0 0 10.461963368263241 5.0302723288939433 0 5.0302723288939433 42.060674586331061 0 0 0 0 -6.7955332886827122 11.792679940650814 0 11.792679940650814 -1.2041681447617858 0 0 0 0 58.651559495818219 14.27496458319456 0 14.27496458319456 -14.003903187281139 0 0 0 0 -15.222578659001556 7.6217154839509931 0 7.6217154839509931 -0.50497524975799024 0 0 0 0 -19.811525055300081 14.049721268743724 0 14.049721268743724 6.1134805793744817 0 0 0 0 -9.0840385485780644 11.863552794517773 0 11.863552794517773 1.4737293873910176 0 0 0 0 -12.413882356159775 18.367270500418044 0 18.367270500418044 7.4113757127478266 0 0 0 0 -10.714066196029762 20.905166905992587 0 20.905166905992587 15.280715600664507 0 0 0 0 -10.774800080834666 20.161107344621428 0 20.161107344621428 6.1926170125342423 0 0 0 0 9.478585602500516 28.479981014041186 0 28.479981014041186 1.2621022832672679 0 0 0 0 28.365608957858512 0.86449101714470089 0 0.86449101714470089 -46.072255268653862 0 0 0 0 0.059844023702093067 0.78285534599833362 0 0.78285534599833362 -0.55090427557651367 0 0 0 0 -24.475759574719632 19.257837264226964 0 19.257837264226964 9.9605330496988245 0 0 0 0 83.51338990058116 18.355604850244049 0 18.355604850244049 -18.269895276450825 0 0 0 0 80.473328694254633 14.416140829413052 0 14.416140829413052 -22.076410007253571 0 0 0 0 59.254051796005569 8.4136700513779488 0 8.4136700513779488 -5.8608028588416801 0 0 0 0 66.052793738978835 24.80371658692593 0 24.80371658692593 20.733513192939427 0 0 0 0 -6.254429439056028 11.791202502627547 0 11.791202502627547 -0.40501526050581482 0 0 0 0 -2.2386219830609662 -27.239424184328072 0 -27.239424184328072 -58.17648831413544 0 0 0 0 -77.242871869275405 62.291780264146837 0 62.291780264146837 -9.6004183522835547 0 0 0 0 -73.024949723234158 54.484984187125292 0 54.484984187125292 2.918275493946112 0 0 0 0 0.080559268788038013 0.44904311626730298 0 0.44904311626730298 -0.42048156553412674 0 0 0 0 166.23099294659733 20.855080077430102 0 20.855080077430102 -9.4813932628503608 0 0 0 0 -6.295938069385155 11.861587153537283 0 11.861587153537283 0.014378727298218763 0 0 0 0 120.0840242061704 64.543702275332635 0 64.543702275332635 -26.42529925056715 0 0 0 0 28.479897100266953 28.818733738556773 0 28.818733738556773 -8.8345809331613054 0 0 0 0 -63.024716200829971 56.213866753116179 0 56.213866753116179 -6.1376422344119419 0 0 0 0 -7.7506850241861684 31.149999576140317 0 31.149999576140317 -4.956280560151086 0 0 0 0 6.4902858101527272 2.6081268187068645 0 2.6081268187068645 44.734533301562351 0 0 0 0 -10.50401855894097 47.803672830008736 0 47.803672830008736 -18.342477635296291 0 0 0 0 10.117015867597274 19.576123704741917 0 19.576123704741917 5.4389294187317319 0 0 0 0 23.502724928103817 11.661907410079948 0 11.661907410079948 -18.245988682950053 0 0 0 0 -0.30761521395902491 0.38232718600575222 0 0.38232718600575222 -0.27050425274014067 0 0 0 0 18.409424670695444 13.185544096897161 0 13.185544096897161 5.551152550884126 0 0 0 0 -0.58462107033758226 0.57796248440043962 0 0.57796248440043962 -1.5781401559377244 0 0 0 0 20.309918985458808 14.24879960027647 0 14.24879960027647 5.0696052649281 0 0 0 0 -28.844633522303411 4.112213677426098 0 4.112213677426098 16.360798910546919 0 0 0 0 -0.43177404866014513 17.542202742009181 0 17.542202742009181 10.346776416481589 0 0 0 0 12.801678339922091 38.325680921966068 0 38.325680921966068 15.77857345713187 0 0 0 0 -6.4547631409820001 11.626854425549858 0 11.626854425549858 0.77146807184293209 0 0 0 0 20.985465285810733 11.058513581210718 0 11.058513581210718 0.27772807160602042 0 0 0 0 25.659094750222948 15.86593990872143 0 15.86593990872143 3.7162743177441371 0 0 0 0 16.510290487921338 17.115041037270657 0 17.115041037270657 4.2651199784440905 0 0 0 0 19.234308547486307 13.323757327128192 0 13.323757327128192 5.2509760092448232 0 0 0 0 -6.5016036643153257 15.66860149542623 0 15.66860149542623 6.7032839143626006 0 0 0 0 18.248004242281013 17.583477405273698 0 17.583477405273698 2.6091871639671353 0 0 0 0 -5.92374935797472 12.155305228740453 0 12.155305228740453 2.5150013714902109 0 0 0 0 13.158589359862162 15.769001682109888 0 15.769001682109888 4.2999409792037113 0 0 0 0 11.667139374549151 11.717749947067205 0 11.717749947067205 -6.6482769095928234 0 0 0 0 0.6863428777762226 6.7012278413151227 0 6.7012278413151227 0.9569533053460213 0 0 0 0 15.24540971985823 19.469974579465656 0 19.469974579465656 1.4436234085769684 0 0 0 0 3.6854417347620938 16.136650762840816 0 16.136650762840816 9.5024302265007918 0 0 0 0 5.8561176288199022 10.52555963728048 0 10.52555963728048 2.4771698712238504 0 0 0 0 0.071124557020243451 2.6342707546077184 0 2.6342707546077184 2.9594841673551628 0 0 0 0 8.5570179968162847 7.4894068566027272 0 7.4894068566027272 18.635357442533859 0 0 0 0 3.9746664091721193 7.8490480374510767 0 7.8490480374510767 -8.3559429108903416 0 0 0 0 3.4964164526309105 12.312169270396623 0 12.312169270396623 1.4362096095005938 0 0 0 0 8.6839958412721163 10.270277913548002 0 10.270277913548002 -1.2672892284734334 0 0 0 0 1.7511126229171907 10.198851340028 0 10.198851340028 2.0446482737088445 0 0 0 0 6.5373821397305099 10.524746089894824 0 10.524746089894824 0.39829492337087125 0 0 0 0 23.380882819252747 10.484273526518905 0 10.484273526518905 3.7561624474565178 0 0 0 0 -2.8826139697212056 22.525963669896328 0 22.525963669896328 23.646730760223591 0 0 0 0 -0.065454000717719119 3.9432384314272597 0 3.9432384314272597 0.2915238121781929 0 0 0 0 2.8472838267768061 7.9360674787387202 0 7.9360674787387202 -8.6591123744316167 0 0 0 0 -0.19167895901773591 2.4089630808659876 0 2.4089630808659876 -4.1565060094359296 0 0 0 0 0.48008241150498243 -0.26343377232787013 0 -0.26343377232787013 -3.8903782232931836 0 0 0 0 0.70819943279002473 3.4792243756046446 0 3.4792243756046446 -27.201202784816587 0 0 0 0 2.2559499401498897 -1.368476879615514 0 -1.368476879615514 -39.555012305338551 0 0 0 0 -0.38996293245145175 0.71854833067170354 0 0.71854833067170354 -0.52327169056819445 0 0 0 0 -2.5657134838056663 16.577661545134106 0 16.577661545134106 56.601120198411536 0 0 0 0 0.71245559677470283 8.4459784786398018 0 8.4459784786398018 42.484910340837814 0 0 0 0 4.7057162725341186 19.491721225655283 0 19.491721225655283 24.375018066117491 0 0 0 0 -15.05970374692555 19.267439503279519 0 19.267439503279519 25.375672463875162 0 0 0 0 7.6383260133672621 10.326424288535454 0 10.326424288535454 10.599360596720093 0 0 0 0 -7.9258176198800356 44.918002980793403 0 44.918002980793403 -3.764520974033303 0 0 0 0 13.666952333210999 9.0137269911103992 0 9.0137269911103992 3.6774099777678337 0 0 0 0 3.6009126646531513 12.231431664000297 0 12.231431664000297 19.405424885769207 0 0 0 0 -4.4938196036113709 27.25405284478731 0 27.25405284478731 43.143494911310427 0 0 0 0 -1.1745938467158528 2.0314195022311416 0 2.0314195022311416 -1.7384145882161031 0 0 0 0 -4.1958089540104737 17.707353061742197 0 17.707353061742197 -15.665113357232258 0 0 0 0 -3.2096576482649652 28.980437722527768 0 28.980437722527768 16.823591322777816 0 0 0 0 -3.1096092678644727 5.103699980183527 0 5.103699980183527 0.97802889393006209 0 0 0 0 5.1141793130714177 13.610523956286784 0 13.610523956286784 5.050807145849717 0 0 0 0 0.45606764984586334 10.276039287300136 0 10.276039287300136 12.747826570271172 0 0 0 0 0.49010828662312633 9.4231617781151726 0 9.4231617781151726 0.72556020200681814 0 0 0 0 1.0844849749378227 10.033184570151661 0 10.033184570151661 -1.190123800708534 0 0 0 0 0.71537282322063156 9.1510258592785689 0 9.1510258592785689 -1.9513727848844553 0 0 0 0 1.9500523524329765 9.9004282361365767 0 9.9004282361365767 4.2654572997798823 0 0 0 0 1.5629367833314411 13.61497057736552 0 13.61497057736552 0.85329238683688402 0 0 0 0 1.3294745848140828 9.3497888149148309 0 9.3497888149148309 2.1516606747842095 0 0 0 0 3.7024500828543849 11.948320125026342 0 11.948320125026342 9.1739358267475275 0 0 0 0 1.9231082975027221 9.5654358678057179 0 9.5654358678057179 -1.5999961630313919 0 0 0 0 0.68023762176066227 10.617798435090725 0 10.617798435090725 2.3850374514437567 0 0 0 0 2.714933039175321 11.181594087950543 0 11.181594087950543 -1.7519669191897265 0 0 0 0 3.461247398833069 17.080783512116341 0 17.080783512116341 15.679407977367983 0 0 0 0 2.1790997408879775 24.692398458029857 0 24.692398458029857 -11.853255411246209 0 0 0 0 10.69233541299036 18.137114085994654 0 18.137114085994654 -12.633391670991841 0 0 0 0 3.4746080528893906 12.603522559784446 0 12.603522559784446 4.2963471202028849 0 0 0 0 9.5101862967728721 22.444989739473385 0 22.444989739473385 -8.0219310524389584 0 0 0 0 5.9370146606560183 20.438112161318713 0 20.438112161318713 -8.2044816948982771 0 0 0 0 8.5848743254467195 34.639163420814896 0 34.639163420814896 -23.733968599437503 0 0 0 0 7.9635154946285081 10.50284485835591 0 10.50284485835591 6.8960182793422931 0 0 0 0 9.819790326932802 8.5569081365427575 0 8.5569081365427575 3.1238909727248414 0 0 0 0 5.899701841232627 34.18151523666711 0 34.18151523666711 -19.119715906577767 0 0 0 0 18.140984525092335 22.652359040530428 0 22.652359040530428 -17.922716927523652 0 0 0 0 25.029053825750907 15.246853508482673 0 15.246853508482673 -15.474938652945639 0 0 0 0 13.513140027989493 17.693497725884299 0 17.693497725884299 -10.54097296618238 0 0 0 0 21.682243436060617 10.789397985160122 0 10.789397985160122 -7.0203108198184054 0 0 0 0 35.930617034464831 -0.2809236702232738 0 -0.2809236702232738 -8.3225115816521793 0 0 0 0 17.056077472207107 13.055974358985623 0 13.055974358985623 -23.907813899928442 0 0 0 0 30.916978991406722 23.575775815895213 0 23.575775815895213 -16.483920584172665 0 0 0 0 -13.290114135797864 29.897823285520531 0 29.897823285520531 -19.767783060360671 0 0 0 0 24.945394451403899 49.331105345462674 0 49.331105345462674 -17.376453163744827 0 0 0 0 -29.033505303911625 32.058540184664707 0 32.058540184664707 -6.9104834447753092 0 0 0 0 -7.4840348641355945 62.414391748588059 0 62.414391748588059 -37.324603236180337 0 0 0 0 8.080067942883943 34.660414414847764 0 34.660414414847764 -21.643182556585998 0 0 0 0 11.814378368119108 9.6582938989277309 0 9.6582938989277309 7.6941641781169139 0 0 0 0 9.9933378407640703 43.30118284630953 0 43.30118284630953 -44.204597103953347 0 0 0 0 -16.280741003125058 32.525097597419517 0 32.525097597419517 -21.784072404279868 0 0 0 0 1.4699054128767095 5.5025307887578947 0 5.5025307887578947 -2.0737435593846736 0 0 0 0 1.1274467864423059 4.3513586927765573 0 4.3513586927765573 -4.9946622022453084 0 0 0 0 -0.50240890110944747 4.740718152221234 0 4.740718152221234 12.079558532126839 0 0 0 0 -2.0555515726268823 12.130194956941523 0 12.130194956941523 -5.8330831024341023 0 0 0 0 2.5574612720910226 5.2155077440686277 0 5.2155077440686277 -5.9327456176364635 0 0 0 0 -0.39476779243174676 5.063575511857179 0 5.063575511857179 -1.5698328852348578 0 0 0 0 -4.8830467465436413 10.127734798067195 0 10.127734798067195 32.263539694435167 0 0 0 0 0.44261378468218027 5.3074345877496398 0 5.3074345877496398 10.546131057786624 0 0 0 0 -3.9466489413716772 -4.6044467557512689 0 -4.6044467557512689 13.118665009393681 0 0 0 0 1.4252202231045885 0.31692725341508776 0 0.31692725341508776 6.7790671847351405 0 0 0 0 4.5069325464237409 1.8961220922742541 0 1.8961220922742541 6.9355064516912535 0 0 0 0 -70.289080257811293 -39.212911932187126 0 -39.212911932187126 -2.3351709926500916 0 0 0 0 1.7371100326608939 57.006911590321579 0 57.006911590321579 1.5734580972369372 0 0 0 0 0.77847406012925457 5.0723668502799306 0 5.0723668502799306 -2.7196054467504638 0 0 0 0 16.412645669724498 12.439161640094881 0 12.439161640094881 -20.729009732387567 0 0 0 0 3.3577026820003084 30.699370295737481 0 30.699370295737481 -39.362745025930053 0 0 0 0 0.5578470830303246 0.6093612115886522 0 0.6093612115886522 -0.58373665125334639 0 0 0 0 31.065192759798492 10.825491970988423 0 10.825491970988423 -14.646305731908797 0 0 0 0 8.2268116118871149 -6.8439165923045948 0 -6.8439165923045948 3.9528142702511104 0 0 0 0 -31.807688031748285 9.3173779536656411 0 9.3173779536656411 7.4068667414067022 0 0 0 0 -0.43093413076048259 5.2916768250888531 0 5.2916768250888531 -3.5586499357997781 0 0 0 0 -13.731095171805919 1.8232290634449555 0 1.8232290634449555 -4.8162163350298215 0 0 0 0 8.3657822604982357 5.7614158823871549 0 5.7614158823871549 2.2001316815294558 0 0 0 0 2.5158567429613496 4.6105956124775673 0 4.6105956124775673 3.5568353782371922 0 0 0 0 15.829018950323189 16.912029350829016 0 16.912029350829016 -11.007654754175746 0 0 0 0 -2.5500707401992599 10.450372627848878 0 10.450372627848878 -0.75010781553646666 0 0 0 0 -29.230494044253646 27.81273414917905 0 27.81273414917905 7.8355271446343977 0 0 0 0 -2.1347226877787762 14.745173589381011 0 14.745173589381011 -1.7306413453588902 0 0 0 0 -11.08969418873312 13.155483690361507 0 13.155483690361507 -0.60883772064153163 0 0 0 0 -4.7994618166358123 11.443704014249306 0 11.443704014249306 -5.2459009356680326 0 0 0 0 -0.36932170199179382 16.220260823352874 0 16.220260823352874 -5.2750240585628489 0 0 0 0 -2.8363505904280828 14.696749926868506 0 14.696749926868506 -0.03815329258213751 0 0 0 0 -0.30272545250899086 2.0894092129550188 0 2.0894092129550188 0.60504872295275636 0 0 0 0 -0.34124028542282758 14.650740723174749 0 14.650740723174749 -18.368213015035963 0 0 0 0 -3.1474880386704172 13.905897820935024 0 13.905897820935024 -3.2584462820432236 0 0 0 0 1.1901567271124804 24.668090962042697 0 24.668090962042697 11.958583524751361 0 0 0 0 -1.5978739648180635 13.94165589272734 0 13.94165589272734 -3.2592128518590471 0 0 0 0 -4.446828430581597 8.3026241733311785 0 8.3026241733311785 -5.4197366952877761 0 0 0 0 -1.3023366500547127 13.809147405396288 0 13.809147405396288 -5.9961519697617405 0 0 0 0 0.76532842882079422 12.018265055918164 0 12.018265055918164 -3.0883388845436457 0 0 0 0 -1.644087871274678 13.674827155051389 0 13.674827155051389 -3.5080144603816734 0 0 0 0 -1.5861438930096483 14.276512243115576 0 14.276512243115576 -4.9095435473157067 0 0 0 0 -0.74579402550182294 15.611613711065161 0 15.611613711065161 5.505726600993512 0 0 0 0 -1.6283546629961712 8.4458366636701854 0 8.4458366636701854 -4.412497029909602 0 0 0 0 14.135308475048987 22.089998389815264 0 22.089998389815264 -11.069230353179591 0 0 0 0 15.731412670495047 11.380465126087984 0 11.380465126087984 -6.532712507244014 0 0 0 0 -1.6203711508692589 3.9598365774197823 0 3.9598365774197823 -9.435946504409003 0 0 0 0 -1.4113817012536518 2.1580048472802336 0 2.1580048472802336 -0.28877989459705233 0 0 0 0 0.79741858509714802 13.334011151717505 0 13.334011151717505 4.9555432910801755 0 0 0 0 3.5777244341170444 13.026464335476703 0 13.026464335476703 4.988510730139069 0 0 0 0 -0.63241275282660681 7.8900737466345348 0 7.8900737466345348 -7.5288037046634582 0 0 0 0 2.3088224162429469 21.759986148941607 0 21.759986148941607 -4.3875147112767081 0 0 0 0 0.85958881827468758 13.15156415477486 0 13.15156415477486 -12.553265297170128 0 0 0 0 8.1592490498258918 10.11295915403546 0 10.11295915403546 -0.51869514261477434 0 0 0 0 1.7185798508423833 12.524250227770036 0 12.524250227770036 -0.82919903464594569 0 0 0 0 -3.0421375443047509 14.721625551831949 0 14.721625551831949 10.206668447159245 0 0 0 0 5.4667325117334258 14.571948801122971 0 14.571948801122971 -6.7386733275707229 0 0 0 0 1.0952925631081598 19.994558606088958 0 19.994558606088958 -11.124000872552188 0 0 0 0 -2.1681724712725554 10.699624167254569 0 10.699624167254569 -11.386954554183376 0 0 0 0 -2.4101183486782247 10.451538656293451 0 10.451538656293451 -18.574604488054547 0 0 0 0 -3.0605592102474475 18.370048455763481 0 18.370048455763481 -13.387583817405812 0 0 0 0 -2.9628876569295244 12.816575384440284 0 12.816575384440284 0.036838688496573013 0 0 0 0 0.11764088501968217 19.686458232245513 0 19.686458232245513 -6.0659266637026121 0 0 0 0 5.4026245386285154 15.742779036064348 0 15.742779036064348 3.779364737772994 0 0 0 0 2.4285663301379827 18.120397349133782 0 18.120397349133782 2.064462383571481 0 0 0 0 -3.8760333164300391 16.500207786760711 0 16.500207786760711 7.7288818347615234 0 0 0 0 0.35393390672925307 12.975202600342755 0 12.975202600342755 10.620837932370705 0 0 0 0 -1.6143234812407172 18.043679063503077 0 18.043679063503077 12.124637701428583 0 0 0 0 0.39186893675380574 7.4611467877336564 0 7.4611467877336564 -5.1646047710502856 0 0 0 0 4.1135685100430237 12.987778933672303 0 12.987778933672303 5.8751337012686236 0 0 0 0 -1.2502390789552464 12.574433847106434 0 12.574433847106434 -0.34826062773845479 0 0 0 0 -6.682701409141373 10.563092845089159 0 10.563092845089159 5.384523389753781 0 0 0 0 -7.1763791454977763 10.689337717051785 0 10.689337717051785 -0.91341163701167716 0 0 0 0 -4.9671653342165882 18.593701312301164 0 18.593701312301164 -21.121217110535781 0 0 0 0 -0.12136526273715731 -0.28556077103781519 0 -0.28556077103781519 -0.17200903635437959 0 0 0 0 9.8957048363690774 17.500861338088612 0 17.500861338088612 -66.687052246026269 0 0 0 0 -9.6546313268245285 4.3309096441619204 0 4.3309096441619204 -29.599338381429106 0 0 0 0 -0.6658398509025325 0.21754054668559508 0 0.21754054668559508 0.72132718075068714 0 0 0 0 -9.2305231121021336 17.596125961344242 0 17.596125961344242 -24.737882312213515 0 0 0 0 2.3265962858331477 15.390940113938996 0 15.390940113938996 -37.079656515428724 0 0 0 0 -1.3610956575471391 17.092534813543494 0 17.092534813543494 -20.322230243086779 0 0 0 0 -13.65491615801227 8.5671554804176822 0 8.5671554804176822 9.065999307035554 0 0 0 0 2.5913695481760346 1.941770184937587 0 1.941770184937587 1.3484757506711182 0 0 0 0 -18.167930094290568 -20.62539388848063 0 -20.62539388848063 30.28286781566635 0 0 0 0 13.757544239863819 9.7388053166723694 0 9.7388053166723694 33.975568539475717 0 0 0 0 31.673493146422516 21.000073667316201 0 21.000073667316201 -9.3673770783005921 0 0 0 0 -0.41219316228512071 -15.20916902070644 0 -15.20916902070644 2.8215694611621984 0 0 0 0 0.32463076302883564 19.264704684313529 0 19.264704684313529 -11.646534166281015 0 0 0 0 3.6104000889255321 4.9656448629458616 0 4.9656448629458616 1.46696030979132 0 0 0 0 -5.7907604468618956 14.753743467173081 0 14.753743467173081 0.2762963058673904 0 0 0 0 -1.3187019852889534 9.7123128507294041 0 9.7123128507294041 -1.2612203061275977 0 0 0 0 -6.1655810286110331 8.6170983018410681 0 8.6170983018410681 8.3544503708037894 0 0 0 0 -1.8619428666863769 9.7144858396438849 0 9.7144858396438849 0.57389834613513813 0 0 0 0 0.22439878590652285 7.2288147849457616 0 7.2288147849457616 3.7390295102922702 0 0 0 0 -1.2283922359107464 11.555658679806742 0 11.555658679806742 3.8585622226707983 0 0 0 0 -1.5889859868312151 2.9158602920943162 0 2.9158602920943162 4.9667707729347743 0 0 0 0 -6.8289461074245992 11.345016896153084 0 11.345016896153084 -15.202563317357999 0 0 0 0 1.2056638337326149 7.1376727979268253 0 7.1376727979268253 -29.74237461206485 0 0 0 0 5.5043801750307466 14.885052689949362 0 14.885052689949362 12.27967527415268 0 0 0 0 2.8979685167872287 7.8986336695445036 0 7.8986336695445036 9.4544249214367433 0 0 0 0 -5.7218743635580722 17.541821912030855 0 17.541821912030855 5.3281558157164 0 0 0 0 -5.582872286773636 13.885640889042634 0 13.885640889042634 8.0085881798502214 0 0 0 0 -5.7188955121406764 16.533190390414184 0 16.533190390414184 13.079863978879985 0 0 0 0 -3.9999252103712024 13.842216339900915 0 13.842216339900915 6.0436120755612706 0 0 0 0 -7.9041552714188583 6.8264221555901941 0 6.8264221555901941 11.834079949510397 0 0 0 0 -13.067038629401395 12.708738844406753 0 12.708738844406753 13.259473781096858 0 0 0 0 -8.8685454051096713 18.871884112676071 0 18.871884112676071 21.480082228794913 0 0 0 0 0.87696798503691653 0.55282279753080044 0 0.55282279753080044 0.45781009955282492 0 0 0 0 -40.397171631566266 -60.886987470951766 0 -60.886987470951766 89.824034373952145 0 0 0 0 -3.2005688192003277 11.681014702630847 0 11.681014702630847 8.5636500638674988 0 0 0 0 4.556118870105796 8.0937288454252201 0 8.0937288454252201 11.285790061351243 0 0 0 0 0.58266341127136911 51.967810482140067 0 51.967810482140067 13.771253035115507 0 0 0 0 2.5483489437588105 8.387668009990648 0 8.387668009990648 9.9235426961554367 0 0 0 0 0.021160962012800155 10.600433522175081 0 10.600433522175081 8.5579829453107923 0 0 0 0 4.8951193148308016 9.1850553234012153 0 9.1850553234012153 10.127036736457441 0 0 0 0 3.6737259947940402 11.668018078215709 0 11.668018078215709 12.232938751248639 0 0 0 0 28.693375520803329 98.0760238880423 0 98.0760238880423 -10.060062381507578 0 0 0 0 7.7273230910066104 12.955184509159217 0 12.955184509159217 15.158991867118971 0 0 0 0 8.3309711772388368 -33.818850861942394 0 -33.818850861942394 55.190789057644906 0 0 0 0 -17.653713774670905 6.4292492163792758 0 6.4292492163792758 9.3975438365976061 0 0 0 0 -0.62310588115998033 1.9700701202333661 0 1.9700701202333661 0.46659401430396663 0 0 0 0 -22.081318652617938 18.662061067607056 0 18.662061067607056 50.659865548867401 0 0 0 0 4.1720375993909329 -7.7595499004391968 0 -7.7595499004391968 -33.62166822466861 0 0 0 0 0.57437452012219126 4.6721734719962331 0 4.6721734719962331 -2.677048935481543 0 0 0 0 0.66536022491072799 8.0518373500183316 0 8.0518373500183316 3.1876599408528818 0 0 0 0 36.857611134188119 -2.8248151172806502 0 -2.8248151172806502 -3.7109880514926772 0 0 0 0 -1.5043999243901496 2.800096951477725 0 2.800096951477725 1.6675912831523885 0 0 0 0 -2.5945644727677637 6.6941605585418902 0 6.6941605585418902 -1.1679053520743614 0 0 0 0 1.4432177532288613 0.35548039335201231 0 0.35548039335201231 -0.4006778630635166 0 0 0 0 115.56473945685684 9.0560377160165899 0 9.0560377160165899 0.1985513406825703 0 0 0 0 -22.983425383730719 -38.433834896555823 0 -38.433834896555823 -11.788883281923518 0 0 0 0 -85.219566172283521 9.0734512974038353 0 9.0734512974038353 5.9130121141955669 0 0 0 0 70.342008245037505 50.951311823042261 0 50.951311823042261 -79.232749486341959 0 0 0 0 71.430692512260066 40.109517812372644 0 40.109517812372644 -4.2336047720016268 0 0 0 0 -20.156906414145851 43.32821595048074 0 43.32821595048074 -37.512012093192652 0 0 0 0 0.73296263961947261 5.9885997814631651 0 5.9885997814631651 -56.01768331213151 0 0 0 0 18.59776484939448 15.197743402867161 0 15.197743402867161 11.000552418638563 0 0 0 0 -1.4581415904807713 0.28894588571819657 0 0.28894588571819657 -0.10665507055318901 0 0 0 0 -20.817245394785004 1.0542055944004289 0 1.0542055944004289 13.069613200246977 0 0 0 0 -5.8344077363017277 19.223319324406589 0 19.223319324406589 1.5383835018415084 0 0 0 0 -12.738143865596612 47.461590935221714 0 47.461590935221714 39.604403275154439 0 0 0 0 -5.9067258334595643 6.1455655231305624 0 6.1455655231305624 -6.3692819031741426 0 0 0 0 -5.1471721684311191 7.8847526356923092 0 7.8847526356923092 -6.1098453751488933 0 0 0 0 -61.799759175111376 34.991980581484427 0 34.991980581484427 47.641061650404254 0 0 0 0 -5.626495633722925 6.1870389629777947 0 6.1870389629777947 0.60097774959558592 0 0 0 0 1.652888408508943 15.250159081399715 0 15.250159081399715 5.6676401389729563 0 0 0 0 1.9022664636577247 14.356510804788286 0 14.356510804788286 5.4868639981817751 0 0 0 0 -34.604406197538538 14.972047308695664 0 14.972047308695664 13.198231554118649 0 0 0 0 55.572806304096957 30.994871403452862 0 30.994871403452862 -19.937456931272436 0 0 0 0 0.076391254939156217 0.092913112299158662 0 0.092913112299158662 0.25667047914640584 0 0 0 0 1.9655455377219369 26.707948297995472 0 26.707948297995472 23.793684773543873 0 0 0 0 1.929206452469316 28.309685724649626 0 28.309685724649626 -31.173281167711593 0 0 0 0 34.33169085704526 28.324980588163498 0 28.324980588163498 10.442935794421373 0 0 0 0 18.545169050230925 56.783327971048948 0 56.783327971048948 17.03312107245165 0 0 0 0 0.014186504897679697 29.182959258919823 0 29.182959258919823 -9.1072043273843519 0 0 0 0 -14.568402887595767 5.0883418718401696 0 5.0883418718401696 2.2150305591590964 0 0 0 0 2.2857495331438145 -1.4833126842535087 0 -1.4833126842535087 -3.8097124535562443 0 0 0 0 2.7608072735204132 -8.4008579062787696 0 -8.4008579062787696 13.181281526633597 0 0 0 0 -0.56994251394735329 11.192982738292585 0 11.192982738292585 -2.0847691096460892 0 0 0 0 -10.139649934753834 27.857225991931216 0 27.857225991931216 27.269501495039208 0 0 0 0 0.32184413922914246 23.400416597335777 0 23.400416597335777 -10.50399003198153 0 0 0 0 -7.5452105692893383 31.606527499547724 0 31.606527499547724 -2.3574901870558733 0 0 0 0 4.0172660449762478 4.1062414744299254 0 4.1062414744299254 1.0460538837074151 0 0 0 0 0.66567294075957761 9.9806885477939886 0 9.9806885477939886 -6.066824779251192 0 0 0 0 -12.43846955402114 13.356815185435046 0 13.356815185435046 -0.57765168272488765 0 0 0 0 4.0151255274186859 4.4230879495535147 0 4.4230879495535147 1.7545228330850593 0 0 0 0 1.4596576023213856 6.287695054141011 0 6.287695054141011 -4.5843962011283281 0 0 0 0 0.65264637802920333 7.1128703891849909 0 7.1128703891849909 -1.0476897739761739 0 0 0 0 2.2883985507193074 7.7164632947380341 0 7.7164632947380341 -11.110006094148503 0 0 0 0 2.2666068170310609 7.6296180885664171 0 7.6296180885664171 -4.0377957310718671 0 0 0 0 0.58041106931796094 0.92654009296381901 0 0.92654009296381901 -11.96799897590131 0 0 0 0 4.4919471665834863 5.3432004180674539 0 5.3432004180674539 -19.351922235524569 0 0 0 0 -1.1936267590945135 2.9874482307818653 0 2.9874482307818653 -2.4726383985076836 0 0 0 0 -2.4573527936642652 2.4738037442510565 0 2.4738037442510565 -0.026494586737496384 0 0 0 0 3.3708326701953411 8.4330760953953003 0 8.4330760953953003 16.524514434047536 0 0 0 0 -3.5999266338270779 6.6616622052865377 0 6.6616622052865377 -3.337883023193041 0 0 0 0 3.5674101495017112 9.7667979762502508 0 9.7667979762502508 7.4277882242108006 0 0 0 0 2.7995620231040448 16.106503600087592 0 16.106503600087592 14.797951559658301 0 0 0 0 0.19574574461725902 0.35745138124674725 0 0.35745138124674725 -4.0403504482778221 0 0 0 0 -25.033043459809051 13.985246616113727 0 13.985246616113727 -22.837731689291104 0 0 0 0 -1.2399550556092436 11.410612912954093 0 11.410612912954093 -4.0781913855121275 0 0 0 0 0.086127930970178568 10.892765375772342 0 10.892765375772342 -3.9725992059505302 0 0 0 0 0.73356332870514507 11.851406103442066 0 11.851406103442066 -2.8137840784329047 0 0 0 0 -0.65819829663225882 6.2364945910111089 0 6.2364945910111089 -0.98773491307570893 0 0 0 0 -0.86016123971967318 5.0340646871941317 0 5.0340646871941317 -7.3401009813587734 0 0 0 0 0.15735923852299294 5.8611382265108407 0 5.8611382265108407 -1.2305484131203421 0 0 0 0 -0.13776327113919251 8.6286861706639684 0 8.6286861706639684 -1.6618486899697018 0 0 0 0 1.9067043482931325 4.8048456234114987 0 4.8048456234114987 -4.6361326120769739 0 0 0 0 2.9901939668936848 16.802438655653024 0 16.802438655653024 7.9590971685097642 0 0 0 0 3.5866516967802387 7.6571329443025862 0 7.6571329443025862 2.7586360732540798 0 0 0 0 -5.3600400631985394 2.885882529544233 0 2.885882529544233 1.294888280246127 0 0 0 0 -0.16922247077582142 11.389753993064858 0 11.389753993064858 -3.0103983772642096 0 0 0 0 -3.0682875406728272 11.965151403160746 0 11.965151403160746 -2.6194280047886309 0 0 0 0 -3.0721022333930073 6.9904975249768047 0 6.9904975249768047 -1.0702652831244017 0 0 0 0 1.9748942854521854 5.3929835058923867 0 5.3929835058923867 -3.1342370856479835 0 0 0 0 -1.4717742391057982 7.0099254997562639 0 7.0099254997562639 -6.7504702079913841 0 0 0 0 -3.7394849108413837 9.8013960090420369 0 9.8013960090420369 -2.1156472093280172 0 0 0 0 0.30233624557786243 11.358113903355388 0 11.358113903355388 -6.0734499719283122 0 0 0 0 0.15425816304103535 5.0417171565617931 0 5.0417171565617931 0.16531281216884075 0 0 0 0 -2.1536859833704973 7.4409553312239174 0 7.4409553312239174 1.7969955532826969 0 0 0 0 4.3763623170007122 13.448075797743741 0 13.448075797743741 -1.4255873755231505 0 0 0 0 -1.4976668854751551 6.5368462725866721 0 6.5368462725866721 -2.8798435236139994 0 0 0 0 -4.0013788978141207 6.2219997648886363 0 6.2219997648886363 -2.7417083000370468 0 0 0 0 -2.5800225551847689 7.3893521736976027 0 7.3893521736976027 -9.4562842719014952 0 0 0 0 1.2529963799996366 2.5166636635558222 0 2.5166636635558222 -0.61658058114385228 0 0 0 0 -2.4579379018414329 7.8462798077802063 0 7.8462798077802063 -10.636982785693817 0 0 0 0 2.5472515417471975 4.6551469495490796 0 4.6551469495490796 0.17760596906801629 0 0 0 0 -1.6082944075478736 9.4335849176081865 0 9.4335849176081865 -8.2562612505959123 0 0 0 0 -2.6879657230747398 7.0222393042502347 0 7.0222393042502347 -10.415953131670676 0 0 0 0 -4.5789478448150458 4.1773056668077881 0 4.1773056668077881 -3.983305610316064 0 0 0 0 0.17531099587199606 6.3060080730402888 0 6.3060080730402888 -0.15117054826987442 0 0 0 0 3.0348621338794146 12.688211598684234 0 12.688211598684234 1.930218104506821 0 0 0 0 -0.26390684837497247 8.6244124895447385 0 8.6244124895447385 -2.7070220572850303 0 0 0 0 -1.9223251433868427 8.276794945039228 0 8.276794945039228 2.2127049261744105 0 0 0 0 -4.024868468829613 4.8163035367520912 0 4.8163035367520912 -3.7805783243759699 0 0 0 0 0.73903024162973452 11.35435135593616 0 11.35435135593616 -1.5620802418100084 0 0 0 0 1.4254134143866395 7.4643785268081047 0 7.4643785268081047 -1.1792617904293365 0 0 0 0 9.2188060425141884 27.003724611603957 0 27.003724611603957 9.7125220480156713 0 0 0 0 6.2882555093706287 24.22827439315688 0 24.22827439315688 16.93744738845453 0 0 0 0 14.225579881946032 24.543533237770134 0 24.543533237770134 1.9066882579372759 0 0 0 0 1.1839193143514422 24.565826020139866 0 24.565826020139866 17.734122268127976 0 0 0 0 -2.060844818217447 10.879066055804287 0 10.879066055804287 23.752320943896848 0 0 0 0 8.3436252721394339 -0.37056444719200954 0 -0.37056444719200954 -7.0690629049295239 0 0 0 0 -2.9888138744709067 11.973123939925927 0 11.973123939925927 44.29996323011801 0 0 0 0 0.03202422559099638 1.4690743970497877 0 1.4690743970497877 -2.3762877347980655 0 0 0 0 1.7828669063934512 28.775792539208396 0 28.775792539208396 42.091204289221423 0 0 0 0 39.423165496516049 31.575234359012029 0 31.575234359012029 12.736271325502457 0 0 0 0 -4.9321978838543146 47.637600802047018 0 47.637600802047018 0.62909468351972464 0 0 0 0 1.4109434471538407 62.818165926758866 0 62.818165926758866 21.819470109603571 0 0 0 0 4.3027599072993326 1.37102404230518 0 1.37102404230518 8.2565220907345065 0 0 0 0 5.6515141571439038 10.586061517947577 0 10.586061517947577 11.361944551755014 0 0 0 0 32.234916450795936 21.848384165376956 0 21.848384165376956 -9.1443539379142749 0 0 0 0 -1.5695942979855317 19.601655354845661 0 19.601655354845661 11.431720900378423 0 0 0 0 -21.791029373242964 6.4935445464948316 0 6.4935445464948316 17.525590682860638 0 0 0 0 4.8417105131097742 15.032715830112011 0 15.032715830112011 10.990569328847414 0 0 0 0 8.1602217848276268 21.825251240699799 0 21.825251240699799 -18.725409887118076 0 0 0 0 -0.87260211779744168 22.032896754848707 0 22.032896754848707 -18.385463473960044 0 0 0 0 -9.2134327774147096 26.493001934065887 0 26.493001934065887 11.387387017313813 0 0 0 0 -5.3977479596605917 1.9965314213422971 0 1.9965314213422971 -32.271065587374324 0 0 0 0 5.5849882445736512 13.231085227760332 0 13.231085227760332 -55.944405591133545 0 0 0 0 -30.659151538206061 -28.377137599680282 0 -28.377137599680282 -64.73600386324074 0 0 0 0 7.1344981901875144 18.184597505182182 0 18.184597505182182 -18.465947427659557 0 0 0 0 2.7187202391160099 4.8962592970096921 0 4.8962592970096921 -40.456327851873539 0 0 0 0 3.2978626184622044 21.246416799645885 0 21.246416799645885 2.1212114621599767 0 0 0 0 13.139636142320796 21.658635205218161 0 21.658635205218161 -14.30227244809339 0 0 0 0 10.014313958082312 18.26096707624356 0 18.26096707624356 6.8737027189858964 0 0 0 0 15.276167781576532 9.2511727357928066 0 9.2511727357928066 -12.672385124935317 0 0 0 0 9.6054967295413007 13.879289451249406 0 13.879289451249406 -11.54406790338362 0 0 0 0 16.058011285227622 10.114990933324407 0 10.114990933324407 -19.333258000987371 0 0 0 0 9.5814543212227363 10.842626918327369 0 10.842626918327369 -5.039617993848708 0 0 0 0 11.838342868924201 14.698086666485551 0 14.698086666485551 -3.5808661548999225 0 0 0 0 12.31898571785996 17.222804911612911 0 17.222804911612911 -5.5400720221914526 0 0 0 0 11.728828617404815 18.120437101116295 0 18.120437101116295 2.9848053827354306 0 0 0 0 3.741009505024067 8.1446129165728962 0 8.1446129165728962 0.96102188811312317 0 0 0 0 -0.72850970480794786 9.1344015178481186 0 9.1344015178481186 3.3195299626518135 0 0 0 0 3.4287640548504896 8.6068235258771892 0 8.6068235258771892 2.5558792684346372 0 0 0 0 -1.1223797422849202 5.4956480235830441 0 5.4956480235830441 1.8466654182780076 0 0 0 0 -9.5352845623694975 13.395937279244265 0 13.395937279244265 4.6080863375705121 0 0 0 0 20.516374622381136 14.829453839203097 0 14.829453839203097 -2.613804161254393 0 0 0 0 -2.4663682004920702 15.658446850811401 0 15.658446850811401 8.7729897766271279 0 0 0 0 8.1356204138473913 25.957890548801061 0 25.957890548801061 15.70687098045471 0 0 0 0 6.3953655592624443 9.9347240459742849 0 9.9347240459742849 12.797355101306032 0 0 0 0 -18.942715619354999 20.952107696162102 0 20.952107696162102 16.056409301369058 0 0 0 0 -0.20985888636489136 1.9137426354645033 0 1.9137426354645033 3.3900548116936009 0 0 0 0 3.6509396520400514 16.059855421336351 0 16.059855421336351 8.7935233634279939 0 0 0 0 7.6791913172501154 13.26614900751656 0 13.26614900751656 7.5251828577270317 0 0 0 0 14.676612841154565 62.905065298662066 0 62.905065298662066 -42.755727436294364 0 0 0 0 -42.435720009228135 -53.107686512174951 0 -53.107686512174951 4.1135068773073726 0 0 0 0 5.3170163102499934 5.5131283381462985 0 5.5131283381462985 1.1809314198162646 0 0 0 0 29.599511586260633 30.725647964386098 0 30.725647964386098 -117.77109719947293 0 0 0 0 3.7278409915434167 28.120633759259363 0 28.120633759259363 -15.823860823345967 0 0 0 0 -21.560010540686562 33.065740482090405 0 33.065740482090405 57.44255659040482 0 0 0 0 -6.8271621705462167 32.888792970707073 0 32.888792970707073 -16.836538700019446 0 0 0 0 10.962206382042837 -21.607993825361049 0 -21.607993825361049 -135.6059036570532 0 0 0 0 -6.1317501297780836 96.292183157620002 0 96.292183157620002 150.27168654618254 0 0 0 0 2.1852734943895484 -48.130441670433356 0 -48.130441670433356 -124.86374436212782 0 0 0 0 -1.0166871188237963 0.56627677011721822 0 0.56627677011721822 -0.22165928929941003 0 0 0 0 12.591551183239062 15.544018254178809 0 15.544018254178809 -59.809996286054229 0 0 0 0 -16.609200616414455 125.34888966584003 0 125.34888966584003 75.500947933769567 0 0 0 0 -5.3582780813420925 4.0490607207928555 0 4.0490607207928555 -1.103296750323949 0 0 0 0 8.8484275713576608 2.9370309539390291 0 2.9370309539390291 129.22804665857439 0 0 0 0 0.51106698716913534 5.1343592160131655 0 5.1343592160131655 -4.1599928103159858 0 0 0 0 -0.13950410132492941 1.3903304447458638 0 1.3903304447458638 -1.6969802950356652 0 0 0 0 46.120855067055345 78.580805548211174 0 78.580805548211174 72.766812854493764 0 0 0 0 -47.776888879654507 -27.750350763380993 0 -27.750350763380993 101.48530920553003 0 0 0 0 2.0660418647553342 8.1694713063443487 0 8.1694713063443487 -1.2787776726381708 0 0 0 0 1.7415534513761486 7.7629377411067253 0 7.7629377411067253 2.3518266309820319 0 0 0 0 2.4576405019803715 7.8248774733037703 0 7.8248774733037703 3.378606940101343 0 0 0 0 2.0219348247894473 6.9832406490061381 0 6.9832406490061381 -1.7011357698363287 0 0 0 0 1.5493030795587401 7.1163857967903823 0 7.1163857967903823 1.0365929485271863 0 0 0 0 8.1294994835952821 15.989853592941472 0 15.989853592941472 30.66615289760739 0 0 0 0 -19.831140921132828 -11.938418305851883 0 -11.938418305851883 35.78865825074331 0 0 0 0 -5.4521480694593265 34.03711645970543 0 34.03711645970543 53.729757458826498 0 0 0 0 -3.6651819662110938 -20.437802726037944 0 -20.437802726037944 -28.842038216667788 0 0 0 0 -16.846138755088759 -29.458108021076441 0 -29.458108021076441 -15.318879450534951 0 0 0 0 -12.515586480893035 -53.072386307268971 0 -53.072386307268971 -119.74581924957914 0 0 0 0 -11.54865912453397 -7.7938399637873772 0 -7.7938399637873772 -20.348558484271052 0 0 0 0 -20.691175672510326 64.170679605568694 0 64.170679605568694 -113.96621432539905 0 0 0 0 -7.8519260301877694 30.20422438065907 0 30.20422438065907 -24.868369478816021 0 0 0 0 -49.472927979367341 16.201097756908894 0 16.201097756908894 41.997973845385786 0 0 0 0 -68.00007310668525 55.835058452641533 0 55.835058452641533 -4.5657245707498078 0 0 0 0 -1.148085260013076 0.38225363455673822 0 0.38225363455673822 -0.34462146788476744 0 0 0 0 37.682216346798668 17.032195668867644 0 17.032195668867644 -244.59988771003191 0 0 0 0 -119.76612665646235 78.390563360747365 0 78.390563360747365 -37.10318072258633 0 0 0 0 64.246618191390098 45.415220844271062 0 45.415220844271062 -33.259540233424559 0 0 0 0 -14.957650528223894 25.879372664905532 0 25.879372664905532 -59.139058073566957 0 0 0 0 -40.690310166375639 87.296538440816221 0 87.296538440816221 40.160568424484154 0 0 0 0 42.409453017905435 -13.608597947921226 0 -13.608597947921226 -35.181435117973706 0 0 0 0 26.85084796031515 119.09586683959242 0 119.09586683959242 -107.96655103213561 0 0 0 0 -2.110669784455439 1.0987279513864614 0 1.0987279513864614 -0.62533877171694385 0 0 0 0 143.35871273661724 -63.475209824866397 0 -63.475209824866397 168.05874188675239 0 0 0 0 24.65186254985565 32.685923785393925 0 32.685923785393925 -133.11826334164107 0 0 0 0 13.390081241829193 18.09199555813484 0 18.09199555813484 -78.858685363704353 0 0 0 0 -2.2844557909433156 3.2833782503019453 0 3.2833782503019453 1.5778560936966297 0 0 0 0 1.81915314938332 1.6579848003342725 0 1.6579848003342725 -2.1657630639078143 0 0 0 0 -5.2580208251838485 26.716786072121977 0 26.716786072121977 -50.34250974142924 0 0 0 0 -13.681548252525317 18.23980606762052 0 18.23980606762052 -5.8932545239003957 0 0 0 0 4.2036945129393644 16.855304016737136 0 16.855304016737136 11.574811394991229 0 0 0 0 6.0554349972509272 8.2863959594819789 0 8.2863959594819789 -0.015454836140634143 0 0 0 0 6.0628332551495987 9.6241410212224245 0 9.6241410212224245 10.625562275164455 0 0 0 0 2.2717698797996491 25.537416476106955 0 25.537416476106955 -13.092736947532103 0 0 0 0 -3.982734832303322 22.982496380980592 0 22.982496380980592 -11.094311847386052 0 0 0 0 14.165964554502352 24.174362320178261 0 24.174362320178261 -14.74889029262431 0 0 0 0 4.6265091095359292 6.6228260152269698 0 6.6228260152269698 9.7068434251944851 0 0 0 0 -21.785097442988445 13.821709680069944 0 13.821709680069944 7.3130296837225615 0 0 0 0 -5.7809037091637947 12.237602510431316 0 12.237602510431316 3.5447364489391475 0 0 0 0 -21.816428008753128 24.623244828763152 0 24.623244828763152 1.4434148822838324 0 0 0 0 -18.573357234125979 23.999287017462848 0 23.999287017462848 -2.5951797933148555 0 0 0 0 -32.395504812918382 35.09343273841192 0 35.09343273841192 -7.141215619558352 0 0 0 0 -12.330022994907267 29.057624352361017 0 29.057624352361017 -24.009239511970009 0 0 0 0 -32.601343194997298 16.537238133997278 0 16.537238133997278 7.2223910010488908 0 0 0 0 -22.391361249385227 20.102126951178434 0 20.102126951178434 5.22533815196266 0 0 0 0 15.374286234429292 14.355435100952946 0 14.355435100952946 -12.450243432343996 0 0 0 0 2.5934122065582486 3.1568634442566683 0 3.1568634442566683 -1.1364060158592699 0 0 0 0 -14.930799770000704 4.8301094108146572 0 4.8301094108146572 17.758385350367362 0 0 0 0 5.8068767558361571 2.8865389594150201 0 2.8865389594150201 -0.94698118853739288 0 0 0 0 -0.43579144994652097 -0.31593596656883527 0 -0.31593596656883527 0.52309899059255471 0 0 0 0 6.6042886948129933 -6.4760350784474667 0 -6.4760350784474667 -23.550402249162289 0 0 0 0 16.561748554513542 29.6940021064147 0 29.6940021064147 18.064194793978459 0 0 0 0 28.165524383822913 1.9934667073448509 0 1.9934667073448509 -22.357657269854826 0 0 0 0 -0.13851604352982605 1.7092541639557393 0 1.7092541639557393 -1.490348461410008 0 0 0 0 74.367567245067221 44.754220882602112 0 44.754220882602112 23.685750988419386 0 0 0 0 10.046383103931475 -18.253896265722688 0 -18.253896265722688 -18.52018823248136 0 0 0 0 39.148212769048769 80.973118281779534 0 80.973118281779534 1.2322909735412395 0 0 0 0 -2.3379026287329907 -56.660852153669111 0 -56.660852153669111 66.05265312366646 0 0 0 0 -12.736430456528069 0.31757259188907483 0 0.31757259188907483 -9.8388340042438358 0 0 0 0 14.90948394392035 12.643592739613268 0 12.643592739613268 -24.839143260984201 0 0 0 0 -66.817750291189441 232.71609215061108 0 232.71609215061108 -23.155164384808813 0 0 0 0 -5.4138277299343827 -12.15899769061798 0 -12.15899769061798 -37.225155050129842 0 0 0 0 -1.1648323138811634 1.6415185097436833 0 1.6415185097436833 -1.4902076917972771 0 0 0 0 4.6030513168370817 53.088206799133332 0 53.088206799133332 32.132098795511411 0 0 0 0 2.7671518801289494 -22.767490016353804 0 -22.767490016353804 -25.609626369639045 0 0 0 0 -77.035157287933544 -18.323291385915581 0 -18.323291385915581 100.42464190359806 0 0 0 0 7.583501294713642 256.60216826834949 0 256.60216826834949 113.17813650618336 0 0 0 0 -159.79663562903806 45.304532075911084 0 45.304532075911084 170.78160952293547 0 0 0 0 9.9799552033173313 18.513521342175409 0 18.513521342175409 -9.3013441456678265 0 0 0 0 8.281442393071103 7.6881339965548428 0 7.6881339965548428 -4.0005743910740001 0 0 0 0 14.888284757253132 13.264854171242405 0 13.264854171242405 -12.968375095570082 0 0 0 0 12.159666151934516 18.115472917039597 0 18.115472917039597 -18.056947542696435 0 0 0 0 21.73058130249774 20.032833221070177 0 20.032833221070177 -18.40068574604993 0 0 0 0 24.243141430205469 9.4348582496584186 0 9.4348582496584186 -23.262978545735677 0 0 0 0 20.905145736584018 10.600531469710404 0 10.600531469710404 -19.247194669987948 0 0 0 0 10.784833260653613 5.6326622857759503 0 5.6326622857759503 -21.074233418014956 0 0 0 0 10.664739180406578 6.2184012953861512 0 6.2184012953861512 -5.4152730557091004 0 0 0 0 19.576450420260244 0.14643299597582882 0 0.14643299597582882 -33.115805096376789 0 0 0 0 109.12268138072159 -7.3379545403840893 0 -7.3379545403840893 -62.625219383926833 0 0 0 0 0.29900424694478644 -0.16452042303083658 0 -0.16452042303083658 -0.43611137897915153 0 0 0 0 -15.631452019005337 -14.616335554084799 0 -14.616335554084799 44.764756596974166 0 0 0 0 13.751844052758315 7.4145997889409045 0 7.4145997889409045 -26.379617967132617 0 0 0 0 24.402111381905343 1.120196948901139 0 1.120196948901139 -22.704064990271945 0 0 0 0 9.9188597969041439 -8.3365003207054542 0 -8.3365003207054542 -28.114998456205285 0 0 0 0 10.315468317375235 -3.6652919067748826 0 -3.6652919067748826 -26.588515321012892 0 0 0 0 5.0965572129562133 -7.2822984323238416 0 -7.2822984323238416 -20.531928414315189 0 0 0 0 12.000104371229515 6.0640053290201799 0 6.0640053290201799 -6.8351477494024735 0 0 0 0 9.3794978661535424 -0.11084591423241363 0 -0.11084591423241363 -17.280689804371832 0 0 0 0 -3.7563688656937302 6.5317642677146068 0 6.5317642677146068 0.019661940002151823 0 0 0 0 19.4852725913006 12.952137782626778 0 12.952137782626778 -19.421733188084545 0 0 0 0 0.68323129017229078 0.51600081064219516 0 0.51600081064219516 0.26411273026899096 0 0 0 0 -18.66615724918816 52.795521100795327 0 52.795521100795327 26.910490100673996 0 0 0 0 6.4734190994147411 -4.143934214028036 0 -4.143934214028036 -6.4327576798004884 0 0 0 0 7.14248363774891 -1.0867252253323159 0 -1.0867252253323159 -3.8100105771463859 0 0 0 0 18.945448486520036 -7.8558949695543561 0 -7.8558949695543561 -11.195401241835498 0 0 0 0 26.597509241231364 6.9506962264708818 0 6.9506962264708818 -19.047781656325242 0 0 0 0 49.926626462478453 -20.737626878662923 0 -20.737626878662923 6.6966930584469537 0 0 0 0 33.003885125511715 8.2890459964418142 0 8.2890459964418142 -3.3732592378801201 0 0 0 0 30.034797217233063 -17.508269536796433 0 -17.508269536796433 6.2465673186270578 0 0 0 0 66.689628089145117 2.3493721153317892 0 2.3493721153317892 -2.3579195655693184 0 0 0 0 41.403751907026162 7.0210959980295229 0 7.0210959980295229 -12.61412989683231 0 0 0 0 55.15677721863176 22.122230430577474 0 22.122230430577474 0.55262441050604139 0 0 0 0 33.56445492198327 17.637014264732898 0 17.637014264732898 1.6187111315593938 0 0 0 0 24.417237843966177 6.1004078251608007 0 6.1004078251608007 -12.029599517511087 0 0 0 0 35.835346533001939 9.3312880415960535 0 9.3312880415960535 -19.295314574383156 0 0 0 0 44.596812331768888 19.171797989234619 0 19.171797989234619 -11.458429888793724 0 0 0 0 26.290000884078836 19.731715828182587 0 19.731715828182587 -11.455252138486685 0 0 0 0 28.085311939234089 17.371363505895715 0 17.371363505895715 -17.457199774324181 0 0 0 0 23.379119297259422 26.129700467849489 0 26.129700467849489 19.574759095723493 0 0 0 0 40.180832002961779 45.780006658551429 0 45.780006658551429 32.391039806134359 0 0 0 0 109.15241320038103 69.023110290666409 0 69.023110290666409 12.728950151404206 0 0 0 0 99.255451546416225 52.744906792634538 0 52.744906792634538 5.2721316162333096 0 0 0 0 84.982082453737348 43.680491795497801 0 43.680491795497801 27.896136592644325 0 0 0 0 108.64536970959307 30.110982118183529 0 30.110982118183529 35.56394636897312 0 0 0 0 0.57164528947375004 -0.051180524591353915 0 -0.051180524591353915 -0.67762921465531178 0 0 0 0 51.558987467285078 18.174502164198202 0 18.174502164198202 -3.5001321815689153 0 0 0 0 45.764860879291518 -2.8016230730017924 0 -2.8016230730017924 -0.89108859619261693 0 0 0 0 7.8335466315129452 20.993177010916042 0 20.993177010916042 -10.144584782825405 0 0 0 0 -0.19250324636845306 0.31061971554393608 0 0.31061971554393608 0.53751223232591983 0 0 0 0 45.910649957941509 9.1031497338134955 0 9.1031497338134955 -8.3495444872041844 0 0 0 0 32.928225350891807 -7.9776470033511941 0 -7.9776470033511941 -10.147085002238782 0 0 0 0 23.021760249879662 14.093010991215124 0 14.093010991215124 8.2530771817828281 0 0 0 0 6.8805666851225737 -6.5148515468572867 0 -6.5148515468572867 -6.1953732931633567 0 0 0 0 3.0896195136908009 4.7387678366683161 0 4.7387678366683161 6.8911459359250529 0 0 0 0 -38.191452760511311 33.202341628231807 0 33.202341628231807 7.7548765269020805 0 0 0 0 -16.941006453365617 20.482698434385384 0 20.482698434385384 -5.3257122841314413 0 0 0 0 -13.459442090440916 14.986968536936729 0 14.986968536936729 1.8282082752084534 0 0 0 0 -21.809068573610148 18.089639028678448 0 18.089639028678448 2.8717483950258611 0 0 0 0 -18.800745703449138 20.17969696641012 0 20.17969696641012 3.2326787638485257 0 0 0 0 -29.243478163307373 23.54369281284562 0 23.54369281284562 -3.9730184921982072 0 0 0 0 -18.425770302736964 47.732039089148202 0 47.732039089148202 -9.1107744459332025 0 0 0 0 19.222895344853896 34.990710673803505 0 34.990710673803505 -8.8745214662085345 0 0 0 0 26.313395574316019 20.429648734914736 0 20.429648734914736 -6.1759733393596434 0 0 0 0 4.5711398778983039 52.249446042482987 0 52.249446042482987 16.381425872443288 0 0 0 0 -38.562154791458397 17.758698755303158 0 17.758698755303158 14.877922381454482 0 0 0 0 -51.745540623841407 31.371315565200348 0 31.371315565200348 27.482834938292854 0 0 0 0 -88.473680847225296 9.2855515823594033 0 9.2855515823594033 18.401691033537645 0 0 0 0 130.27342400467387 60.268073204041684 0 60.268073204041684 7.0634493303859927 0 0 0 0 0.15512151599171187 -0.2440061806728604 0 -0.2440061806728604 0.24654291937640238 0 0 0 0 -41.237864054293823 12.817906576186942 0 12.817906576186942 -0.074185805518936832 0 0 0 0 -23.008587080679717 15.323793362575088 0 15.323793362575088 0.041822957256044901 0 0 0 0 -46.484698736474002 24.972360135375311 0 24.972360135375311 9.0119999887465383 0 0 0 0 -34.088738515836667 31.165441864282911 0 31.165441864282911 6.6166426844956732 0 0 0 0 -43.901414716208819 27.7950516844503 0 27.7950516844503 12.083431941409799 0 0 0 0 -51.153611556472242 38.031150033668382 0 38.031150033668382 21.233263463927813 0 0 0 0 -38.417753072959385 20.629804479671293 0 20.629804479671293 20.82173931476791 0 0 0 0 -34.951373464848984 16.182792974725089 0 16.182792974725089 6.4131197092556249 0 0 0 0 1.5081327250274583 2.5834484579995589 0 2.5834484579995589 4.2015358775294658 0 0 0 0 -19.562372149437579 -1.5335027011219609 0 -1.5335027011219609 25.98014191769289 0 0 0 0 -17.449999837451287 14.191956497074898 0 14.191956497074898 33.134300485498898 0 0 0 0 -44.13117520482524 15.9519806715698 0 15.9519806715698 36.889806454781137 0 0 0 0 19.307794684581495 -91.722132050671462 0 -91.722132050671462 103.86731525746836 0 0 0 0 0.34792578453605572 0.69032533733287593 0 0.69032533733287593 1.5017800090502078 0 0 0 0 -53.159568576887068 40.602843564694012 0 40.602843564694012 -10.33879238721056 0 0 0 0 16.903693777723674 -40.517676794263934 0 -40.517676794263934 -98.304182935799872 0 0 0 0 -4.0593486343445875 16.762462003611745 0 16.762462003611745 -4.8945779588102596 0 0 0 0 -12.742288599731182 32.945863519267732 0 32.945863519267732 -10.901069114636812 0 0 0 0 -41.176984706222356 22.231535862910732 0 22.231535862910732 2.6805987845236814 0 0 0 0 -18.38362995751595 18.060262648543812 0 18.060262648543812 3.2572794022817106 0 0 0 0 -18.956881643794986 16.52661718577292 0 16.52661718577292 0.69427701326321767 0 0 0 0 -12.057187554670236 15.078700581179874 0 15.078700581179874 0.99605040644655674 0 0 0 0 -19.053530075063463 20.929168399630726 0 20.929168399630726 1.0441280193135754 0 0 0 0 -20.444170054557617 21.236942628881479 0 21.236942628881479 0.98065727347784559 0 0 0 0 0.12461952219564409 6.5789323133203652 0 6.5789323133203652 -2.404588349716505 0 0 0 0 -12.635368590722464 7.6642994206367803 0 7.6642994206367803 0.7743702700445283 0 0 0 0 -12.238846431866477 10.169277180280915 0 10.169277180280915 -1.401573324106721 0 0 0 0 -3.4051700877156774 4.1218781375171352 0 4.1218781375171352 -2.8408276818303051 0 0 0 0 180.80814459072508 107.11080064765792 0 107.11080064765792 24.458418509249896 0 0 0 0 95.011553389723531 21.220851875978951 0 21.220851875978951 25.046054619182542 0 0 0 0 66.500863378698796 67.90219029337004 0 67.90219029337004 68.665512474455682 0 0 0 0 -2.0898338669377665 2.8313823268477698 0 2.8313823268477698 -2.1436741500182279 0 0 0 0 -78.668489259566741 5.2998159874728117 0 5.2998159874728117 2.3912298154173186 0 0 0 0 -24.48716792158848 2.5608076549497127 0 2.5608076549497127 -0.45976965292538807 0 0 0 0 175.44577646911762 140.52291045969514 0 140.52291045969514 58.536476575889537 0 0 0 0 17.806624062402079 37.555439388937884 0 37.555439388937884 97.804579119118898 0 0 0 0 42.794850943877464 45.241720115274802 0 45.241720115274802 23.933271203858112 0 0 0 0 34.008080076883289 -3.4291184798548784 0 -3.4291184798548784 -16.094992339256351 0 0 0 0 -6.3956617696494504 -11.636463049602753 0 -11.636463049602753 -4.9656060938514202 0 0 0 0 -17.201360906667105 4.7798842287620573 0 4.7798842287620573 -8.3901875441679294 0 0 0 0 -6.8457338361054099 9.6594354831095188 0 9.6594354831095188 -9.4887130098031776 0 0 0 0 0.2185444722984764 0.19569838910199877 0 0.19569838910199877 -1.0638214210287629 0 0 0 0 1.719454380624029 -1.488864514782108 0 -1.488864514782108 -3.2055807400647609 0 0 0 0 0.11011784119784052 -0.033226395242743401 0 -0.033226395242743401 -0.27363210143327876 0 0 0 0 0.196567564764905 -1.2027376678724977 0 -1.2027376678724977 -5.2726024118128407 0 0 0 0 62.709116716775952 9.7580002408421933 0 9.7580002408421933 -1.0998337995115435 0 0 0 0 -22.760660987808251 9.0784501598436691 0 9.0784501598436691 21.742158064609612 0 0 0 0 -10.378730121531916 6.1644316744609569 0 6.1644316744609569 -10.326484547396831 0 0 0 0 -22.201810099319118 6.4906931817204168 0 6.4906931817204168 -2.8713927315475303 0 0 0 0 -1.7987330152096346 5.8867332157676628 0 5.8867332157676628 -11.302726761242504 0 0 0 0 -23.044693329273059 3.2770240544896296 0 3.2770240544896296 -7.9432532526843715 0 0 0 0 -4.6406078212667126 6.3383209799994802 0 6.3383209799994802 -12.538012523829821 0 0 0 0 -17.989519213950189 9.0335590671493264 0 9.0335590671493264 -5.8432155219343258 0 0 0 0 -16.581562954311266 0.81929806178959552 0 0.81929806178959552 -5.8705372496915516 0 0 0 0 0.028267762859682577 -0.85004767634258016 0 -0.85004767634258016 -2.5008925627597449 0 0 0 0 0.44166952258728998 -4.1156576089742885 0 -4.1156576089742885 -7.0880836864744197 0 0 0 0 -3.0483277032956266 6.1032925717422586 0 6.1032925717422586 -10.959597687395217 0 0 0 0 -8.970488154425766 4.7321404332069505 0 4.7321404332069505 -7.710004164287966 0 0 0 0 -9.875792034904407 1.8507735825060081 0 1.8507735825060081 0.60078993346724019 0 0 0 0 -6.2614347886537871 1.5939775957813254 0 1.5939775957813254 1.0074497197383607 0 0 0 0 -1.8299772695816046 6.0713136412437052 0 6.0713136412437052 -4.7537125234193809 0 0 0 0 -12.474000885265923 8.5789762615004292 0 8.5789762615004292 -2.9123068312983378 0 0 0 0 -12.789448737640669 8.3876973148235265 0 8.3876973148235265 -1.7829127241657261 0 0 0 0 -10.741231222303668 6.8445646657173711 0 6.8445646657173711 -8.369390957239375 0 0 0 0 -11.376566798645399 5.3865591463272722 0 5.3865591463272722 -1.0972879572063903 0 0 0 0 -14.154370844456935 8.1540781482035527 0 8.1540781482035527 -7.570813743319377 0 0 0 0 -16.432145205976838 4.7626509380380639 0 4.7626509380380639 -12.278715306034428 0 0 0 0 -16.414572386180112 4.4954862231328434 0 4.4954862231328434 -18.972427914297441 0 0 0 0 -15.364921611002501 12.548378037958173 0 12.548378037958173 -9.2762313728162553 0 0 0 0 -15.584301945872539 10.648880754361016 0 10.648880754361016 -23.580151998015936 0 0 0 0 -15.846345679256501 12.407615810020616 0 12.407615810020616 -9.0403314758514171 0 0 0 0 -16.120490520261228 10.555178189559228 0 10.555178189559228 -3.1496167194418376 0 0 0 0 -21.26459037648965 12.36218861908128 0 12.36218861908128 0.23445211972102697 0 0 0 0 -20.080586633055646 13.548847078116523 0 13.548847078116523 0.90485991050809389 0 0 0 0 -33.075003193258453 5.4427637157350546 0 5.4427637157350546 -2.6881883736641612 0 0 0 0 -21.685423571199863 21.300216808383993 0 21.300216808383993 -15.875487508586957 0 0 0 0 -13.632546254659246 16.840409405482205 0 16.840409405482205 -0.48640415761838085 0 0 0 0 -22.206913258907662 8.3847548663179623 0 8.3847548663179623 8.9562429654615698 0 0 0 0 -2.5007802422179179 3.9283751677454131 0 3.9283751677454131 0.96575687396526178 0 0 0 0 0.9815588855112658 1.5552751488527861 0 1.5552751488527861 -2.0074156322821963 0 0 0 0 -25.893090197540005 12.850835861972882 0 12.850835861972882 -23.815462595463032 0 0 0 0 -26.384117470988713 12.643592451746372 0 12.643592451746372 1.3931718206058576 0 0 0 0 -19.874887780022618 10.779101899643138 0 10.779101899643138 1.7609153913508635 0 0 0 0 -22.678469892076464 14.776392604882858 0 14.776392604882858 1.8811166336381575 0 0 0 0 -14.781291554748691 14.090305170032025 0 14.090305170032025 1.9012214325630339 0 0 0 0 -14.993928216489849 7.9480927388707983 0 7.9480927388707983 3.091219324262056 0 0 0 0 -20.737360577085383 10.654905761173723 0 10.654905761173723 2.4462503699760418 0 0 0 0 -18.533333282601234 9.4032762388978881 0 9.4032762388978881 2.8564289479090803 0 0 0 0 -20.185612975854156 8.3217849697293786 0 8.3217849697293786 2.1559354766613978 0 0 0 0 -23.064013682933364 7.8212490704518132 0 7.8212490704518132 0.42347105651788297 0 0 0 0 -20.827127769503932 9.4015663417740143 0 9.4015663417740143 1.536925674732629 0 0 0 0 -12.488707806432103 5.1954192733937816 0 5.1954192733937816 -0.20661233505779819 0 0 0 0 -18.360506478717298 4.6477145462581575 0 4.6477145462581575 0.90622056299253018 0 0 0 0 -12.119413318056104 6.923305300915672 0 6.923305300915672 -0.44585343477774586 0 0 0 0 -18.653193691161505 8.7387437988434158 0 8.7387437988434158 -0.35407539474181249 0 0 0 0 -21.07381422707067 9.6864048693059885 0 9.6864048693059885 -5.5495239495612623 0 0 0 0 -21.039799554218462 3.0910686293536855 0 3.0910686293536855 3.5506341800091832 0 0 0 0 -22.205001875227026 5.8109012337536115 0 5.8109012337536115 1.4566878341347547 0 0 0 0 -22.597368845052188 9.598038633901524 0 9.598038633901524 -1.7686907660026918 0 0 0 0 -22.948400816903245 10.277910121367995 0 10.277910121367995 -1.805919496986462 0 0 0 0 -25.768061811812004 11.438095797575443 0 11.438095797575443 -5.464348929010157 0 0 0 0 -22.739528542632797 8.0613477312417672 0 8.0613477312417672 -6.181416057072056 0 0 0 0 -31.837596676754401 6.915882343044359 0 6.915882343044359 -12.709309418498378 0 0 0 0 -25.009479289710725 11.79725923971273 0 11.79725923971273 -9.4580281906091841 0 0 0 0 -25.612446740899031 8.4973113876767457 0 8.4973113876767457 -7.1680401674711902 0 0 0 0 -26.445628998224493 8.3617116448731394 0 8.3617116448731394 -2.7666219551720133 0 0 0 0 114.25801039933481 31.087737104123335 0 31.087737104123335 7.3377114231625455 0 0 0 0 27.054764123531641 49.221885675744488 0 49.221885675744488 25.268018165175818 0 0 0 0 -0.17817881347031594 0.061876981671154851 0 0.061876981671154851 -0.26034622532232987 0 0 0 0 4.2742875457070113 8.8830022920569718 0 8.8830022920569718 13.14356664832485 0 0 0 0 -0.22746695500486069 0.97869505827405812 0 0.97869505827405812 0.20193646406697496 0 0 0 0 -3.2581282640976497 1.6708076894929036 0 1.6708076894929036 -2.5755986295316688 0 0 0 0 78.141695806178177 54.258830644604132 0 54.258830644604132 12.375271972835435 0 0 0 0 73.18818602002284 6.0150558741261193 0 6.0150558741261193 -16.921551385432394 0 0 0 0 74.523850283830143 77.376892227202916 0 77.376892227202916 54.367576540680602 0 0 0 0 154.30001697031366 108.90320044566761 0 108.90320044566761 34.323220111979026 0 0 0 0 177.93329695630837 114.59007647924773 0 114.59007647924773 14.425252565215487 0 0 0 0 168.62065866412649 105.1553807991786 0 105.1553807991786 62.61328602101139 0 0 0 0 156.26965160198597 111.43143719991349 0 111.43143719991349 70.436365542118438 0 0 0 0 1.3331334689064533 8.7311440997327736 0 8.7311440997327736 -1.2257983888680428 0 0 0 0 -0.30110573039551625 0.49515288837720917 0 0.49515288837720917 -0.31462939671232704 0 0 0 0 71.975978731117266 53.515909885027213 0 53.515909885027213 33.771815713331307 0 0 0 0 167.99070757264496 41.785976765295004 0 41.785976765295004 18.122555382447899 0 0 0 0 -0.32242613025465872 0.89788086766769326 0 0.89788086766769326 0.82667964904037916 0 0 0 0 47.999921526561366 23.898896911930024 0 23.898896911930024 60.613888592686635 0 0 0 0 137.38068346685259 42.97872394780461 0 42.97872394780461 -11.769692641129041 0 0 0 0 156.79092643284525 89.287759026060485 0 89.287759026060485 50.640162825362495 0 0 0 0 142.33798235984227 70.316108297191931 0 70.316108297191931 61.514307672154246 0 0 0 0 198.53853861220296 66.522380569955658 0 66.522380569955658 19.73615499258085 0 0 0 0 10.446651805192687 -1.7389594752021367 0 -1.7389594752021367 -5.0746069364577124 0 0 0 0 3.8023207625887547 5.1300688900622422 0 5.1300688900622422 -2.7212936005658719 0 0 0 0 1.7561498045561166 6.8646573855876341 0 6.8646573855876341 -3.0244118117334438 0 0 0 0 1.5466479689603148 7.6835013910967973 0 7.6835013910967973 -1.48170125845445 0 0 0 0 1.9519920840094249 -0.30026670047974857 0 -0.30026670047974857 0.068881155183717624 0 0 0 0 -29.613605313698372 23.046319580974341 0 23.046319580974341 -10.247498784203344 0 0 0 0 -31.871416997122651 19.824604224844734 0 19.824604224844734 2.1067560611882072 0 0 0 0 -33.35732328046015 21.13975340887373 0 21.13975340887373 2.169484799636848 0 0 0 0 -25.086128400780581 14.218588742098291 0 14.218588742098291 -10.914299839554587 0 0 0 0 -27.008893689402612 18.449716772391184 0 18.449716772391184 -19.193883512809407 0 0 0 0 -25.345274694006548 14.110225156333399 0 14.110225156333399 -9.4170435067298968 0 0 0 0 -28.389669258243885 17.236910712364988 0 17.236910712364988 -0.97706191155521083 0 0 0 0 -28.419121271443146 15.910891356017601 0 15.910891356017601 -2.4381643284323218 0 0 0 0 -24.882004616085396 8.7098335591572322 0 8.7098335591572322 -2.7862194604385877 0 0 0 0 -23.407903469948451 10.618331229296928 0 10.618331229296928 -3.4608916698998655 0 0 0 0 -27.290638674900947 13.811427763226675 0 13.811427763226675 -5.652968100459475 0 0 0 0 -24.203943687145511 8.8246888567009591 0 8.8246888567009591 -4.2947997526425752 0 0 0 0 -0.16120523944321796 0.58791092835642811 0 0.58791092835642811 0.54415510151632418 0 0 0 0 -72.295708176875905 0.30496017790574115 0 0.30496017790574115 25.026070220234942 0 0 0 0 -33.493345658895123 4.9847256601660774 0 4.9847256601660774 -5.4530257818232712 0 0 0 0 -35.110556836993283 11.552423382290272 0 11.552423382290272 4.1537690893965191 0 0 0 0 -34.100565271240612 17.011176914817952 0 17.011176914817952 15.836144410570341 0 0 0 0 -31.444303101218566 11.964962027883757 0 11.964962027883757 17.44553756267851 0 0 0 0 -30.464895190846619 15.418322567221367 0 15.418322567221367 8.9212809247428595 0 0 0 0 -33.76087539641594 20.542621306156434 0 20.542621306156434 7.0078811742860125 0 0 0 0 -31.979622785413881 18.2084339782364 0 18.2084339782364 19.481666433221108 0 0 0 0 -31.760911589972807 23.018012112835976 0 23.018012112835976 39.288433869223809 0 0 0 0 -33.082631274830419 10.053986062121112 0 10.053986062121112 21.713099856873669 0 0 0 0 -20.717643792632771 35.112492307263892 0 35.112492307263892 28.974349426075605 0 0 0 0 -18.896200634110301 33.86016175201803 0 33.86016175201803 22.78922252195116 0 0 0 0 12.835729744198034 69.514107427408817 0 69.514107427408817 52.791044236347489 0 0 0 0 -47.775345515346999 29.431661601217456 0 29.431661601217456 58.405972422733612 0 0 0 0 58.208593584977734 33.465096162185546 0 33.465096162185546 15.039495799639553 0 0 0 0 28.088534555866772 50.785048873023698 0 50.785048873023698 13.407840316071088 0 0 0 0 -9.6423499181041734 51.784226555500481 0 51.784226555500481 26.184417252665298 0 0 0 0 17.125342914234352 32.927168896178046 0 32.927168896178046 -15.153178140356658 0 0 0 0 -12.283873969228125 43.610033456151541 0 43.610033456151541 0.88940032604295993 0 0 0 0 -26.41310658010616 26.665328433611649 0 26.665328433611649 17.274311229761224 0 0 0 0 14.896664322730885 4.7228034306544942 0 4.7228034306544942 -2.3286632737963373 0 0 0 0 18.57905353152546 0.3234526455798914 0 0.3234526455798914 2.793540407461478 0 0 0 0 -0.37509218804643751 -16.233305460098563 0 -16.233305460098563 3.8099116244593461 0 0 0 0 -0.12289116976526682 0.19588261978228072 0 0.19588261978228072 0.52953846937045057 0 0 0 0 193.53887238415064 88.994250692629066 0 88.994250692629066 49.069680530813457 0 0 0 0 172.68714347157174 62.195308443248905 0 62.195308443248905 56.757428429327774 0 0 0 0 48.94879535207474 28.457359248730427 0 28.457359248730427 47.561387712483338 0 0 0 0 56.539196050338887 12.28163726349544 0 12.28163726349544 -12.479443751450162 0 0 0 0 93.77059701860253 34.084409725500336 0 34.084409725500336 0.22614446537409094 0 0 0 0 50.539771840231879 -23.243971573381714 0 -23.243971573381714 2.5627331980222152 0 0 0 0 29.166336123465044 0.4947130615964852 0 0.4947130615964852 -2.6939691075795054 0 0 0 0 32.305635062437432 2.1552037186647794 0 2.1552037186647794 -3.9280849765782477 0 0 0 0 2.8093072438878153 -17.596390196745233 0 -17.596390196745233 -6.8141409326199209 0 0 0 0 -0.48259569748313424 11.004205105236565 0 11.004205105236565 3.7218744808815245 0 0 0 0 -8.1050789024193364 4.9745524252821269 0 4.9745524252821269 8.4771772182102723 0 0 0 0 2.1215496480093856 4.935934112593344 0 4.935934112593344 -1.7268260124860433 0 0 0 0 5.177165237466852 5.3874140365014682 0 5.3874140365014682 -5.5270914819866448 0 0 0 0 4.5963962687446838 2.8367476487392196 0 2.8367476487392196 -2.4241012163802225 0 0 0 0 0.3943754684711589 2.1511531856076225 0 2.1511531856076225 -0.31377289173272516 0 0 0 0 3.1614035206821427 6.7067949531074191 0 6.7067949531074191 -3.5887712014118733 0 0 0 0 4.2321743816403341 8.3557662160558266 0 8.3557662160558266 -9.8102437713605468 0 0 0 0 8.632577310816032 -1.3271771970039481 0 -1.3271771970039481 -1.920173166648965 0 0 0 0 2.3780328291250044 2.8969773494800393 0 2.8969773494800393 0.19930683876282274 0 0 0 0 2.3879485077035332 2.6218100982949331 0 2.6218100982949331 1.8126463858495825 0 0 0 0 2.5624633039333276 7.65575218457343 0 7.65575218457343 -12.748830265264132 0 0 0 0 1.9983155081722543 -3.5769481031825308 0 -3.5769481031825308 -8.2603545986239624 0 0 0 0 5.0191802854915295 2.7689630693093932 0 2.7689630693093932 -6.5914125398248871 0 0 0 0 -1.4573091144243335 -4.2288994543118861 0 -4.2288994543118861 -13.312814140717819 0 0 0 0 3.4523733803018786 12.048925717686416 0 12.048925717686416 -26.624497783213883 0 0 0 0 -0.50850074432946712 23.742463977436273 0 23.742463977436273 -54.930469437551437 0 0 0 0 0.93473226086962313 8.1734778360432756 0 8.1734778360432756 -11.470545811682314 0 0 0 0 0.55844429206172208 13.421630033246402 0 13.421630033246402 -17.74959558422961 0 0 0 0 0.88313645982452726 8.7083199152775705 0 8.7083199152775705 -7.8364372775959055 0 0 0 0 -2.2073475687839164 15.011547548825547 0 15.011547548825547 -9.3943503181180859 0 0 0 0 -6.3926755971206148 18.68400083967208 0 18.68400083967208 -12.572471026676794 0 0 0 0 -8.9573047384437814 18.619141860146556 0 18.619141860146556 -6.0991825639330273 0 0 0 0 -12.423696050594117 29.079132009906061 0 29.079132009906061 -21.164582386321399 0 0 0 0 -5.190156017928075 20.644182560325135 0 20.644182560325135 -11.39179351608982 0 0 0 0 -10.254196248474727 23.639957013596359 0 23.639957013596359 -11.602038660477547 0 0 0 0 -15.566423495024765 20.977726769087894 0 20.977726769087894 -0.71658506910534925 0 0 0 0 -18.622380353566768 24.459094134276711 0 24.459094134276711 -3.0262916692154249 0 0 0 0 -16.274532513244139 18.900564919437784 0 18.900564919437784 -1.6077790912349883 0 0 0 0 -8.3189794560785231 16.992925515272873 0 16.992925515272873 -4.5797459372370213 0 0 0 0 -8.4881180689480971 13.91049201145961 0 13.91049201145961 -3.319384389280458 0 0 0 0 -7.0552925936460724 13.535446083179068 0 13.535446083179068 -3.2416267880616942 0 0 0 0 -0.25588722943393805 8.6512762926540745 0 8.6512762926540745 -3.7291180531883583 0 0 0 0 -8.0712193589091612 10.700562198730609 0 10.700562198730609 -3.072254039652762 0 0 0 0 -2.8926251175530968 5.0099301028397116 0 5.0099301028397116 -2.8579153499279641 0 0 0 0 2.1290531499580538 10.23964586355396 0 10.23964586355396 -3.2959942985253292 0 0 0 0 2.2408429089537094 10.088836826013903 0 10.088836826013903 -4.3185684527234116 0 0 0 0 1.3660128214214637 8.3639024919011717 0 8.3639024919011717 -4.1197896093729014 0 0 0 0 1.3992313995331642 8.8220528260517312 0 8.8220528260517312 -1.7843019009014824 0 0 0 0 0.64537263197780703 8.2133323137577463 0 8.2133323137577463 -3.313864302377624 0 0 0 0 0.14790948138488602 9.0437470015949657 0 9.0437470015949657 -4.2713424901812687 0 0 0 0 1.5700912639299531 7.8235156414079938 0 7.8235156414079938 -4.9129227737794281 0 0 0 0 1.2975785115841063 7.3461338570359658 0 7.3461338570359658 -3.7281854313841905 0 0 0 0 1.5242598233162425 7.4426893811978516 0 7.4426893811978516 -3.4392710915781208 0 0 0 0 1.517546649898577 7.3801153448912373 0 7.3801153448912373 -3.1279120561375748 0 0 0 0 1.5147333722452458 7.31264952323545 0 7.31264952323545 -3.8250003501816536 0 0 0 0 1.6409912670278572 6.825250353798765 0 6.825250353798765 -3.4539991936155729 0 0 0 0 1.6156728645655676 7.0176095306705975 0 7.0176095306705975 -4.1551786726158753 0 0 0 0 1.7310614219759373 6.7192755712376311 0 6.7192755712376311 -3.813459198383498 0 0 0 0 1.7366305009918506 6.7182979265971881 0 6.7182979265971881 -3.855451880437613 0 0 0 0 1.9259618753982295 7.2408627412578426 0 7.2408627412578426 -4.5094044166289677 0 0 0 0 1.8489792720338301 6.7440447710796434 0 6.7440447710796434 -3.9325783130061609 0 0 0 0 -5.107132439682573 12.882769700432618 0 12.882769700432618 -6.1835394627596543 0 0 0 0 -0.054325992356098141 8.9371995892070117 0 8.9371995892070117 -4.8068126578352803 0 0 0 0 0.87249053362029372 9.5938452227546804 0 9.5938452227546804 -5.6593098058547184 0 0 0 0 -3.3111879250136553 13.799716716328476 0 13.799716716328476 -9.422253453958092 0 0 0 0 -0.16668473920071847 0.63478484115194078 0 0.63478484115194078 -12.01206091456811 0 0 0 0 1.881030876746081 4.5709917955840638 0 4.5709917955840638 -4.6748865929757812 0 0 0 0 -0.44313205454789539 -0.079385123476074071 0 -0.079385123476074071 0.34673800018406187 0 0 0 0 5.5462254356352787 -6.27757171760868 0 -6.27757171760868 -31.74881303484392 0 0 0 0 -0.022656956238521993 13.047147784391717 0 13.047147784391717 -13.388601240928438 0 0 0 0 0.014283055936175515 2.0312782470068669 0 2.0312782470068669 8.4834965651575658 0 0 0 0 10.196963685555602 5.4496834776052765 0 5.4496834776052765 -15.301360747707236 0 0 0 0 7.449410916854049 10.491551574074322 0 10.491551574074322 -10.317201199681222 0 0 0 0 -0.43344679073834413 -0.060592580514160943 0 -0.060592580514160943 0.39147431263300625 0 0 0 0 -2.9811080645595212 14.270904408809429 0 14.270904408809429 2.1895332236157969 0 0 0 0 -4.6653030294564815 9.1967680880651415 0 9.1967680880651415 -6.8132909942887636 0 0 0 0 -0.21252093118477866 0.40395798380449932 0 0.40395798380449932 -0.06122288423044786 0 0 0 0 10.171563418771257 4.7212285202876956 0 4.7212285202876956 -4.5785682149196418 0 0 0 0 11.429453041719171 2.929396669599555 0 2.929396669599555 -2.546285462405649 0 0 0 0 6.6595981695172668 4.7279978689352902 0 4.7279978689352902 0.088633304154427606 0 0 0 0 5.5752186149620684 1.9637869278130893 0 1.9637869278130893 0.97811544975206743 0 0 0 0 8.6821401400165996 1.5487695880221963 0 1.5487695880221963 0.088510386922280304 0 0 0 0 -0.43606269558586064 8.4102435409415648 0 8.4102435409415648 -10.706247525139929 0 0 0 0 -7.2158013786938682 6.195764800783536 0 6.195764800783536 4.623620914635012 0 0 0 0 4.4502146943923435 3.2710303651085724 0 3.2710303651085724 -0.38763201262327129 0 0 0 0 -0.75629909812414553 0.10922968169211345 0 0.10922968169211345 0.58716708518659289 0 0 0 0 5.1554552917914407 -1.5695552825673076 0 -1.5695552825673076 -1.1674833124750421 0 0 0 0 0.47679178853977788 0.69037441101621155 0 0.69037441101621155 -0.30356648281091125 0 0 0 0 -3.7619670459043846 13.906900973020015 0 13.906900973020015 -0.91532377313424718 0 0 0 0 3.6176324879275548 3.5598467636346065 0 3.5598467636346065 1.1185843048538366 0 0 0 0 8.552155838598992 1.8520389589178876 0 1.8520389589178876 -2.7106212585340472 0 0 0 0 5.9335528645319755 4.3520741982542859 0 4.3520741982542859 -0.33524529885971788 0 0 0 0 2.6644206217770261 -0.33966865654326739 0 -0.33966865654326739 1.3365718288578137 0 0 0 0 5.9602573268330161 -0.18947881032261193 0 -0.18947881032261193 0.73744073111902253 0 0 0 0 -11.391923241633322 5.6774559088892147 0 5.6774559088892147 -0.71997754444237216 0 0 0 0 -1.1592498610443727 3.1716953509960604 0 3.1716953509960604 2.1058156948711257 0 0 0 0 -0.6520982255855543 0.044344791438451381 0 0.044344791438451381 0.29011579583153591 0 0 0 0 -1.4498811198901578 3.6685290996460189 0 3.6685290996460189 0.52735874976140362 0 0 0 0 10.214207775614341 18.799600130975534 0 18.799600130975534 14.460706390092923 0 0 0 0 -0.035679884291575092 0.40639619457677867 0 0.40639619457677867 0.015598395841515789 0 0 0 0 6.8208245396654092 11.768746403079604 0 11.768746403079604 16.133282379640264 0 0 0 0 -0.53633708998490448 0.01067231921620504 0 0.01067231921620504 0.25387803378145612 0 0 0 0 -0.75621249160803927 0.61349224113496348 0 0.61349224113496348 -6.4670138557958126 0 0 0 0 6.4787800297490321 17.819779155410288 0 17.819779155410288 22.849271000695353 0 0 0 0 0.013485857341947849 11.943258603896652 0 11.943258603896652 22.726168861350857 0 0 0 0 6.363203014178282 12.106413503445722 0 12.106413503445722 17.986219140300818 0 0 0 0 -0.00043567603279370815 15.981551035359473 0 15.981551035359473 15.962169673688777 0 0 0 0 7.0883051034816162 15.959728822223667 0 15.959728822223667 4.9629885622842949 0 0 0 0 -4.3073819156015816 8.5777287718091202 0 8.5777287718091202 2.3198662754181214 0 0 0 0 8.551578400728431 19.771007497745188 0 19.771007497745188 -0.87351708199639688 0 0 0 0 -0.025807957064898801 17.388271247402173 0 17.388271247402173 -14.359092422131397 0 0 0 0 -0.26779373036318788 -11.369414340274977 0 -11.369414340274977 -57.440773276674577 0 0 0 0 -0.32746056568531401 3.5544755925188336 0 3.5544755925188336 -13.105729607308831 0 0 0 0 -0.48463296274419321 -0.099184968805303697 0 -0.099184968805303697 0.29325185366585305 0 0 0 0 -0.00094096338216331787 2.6679687588085415 0 2.6679687588085415 4.2314945383133136 0 0 0 0 11.633514095396094 8.7578863554410304 0 8.7578863554410304 -11.798324170357432 0 0 0 0 5.0254453954560176 2.8300454967964939 0 2.8300454967964939 -14.469587295281713 0 0 0 0 6.3222385431581642 3.445741052651897 0 3.445741052651897 -21.892716035759065 0 0 0 0 4.4221750111692018 2.7156500761458062 0 2.7156500761458062 -10.279484845174125 0 0 0 0 12.687029326090851 11.906197360510532 0 11.906197360510532 -7.8831152563344062 0 0 0 0 6.9175939507695148 2.9991034630249942 0 2.9991034630249942 -13.827785213297886 0 0 0 0 10.461080075960126 7.3669378574728057 0 7.3669378574728057 6.5698466373189603 0 0 0 0 13.55124224643987 13.127564107175886 0 13.127564107175886 7.4581808682821702 0 0 0 0 -0.81735229513083141 0.53269132367121586 0 0.53269132367121586 0.38661303436988614 0 0 0 0 25.503195842114565 26.272244410134121 0 26.272244410134121 10.941711523259983 0 0 0 0 -5.4245680028036034 2.9041752115618422 0 2.9041752115618422 -0.42060011348768978 0 0 0 0 -9.5844130701120775 3.7619233575693443 0 3.7619233575693443 2.467191799160446 0 0 0 0 -10.058091528262594 -3.6709186856753604 0 -3.6709186856753604 2.5527982740720745 0 0 0 0 -15.97057670317372 16.360034603573013 0 16.360034603573013 30.502209872251115 0 0 0 0 -0.95787632247811416 27.458174862829765 0 27.458174862829765 24.572310739382146 0 0 0 0 13.287293557652447 35.932746426219182 0 35.932746426219182 18.784351979471694 0 0 0 0 48.397328930710501 3.9065519526432126 0 3.9065519526432126 -10.975704998111951 0 0 0 0 31.859452875363786 32.545891260019971 0 32.545891260019971 5.7359455246814832 0 0 0 0 11.759705285854579 20.595347804865469 0 20.595347804865469 1.8956652233164277 0 0 0 0 5.0053429992258316 26.599236880224908 0 26.599236880224908 10.244497240466444 0 0 0 0 2.7063561553513864 25.00267750473995 0 25.00267750473995 12.995162756520585 0 0 0 0 3.6428922193372273 23.370525934118177 0 23.370525934118177 11.739075836341726 0 0 0 0 -1.5657270459141728 8.4342224798726875 0 8.4342224798726875 1.3201955723432661 0 0 0 0 17.58316432231004 0.56155821928382466 0 0.56155821928382466 -7.0719674883096104 0 0 0 0 -6.5569381816225203 3.4397233914310643 0 3.4397233914310643 -0.74501087760313744 0 0 0 0 -3.2192340694382438 16.530394657449961 0 16.530394657449961 8.2516787097247288 0 0 0 0 -2.336990911774592 21.375132172879205 0 21.375132172879205 12.153885220406664 0 0 0 0 2.229351741814753 17.371794181150108 0 17.371794181150108 4.0078414083868665 0 0 0 0 3.562632742425194 22.982099698293723 0 22.982099698293723 7.8892730959469191 0 0 0 0 -2.0574715827879118 14.836962199228708 0 14.836962199228708 14.976060186914481 0 0 0 0 16.742888162986674 15.650327203769407 0 15.650327203769407 -3.3916454696774281 0 0 0 0 6.1695600766233838 11.38154225794122 0 11.38154225794122 -4.1546899546061695 0 0 0 0 3.977355791203081 11.283229801577328 0 11.283229801577328 -1.7402961814780156 0 0 0 0 -1.0505521466784558 8.8193529999592215 0 8.8193529999592215 1.6059674552341221 0 0 0 0 6.0023867642864843 8.1286353191861949 0 8.1286353191861949 -6.2623941998566579 0 0 0 0 5.1790925323421106 9.5420998074254015 0 9.5420998074254015 -7.2230644640685568 0 0 0 0 0.85211467725184775 12.367349949875575 0 12.367349949875575 -5.5030583590064452 0 0 0 0 4.5777606755527813 22.205849645855892 0 22.205849645855892 -27.147659946328758 0 0 0 0 6.3545199648078778 15.352629570329668 0 15.352629570329668 -14.143861464363681 0 0 0 0 5.8619734247567976 9.6720021923624699 0 9.6720021923624699 -4.5063180446634306 0 0 0 0 -1.2743207237350767 6.2920495385774515 0 6.2920495385774515 -5.0188572023376512 0 0 0 0 -3.0350416136462144 3.776324329736827 0 3.776324329736827 -2.5335524087337258 0 0 0 0 -1.3875013901269995 1.5009528406818617 0 1.5009528406818617 -1.7943119805091783 0 0 0 0 7.1927891202130922 2.1259355046653354 0 2.1259355046653354 -6.1668504938820661 0 0 0 0 9.8580658121773013 21.487053911707108 0 21.487053911707108 13.279613384373448 0 0 0 0 -0.12392104975040752 0.20927983756638646 0 0.20927983756638646 -0.2516470111153164 0 0 0 0 18.739983809082048 94.315986419112789 0 94.315986419112789 28.958042863525407 0 0 0 0 2.1268309135780328 -3.8618104174428538 0 -3.8618104174428538 -35.33976294072454 0 0 0 0 20.835733871391881 -16.388756338962047 0 -16.388756338962047 175.75703097543737 0 0 0 0 -1.9521480547773535 13.951444033003099 0 13.951444033003099 43.055705222578467 0 0 0 0 0.53181280705531719 0.24301899308602692 0 0.24301899308602692 0.20953414838173989 0 0 0 0 -11.872618428660644 17.343707953365993 0 17.343707953365993 80.678605187907124 0 0 0 0 14.39231558503343 13.68486269225798 0 13.68486269225798 -18.583562955772777 0 0 0 0 17.651557216246147 20.363538713365415 0 20.363538713365415 -10.206166428773827 0 0 0 0 25.011693242740876 25.89636117598252 0 25.89636117598252 -6.3294590093901206 0 0 0 0 10.402984724849375 10.85235098478006 0 10.85235098478006 -7.4422357142088913 0 0 0 0 8.9305364553656545 12.127963800746329 0 12.127963800746329 -7.6516401234877094 0 0 0 0 15.504013766068965 18.663648790410207 0 18.663648790410207 -2.4094290547873243 0 0 0 0 3.6161290977215685 2.763482679541994 0 2.763482679541994 -16.37995184995043 0 0 0 0 0.023024829487127363 1.1978066807241508 0 1.1978066807241508 -1.3255766330795669 0 0 0 0 5.8794560893365997 32.776234373492571 0 32.776234373492571 17.679289541313437 0 0 0 0 14.258978580401163 16.605160896601319 0 16.605160896601319 25.836225023807856 0 0 0 0 23.426954464111986 31.178471230357104 0 31.178471230357104 0.32927374678365595 0 0 0 0 8.1872573164582718 21.220128390078116 0 21.220128390078116 1.3270763401087606 0 0 0 0 4.6571632564955507 12.462183376416306 0 12.462183376416306 -3.7221980202199347 0 0 0 0 5.0011278080346528 19.296525003242095 0 19.296525003242095 2.8156825668228294 0 0 0 0 11.070762105933682 23.589259944768401 0 23.589259944768401 3.2564603087976138 0 0 0 0 -0.13384705646603834 23.710758620955858 0 23.710758620955858 14.510382694930286 0 0 0 0 7.3530859878956107 28.819832546164776 0 28.819832546164776 11.637101897705179 0 0 0 0 2.9565448647845187 24.288206583425563 0 24.288206583425563 8.8880152059505235 0 0 0 0 7.7216697875410318 23.74650575769283 0 23.74650575769283 6.4612623216735301 0 0 0 0 2.6588658917426073 23.637229916764682 0 23.637229916764682 7.9318680338328704 0 0 0 0 3.1557517006731359 23.470404409431467 0 23.470404409431467 7.3166061140809688 0 0 0 0 2.7832891562429722 23.434376773308031 0 23.434376773308031 8.2470308409997415 0 0 0 0 -1.5095909607189242 22.713302183790802 0 22.713302183790802 12.434066391206215 0 0 0 0 -1.340496401215205 20.055510446137305 0 20.055510446137305 10.269561901643101 0 0 0 0 2.7547687850892544 24.504972998525773 0 24.504972998525773 9.9654460552019373 0 0 0 0 2.9548137670753931 22.707260948182011 0 22.707260948182011 8.0383199212501495 0 0 0 0 1.979123549979704 24.124152437883367 0 24.124152437883367 9.9758813731541522 0 0 0 0 4.1344700186673435 24.99873759009256 0 24.99873759009256 7.568368964543879 0 0 0 0 1.5714544467737142 20.661081204319089 0 20.661081204319089 5.478629683069812 0 0 0 0 3.8229641880388954 19.304387040091569 0 19.304387040091569 6.1338408163960594 0 0 0 0 -1.0510207916959189 19.782561641029133 0 19.782561641029133 9.6198607426904346 0 0 0 0 -1.3281178226316115 15.747968687404864 0 15.747968687404864 4.0739488558383528 0 0 0 0 2.6596566312991854 14.221600182086547 0 14.221600182086547 0.41801454479627864 0 0 0 0 8.1787496578945138 17.9042559335644 0 17.9042559335644 2.0860448624325727 0 0 0 0 0.33480259971111082 12.223290175469629 0 12.223290175469629 3.1246547796063169 0 0 0 0 3.0941661697906966 9.9968704795817303 0 9.9968704795817303 -1.3630719680986658 0 0 0 0 -2.4989760723110521 7.2012302631342209 0 7.2012302631342209 -3.1147224086007554 0 0 0 0 1.0019969332097389 7.8449025534216617 0 7.8449025534216617 -3.336015209976722 0 0 0 0 -2.108707147241148 13.835801238565637 0 13.835801238565637 6.2833749527180771 0 0 0 0 -3.2793179442378459 9.2364361522368199 0 9.2364361522368199 0.96495161886150527 0 0 0 0 -3.5773924131863168 12.10735977024251 0 12.10735977024251 4.4917541209833871 0 0 0 0 -10.037668197066523 7.9259705971785479 0 7.9259705971785479 5.0143080864581862 0 0 0 0 -8.9434721731231548 7.2976790006723604 0 7.2976790006723604 2.7279729817237239 0 0 0 0 -6.767225373601832 15.233258476532683 0 15.233258476532683 11.431430408624237 0 0 0 0 -10.229762946464689 17.06976379370127 0 17.06976379370127 10.870427060259317 0 0 0 0 -5.3376313274347922 20.538176864905836 0 20.538176864905836 16.509001498488033 0 0 0 0 -8.9224373877223115 14.661846837042503 0 14.661846837042503 11.612122693897618 0 0 0 0 1.9604912934664753 24.949366825064317 0 24.949366825064317 13.458590405913128 0 0 0 0 0.84790444210739224 5.7228988837591714 0 5.7228988837591714 -5.2987013245769958 0 0 0 0 2.9421664172914461 5.1069105732449316 0 5.1069105732449316 -8.3576831993643736 0 0 0 0 7.1904563185053121 10.74076584383215 0 10.74076584383215 -2.8824222860885129 0 0 0 0 1.4166543535757228 6.4762480282729484 0 6.4762480282729484 -4.9187865205087746 0 0 0 0 1.0297397257309058 6.0295091225939359 0 6.0295091225939359 -3.961408129123356 0 0 0 0 -1.4328212152104243 4.139691901770675 0 4.139691901770675 -3.920978560062224 0 0 0 0 -0.5871643615028006 3.7669095404066866 0 3.7669095404066866 -5.3909836589687075 0 0 0 0 -0.82136023938119251 5.0948173013508651 0 5.0948173013508651 -3.779849435444703 0 0 0 0 -0.87636214130179724 4.621062416514178 0 4.621062416514178 -4.8726364242338605 0 0 0 0 -0.86327587963535279 5.8408326537803461 0 5.8408326537803461 -6.0353827116159664 0 0 0 0 -5.0027469147571537 7.729865780289856 0 7.729865780289856 -4.4894367088795661 0 0 0 0 -0.82078822909716109 7.7326925327789837 0 7.7326925327789837 -5.7435287242751656 0 0 0 0 0.38123180498098463 2.911170923150145 0 2.911170923150145 0.62039889747875865 0 0 0 0 -0.52246504200229538 5.9425023826911456 0 5.9425023826911456 -2.755003480591995 0 0 0 0 0.040479120053532824 3.8982502997711208 0 3.8982502997711208 -1.3563270017934883 0 0 0 0 2.433339941992017 4.367761181325136 0 4.367761181325136 -2.8806155731144827 0 0 0 0 0.34481483433562943 1.3931088243167871 0 1.3931088243167871 1.6378708843007477 0 0 0 0 -4.8913141911240814 10.085811176376254 0 10.085811176376254 -7.7137284373034163 0 0 0 0 -1.6558791637799004 7.6936182356528207 0 7.6936182356528207 -7.8567342450528486 0 0 0 0 -13.087473941021017 13.251288928309805 0 13.251288928309805 -7.8646422865318755 0 0 0 0 -3.0578463279671269 3.3655959859161158 0 3.3655959859161158 -15.000183099063179 0 0 0 0 -0.17709261994577119 0.43804595608473562 0 0.43804595608473562 0.2512360142725818 0 0 0 0 -18.086909314544755 -0.68629491839055845 0 -0.68629491839055845 0.82021104038517478 0 0 0 0 -19.006300970431766 9.4966556125764328 0 9.4966556125764328 10.084855467835723 0 0 0 0 -2.254876729210082 4.8327904630687044 0 4.8327904630687044 -29.904630182591063 0 0 0 0 0.22057455228272715 0.36243585772140463 0 0.36243585772140463 -0.29637017588922809 0 0 0 0 42.108791067279526 -0.54154645408652868 0 -0.54154645408652868 -2.1433535501882943 0 0 0 0 -3.3038175943293027 8.0830200853224596 0 8.0830200853224596 12.49019049815206 0 0 0 0 29.970252111109403 24.453554184705581 0 24.453554184705581 8.0923931648512735 0 0 0 0 17.969829165653209 15.06654233471113 0 15.06654233471113 -1.9563264645630625 0 0 0 0 20.299338425858878 1.0063088729987157 0 1.0063088729987157 -2.2330538656613612 0 0 0 0 -5.2077640830975724 10.999650725800393 0 10.999650725800393 3.3787850903178196 0 0 0 0 2.1953182555589592 15.380853856373506 0 15.380853856373506 5.4779138877524929 0 0 0 0 0.091484087056414864 8.3097258470972406 0 8.3097258470972406 1.2767574092181349 0 0 0 0 -3.7602374995967693 14.142625755669314 0 14.142625755669314 1.7418090711392296 0 0 0 0 0.47282134168017365 7.2615595221197964 0 7.2615595221197964 -0.6542050675527662 0 0 0 0 10.77824419807439 3.3929618955185106 0 3.3929618955185106 -2.6671380350223899 0 0 0 0 14.329198408121556 4.6913640840319886 0 4.6913640840319886 -4.0995568335133612 0 0 0 0 -0.40654090749950456 1.1750485178631038 0 1.1750485178631038 -2.448053624789754 0 0 0 0 0.89557368117804792 1.6945773491152991 0 1.6945773491152991 -3.2567950927174252 0 0 0 0 7.8795168344149715 9.6208823279356466 0 9.6208823279356466 -4.4252570434865106 0 0 0 0 5.4544291499873907 4.5006093231327213 0 4.5006093231327213 -2.180523624460875 0 0 0 0 2.909919995268865 3.6333052630282054 0 3.6333052630282054 1.7240522302363388 0 0 0 0 4.2344754269284053 4.2948262990665924 0 4.2948262990665924 1.3375104754629223 0 0 0 0 3.1588863739702902 8.1915051112913773 0 8.1915051112913773 1.1868576217475493 0 0 0 0 5.2135255436551233 7.35551182844506 0 7.35551182844506 6.4284722431953014 0 0 0 0 10.304866585845957 5.7208568191704217 0 5.7208568191704217 -0.36596845426811342 0 0 0 0 3.3612375639713719 2.8576760443302192 0 2.8576760443302192 -0.40901682865546718 0 0 0 0 5.3200236157326799 4.2299337349398911 0 4.2299337349398911 -1.8839422833552817 0 0 0 0 5.0595067631575148 4.5217200365825647 0 4.5217200365825647 -2.155070446962327 0 0 0 0 2.8348987917631021 3.2343577676665269 0 3.2343577676665269 -1.8696922430124197 0 0 0 0 2.2763269024317054 2.51935649686797 0 2.51935649686797 -1.8179075893527497 0 0 0 0 2.4981604717977461 3.3680515360492791 0 3.3680515360492791 -1.0015742110481369 0 0 0 0 3.9700651350540284 2.7260495207815438 0 2.7260495207815438 -1.39552566592738 0 0 0 0 2.1782682322221056 3.3482119178372507 0 3.3482119178372507 -0.59306901820293412 0 0 0 0 1.6382170975541044 4.6786229679408855 0 4.6786229679408855 -1.3235205868152935 0 0 0 0 4.2043389552436565 6.7520817113054363 0 6.7520817113054363 -7.7722597231568216 0 0 0 0 4.2691879279827845 6.1100168539151127 0 6.1100168539151127 -2.3872944187805842 0 0 0 0 -0.060261918364723499 2.5844476603034039 0 2.5844476603034039 -2.9927736697580407 0 0 0 0 0.58867606335934397 4.1442926022039046 0 4.1442926022039046 -8.6416147278196149 0 0 0 0 -1.5711063700555314 4.1732513732542884 0 4.1732513732542884 -0.92464958696291433 0 0 0 0 0.81858045740614216 7.6854087201087395 0 7.6854087201087395 0.87897172946213686 0 0 0 0 1.2728448927409772 4.6425407032465955 0 4.6425407032465955 -2.3485064420293611 0 0 0 0 -1.150588632764638 2.9320147491811408 0 2.9320147491811408 -3.1751027706779702 0 0 0 0 1.6299735100110411 2.8869537278997086 0 2.8869537278997086 -1.5444555478239295 0 0 0 0 -0.79616007270669797 6.1336097530188454 0 6.1336097530188454 -5.0435646482321772 0 0 0 0 -1.1259713254748931 8.5400528731904615 0 8.5400528731904615 -4.4678562722701827 0 0 0 0 0.2914491130402439 4.7538628889512893 0 4.7538628889512893 -2.5830083246119102 0 0 0 0 2.8894538649733477 2.8142588881178554 0 2.8142588881178554 0.095582595540991022 0 0 0 0 0.22581492258723301 5.2353249861116637 0 5.2353249861116637 -2.831717370342858 0 0 0 0 0.68197035650337057 4.8048447431449404 0 4.8048447431449404 -4.2903100053640628 0 0 0 0 2.6777140262563321 2.3635287842327379 0 2.3635287842327379 0.018876231707935176 0 0 0 0 -0.43189719682231953 7.1441922209521636 0 7.1441922209521636 -5.735430570462313 0 0 0 0 0.0038336990420191341 4.3181628116288415 0 4.3181628116288415 -2.790346285486347 0 0 0 0 -0.50687986513412397 7.0949693153394264 0 7.0949693153394264 -4.6015782506938194 0 0 0 0 2.6569844674340857 4.7284405436907946 0 4.7284405436907946 -2.4213722928207062 0 0 0 0 1.0274982288665377 3.8962860144622766 0 3.8962860144622766 -1.3697777610240927 0 0 0 0 -28.734142025525216 4.8535885722367311 0 4.8535885722367311 -7.314985230477463 0 0 0 0 0.8015757414905238 9.747975932045847 0 9.747975932045847 -7.2108340298395888 0 0 0 0 -20.902098846760964 16.806349654148107 0 16.806349654148107 -0.73424071902809374 0 0 0 0 -17.528012913096973 15.067583437586336 0 15.067583437586336 -7.3224787275094059 0 0 0 0 -19.378724471157511 18.06489804641933 0 18.06489804641933 -10.639960576859266 0 0 0 0 -25.798184466975727 12.332021142386566 0 12.332021142386566 0.42339453406702887 0 0 0 0 -17.393357695309533 7.1729627355966841 0 7.1729627355966841 -3.5457053089903638 0 0 0 0 -13.27537990583005 12.995089414328504 0 12.995089414328504 -16.418066058775821 0 0 0 0 -14.458499664292503 10.38420017762337 0 10.38420017762337 -4.8399945854398538 0 0 0 0 -14.446244652463065 11.280391711314223 0 11.280391711314223 -3.1142422121854167 0 0 0 0 -0.6016060224337707 6.7466271342232176 0 6.7466271342232176 -4.9289783965366496 0 0 0 0 2.6573661438356186 5.1920125911545227 0 5.1920125911545227 -3.7959799020918759 0 0 0 0 -6.2835775522944459 10.761173846827432 0 10.761173846827432 -7.6797719453898026 0 0 0 0 -9.8287652187664207 20.391876800925729 0 20.391876800925729 -17.731640400512333 0 0 0 0 2.4605901414805977 0.31463599457551261 0 0.31463599457551261 -1.0090422315741403 0 0 0 0 -11.61931243159961 11.238546496576191 0 11.238546496576191 -4.8177553665605046 0 0 0 0 -10.858594545037704 6.810156617694247 0 6.810156617694247 1.1869961860656986 0 0 0 0 -14.05881855798998 5.5611714950937312 0 5.5611714950937312 0.65271034847319243 0 0 0 0 -9.5344980225381732 5.4313761489156605 0 5.4313761489156605 -2.9740760985929455 0 0 0 0 -11.818137938586005 9.3454889199210811 0 9.3454889199210811 -2.7077100192364014 0 0 0 0 -4.5742453076150014 2.901249789256326 0 2.901249789256326 3.1414461247732106 0 0 0 0 -8.5382838657051252 8.8522087750433229 0 8.8522087750433229 1.0220399509471463 0 0 0 0 -14.383137886741679 9.8286469813415351 0 9.8286469813415351 0.0057656452991068363 0 0 0 0 1.4437621951167898 6.1874547478367425 0 6.1874547478367425 -2.6485010652635506 0 0 0 0 -15.335835770913036 12.362149906958848 0 12.362149906958848 -2.1444949709039065 0 0 0 0 -8.5138003966894757 10.377071042077205 0 10.377071042077205 -3.9253267376229815 0 0 0 0 1.2692001838786382 7.4660064594477262 0 7.4660064594477262 -1.8371582579047754 0 0 0 0 -1.6997300437589189 3.9060868791432917 0 3.9060868791432917 -4.9051050625612405 0 0 0 0 0.38364941046893364 5.7209992616062664 0 5.7209992616062664 -3.140351378259993 0 0 0 0 -0.79738568955872324 6.7781283866851254 0 6.7781283866851254 -3.7678151539912506 0 0 0 0 -0.94320562428856647 8.7790554730985662 0 8.7790554730985662 -2.1897883290216669 0 0 0 0 1.3090646535238193 8.2318751625648474 0 8.2318751625648474 -4.4577326289974337 0 0 0 0 -3.0388263089763399 4.7480273741403973 0 4.7480273741403973 -4.5007440686501372 0 0 0 0 0.54712981151897111 4.3551647733436312 0 4.3551647733436312 -4.2555769184718883 0 0 0 0 -0.95169841770984931 4.3887693572003172 0 4.3887693572003172 -1.9321284884281624 0 0 0 0 -0.52780435978274909 5.5740347315081635 0 5.5740347315081635 -5.6315015356440199 0 0 0 0 -7.3589432287899399 5.5249419535211928 0 5.5249419535211928 -5.2964404680634516 0 0 0 0 0.9183032718508457 7.5606837697519609 0 7.5606837697519609 -6.1604728183733641 0 0 0 0 -5.0752355525128223 9.581725485060133 0 9.581725485060133 -6.8289916943632534 0 0 0 0 -0.65882292051355762 9.4313403160923599 0 9.4313403160923599 -4.4709116117210215 0 0 0 0 -0.11003083411196712 5.4059299330310751 0 5.4059299330310751 -5.6865813454107865 0 0 0 0 -1.2951356643876721 4.6866151452900695 0 4.6866151452900695 -2.8787855661372008 0 0 0 0 -4.4189693393365062 5.0406537145815342 0 5.0406537145815342 -0.71020275693025003 0 0 0 0 -1.3697085557942046 4.9829948266282145 0 4.9829948266282145 -0.6866709815512877 0 0 0 0 -3.7177373925982522 7.7760035778546204 0 7.7760035778546204 -1.9596340089844393 0 0 0 0 0.93413406694460832 1.4582683660811515 0 1.4582683660811515 0.01024398687024286 0 0 0 0 -9.8900212744874807 7.6559938774919942 0 7.6559938774919942 -1.4349080145930202 0 0 0 0 -1.6784753687152261 9.615776200487403 0 9.615776200487403 -11.218059884372678 0 0 0 0 -5.6839233436003269 1.210882847109815 0 1.210882847109815 1.0020329647632025 0 0 0 0 -0.49390171013201467 0.82975875808570976 0 0.82975875808570976 0.50866676049928383 0 0 0 0 -5.2115565171188791 3.7002112469710937 0 3.7002112469710937 1.140377198727947 0 0 0 0 -15.218440931254008 7.0136164577829732 0 7.0136164577829732 -0.74475044561093995 0 0 0 0 4.8392687372106593 6.0010037354144288 0 6.0010037354144288 -1.8697210754367006 0 0 0 0 -4.0436578258195368 1.1021114171333011 0 1.1021114171333011 -8.7691105196031458 0 0 0 0 5.522800286533311 3.6302197790323589 0 3.6302197790323589 0.4083596988782574 0 0 0 0 -0.831487956806086 2.9229504038735286 0 2.9229504038735286 39.603260177638731 0 0 0 0 -5.7545354232133832 22.683053295094624 0 22.683053295094624 23.02060280671958 0 0 0 0 2.0489856349868205 4.2495393854065924 0 4.2495393854065924 29.347577993802133 0 0 0 0 -5.5105306729892618 38.809813164886691 0 38.809813164886691 6.3162319309863051 0 0 0 0 -5.6794849868274468 27.723694200535192 0 27.723694200535192 30.234016089228362 0 0 0 0 3.8723250919210841 27.966445243091357 0 27.966445243091357 15.111427258566891 0 0 0 0 4.2963390278237057 25.527186991732833 0 25.527186991732833 21.385861508873859 0 0 0 0 31.212105923150375 37.770446968693932 0 37.770446968693932 8.0749836523064005 0 0 0 0 22.396399745855888 20.487202212429565 0 20.487202212429565 16.100381699710397 0 0 0 0 10.745340246343403 11.411269251425892 0 11.411269251425892 11.946419427317778 0 0 0 0 42.948385130115639 18.03690998995944 0 18.03690998995944 -0.627695583847526 0 0 0 0 -0.14048704597603745 -0.20053950085494776 0 -0.20053950085494776 0.42663554001028814 0 0 0 0 -23.925653165842959 10.509052306429453 0 10.509052306429453 -2.2422954898979697 0 0 0 0 23.326496325633343 6.7175185610986574 0 6.7175185610986574 4.4698332745929292 0 0 0 0 14.75415859358327 -1.5758913181622916 0 -1.5758913181622916 -0.3766661326335452 0 0 0 0 -11.905509596781485 9.1253668850097256 0 9.1253668850097256 -6.0573849333763974 0 0 0 0 -19.133044873160543 5.4399513096795999 0 5.4399513096795999 -0.6997947381905476 0 0 0 0 -18.678596654117428 11.838229003965353 0 11.838229003965353 -6.5604088487366425 0 0 0 0 1.5047803500510781 8.8610778403586892 0 8.8610778403586892 -4.1711352523236656 0 0 0 0 -0.025008738695532884 42.069549382419822 0 42.069549382419822 10.583716180269676 0 0 0 0 -1.8048711147202994 5.5847330354484654 0 5.5847330354484654 0.17295591470232807 0 0 0 0 0.29848222843159533 3.5937670321150694 0 3.5937670321150694 3.9958947885606468 0 0 0 0 1.3888527287580246 3.3167809535038799 0 3.3167809535038799 2.3536614878728739 0 0 0 0 -0.53123014951415826 0.36046611827123343 0 0.36046611827123343 -22.183828146379483 0 0 0 0 3.6722525978358505 6.9174032363014533 0 6.9174032363014533 4.2890930970802206 0 0 0 0 -19.19804290626962 -6.4770204796598136 0 -6.4770204796598136 -19.144477866756461 0 0 0 0 8.2048738316498202 -11.607468132460809 0 -11.607468132460809 -14.405118731598122 0 0 0 0 6.2404682060077903 9.5926389261780969 0 9.5926389261780969 -36.193892812157628 0 0 0 0 8.2423818122333614 23.97916283130553 0 23.97916283130553 21.291173127007369 0 0 0 0 -1.5560087175654189 2.3401356106228377 0 2.3401356106228377 -5.2990266213242876 0 0 0 0 -2.9440973682176264 9.2494730326036461 0 9.2494730326036461 -7.9445476127241363 0 0 0 0 -0.32471019535114465 5.5588299954802665 0 5.5588299954802665 -18.232159925002634 0 0 0 0 -6.1965954996558139 9.9626004757843702 0 9.9626004757843702 -0.62896893436209211 0 0 0 0 -0.12208269088660018 6.2696748250691599 0 6.2696748250691599 -4.8435769212898094 0 0 0 0 -0.024912776340052289 1.0146770832906709 0 1.0146770832906709 0.5930510915101489 0 0 0 0 0.24562716843320231 5.2508233764432255 0 5.2508233764432255 -0.50299092944401025 0 0 0 0 -10.668928044839959 4.7867653685589175 0 4.7867653685589175 5.1625126376222852 0 0 0 0 0.18667558928017058 3.0773208126747083 0 3.0773208126747083 3.1533158383441915 0 0 0 0 -2.193549425782173 2.3565921718255769 0 2.3565921718255769 2.4094349125069536 0 0 0 0 -3.2111670935573784 4.9438512874768037 0 4.9438512874768037 3.2607558485995298 0 0 0 0 -1.5608446456171805 1.9281297962779718 0 1.9281297962779718 2.8224901520474646 0 0 0 0 -1.5553860805896988 4.2539940369573177 0 4.2539940369573177 -0.35267375269694945 0 0 0 0 -0.47224645985212277 3.2696768288369942 0 3.2696768288369942 1.9749547916465822 0 0 0 0 -1.9384023481943586 3.9736210791598836 0 3.9736210791598836 3.6585146148966601 0 0 0 0 -1.3709938544925535 4.5820178083025382 0 4.5820178083025382 2.4026067357018137 0 0 0 0 -1.6052276123814764 3.3295181337535871 0 3.3295181337535871 0.095479980462646802 0 0 0 0 -1.8332828180768885 3.5570831609866715 0 3.5570831609866715 2.1251962651122613 0 0 0 0 -2.2531360741284381 3.2498605161823129 0 3.2498605161823129 2.0662786603150751 0 0 0 0 -4.3233102734984641 5.0319285744778881 0 5.0319285744778881 0.45657088603661578 0 0 0 0 -1.1081845341512988 2.1661290603551322 0 2.1661290603551322 0.77956284176377366 0 0 0 0 -1.0007765590999043 4.9559737006879914 0 4.9559737006879914 -3.9047380111624079 0 0 0 0 -3.4665788748888389 5.3385132670325266 0 5.3385132670325266 -2.3423945599247418 0 0 0 0 -7.3601004083320731 11.525691399676134 0 11.525691399676134 -5.398785265399507 0 0 0 0 -7.108567960189248 10.77740641541277 0 10.77740641541277 -2.6118817415493822 0 0 0 0 -4.2082408243739202 4.0648064310272289 0 4.0648064310272289 -1.8974933415521305 0 0 0 0 -3.4649752897518695 5.5495567492451121 0 5.5495567492451121 -1.7842755259453043 0 0 0 0 0.52382478601430194 2.2702428581869754 0 2.2702428581869754 1.9708769191972806 0 0 0 0 -11.399448691893667 9.4117657057645374 0 9.4117657057645374 -2.9157804362721436 0 0 0 0 -3.7667931451287586 5.1146797106139275 0 5.1146797106139275 -1.5471603823273199 0 0 0 0 -4.0458182066277004 2.7412170325979215 0 2.7412170325979215 0.77132200012286312 0 0 0 0 -10.531831880536629 8.21749982189408 0 8.21749982189408 -10.279537570540469 0 0 0 0 -3.5978202794085519 4.8968320424230569 0 4.8968320424230569 -3.3316862040578599 0 0 0 0 -1.3814000834329434 2.8120664266767115 0 2.8120664266767115 1.9757112450311847 0 0 0 0 -3.8917610272328602 4.8378014527024789 0 4.8378014527024789 -2.0617205122071027 0 0 0 0 -3.1312031344259594 6.1404015183134106 0 6.1404015183134106 -3.9959311064988015 0 0 0 0 0.30033441359636837 4.1820121299854414 0 4.1820121299854414 -2.2919366366812266 0 0 0 0 -6.2634838129997661 2.3878750421795303 0 2.3878750421795303 7.1923917393842203 0 0 0 0 -1.1500498805800277 2.1287195402974088 0 2.1287195402974088 1.4093435022256129 0 0 0 0 3.4540306411035999 6.8265153234151512 0 6.8265153234151512 -4.8885575331682958 0 0 0 0 12.24306837948825 -4.6394014736838471 0 -4.6394014736838471 -11.26008414329408 0 0 0 0 -0.11479086345907952 0.22670391787110411 0 0.22670391787110411 -0.28872466431016797 0 0 0 0 -43.026138653049202 -49.541608094647927 0 -49.541608094647927 94.465302927247194 0 0 0 0 -0.15694002594308643 0.73049991649794066 0 0.73049991649794066 -1.1890409371325523 0 0 0 0 3.7292848188808421 7.6223325627224199 0 7.6223325627224199 -2.8633780418206243 0 0 0 0 0.80916303160601455 6.6098508529827367 0 6.6098508529827367 -2.5539441067007633 0 0 0 0 6.974118519429453 19.371728448088419 0 19.371728448088419 -29.17833824794252 0 0 0 0 2.6731773248002355 8.1983571780693865 0 8.1983571780693865 0.95072978059351954 0 0 0 0 1.4826351496558345 8.2434983916954252 0 8.2434983916954252 1.8166834545570509 0 0 0 0 0.90110562588233734 7.0081656852634069 0 7.0081656852634069 -0.015573655338357639 0 0 0 0 -2.1007803744942066 5.7021776179111612 0 5.7021776179111612 -2.6941820209731304 0 0 0 0 -0.83757283553871609 3.8488331388102157 0 3.8488331388102157 -1.2790656469120316 0 0 0 0 2.0909241247427417 6.582458633906981 0 6.582458633906981 -3.3374197264124632 0 0 0 0 -1.6863211963282083 4.4050571713253248 0 4.4050571713253248 1.90659379156358 0 0 0 0 -0.32511118681244677 6.2666667986951303 0 6.2666667986951303 -2.7845983833207599 0 0 0 0 -14.588279448835237 25.629595255230129 0 25.629595255230129 -60.374412427052448 0 0 0 0 -4.7093850006622091 4.2292781888324651 0 4.2292781888324651 1.9005525513637835 0 0 0 0 -13.937104264272421 1.1532247177513 0 1.1532247177513 8.1675015790198131 0 0 0 0 -0.94143014869542085 0.80996484187902595 0 0.80996484187902595 1.9076080748933428 0 0 0 0 -1.9364398608836382 6.4730559866452015 0 6.4730559866452015 -5.711460942668225 0 0 0 0 -45.765786355666023 98.271997057046988 0 98.271997057046988 -13.314170878282312 0 0 0 0 -2.8327547828063571 6.0209609825836736 0 6.0209609825836736 -0.80011151419366477 0 0 0 0 -0.27324782362957478 4.1741664599077293 0 4.1741664599077293 0.33288534466990333 0 0 0 0 -1.2362080403503768 5.0010433048325487 0 5.0010433048325487 -1.7763675918048776 0 0 0 0 -6.045680913306569 14.421872107842034 0 14.421872107842034 30.389328000280159 0 0 0 0 0.70558822794070908 6.8591779808052955 0 6.8591779808052955 -0.55966291534537516 0 0 0 0 0.91562133192383044 7.0939002136466343 0 7.0939002136466343 8.6146820409641123 0 0 0 0 4.6194713229141371 5.9587946809318879 0 5.9587946809318879 3.7232546651166558 0 0 0 0 11.267260995049583 11.54066460057885 0 11.54066460057885 -6.3854931542130089 0 0 0 0 15.643093750506523 11.900269488930007 0 11.900269488930007 -22.799332915960832 0 0 0 0 0.83519852846898601 0.96254722502914447 0 0.96254722502914447 0.022484708523792474 0 0 0 0 8.050185699315989 -0.14754260753284143 0 -0.14754260753284143 -4.8207718250147309 0 0 0 0 -0.54575787765360451 5.3071751825715001 0 5.3071751825715001 0.64761671298073953 0 0 0 0 -4.6775698267861117 16.448220463732014 0 16.448220463732014 4.5122201428803237 0 0 0 0 15.371559738845463 -15.34073272041428 0 -15.34073272041428 -48.429733243372539 0 0 0 0 -14.915441126076985 0.1422422253044715 0 0.1422422253044715 4.3603280895117678 0 0 0 0 4.4089385110410149 23.20317978507066 0 23.20317978507066 -29.711723817021266 0 0 0 0 -16.024431758694845 22.834635665046108 0 22.834635665046108 -17.394911029916784 0 0 0 0 -32.655674635519972 5.3155199004399947 0 5.3155199004399947 23.176046326038431 0 0 0 0 64.381157318771329 111.77136695193093 0 111.77136695193093 6.3497842564916027 0 0 0 0 -8.2964122550056345 20.303165748816014 0 20.303165748816014 24.999997428106951 0 0 0 0 50.273314888931054 57.035701074765711 0 57.035701074765711 -38.938389320370987 0 0 0 0 -3.9374888687489147 53.009418207457031 0 53.009418207457031 76.650831591334338 0 0 0 0 -2.4544051991651941 3.0363193292002393 0 3.0363193292002393 -32.658980287013605 0 0 0 0 6.6757626859471202 7.8478578149015448 0 7.8478578149015448 -2.435240505321417 0 0 0 0 2.5177148906877846 14.282568227183901 0 14.282568227183901 -5.4155764413339682 0 0 0 0 5.7174111092499516 10.115374801282542 0 10.115374801282542 -6.2604083698531667 0 0 0 0 3.5990457508123654 11.367298151032628 0 11.367298151032628 0.62250231792074828 0 0 0 0 3.5282472124863489 7.9488331219286721 0 7.9488331219286721 0.52042503584345923 0 0 0 0 0.10547959521954908 8.860992425531137 0 8.860992425531137 4.820075278661534 0 0 0 0 0.77843124335868197 9.9197985111474907 0 9.9197985111474907 1.7271504553521382 0 0 0 0 -3.17069531490408 4.4433701023403387 0 4.4433701023403387 -1.2848492205247724 0 0 0 0 0.20566765484977978 3.919521618644294 0 3.919521618644294 1.1648012413623423 0 0 0 0 0.023279628037045086 1.0319878837706324 0 1.0319878837706324 -0.031794952387862341 0 0 0 0 -27.09838745524803 7.19246427740147 0 7.19246427740147 89.703466273223739 0 0 0 0 18.800927416649756 6.9416440546653178 0 6.9416440546653178 -30.795923320485429 0 0 0 0 0.98812969113759763 0.34553000062688 0 0.34553000062688 0.19647635707543515 0 0 0 0 -4.0714341973562114 -6.3857465710529482 0 -6.3857465710529482 51.019310113234383 0 0 0 0 15.388685259440535 2.7741144334708565 0 2.7741144334708565 -5.529170372140868 0 0 0 0 10.504897317337964 19.792836110672894 0 19.792836110672894 0.82873985904029723 0 0 0 0 1.4257782655713527 2.3602869661406203 0 2.3602869661406203 -5.414602578453426 0 0 0 0 8.2079182125926309 7.0915600803073175 0 7.0915600803073175 -10.741270591992361 0 0 0 0 4.7684854331776592 4.8205764693611579 0 4.8205764693611579 2.3739160875052709 0 0 0 0 -4.7622619543471956 4.1268444300341116 0 4.1268444300341116 12.492831197426574 0 0 0 0 5.6129655583595195 6.0668946558882908 0 6.0668946558882908 -8.6878425561098993 0 0 0 0 -9.3558072646701476 7.0409839099947931 0 7.0409839099947931 3.8478706326986867 0 0 0 0 3.5454468702291706 0.67789764522149198 0 0.67789764522149198 -8.8812664930819665 0 0 0 0 -1.0346020528340887 4.7640848282167099 0 4.7640848282167099 0.076689401058258611 0 0 0 0 -2.0476811443733816 4.7054670377775238 0 4.7054670377775238 0.39659085740589273 0 0 0 0 -0.81804705487342311 5.7019975878602818 0 5.7019975878602818 3.8951289442810095 0 0 0 0 0.58831864459967242 2.3383914423096499 0 2.3383914423096499 0.010278598341528777 0 0 0 0 12.573791947660993 8.8991730061348164 0 8.8991730061348164 -4.5611991468176711 0 0 0 0 11.870884260810271 2.0947934420205456 0 2.0947934420205456 -8.7098904575815936 0 0 0 0 7.5270633953587094 1.582288085365235 0 1.582288085365235 -4.6990280541795073 0 0 0 0 -0.91018812870288457 -24.649706158842037 0 -24.649706158842037 -25.270194677557811 0 0 0 0 7.859188065473063 5.8340621582669883 0 5.8340621582669883 -7.4225587423725301 0 0 0 0 9.6547151105260127 5.372598818973529 0 5.372598818973529 -8.7630366450792394 0 0 0 0 8.2385507452636375 7.1558586728847331 0 7.1558586728847331 -2.8466391808833578 0 0 0 0 7.7478299565191264 6.8952815276625188 0 6.8952815276625188 -2.8167242035824529 0 0 0 0 -0.4799174051117916 4.9446123155895201 0 4.9446123155895201 -0.76616648513884655 0 0 0 0 -6.7668889015376408 7.6610118439348298 0 7.6610118439348298 0.69992874698255036 0 0 0 0 5.689574595400245 6.8026876695773737 0 6.8026876695773737 -1.5452674988064246 0 0 0 0 2.5343132893525997 3.1626101186334847 0 3.1626101186334847 -5.9547421194925576 0 0 0 0 1.2131764778896468 8.7470482767175781 0 8.7470482767175781 -3.0698891621186704 0 0 0 0 -0.7191751181417616 5.8372057671067417 0 5.8372057671067417 -0.77385830593560101 0 0 0 0 2.3575918728092802 11.559813159698024 0 11.559813159698024 3.1104759975974048 0 0 0 0 3.5166899821888364 6.3139693680586788 0 6.3139693680586788 -0.96133877470219886 0 0 0 0 1.9225332793903362 8.3074374810066729 0 8.3074374810066729 -3.4963257251356481 0 0 0 0 3.4732370839682005 7.731937980583524 0 7.731937980583524 -5.3708061611232552 0 0 0 0 3.1658294928568047 4.6244039614146537 0 4.6244039614146537 -4.3738105206551987 0 0 0 0 -5.3049171554457644 29.24877547007577 0 29.24877547007577 57.150273928309161 0 0 0 0 23.642971457313251 34.984643894842975 0 34.984643894842975 14.175043605987412 0 0 0 0 29.825478560532702 17.795647585071379 0 17.795647585071379 -45.4682523933825 0 0 0 0 0.92716142273183788 6.7141090656245623 0 6.7141090656245623 0.59027780470223057 0 0 0 0 4.6690870683287358 5.7670161540606841 0 5.7670161540606841 18.486571618183007 0 0 0 0 9.0384361147862364 15.321404011105642 0 15.321404011105642 -0.56804985662165564 0 0 0 0 -14.618033625717544 24.576074688834296 0 24.576074688834296 -84.390204774950689 0 0 0 0 -9.6730642346483364 17.277259488068921 0 17.277259488068921 3.8142709567491693 0 0 0 0 -15.655908316066416 59.868770884138485 0 59.868770884138485 -18.495750932353559 0 0 0 0 0.96815157436503796 6.9476271974913288 0 6.9476271974913288 2.9194357988862976 0 0 0 0 -1.9400226311845472 6.7462167970734299 0 6.7462167970734299 -0.81445230208555586 0 0 0 0 -1.0493290872146943 1.1611507436783715 0 1.1611507436783715 0.38233264300850056 0 0 0 0 1.6037094269715908 1.5634250563376213 0 1.5634250563376213 -2.6634044829297636 0 0 0 0 -0.19369933259878402 3.8287125811872045 0 3.8287125811872045 1.5785924365878348 0 0 0 0 -8.5300264676552615 -0.59263497743631888 0 -0.59263497743631888 3.3852611411268754 0 0 0 0 10.507381948642433 8.0722143903221877 0 8.0722143903221877 -0.20479040693680872 0 0 0 0 3.4883465942987399 2.3251298658007937 0 2.3251298658007937 -2.1056446886107381 0 0 0 0 0.67356269869242169 8.5830858144248623 0 8.5830858144248623 -4.6198101876925648 0 0 0 0 1.050996993221899 6.2976151019144382 0 6.2976151019144382 -1.2235235610477133 0 0 0 0 17.26052881270698 6.2409709406556431 0 6.2409709406556431 -3.5332161775472741 0 0 0 0 -15.800964602660315 14.029149902594327 0 14.029149902594327 -10.999198541047008 0 0 0 0 0.66166329049213646 0.94304986839721394 0 0.94304986839721394 -2.7669546261673084 0 0 0 0 -18.779931864020909 11.284921476850741 0 11.284921476850741 -4.7061981886454305 0 0 0 0 -14.6696735150108 5.8049853342263305 0 5.8049853342263305 2.4050174826993498 0 0 0 0 -0.17227610032905849 5.7890744166755255 0 5.7890744166755255 -2.1400696838057627 0 0 0 0 7.6258609203159722 10.078697865010326 0 10.078697865010326 -4.1839140038482583 0 0 0 0 -0.15690205697464754 2.3969331288676834 0 2.3969331288676834 -0.25909571504399054 0 0 0 0 6.5949422573246466 6.9599277124971195 0 6.9599277124971195 -2.3017024270666298 0 0 0 0 2.0749820912666586 2.4985079555585887 0 2.4985079555585887 -5.6524648952008505 0 0 0 0 7.8123108782529016 15.481263304232925 0 15.481263304232925 -1.2069128404054936 0 0 0 0 9.6694063309023477 11.73225586868557 0 11.73225586868557 -2.456361902266508 0 0 0 0 -0.6701885032727608 7.5509473084565073 0 7.5509473084565073 0.31611399342268243 0 0 0 0 5.934856392023903 11.520452646279409 0 11.520452646279409 3.8910137492393915 0 0 0 0 13.681859507864374 13.823885342271751 0 13.823885342271751 -4.7081088674249258 0 0 0 0 2.4976773541141384 4.1571963848806686 0 4.1571963848806686 -5.3600884681307139 0 0 0 0 -2.162867919894321 5.2847579856751947 0 5.2847579856751947 -3.9687862106914427 0 0 0 0 3.9233661288390067 6.3449850011033959 0 6.3449850011033959 -1.6059735104890933 0 0 0 0 4.1404985898468567 8.1638161611791134 0 8.1638161611791134 -5.8225223771260062 0 0 0 0 -0.45227466276264749 9.047561960769599 0 9.047561960769599 -0.71254229408714309 0 0 0 0 -0.13134291054921121 2.1107866369213806 0 2.1107866369213806 -0.51447952242204087 0 0 0 0 -3.2739747775667638 9.2694052955448569 0 9.2694052955448569 7.3290604190387967 0 0 0 0 1.832954832411815 5.934493979067156 0 5.934493979067156 1.3971943130309228 0 0 0 0 -3.3698620932589165 10.628946337519665 0 10.628946337519665 1.692439450744132 0 0 0 0 2.3664058955956477 1.1392665022441353 0 1.1392665022441353 -0.32708420848269171 0 0 0 0 0.046993919855606858 6.6143737427824743 0 6.6143737427824743 -1.3217841351987261 0 0 0 0 17.044828030548615 4.3607900976367091 0 4.3607900976367091 -8.0089321225405001 0 0 0 0 -6.4204107336736342 9.5117380549163499 0 9.5117380549163499 4.7767017778969603 0 0 0 0 0.16184048703871667 7.8211293153071892 0 7.8211293153071892 -2.8022039666029741 0 0 0 0 2.9975352052751987 13.780119968800136 0 13.780119968800136 3.5582727619330399 0 0 0 0 4.3773200751456898 13.972795218904139 0 13.972795218904139 2.9474865120537288 0 0 0 0 2.9204908472856914 14.094073825234773 0 14.094073825234773 2.380876442319277 0 0 0 0 2.9831544158188308 13.801276721015768 0 13.801276721015768 8.9850472531798005 0 0 0 0 4.5171378033555811 16.395366265294797 0 16.395366265294797 -3.3811492403056036 0 0 0 0 4.8580048821768287 14.284501389477555 0 14.284501389477555 -1.7182980394936749 0 0 0 0 13.553582141335937 12.541446138908213 0 12.541446138908213 -6.8676978056901135 0 0 0 0 6.2715397235274395 10.854031072609814 0 10.854031072609814 -1.0096165480536001 0 0 0 0 9.1098395499866456 11.539462423836085 0 11.539462423836085 -1.6989873489128513 0 0 0 0 1.1299504888418141 12.512226253236065 0 12.512226253236065 -0.76570892306153837 0 0 0 0 -5.2578313881820868 6.5491214961763733 0 6.5491214961763733 -5.714313707869163 0 0 0 0 37.850901573774536 14.864073352806372 0 14.864073352806372 -4.1645815254867102 0 0 0 0 2.7872199953344534 15.856173989130184 0 15.856173989130184 0.14505575455041253 0 0 0 0 7.6108983974881994 17.037656964459529 0 17.037656964459529 2.8585335159191345 0 0 0 0 -0.12482776522931305 0.39484960627538257 0 0.39484960627538257 -0.88846268703702691 0 0 0 0 20.218732581255608 -86.973856801711918 0 -86.973856801711918 57.144877691440342 0 0 0 0 -76.968688505819159 27.633867654922739 0 27.633867654922739 8.9726267792320868 0 0 0 0 -19.857865225989372 46.104202577284923 0 46.104202577284923 -14.314854814609134 0 0 0 0 -9.8482031251260196 40.51747813529073 0 40.51747813529073 -18.859559848717254 0 0 0 0 -1.6182899806506157 6.2818326746431694 0 6.2818326746431694 -2.9333810735124644 0 0 0 0 -4.6844880825823516 6.1353873341046601 0 6.1353873341046601 -4.2983481515116182 0 0 0 0 -126.77919504769307 78.567313212502995 0 78.567313212502995 -12.9423775590476 0 0 0 0 9.4411796265549128 28.169517574214751 0 28.169517574214751 13.063501956952678 0 0 0 0 0.10562262682482881 -0.33510761428656011 0 -0.33510761428656011 -0.002688142012895689 0 0 0 0 -4.8865588238186319 13.422652022632974 0 13.422652022632974 42.188040325048178 0 0 0 0 4.4232790780479263 16.725949463007055 0 16.725949463007055 11.244635220715281 0 0 0 0 13.103931163648667 21.294495662452391 0 21.294495662452391 0.58163877695551491 0 0 0 0 4.7822404205160183 12.303133087125275 0 12.303133087125275 18.547810935928283 0 0 0 0 3.4119624826853396 27.186747818705044 0 27.186747818705044 27.90909714080226 0 0 0 0 2.381364445732288 2.6877871460019378 0 2.6877871460019378 20.316085820431908 0 0 0 0 -0.4885855985499532 0.066848389578051837 0 0.066848389578051837 0.0062929418528554493 0 0 0 0 3.6685727680851414 11.842521079219296 0 11.842521079219296 -38.873129113633013 0 0 0 0 -16.5483193490536 18.200833908669665 0 18.200833908669665 18.222394896163678 0 0 0 0 -4.999929109482764 -9.4720966418663011 0 -9.4720966418663011 5.4566028863573592 0 0 0 0 1.5325761216299725 27.570378459014137 0 27.570378459014137 -1.4385041624245787 0 0 0 0 -15.774843624465575 18.122226653519647 0 18.122226653519647 3.9447147818855228 0 0 0 0 15.775679921233859 14.850379317034822 0 14.850379317034822 -4.8034680300515902 0 0 0 0 3.2565034994386224 22.384619134592867 0 22.384619134592867 -7.9521929790062131 0 0 0 0 39.508483453624649 32.310517735889334 0 32.310517735889334 -5.5665248251825687 0 0 0 0 1.1819355326170715 0.67724024117562465 0 0.67724024117562465 -1.7480716223381823 0 0 0 0 0.054180460443603806 33.517037483666172 0 33.517037483666172 16.39950957775909 0 0 0 0 -7.9386369930771252 18.189146662783969 0 18.189146662783969 -11.091972806833837 0 0 0 0 14.564021587593743 -7.0099889229231849 0 -7.0099889229231849 -8.1064393286578706 0 0 0 0 87.126677547988947 26.064327691234212 0 26.064327691234212 -41.96650333125217 0 0 0 0 9.1001614917367988 -15.818962010856922 0 -15.818962010856922 -56.746301483435218 0 0 0 0 -22.690848114425535 -26.989056347110818 0 -26.989056347110818 -0.30742602764712501 0 0 0 0 37.143323515385418 24.321624617890848 0 24.321624617890848 -52.409329407294308 0 0 0 0 2.5705332688976341 26.909213907120829 0 26.909213907120829 -1.7783687689666294 0 0 0 0 2.3602706211142248 4.3576686557962976 0 4.3576686557962976 -3.921311638847607 0 0 0 0 -1.7412633810251918 1.011095952027631 0 1.011095952027631 -6.0210070323992113 0 0 0 0 3.1023468305056667 5.3095225351571571 0 5.3095225351571571 -6.4549034206647775 0 0 0 0 1.3362767026743114 1.9068101148778798 0 1.9068101148778798 -0.92077416509805232 0 0 0 0 10.806569022337499 19.561621397740055 0 19.561621397740055 -8.8865362263098859 0 0 0 0 5.0872800091237877 10.149771113507995 0 10.149771113507995 0.82078100600392645 0 0 0 0 2.1276095693565309 5.1470501066543868 0 5.1470501066543868 -4.2934244633445928 0 0 0 0 12.479020740094711 2.75187206809278 0 2.75187206809278 -12.211972737454744 0 0 0 0 2.6710462326700508 1.5659888463378593 0 1.5659888463378593 -11.69787954630192 0 0 0 0 2.2716411677420605 0.97128070668558664 0 0.97128070668558664 -8.7042112554286746 0 0 0 0 6.5334791660170595 3.7930743341757989 0 3.7930743341757989 -7.8693321952923725 0 0 0 0 0.40917557856366216 7.501322428858515 0 7.501322428858515 -8.828422535521895 0 0 0 0 4.5415152215853105 2.278514221040794 0 2.278514221040794 -2.5970337671178143 0 0 0 0 2.8992729295725219 1.5855168076614277 0 1.5855168076614277 -2.0611830130295452 0 0 0 0 0.39359373700565925 6.9865363754367422 0 6.9865363754367422 -10.999965334500303 0 0 0 0 -4.1583672889992158 9.1868522098347967 0 9.1868522098347967 -3.3612839569486823 0 0 0 0 0.33828401660035035 -0.33337322570109151 0 -0.33337322570109151 -4.9962693276447823 0 0 0 0 -10.772204253378732 4.1074370910191647 0 4.1074370910191647 -5.7764963893287131 0 0 0 0 0.23710012567811489 0.66407195894703719 0 0.66407195894703719 -0.45862985629542763 0 0 0 0 2.6177828245181445 0.50558915643159708 0 0.50558915643159708 -12.535092141604764 0 0 0 0 -2.3653262746174732 2.9490046140108461 0 2.9490046140108461 -5.7803281896140106 0 0 0 0 -26.02226677597173 7.9841954732328304 0 7.9841954732328304 -0.041345307704432344 0 0 0 0 -0.68198267199295515 5.5698953717128461 0 5.5698953717128461 -10.871022252628791 0 0 0 0 -0.059814265128194155 -0.14715548021558789 0 -0.14715548021558789 -2.8240317156905235 0 0 0 0 -6.2724578156985444 -5.519453366052403 0 -5.519453366052403 -1.2493155690181084 0 0 0 0 -29.226937453722712 33.473079475670602 0 33.473079475670602 -24.733064907299138 0 0 0 0 -1.0660832928715536 1.7465320994560898 0 1.7465320994560898 2.5273315294143686 0 0 0 0 29.797756815873981 1.0633975737573564 0 1.0633975737573564 -6.7529462273596437 0 0 0 0 6.5325622276941431 15.077410178391801 0 15.077410178391801 -1.6664339329192899 0 0 0 0 0.20338649014150967 0.022655793305251137 0 0.022655793305251137 -2.3789776408527672 0 0 0 0 -4.2198157824532245 6.3839656840727912 0 6.3839656840727912 -25.879611839154677 0 0 0 0 3.7362100064101469 4.7121655940322853 0 4.7121655940322853 -0.47358088793771458 0 0 0 0 0.9001413751492251 1.8015957050156608 0 1.8015957050156608 -3.3550923600689444 0 0 0 0 12.430123124907368 6.8950520584721744 0 6.8950520584721744 -10.49003997626096 0 0 0 0 6.0858177694954065 6.830494390842432 0 6.830494390842432 -9.7533043308721972 0 0 0 0 5.7975089408409985 7.3519883867920726 0 7.3519883867920726 -4.9813096538846366 0 0 0 0 6.6026289753087894 5.8321516469479775 0 5.8321516469479775 -10.343329184959657 0 0 0 0 5.4021669487792678 8.6736744342279053 0 8.6736744342279053 -11.371941132988468 0 0 0 0 14.631784892539144 0.8034844111334678 0 0.8034844111334678 -4.781504402770679 0 0 0 0 4.7857016430915706 4.8229421056396014 0 4.8229421056396014 -3.6214231780705202 0 0 0 0 -4.9157385897069616 -2.6161034846222719 0 -2.6161034846222719 -18.131812758366777 0 0 0 0 -1.455634136295771 7.8243602340766785 0 7.8243602340766785 -5.6492640325518213 0 0 0 0 -8.6433885777441901 8.3264024010763933 0 8.3264024010763933 6.7092442685416245 0 0 0 0 -5.697832139183447 8.9255749106905569 0 8.9255749106905569 12.50766215123349 0 0 0 0 -2.0228418528167822 -3.1123729055807416 0 -3.1123729055807416 -7.1325714111981142 0 0 0 0 -11.151289637227819 1.3865599550272236 0 1.3865599550272236 6.8783929804940271 0 0 0 0 -21.742187737974746 22.167102296019038 0 22.167102296019038 -20.221952313400379 0 0 0 0 -10.726923108773917 28.233851312992556 0 28.233851312992556 -42.858359915520168 0 0 0 0 1.2918209743979787 9.7795991951420547 0 9.7795991951420547 -39.289779483964594 0 0 0 0 -1.7481929170671719 23.485944437023591 0 23.485944437023591 -57.621654563440643 0 0 0 0 5.5154954662421005 40.590524502531935 0 40.590524502531935 -127.62014447845559 0 0 0 0 -2.7700127334762783 39.360744976151011 0 39.360744976151011 -126.88323769283124 0 0 0 0 -1.9472385107892478 -3.3590414393102037 0 -3.3590414393102037 -54.514907834341102 0 0 0 0 -27.836447710040375 11.180772752809389 0 11.180772752809389 5.6579660868683277 0 0 0 0 -11.533011341329257 46.469058388051167 0 46.469058388051167 -100.32409075930809 0 0 0 0 -8.0652216546114346 9.9801110527415524 0 9.9801110527415524 -5.724915465862388 0 0 0 0 33.83012436235731 20.279274240645464 0 20.279274240645464 -18.14528367481762 0 0 0 0 -5.0871437637769787 8.6661437978482283 0 8.6661437978482283 -5.0959128056953915 0 0 0 0 -18.563605322174226 14.864128586146762 0 14.864128586146762 14.685759084575693 0 0 0 0 2.8774548439178034 -3.7072966184737197 0 -3.7072966184737197 -19.711169009422974 0 0 0 0 3.7420250288923853 8.4019861451729412 0 8.4019861451729412 -0.7502709491755013 0 0 0 0 5.8369143455483936 30.717854569397019 0 30.717854569397019 2.149926548258918 0 0 0 0 1.7991380768739447 2.3221675615135977 0 2.3221675615135977 -5.0891074611142706 0 0 0 0 5.7827095607717638 7.7294111573128248 0 7.7294111573128248 -1.4551228059863206 0 0 0 0 3.4001943747462064 4.4230032125788057 0 4.4230032125788057 -6.5557503394729792 0 0 0 0 -0.41913077873141447 12.165072128135876 0 12.165072128135876 -3.4807446836275631 0 0 0 0 0.064657169898765687 0.39775125815324941 0 0.39775125815324941 -0.80025523125385001 0 0 0 0 4.1336678126499464 9.5896117529487128 0 9.5896117529487128 7.0915485717505362 0 0 0 0 -0.3984901812592021 0.30718548523262434 0 0.30718548523262434 0.62793942282017667 0 0 0 0 12.733466437465722 6.7265618617293512 0 6.7265618617293512 -5.0470478679744701 0 0 0 0 -2.0050874676089734 9.0394395238813559 0 9.0394395238813559 1.4530111612784822 0 0 0 0 -0.70059347920650339 3.583103421011792 0 3.583103421011792 -6.1524434074180387 0 0 0 0 5.6132017093985951 5.7942552800886062 0 5.7942552800886062 -4.7263585125238023 0 0 0 0 11.901201696173302 20.893948316524984 0 20.893948316524984 5.6579407372113906 0 0 0 0 -6.3388051204274234 6.7937996210898746 0 6.7937996210898746 8.711157558078412 0 0 0 0 2.6047301677210744 4.5130082225461479 0 4.5130082225461479 -4.6188610017350271 0 0 0 0 -12.961617546896377 6.4659550845371996 0 6.4659550845371996 -3.3518379744709819 0 0 0 0 -5.5115457651554607 7.5836977154704073 0 7.5836977154704073 -5.4413638487167191 0 0 0 0 -7.5988018559728516 15.181061209879772 0 15.181061209879772 4.5921936669010393 0 0 0 0 1.3372212325157466 4.2302416240998824 0 4.2302416240998824 -0.20021721664476644 0 0 0 0 -28.382369310807917 8.2537431438636304 0 8.2537431438636304 10.69489037578569 0 0 0 0 58.211213999178653 -75.720581936458757 0 -75.720581936458757 21.966747836158902 0 0 0 0 -9.5086395056005131 15.077303729711275 0 15.077303729711275 11.378981317040825 0 0 0 0 6.0918137203443621 19.036534742523145 0 19.036534742523145 3.3998469574053161 0 0 0 0 -1.5957402820354218 5.8498488338046517 0 5.8498488338046517 -6.4515386372795316 0 0 0 0 -2.9395649146790674 8.8268883338387241 0 8.8268883338387241 -2.491163213277531 0 0 0 0 -1.1505416053430508 5.8494713760003378 0 5.8494713760003378 -2.4329053521632886 0 0 0 0 17.386643847417872 4.962669524267767 0 4.962669524267767 -0.85739730366367439 0 0 0 0 15.773511939532909 8.9366581669178231 0 8.9366581669178231 7.3383743649101234 0 0 0 0 -4.7524927463539441 6.9479138492855945 0 6.9479138492855945 7.9331048869732079 0 0 0 0 -1.1768678164189623 2.7248808894482863 0 2.7248808894482863 -0.50574611000592995 0 0 0 0 0.46639552936291828 3.7036495554037003 0 3.7036495554037003 -1.9080486671404024 0 0 0 0 9.2344521336635808 -5.5230905053504102 0 -5.5230905053504102 17.30881864353978 0 0 0 0 1.4200702078039846 3.2487130540769087 0 3.2487130540769087 -0.52867829648176112 0 0 0 0 -1.2310130757119104 2.8492198826783133 0 2.8492198826783133 3.0839099767430156 0 0 0 0 27.007772522949381 10.153151274818811 0 10.153151274818811 -6.2932967121669208 0 0 0 0 5.2355209184606792 32.154626418552652 0 32.154626418552652 -18.521345205150283 0 0 0 0 0.48140019786357513 0.25065377700885882 0 0.25065377700885882 -0.0011849884713761583 0 0 0 0 27.358005781217798 17.097431682311253 0 17.097431682311253 -17.940009947500585 0 0 0 0 -26.003178324921464 23.907501963664799 0 23.907501963664799 -5.4856864632295128 0 0 0 0 10.130214899110797 15.75433027809413 0 15.75433027809413 -7.8445367427048041 0 0 0 0 18.827935285768035 -9.4833116438119305 0 -9.4833116438119305 10.412314314300602 0 0 0 0 13.46127795985376 7.053018812508526 0 7.053018812508526 -12.348618443214946 0 0 0 0 2.6756116080141474 3.5427475605042034 0 3.5427475605042034 -1.6651347058598915 0 0 0 0 4.6092591328097114 3.1953167328101699 0 3.1953167328101699 -9.7673079696960485 0 0 0 0 1.3811494302098382 3.708728533079011 0 3.708728533079011 0.65976030886199588 0 0 0 0 -1.2411304884080891 5.7596256908354917 0 5.7596256908354917 -2.2172767392730748 0 0 0 0 0.88399488445179486 8.8638384059159989 0 8.8638384059159989 -3.6056557494748631 0 0 0 0 -1.1476393889473542 3.70563443717643 0 3.70563443717643 -4.6708749685918107 0 0 0 0 2.7230417549944832 6.0558301054538788 0 6.0558301054538788 -4.9176081211264773 0 0 0 0 0.98109341273743667 9.4085913135148758 0 9.4085913135148758 -1.4646844174285434 0 0 0 0 -1.6667725528614028 6.2630691946270645 0 6.2630691946270645 -1.263296596879627 0 0 0 0 -1.4517483412785097 2.5152614179288868 0 2.5152614179288868 -3.8456686426084623 0 0 0 0 1.110388194783809 6.0998464709357449 0 6.0998464709357449 -1.4285402817313297 0 0 0 0 6.9943080900357018 3.4625066661169512 0 3.4625066661169512 -4.4525945230252546 0 0 0 0 6.7584654562615469 9.5536213934319676 0 9.5536213934319676 -2.5219310092979867 0 0 0 0 1.150217734348189 4.6109252098051456 0 4.6109252098051456 -5.2309001453504607 0 0 0 0 2.8411371902933347 1.5897288293142289 0 1.5897288293142289 -1.9612896153410748 0 0 0 0 7.6196548333555256 3.7840999211352937 0 3.7840999211352937 -0.51825632034964997 0 0 0 0 0.091643854611902498 4.4746822253633809 0 4.4746822253633809 -0.81548337109779823 0 0 0 0 0.064460072804649826 4.7264444783540966 0 4.7264444783540966 -1.3030075534807111 0 0 0 0 1.4403466719465272 0.51417052084435255 0 0.51417052084435255 -0.10299371183186778 0 0 0 0 -9.8047362713714392 8.8426369431676903 0 8.8426369431676903 -3.8081444620775073 0 0 0 0 12.832580343744667 1.4692766022347143 0 1.4692766022347143 -5.4847990686021149 0 0 0 0 0.013360397316102279 0.11114907526319229 0 0.11114907526319229 -0.060992417701324797 0 0 0 0 -0.81917940652556354 3.9878272552193721 0 3.9878272552193721 -1.7742802363363808 0 0 0 0 2.8750579232057483 2.3099564829008692 0 2.3099564829008692 -0.8287806110213527 0 0 0 0 3.0609036509158614 4.2498819097831984 0 4.2498819097831984 -3.4444096013230592 0 0 0 0 3.5018488403293304 -1.3854470083579145 0 -1.3854470083579145 -0.85577091328343613 0 0 0 0 3.9847392431638582 3.5333029213600184 0 3.5333029213600184 -3.5262279071539524 0 0 0 0 1.3935695234562004 1.2507629538195086 0 1.2507629538195086 -2.2559666657250297 0 0 0 0 3.7280364425023436 4.6007732116167972 0 4.6007732116167972 -3.0521656242608515 0 0 0 0 3.0194083461865375 4.2838240920191311 0 4.2838240920191311 -0.80394611800170424 0 0 0 0 4.2722424515159219 0.44956243953970443 0 0.44956243953970443 -3.6001743764140883 0 0 0 0 -0.98702099185111791 2.1312680524429339 0 2.1312680524429339 -0.34907671603930268 0 0 0 0 -0.16587445641778231 0.61433549372873308 0 0.61433549372873308 -0.22976757281907378 0 0 0 0 8.6219104663541657 14.050423354412487 0 14.050423354412487 6.5104656519286124 0 0 0 0 -2.2875989758249489 3.2224635330596811 0 3.2224635330596811 0.57239287761103697 0 0 0 0 2.8998513076317067 0.59837921052348975 0 0.59837921052348975 4.2943843333414407 0 0 0 0 10.886181031597516 9.1281087048764675 0 9.1281087048764675 -2.5971132139429756 0 0 0 0 -0.98255514121239429 1.3067840566720612 0 1.3067840566720612 -0.95522870381976155 0 0 0 0 1.9056643866215381 4.393950577042915 0 4.393950577042915 -2.5986704532624572 0 0 0 0 -0.12068303134722669 0.12137939673843334 0 0.12137939673843334 0.4481945749079479 0 0 0 0 30.738451592849742 44.640376839814053 0 44.640376839814053 -57.471247227920685 0 0 0 0 2.5870385472335329 2.9426812818892358 0 2.9426812818892358 -3.3076198037367703 0 0 0 0 2.6632245771252201 3.693138652984544 0 3.693138652984544 -2.7479066961269609 0 0 0 0 2.4186244574666489 4.4749378262677055 0 4.4749378262677055 -2.9771810079255374 0 0 0 0 2.3022507777186547 3.5749949893797748 0 3.5749949893797748 -1.9012073333856279 0 0 0 0 1.7428540890623481 3.2857670282355684 0 3.2857670282355684 -7.0192463483381289 0 0 0 0 1.2698360874692298 5.1803656488901879 0 5.1803656488901879 -13.724750334488363 0 0 0 0 0.56714697284925819 1.5464946154682195 0 1.5464946154682195 -0.25518602372265314 0 0 0 0 2.4428546753588307 1.7856470652341159 0 1.7856470652341159 -19.720254463262563 0 0 0 0 5.268838046993551 16.899520603542385 0 16.899520603542385 -30.728279893725812 0 0 0 0 -0.9269888510916644 12.76112564979303 0 12.76112564979303 -11.217759296745498 0 0 0 0 1.4203231049068563 6.1778715059144815 0 6.1778715059144815 -1.2207567738000762 0 0 0 0 2.6961170545648585 2.431214015215196 0 2.431214015215196 -0.64266275291499486 0 0 0 0 2.8005219810784183 5.7150914899757481 0 5.7150914899757481 -3.4875763003406064 0 0 0 0 -0.90090550180927664 3.2382351832498912 0 3.2382351832498912 -1.6532378988514507 0 0 0 0 -8.1663470049243188 6.4557529826533937 0 6.4557529826533937 -0.23672811252345127 0 0 0 0 1.5646887929791262 4.4239276484693804 0 4.4239276484693804 -2.6642327552835638 0 0 0 0 10.478273821989205 3.3730146008233532 0 3.3730146008233532 -5.8033661230329017 0 0 0 0 1.2836111344331584 4.4757419028146614 0 4.4757419028146614 -7.031249323193606 0 0 0 0 6.1889843681929051 5.4284467143829715 0 5.4284467143829715 -0.50751696036135741 0 0 0 0 -2.2522265175293796 5.6556798358502647 0 5.6556798358502647 -0.51363390708502266 0 0 0 0 -0.31636814671334967 4.665836505684954 0 4.665836505684954 -0.81457477277878354 0 0 0 0 7.2392965215487948 5.8604129098533235 0 5.8604129098533235 -3.8031471345348109 0 0 0 0 -0.067368135631974191 1.6799708842437759 0 1.6799708842437759 -0.15457082112564891 0 0 0 0 4.0433253918854462 9.1584760277992245 0 9.1584760277992245 -5.2128267617290476 0 0 0 0 -13.048519946273245 20.408813115343264 0 20.408813115343264 7.4735204829030408 0 0 0 0 -16.791346266854816 7.6333468630382413 0 7.6333468630382413 1.8063388025902896 0 0 0 0 -2.1958589633559313 4.8426886692682274 0 4.8426886692682274 23.892654469105764 0 0 0 0 -88.688663255741631 38.125768858426454 0 38.125768858426454 3.3711588071964798 0 0 0 0 -24.279610032273922 -18.910842506570589 0 -18.910842506570589 5.8589075418585708 0 0 0 0 16.08254863862021 -3.9350316779118657 0 -3.9350316779118657 -5.575893554938375 0 0 0 0 -141.72049276194593 17.420955631596371 0 17.420955631596371 -0.89347233854050501 0 0 0 0 -1.114411527984231 1.0576196410163003 0 1.0576196410163003 -1.0142376731351916 0 0 0 0 26.417070889754541 11.443238575671785 0 11.443238575671785 -23.679905985487494 0 0 0 0 25.067636561419931 -0.096405988363585493 0 -0.096405988363585493 -24.006566626879305 0 0 0 0 22.95445849490352 8.0481118234238238 0 8.0481118234238238 -4.0211173920415604 0 0 0 0 -2.1219698562224707 3.8509669008011098 0 3.8509669008011098 -2.6744806377172541 0 0 0 0 10.683704703635158 15.497073977153377 0 15.497073977153377 0.88808606810152924 0 0 0 0 2.7382347530365223 9.3051791986799799 0 9.3051791986799799 1.3820167244266486 0 0 0 0 25.207548424958077 2.8889948595451642 0 2.8889948595451642 -3.567275853280762 0 0 0 0 19.128995152864263 3.3298997876481735 0 3.3298997876481735 -136.478824580523 0 0 0 0 -10.547035430672537 10.662912020673367 0 10.662912020673367 -5.8897125556825758 0 0 0 0 -36.579034871838303 36.597825277739503 0 36.597825277739503 -84.424047690710722 0 0 0 0 -131.79452112938452 202.92387102910288 0 202.92387102910288 -34.711528879965044 0 0 0 0 -21.722194009635132 46.494146610395546 0 46.494146610395546 -113.77111059474191 0 0 0 0 -10.942627667383931 69.842395920055424 0 69.842395920055424 -242.96564046869207 0 0 0 0 1.2351190981371474 4.2549401037840653 0 4.2549401037840653 -189.56496106158011 0 0 0 0 -3.9792223926706356 -17.545042220392133 0 -17.545042220392133 -123.616749122697 0 0 0 0 -44.603192049506106 36.390193926134089 0 36.390193926134089 -150.90282783949942 0 0 0 0 2.7894711377111889 -14.10384964218656 0 -14.10384964218656 -162.93487750480199 0 0 0 0 8.228457226708997 25.818908889182239 0 25.818908889182239 -260.97010094457846 0 0 0 0 5.2425937547886861 -10.681170046889747 0 -10.681170046889747 -277.91541407243039 0 0 0 0 16.222106703709869 -23.221775021626854 0 -23.221775021626854 147.44999144399662 0 0 0 0 179.4436663430115 -112.10812174362491 0 -112.10812174362491 -149.75431947370089 0 0 0 0 252.8159041185063 22.785679815287949 0 22.785679815287949 -376.87525443898267 0 0 0 0 23.276136115870031 70.072509300391175 0 70.072509300391175 -63.860395971420985 0 0 0 0 -21.239765986640123 232.57413528601865 0 232.57413528601865 -269.13616041188106 0 0 0 0 28.489737326161048 37.215457753654619 0 37.215457753654619 2.4314120096805709 0 0 0 0 -10.201116122922997 9.4420454822113342 0 9.4420454822113342 -5.2695587790912395 0 0 0 0 23.820184604453971 42.413814195932446 0 42.413814195932446 20.589882637583287 0 0 0 0 32.603565857211834 23.598556220969385 0 23.598556220969385 -37.258550970291253 0 0 0 0 41.776374465016488 24.40685139555535 0 24.40685139555535 -18.373768086613381 0 0 0 0 16.083918813059427 48.037197224911324 0 48.037197224911324 -31.430883153934701 0 0 0 0 -16.173291636954673 104.88703486442137 0 104.88703486442137 -89.726024595289346 0 0 0 0 -37.386993490410532 49.214903045479332 0 49.214903045479332 -7.1882578118929814 0 0 0 0 -190.460223333459 143.78570392717938 0 143.78570392717938 -65.091253416700056 0 0 0 0 4.5805026087673468 17.097325136516247 0 17.097325136516247 -7.8314195353377727 0 0 0 0 -19.397921645278984 31.864797407252581 0 31.864797407252581 -13.195470989813657 0 0 0 0 21.031304408796132 20.606230726565173 0 20.606230726565173 -32.43379659308448 0 0 0 0 27.070650856087013 -2.680842399841822 0 -2.680842399841822 -58.172298186970011 0 0 0 0 -9.0095057431826717 -48.365354652049518 0 -48.365354652049518 -85.743172979237841 0 0 0 0 19.822161269119761 -7.9767593140745703 0 -7.9767593140745703 -85.620182789164573 0 0 0 0 17.351003973177853 16.376409621862535 0 16.376409621862535 -42.581960008400529 0 0 0 0 40.551812940062518 45.480773291969854 0 45.480773291969854 -10.691882298340715 0 0 0 0 48.649363950291445 11.237621086866966 0 11.237621086866966 -47.717458757825625 0 0 0 0 64.86902507533091 7.0889793588652168 0 7.0889793588652168 -83.325251400743582 0 0 0 0 70.485994730075618 79.239543201914785 0 79.239543201914785 6.3359328310980345 0 0 0 0 -6.7053958930766342 6.9136461052225364 0 6.9136461052225364 -4.2626542479097331 0 0 0 0 -9.0182083633608272 20.667734655908134 0 20.667734655908134 -553.3928707616551 0 0 0 0 25.086275409691552 71.934113337948247 0 71.934113337948247 119.53968326705763 0 0 0 0 -85.604493509516033 321.53409044742602 0 321.53409044742602 -489.53055990386656 0 0 0 0 -65.753870371328958 191.13621329158377 0 191.13621329158377 226.38320983227732 0 0 0 0 -2.4288575048293168 2.593390015518982 0 2.593390015518982 -2.1062770749562798 0 0 0 0 -0.44046712943600141 60.37410246975378 0 60.37410246975378 -108.41784637097953 0 0 0 0 -0.51913981065094816 0.23000997787599786 0 0.23000997787599786 -0.19878494313533679 0 0 0 0 -19.034520131906902 -20.312878796062023 0 -20.312878796062023 -224.940077892315 0 0 0 0 -22.017717497310514 0.18524317060018802 0 0.18524317060018802 -32.652859841131431 0 0 0 0 -0.71296105981117108 0.90373788851117354 0 0.90373788851117354 -1.2384177939866596 0 0 0 0 3.8816200276596646 5.4932667969901559 0 5.4932667969901559 11.417002553934708 0 0 0 0 0.030183556242263876 13.176573802004214 0 13.176573802004214 18.197511511479661 0 0 0 0 -0.047112088572248467 14.959269511162347 0 14.959269511162347 2.079366020210955 0 0 0 0 11.951932328647672 8.6936971675993391 0 8.6936971675993391 -29.558957842393283 0 0 0 0 -2.8219091492373991 3.9298495359598746 0 3.9298495359598746 -17.855406538581065 0 0 0 0 5.2510204713471467 -16.534340467784887 0 -16.534340467784887 -39.673570477767839 0 0 0 0 13.684621700333082 23.909767107360892 0 23.909767107360892 20.111098480937926 0 0 0 0 0.34794949628667382 1.9750263340104084 0 1.9750263340104084 23.832239481876968 0 0 0 0 -7.9202137725824286 -9.6267776946311443 0 -9.6267776946311443 -35.131831676921138 0 0 0 0 67.51674726001329 18.253612047123852 0 18.253612047123852 -120.4097128483827 0 0 0 0 1.832714345830027 -6.387123824154969 0 -6.387123824154969 -34.105481609138906 0 0 0 0 -0.51073448605998806 0.27191941087723492 0 0.27191941087723492 -0.0067327008666815402 0 0 0 0 -0.61559259626745444 1.4701229363856143 0 1.4701229363856143 -1.6619528306226865 0 0 0 0 -3.4435847594886582 17.86322944572612 0 17.86322944572612 3.8243836511846894 0 0 0 0 -0.84846417066000868 -17.206509209141586 0 -17.206509209141586 72.347643310909916 0 0 0 0 10.926492871467417 58.29472696928724 0 58.29472696928724 -61.364223226233662 0 0 0 0 14.068632868482382 -0.38660259483731352 0 -0.38660259483731352 28.66119444713695 0 0 0 0 0.043733445194327203 0.20505680441612917 0 0.20505680441612917 -0.23647835383902033 0 0 0 0 -44.798137006036995 5.7118301930740927 0 5.7118301930740927 303.36474145819011 0 0 0 0 29.370684739664284 -15.381021868060998 0 -15.381021868060998 -12.778381589033415 0 0 0 0 2.8061707139113423 11.34039747842985 0 11.34039747842985 -10.223351355679824 0 0 0 0 -4.1232285030455387 24.402968377432444 0 24.402968377432444 -14.437200218559155 0 0 0 0 -4.2227062671263411 21.101824072524323 0 21.101824072524323 -7.885613358921546 0 0 0 0 -3.5493791403569048 15.808688177809927 0 15.808688177809927 -10.199808917678638 0 0 0 0 -4.4864059057144914 13.644713369957572 0 13.644713369957572 3.5666707353593665 0 0 0 0 -0.53074179988210091 0.04626148921974238 0 0.04626148921974238 0.059453700904334994 0 0 0 0 1.0540534967040003 7.5785395135951603 0 7.5785395135951603 -13.865160145153368 0 0 0 0 0.010778130530525232 -7.549651670052981 0 -7.549651670052981 -14.409708005066932 0 0 0 0 -3.0664292840992857 4.7852999965512026 0 4.7852999965512026 -4.0271244905256935 0 0 0 0 11.539895260961202 -2.6582512533586851 0 -2.6582512533586851 -0.6559755884045444 0 0 0 0 -2.687484927377227 2.1477700728942182 0 2.1477700728942182 13.766046434046984 0 0 0 0 -5.8630584506609011 -0.31465984509441114 0 -0.31465984509441114 0.69636368348801625 0 0 0 0 13.896189120212512 13.847008220285261 0 13.847008220285261 -6.4384022042713696 0 0 0 0 4.6750931806236622 8.2808494846094618 0 8.2808494846094618 -1.0180509399510811 0 0 0 0 -1.0202744744747179 14.759837288600465 0 14.759837288600465 25.811271917771705 0 0 0 0 -13.653180024750327 3.2482167809241673 0 3.2482167809241673 23.495875928112582 0 0 0 0 5.6033645180541498 2.1205974114586752 0 2.1205974114586752 3.5116554074251098 0 0 0 0 10.297003024079459 9.5315871661703113 0 9.5315871661703113 10.755632952509586 0 0 0 0 7.1928611830662703 2.7395203826110901 0 2.7395203826110901 10.688894185920162 0 0 0 0 0.02065614436105534 13.089216200336978 0 13.089216200336978 10.848737169605158 0 0 0 0 -0.48420142972876334 -0.067724302833806149 0 -0.067724302833806149 0.45530200175689028 0 0 0 0 0.026319705411677826 17.484030055842165 0 17.484030055842165 19.975958622710095 0 0 0 0 -0.38056615193738708 -0.13602613429271404 0 -0.13602613429271404 0.23007558134714401 0 0 0 0 -26.486112519715789 241.3793743816193 0 241.3793743816193 -27.494808956858833 0 0 0 0 93.393543685218901 123.10348748231536 0 123.10348748231536 -113.60928608784525 0 0 0 0 -18.609957005803153 198.79405498241113 0 198.79405498241113 107.90287425433962 0 0 0 0 22.446107662412032 144.96793666571693 0 144.96793666571693 178.15864337145103 0 0 0 0 122.18674356530391 237.59482253937313 0 237.59482253937313 169.65544281220718 0 0 0 0 114.80104178835245 94.038049829345255 0 94.038049829345255 251.02435001502408 0 0 0 0 86.868601827634848 253.82114050129712 0 253.82114050129712 287.19218693205721 0 0 0 0 241.7950153189413 247.35887890679805 0 247.35887890679805 232.79539935048251 0 0 0 0 153.2159431949076 116.80886368756819 0 116.80886368756819 39.821094251463364 0 0 0 0 106.29331534433732 312.95700761962098 0 312.95700761962098 -253.91214696897077 0 0 0 0 -3.0718583359267733 4.2393877235021389 0 4.2393877235021389 -2.4323401547719321 0 0 0 0 -239.30803977235337 -76.354043014973286 0 -76.354043014973286 33.987347345882881 0 0 0 0 -1.8274058387872332 2.9106772252066442 0 2.9106772252066442 1.2983263905685973 0 0 0 0 628.1187085119891 344.34032380432109 0 344.34032380432109 252.98210938921147 0 0 0 0 119.84484535810657 101.16016673119771 0 101.16016673119771 753.02186774842266 0 0 0 0 161.89964246795807 239.25660006572389 0 239.25660006572389 452.46943769523568 0 0 0 0 387.46598303085739 361.94796948668682 0 361.94796948668682 -535.94182181500582 0 0 0 0 262.86524791010743 -37.786704052512505 0 -37.786704052512505 135.13191298783022 0 0 0 0 125.68629095005963 304.30147876660976 0 304.30147876660976 -438.57099666969589 0 0 0 0 -59.306010367825365 737.60504502922959 0 737.60504502922959 -737.58168743974966 0 0 0 0 75.590371656022398 142.54637040383477 0 142.54637040383477 31.29629933589149 0 0 0 0 250.10504336419945 215.03838196668403 0 215.03838196668403 -431.08163690894253 0 0 0 0 -66.333012194152616 305.22674947449468 0 305.22674947449468 -277.33461268225437 0 0 0 0 53.260035112871265 361.66998807294112 0 361.66998807294112 -389.29574214135937 0 0 0 0 -334.6900019236673 307.92720781443472 0 307.92720781443472 -98.68094230954739 0 0 0 0 -729.08646598261839 665.62964306644608 0 665.62964306644608 -196.78354467733516 0 0 0 0 0.12433450408945168 1.8417696732122657 0 1.8417696732122657 -2.7217979304244508 0 0 0 0 146.33262624565032 239.08215924292335 0 239.08215924292335 -133.8255883893288 0 0 0 0 -0.28306540108860645 293.26392229005432 0 293.26392229005432 -191.72794208091773 0 0 0 0 16.0460819910586 283.80012234651576 0 283.80012234651576 -235.39337721329139 0 0 0 0 44.950620762664585 221.84832446205178 0 221.84832446205178 -129.58647430266683 0 0 0 0 -35.207535416783685 177.45091633788002 0 177.45091633788002 -414.60589391883241 0 0 0 0 0.098187421037895392 118.67753715354534 0 118.67753715354534 -725.66531384247901 0 0 0 0 -165.3076187108818 211.4406267177751 0 211.4406267177751 -422.99746796549846 0 0 0 0 111.37854274733036 40.301048100213848 0 40.301048100213848 -1289.2895118315978 0 0 0 0 15.616361861048063 234.86187865811098 0 234.86187865811098 -1079.2135458951161 0 0 0 0 -50.690769145023296 116.13132676611167 0 116.13132676611167 -458.82568477509994 0 0 0 0 -3.0510339177071728 42.009978758845591 0 42.009978758845591 -880.42732780990173 0 0 0 0 -36.741088323910844 307.25862935163536 0 307.25862935163536 -597.98517557553259 0 0 0 0 0.13775936907382169 1.5640881958109105 0 1.5640881958109105 -2.6860080731858389 0 0 0 0 -26.680091276192002 249.15928705735058 0 249.15928705735058 -40.104767881002772 0 0 0 0 568.92592014222464 95.412824925332188 0 95.412824925332188 -540.16070001330445 0 0 0 0 0.45641490196439083 3.4704053825597434 0 3.4704053825597434 -5.4170720539165842 0 0 0 0 -118.19834696264388 205.60257480767496 0 205.60257480767496 -103.73451144808769 0 0 0 0 -153.13043270166872 302.45360260459938 0 302.45360260459938 -98.647532322378538 0 0 0 0 -617.69402404361858 470.30199958335845 0 470.30199958335845 -242.70253770576801 0 0 0 0 -62.52475394574617 194.63741293689736 0 194.63741293689736 -365.87771497016365 0 0 0 0 -17.46226138711063 148.85173990635303 0 148.85173990635303 -687.89911004241048 0 0 0 0 -31.526500176778427 95.552977103539661 0 95.552977103539661 -177.56755751158562 0 0 0 0 -13.442808399042406 -56.702030065014696 0 -56.702030065014696 -400.23682319251202 0 0 0 0 0.28599225697534791 0.27530756934788059 0 0.27530756934788059 -1.4841599361561535 0 0 0 0 -196.21072012546301 233.65010750043189 0 233.65010750043189 -208.71118487962303 0 0 0 0 21.367479261510653 18.191907696123053 0 18.191907696123053 -301.03578609634133 0 0 0 0 100.31749769821181 94.021881966582441 0 94.021881966582441 -330.64853606994643 0 0 0 0 249.08632697465418 -91.168178773063573 0 -91.168178773063573 -150.03204628257299 0 0 0 0 -22.163240925126956 141.60845595759838 0 141.60845595759838 -55.539211130750346 0 0 0 0 35.304437241839878 151.95302702889012 0 151.95302702889012 -155.54988284731826 0 0 0 0 10.525764708849238 193.00319109531438 0 193.00319109531438 -307.50989064372243 0 0 0 0 -123.07348934492802 309.62446615254839 0 309.62446615254839 -204.89014992429838 0 0 0 0 -92.603276910078876 263.33933756274996 0 263.33933756274996 -134.83902231484535 0 0 0 0 -139.08741459790326 177.01198094621759 0 177.01198094621759 -126.12688065780458 0 0 0 0 -118.51719428633078 184.94148056143422 0 184.94148056143422 -189.71444913781124 0 0 0 0 -111.43766583304023 170.50335531582368 0 170.50335531582368 -189.28955648400643 0 0 0 0 -120.89321470925643 147.46937046302901 0 147.46937046302901 -241.19768109888901 0 0 0 0 -122.00794680624858 190.91187109497332 0 190.91187109497332 -210.37669725990054 0 0 0 0 -119.81040297782647 202.41410627978826 0 202.41410627978826 -156.62249337913272 0 0 0 0 -114.13444973199148 172.35087053900497 0 172.35087053900497 -42.591704977715381 0 0 0 0 -10.609574792733838 53.74354277141083 0 53.74354277141083 124.91017376742184 0 0 0 0 -52.560725406610004 259.76517274107607 0 259.76517274107607 -61.35847635486607 0 0 0 0 652.67098084347867 247.88029651832915 0 247.88029651832915 -365.94714289414333 0 0 0 0 -46.545643815126368 206.0296448433769 0 206.0296448433769 -155.77836276160451 0 0 0 0 -157.7042369305891 163.83843662254367 0 163.83843662254367 -103.33456543008379 0 0 0 0 -138.644983751572 136.95551402256024 0 136.95551402256024 -137.5574718796388 0 0 0 0 -89.64468356019097 188.80406629210302 0 188.80406629210302 -379.30081228743984 0 0 0 0 -138.03126686863425 94.442747526535413 0 94.442747526535413 -231.39609164506692 0 0 0 0 -432.45031923864008 712.91823389290766 0 712.91823389290766 -332.11880404564545 0 0 0 0 -143.96086043768628 6.4946160035578941 0 6.4946160035578941 -458.64749292302076 0 0 0 0 -219.85954241649961 444.62721373619115 0 444.62721373619115 -708.54110207759368 0 0 0 0 -184.05009936002534 684.62141791607837 0 684.62141791607837 -476.47369248659743 0 0 0 0 -527.58930633778073 55.435999127763353 0 55.435999127763353 -17.729454452477512 0 0 0 0 -295.24124015183952 176.92286942267947 0 176.92286942267947 -18.560653038388409 0 0 0 0 -690.11545176101572 442.24397926757865 0 442.24397926757865 -189.30683498886356 0 0 0 0 -355.38271967040419 247.11401049706365 0 247.11401049706365 -100.04876819668971 0 0 0 0 -522.75448028343999 152.76317721895612 0 152.76317721895612 19.365685717340966 0 0 0 0 -184.99684380403232 355.35756155432591 0 355.35756155432591 -301.73858117833424 0 0 0 0 -122.51309176227187 230.71777539774939 0 230.71777539774939 -258.62486466327755 0 0 0 0 -113.37563324633084 294.10855360079313 0 294.10855360079313 -217.30831708486676 0 0 0 0 -83.169759792672266 249.81976414181099 0 249.81976414181099 -182.883625338402 0 0 0 0 -90.252079304205722 221.70017797690895 0 221.70017797690895 -163.74456665542857 0 0 0 0 -93.640561404195978 191.95415874924311 0 191.95415874924311 -200.32872065630727 0 0 0 0 -91.434255384700009 205.37631565970878 0 205.37631565970878 -256.48506914678546 0 0 0 0 -89.776515519102759 188.83373463371026 0 188.83373463371026 -225.30340606391292 0 0 0 0 -72.770181132815196 211.37659348330135 0 211.37659348330135 -154.21562643334801 0 0 0 0 -86.579646965283246 219.44288538665023 0 219.44288538665023 -170.21320093422764 0 0 0 0 -84.427142618415019 203.09959003453241 0 203.09959003453241 -134.31847733116149 0 0 0 0 -84.747917753005822 243.37495168063651 0 243.37495168063651 -138.20592097979937 0 0 0 0 -89.987217843678991 244.11216504330559 0 244.11216504330559 -72.96838612972897 0 0 0 0 -94.527648679926642 226.54188858721682 0 226.54188858721682 -109.72369263510484 0 0 0 0 -92.310293531132629 214.91748554445621 0 214.91748554445621 -50.468535365136631 0 0 0 0 -92.952634099021907 186.76055734109741 0 186.76055734109741 -85.145656805389081 0 0 0 0 -75.278706532436445 181.82453478353455 0 181.82453478353455 -93.649662104456183 0 0 0 0 -66.262926265691931 193.11717962189232 0 193.11717962189232 -106.7865703955631 0 0 0 0 -72.742830355431579 151.57033753693213 0 151.57033753693213 -124.18600627872274 0 0 0 0 -19.946687653486151 114.34573879216441 0 114.34573879216441 -99.629174461950242 0 0 0 0 -37.183939377029674 167.14575414239926 0 167.14575414239926 -165.06031532833549 0 0 0 0 -85.692094750336764 188.05860130772908 0 188.05860130772908 -135.87636476846365 0 0 0 0 -93.230532713441789 167.96160960411817 0 167.96160960411817 -180.45272282033238 0 0 0 0 -92.799002421078512 189.58526444632344 0 189.58526444632344 -234.52237591908306 0 0 0 0 0.24081680294814412 0.53381738282993041 0 0.53381738282993041 -1.3033182709289548 0 0 0 0 -276.99424420527976 317.54391936625689 0 317.54391936625689 -229.1880909220306 0 0 0 0 132.46132199194426 -18.953603045022646 0 -18.953603045022646 -31.690904076109291 0 0 0 0 67.36447411240033 105.28224264024243 0 105.28224264024243 -129.22466667533445 0 0 0 0 -24.064358928170122 132.83895166059858 0 132.83895166059858 -95.114294756385789 0 0 0 0 0.24709132495263475 93.807892511486898 0 93.807892511486898 -90.280004877140527 0 0 0 0 0.67372927845020314 0.79268287088565614 0 0.79268287088565614 -2.7932396487330848 0 0 0 0 -10.056389275572656 89.681052130574244 0 89.681052130574244 -90.715462159383605 0 0 0 0 -73.260836410136108 112.13966341733885 0 112.13966341733885 -94.575042206148282 0 0 0 0 -0.77230879095441196 112.68823490676959 0 112.68823490676959 -183.59476023111893 0 0 0 0 -5.1327688958608633 99.237660101899564 0 99.237660101899564 -291.18804226913471 0 0 0 0 -30.55213290376858 71.101091287794105 0 71.101091287794105 -88.388371275799727 0 0 0 0 -15.269865231550284 79.65605093598333 0 79.65605093598333 -83.785741836716625 0 0 0 0 1.3310180901244166 95.39504860565421 0 95.39504860565421 -107.5814868771522 0 0 0 0 -16.441990168375924 110.64777004750431 0 110.64777004750431 -117.20802313551849 0 0 0 0 -39.615870874496977 103.45548562360818 0 103.45548562360818 -94.931556089561127 0 0 0 0 -32.101117254092969 94.308632573072828 0 94.308632573072828 -92.751648018061132 0 0 0 0 -75.543069578816358 90.947892808271718 0 90.947892808271718 -87.748032465182405 0 0 0 0 -45.424776438590015 100.88136823811055 0 100.88136823811055 -64.035205318444696 0 0 0 0 -45.866593436266839 104.49035983010981 0 104.49035983010981 -85.181924498079752 0 0 0 0 -73.018275593263752 106.15160749860797 0 106.15160749860797 -83.238540639913481 0 0 0 0 -90.725145874497684 115.55950199411654 0 115.55950199411654 -44.286393390828266 0 0 0 0 -107.06327647789658 72.158731227578755 0 72.158731227578755 -51.014576320844753 0 0 0 0 -75.551509567059838 101.29886798365624 0 101.29886798365624 -112.6270118582197 0 0 0 0 -94.689614503668054 70.456429354590455 0 70.456429354590455 -40.43280139701892 0 0 0 0 -0.012638725885580016 0.10663455590556481 0 0.10663455590556481 -0.78701508463616676 0 0 0 0 -167.04056835858682 127.89012089891366 0 127.89012089891366 -73.980502763476579 0 0 0 0 39.95217470859825 -34.689992842735592 0 -34.689992842735592 -3.0627926385932369 0 0 0 0 0.26672379376396371 0.34416014982434007 0 0.34416014982434007 -2.0605427191993684 0 0 0 0 57.815229376561092 5.7502146490196537 0 5.7502146490196537 -27.938342547005959 0 0 0 0 -44.56056486405123 52.492048206589516 0 52.492048206589516 -47.905019075559721 0 0 0 0 -35.255616862394533 -9.616327958416548 0 -9.616327958416548 2.8834457196317089 0 0 0 0 -0.050450435293417972 -0.23762032409531386 0 -0.23762032409531386 -0.88320528879079063 0 0 0 0 -53.458922984207675 14.986771263955234 0 14.986771263955234 4.9114129003510243 0 0 0 0 12.921082134451353 6.8706827799401253 0 6.8706827799401253 -42.115586724956302 0 0 0 0 4.0503621874722739 -11.356301088032524 0 -11.356301088032524 -56.123423084491151 0 0 0 0 60.197728472106974 99.694660462892443 0 99.694660462892443 10.572713115694569 0 0 0 0 4.6468105381973146 -22.037622575051046 0 -22.037622575051046 -14.923977064265273 0 0 0 0 -48.102439370982211 13.740035862034347 0 13.740035862034347 71.533858277260151 0 0 0 0 -91.228052381899033 86.295403359695229 0 86.295403359695229 -49.428290432672952 0 0 0 0 -101.10228564160934 121.16029065394105 0 121.16029065394105 23.699695404864542 0 0 0 0 -0.19795630292467337 0.46844982784529421 0 0.46844982784529421 -0.57021722973870936 0 0 0 0 -97.925819349210542 102.74229514318358 0 102.74229514318358 -30.870056227952773 0 0 0 0 45.803631109809658 73.654963986806706 0 73.654963986806706 -44.519720690012036 0 0 0 0 0.38194572259362758 68.520885876615466 0 68.520885876615466 -28.22053472999869 0 0 0 0 -50.34671880643873 147.04333224647053 0 147.04333224647053 -68.358388973575074 0 0 0 0 -87.156709347008473 123.43163944485127 0 123.43163944485127 -63.758527781285011 0 0 0 0 -83.665631606269017 113.74172607366199 0 113.74172607366199 -65.633034700209464 0 0 0 0 -88.0165041601349 123.93622456654793 0 123.93622456654793 -69.479207938410809 0 0 0 0 -69.523705736894726 135.19691745677937 0 135.19691745677937 -64.641233561300396 0 0 0 0 -87.606141367113196 116.33354050684829 0 116.33354050684829 -65.476156889442791 0 0 0 0 -118.39079518342811 138.90994083295885 0 138.90994083295885 -13.451261068026724 0 0 0 0 -99.724577418803392 167.92311849894929 0 167.92311849894929 -67.650522655103487 0 0 0 0 -115.94852225613158 162.18439586118802 0 162.18439586118802 -33.477578709851514 0 0 0 0 -131.07960580384497 147.46432448374799 0 147.46432448374799 -17.734062233369968 0 0 0 0 -139.86851413356453 117.95435021212052 0 117.95435021212052 2.9233550781891608 0 0 0 0 -114.30300025158613 133.74941569257408 0 133.74941569257408 -27.664103496373173 0 0 0 0 -82.916345182333316 110.14736968057332 0 110.14736968057332 -15.22154924238157 0 0 0 0 -93.296050350006226 95.200701390926952 0 95.200701390926952 -13.412988763466274 0 0 0 0 -187.4366728601326 107.08804242436054 0 107.08804242436054 27.507304149665288 0 0 0 0 -198.43724397255755 164.84142246211741 0 164.84142246211741 10.299533605724719 0 0 0 0 -130.84716781440432 115.92324360691876 0 115.92324360691876 2.4404544888184319 0 0 0 0 -148.83243719032816 158.38943243100493 0 158.38943243100493 10.191810153608458 0 0 0 0 -152.58592606045841 187.19019169781586 0 187.19019169781586 -30.056577152638056 0 0 0 0 -137.77075900230921 208.73461856096492 0 208.73461856096492 0.14832102822765592 0 0 0 0 -216.06659308107328 212.49069891305089 0 212.49069891305089 1.5559742971599917 0 0 0 0 -195.25631628866427 173.67872613054737 0 173.67872613054737 26.864201657099329 0 0 0 0 -230.34944973849451 194.18213910375107 0 194.18213910375107 -25.512149762028457 0 0 0 0 -281.69963433301928 180.36478441510189 0 180.36478441510189 26.578331376870437 0 0 0 0 -250.17880694692894 163.30526875239707 0 163.30526875239707 -3.4047497670962912 0 0 0 0 -189.48166930944899 110.71462324500044 0 110.71462324500044 24.135045476913547 0 0 0 0 -292.5658708010169 112.97539889986456 0 112.97539889986456 43.072966172685028 0 0 0 0 -229.60712978554784 55.729895247883178 0 55.729895247883178 38.861549250708777 0 0 0 0 -318.77263849505653 171.88655646704046 0 171.88655646704046 10.306535765309491 0 0 0 0 -380.05071746303008 242.72978707017998 0 242.72978707017998 -61.040906714222729 0 0 0 0 -374.36559465118819 109.91852990997779 0 109.91852990997779 83.235999316606467 0 0 0 0 -550.11758519768955 168.37666993974653 0 168.37666993974653 74.4286105011779 0 0 0 0 -394.17236647329901 274.32899120410593 0 274.32899120410593 -28.164307471452048 0 0 0 0 -478.88055680511115 357.31033440294254 0 357.31033440294254 -0.56555319224753475 0 0 0 0 -938.7640100517292 85.59068736278914 0 85.59068736278914 65.010229316176265 0 0 0 0 -653.11584799840148 351.46379401425384 0 351.46379401425384 55.536814457023866 0 0 0 0 -182.91238850795253 172.85503857950653 0 172.85503857950653 226.01474208453419 0 0 0 0 -414.3278439682008 254.4084536866867 0 254.4084536866867 19.271891998703722 0 0 0 0 -240.3634348217638 347.3369643310325 0 347.3369643310325 0.22712309954778545 0 0 0 0 -315.83467353235028 351.81721522737189 0 351.81721522737189 -0.3916179331145031 0 0 0 0 -0.47437404497610558 1.3397132888257133 0 1.3397132888257133 1.0100780358731214 0 0 0 0 -332.08541134307825 424.37107767499685 0 424.37107767499685 -307.20334802059006 0 0 0 0 -218.58371761674698 194.85360887803608 0 194.85360887803608 -197.58247053540799 0 0 0 0 -311.12815716848405 255.38115862921973 0 255.38115862921973 -57.574379944988323 0 0 0 0 -166.37989905106497 192.70818374913415 0 192.70818374913415 -76.366057038500458 0 0 0 0 -0.47621664402718267 2.344706597885498 0 2.344706597885498 2.0614275154984796 0 0 0 0 -234.64286074360734 231.69714687918895 0 231.69714687918895 -95.082287107798948 0 0 0 0 -197.94845714647181 286.84135236504471 0 286.84135236504471 -113.81302355419302 0 0 0 0 -181.014744927229 203.81579672151565 0 203.81579672151565 -81.542036844703034 0 0 0 0 -172.77943237179534 166.69210346023829 0 166.69210346023829 0.024163347618014086 0 0 0 0 -188.41510320592897 226.42381311864665 0 226.42381311864665 -0.031672571307353792 0 0 0 0 -84.743867761395904 192.2076615510714 0 192.2076615510714 -120.12703868282279 0 0 0 0 -119.50550517681131 287.44584882396089 0 287.44584882396089 -390.31838160604821 0 0 0 0 -130.30646166282213 330.82874414283538 0 330.82874414283538 -28.44728487156317 0 0 0 0 -158.04843135025749 135.0288686422823 0 135.0288686422823 265.90233430856279 0 0 0 0 -0.28675125106882149 1.2448428635959701 0 1.2448428635959701 1.0158343923460791 0 0 0 0 -51.19941251269347 286.16707044723717 0 286.16707044723717 10.005178272154808 0 0 0 0 -97.653290398968693 333.72600072585806 0 333.72600072585806 85.929455806988699 0 0 0 0 -100.91098401400222 264.85244519450407 0 264.85244519450407 4.7473115080720163 0 0 0 0 -138.89932639742347 281.52867865865483 0 281.52867865865483 44.724691927010099 0 0 0 0 -259.00223815317895 226.10048547457291 0 226.10048547457291 43.555548151704897 0 0 0 0 -169.30754610717486 255.44701293029902 0 255.44701293029902 22.747339911004019 0 0 0 0 -154.06894854855955 249.43343476630821 0 249.43343476630821 -8.5916998337579571 0 0 0 0 -117.51605960497363 255.7371573974342 0 255.7371573974342 -10.855548506925743 0 0 0 0 -140.30685335493513 225.2811509495923 0 225.2811509495923 -50.258907666193409 0 0 0 0 -108.31503446176748 252.62223149579131 0 252.62223149579131 -75.37703997335484 0 0 0 0 -93.697724028934317 255.62478971052724 0 255.62478971052724 -93.047399047589352 0 0 0 0 -83.135801305776113 258.91269392898062 0 258.91269392898062 -94.41237785200974 0 0 0 0 -89.709228093789534 285.97899588391329 0 285.97899588391329 -41.00727226870913 0 0 0 0 -100.62543949086557 271.5517914657521 0 271.5517914657521 -35.724295544472625 0 0 0 0 -85.450733212050181 279.74902730964277 0 279.74902730964277 -34.981601275278081 0 0 0 0 -89.849333287532318 249.04901515591791 0 249.04901515591791 -41.926441611216433 0 0 0 0 -107.72219455658342 252.79850869774418 0 252.79850869774418 -110.15503914164037 0 0 0 0 -120.35017753987813 241.29473964019371 0 241.29473964019371 -94.716408421701999 0 0 0 0 -99.258904101776352 287.74671975880665 0 287.74671975880665 -94.065809146908578 0 0 0 0 -148.47372789580731 268.8330098249271 0 268.8330098249271 -105.12379433800015 0 0 0 0 -306.21036151175394 183.48689941802058 0 183.48689941802058 -5.6682903602250008 0 0 0 0 -71.248937140217095 99.674007691000043 0 99.674007691000043 13.545403932899717 0 0 0 0 -131.84406911638143 72.524854600947947 0 72.524854600947947 24.312680450436005 0 0 0 0 -6.4796160173642789 50.00587307581619 0 50.00587307581619 41.628394271318029 0 0 0 0 -7.6961988410803315 160.28195958535252 0 160.28195958535252 4.5480381045408649 0 0 0 0 -148.97983249740537 275.40599958585972 0 275.40599958585972 -38.15507239452927 0 0 0 0 -172.21258707554807 149.48445001843538 0 149.48445001843538 35.279372221217272 0 0 0 0 -79.496808839924597 173.03941381509503 0 173.03941381509503 34.07351243793255 0 0 0 0 100.579161749148 48.755314377374361 0 48.755314377374361 24.365823550042478 0 0 0 0 88.451967655775661 175.59248771093098 0 175.59248771093098 -0.36136437402547017 0 0 0 0 -44.21109864484697 224.64820532628164 0 224.64820532628164 34.610506714433541 0 0 0 0 -69.971203889322624 267.57543966461253 0 267.57543966461253 12.975953382547232 0 0 0 0 -45.584593170990047 206.07670523233537 0 206.07670523233537 -4.2541720370140865 0 0 0 0 -95.054031444349675 270.6460854595889 0 270.6460854595889 5.0741867331034882 0 0 0 0 -51.594426877262777 244.97305454317757 0 244.97305454317757 20.97628583575306 0 0 0 0 33.911997945481744 254.49202317211075 0 254.49202317211075 -12.702139285956036 0 0 0 0 -28.443739263311727 275.22308244263832 0 275.22308244263832 -7.9058931297240633 0 0 0 0 91.7694996977134 202.83532030724086 0 202.83532030724086 -50.571595164054088 0 0 0 0 -15.316148371120107 295.43291945129158 0 295.43291945129158 0.13835222960915416 0 0 0 0 127.07692185532233 243.3171714165137 0 243.3171714165137 -67.276745812820991 0 0 0 0 345.76002056417929 363.94698064509885 0 363.94698064509885 -0.73899209460701487 0 0 0 0 278.11244965934634 127.90590418375939 0 127.90590418375939 -245.30991047198222 0 0 0 0 300.51277414941069 133.07420174753952 0 133.07420174753952 -49.495609417095693 0 0 0 0 62.939544333777121 152.82528268602846 0 152.82528268602846 41.061996202037335 0 0 0 0 185.719869640252 194.16948664296524 0 194.16948664296524 -49.191314462736379 0 0 0 0 239.91980182044881 54.897241981358775 0 54.897241981358775 45.157342106012948 0 0 0 0 278.16728623947074 97.672518881458018 0 97.672518881458018 -13.187200428687902 0 0 0 0 0.0030535495971923954 3.4637667388242761 0 3.4637667388242761 -2.6148315173217895 0 0 0 0 -197.77295315158699 127.65377134765004 0 127.65377134765004 0.090975464142999604 0 0 0 0 0.16286531008790917 122.28449870718623 0 122.28449870718623 -148.8703802833852 0 0 0 0 -23.011753671293036 4.9383429402419097 0 4.9383429402419097 -1.583875616592195 0 0 0 0 -160.71785033839478 96.2397908213552 0 96.2397908213552 -36.544189345086124 0 0 0 0 -488.96028748593562 214.57312705011736 0 214.57312705011736 -21.403629763466597 0 0 0 0 -254.20602393155059 105.83005296672582 0 105.83005296672582 -25.991232971977297 0 0 0 0 501.92315627471635 63.399888535762329 0 63.399888535762329 -110.58159587038426 0 0 0 0 -0.018160334893125407 1.4855613521918585 0 1.4855613521918585 -1.1650428356734963 0 0 0 0 1.8020442649067263 6.9775559364115907 0 6.9775559364115907 -18.769003124515621 0 0 0 0 332.02870144356257 171.50937947961006 0 171.50937947961006 -164.56901815300444 0 0 0 0 -15.007760177306409 102.60105407100309 0 102.60105407100309 -175.9339057100301 0 0 0 0 -12.524843047071045 94.404965444552545 0 94.404965444552545 -149.87667568747111 0 0 0 0 -118.29281409069154 190.5177753536118 0 190.5177753536118 -194.84964552434212 0 0 0 0 -126.65240030735731 56.68060106772964 0 56.68060106772964 -34.256688939136438 0 0 0 0 3.7080126884136178 2.5688088774671094 0 2.5688088774671094 0.4042036999623182 0 0 0 0 1.3101753125605313 0.94626418405914237 0 0.94626418405914237 0.19278923070655196 0 0 0 0 -296.54145944466836 509.04747371354642 0 509.04747371354642 -145.61589427240233 0 0 0 0 -398.00704223101411 367.42126772581855 0 367.42126772581855 -333.98179081405397 0 0 0 0 3.4390653117006877 2.5477343434013164 0 2.5477343434013164 -17.564654312982839 0 0 0 0 0.74775470805970645 0.85478037202162582 0 0.85478037202162582 -1.1997619632052334 0 0 0 0 1.328662024249927 4.6613531285378151 0 4.6613531285378151 -0.08652136089097695 0 0 0 0 -160.0900451433763 116.32525432950797 0 116.32525432950797 -62.744787825808089 0 0 0 0 -31.85527396289217 50.351028989406586 0 50.351028989406586 -86.903388131328029 0 0 0 0 -18.841278737781977 1.2892846134918727 0 1.2892846134918727 0.54054526785876078 0 0 0 0 -1.8717622053992073 1.3149769049196181 0 1.3149769049196181 0.29655164382055155 0 0 0 0 -23.519889419084393 7.2780388904252504 0 7.2780388904252504 0.42955267380602891 0 0 0 0 -236.60258017675551 138.75986639385246 0 138.75986639385246 -22.374350895452153 0 0 0 0 -229.63437374293426 135.79137203896653 0 135.79137203896653 -25.497868376680344 0 0 0 0 0.95197779948968453 4.2499116752805222 0 4.2499116752805222 -0.82938329313311243 0 0 0 0 0.41713832476418844 3.3373842791010873 0 3.3373842791010873 -1.1803869491352117 0 0 0 0 -547.59441509179487 224.27446735406136 0 224.27446735406136 -5.552607328088925 0 0 0 0 0.070444120554852344 399.00631172063009 0 399.00631172063009 114.75175246201252 0 0 0 0 -561.35550808469043 -45.785252370217222 0 -45.785252370217222 -137.76416683713614 0 0 0 0 -32.636916542731342 -6.3933610055664758 0 -6.3933610055664758 6.3541367592843017 0 0 0 0 -588.69427868029561 253.65223548157974 0 253.65223548157974 -107.97335084057829 0 0 0 0 24.818793503847701 20.90634126884197 0 20.90634126884197 -140.68660618931881 0 0 0 0 -49.4662457211125 132.01447287126939 0 132.01447287126939 -166.56962086678345 0 0 0 0 -233.9504856456515 276.53877091565118 0 276.53877091565118 -204.50857563015006 0 0 0 0 -182.47697212715684 118.85385650144804 0 118.85385650144804 -76.933963917701476 0 0 0 0 -291.6287239758949 104.21775624585553 0 104.21775624585553 -41.405718530869308 0 0 0 0 -242.19551568307998 191.35030046860766 0 191.35030046860766 -53.771785798591736 0 0 0 0 -102.31720340164975 21.292584095282109 0 21.292584095282109 12.682612859085566 0 0 0 0 -119.127517878449 123.07442987948343 0 123.07442987948343 -42.518952914029796 0 0 0 0 -103.48775154405848 107.11404257879531 0 107.11404257879531 -116.62402696541267 0 0 0 0 0.20872288187829691 3.7775161349420294 0 3.7775161349420294 -2.0281356878657419 0 0 0 0 118.97039546942597 69.742957567295889 0 69.742957567295889 -3.1677673061039968 0 0 0 0 53.770475629249631 -4.0887429097701897 0 -4.0887429097701897 -88.143109733600795 0 0 0 0 -0.62249151423156945 -33.760271398154146 0 -33.760271398154146 17.568229442678785 0 0 0 0 -81.337807677842648 103.10010692321339 0 103.10010692321339 28.763613631198041 0 0 0 0 112.36769471079072 -8.1436985111252795 0 -8.1436985111252795 -54.030476191419439 0 0 0 0 -1.6693347400473608 4.8642874617360476 0 4.8642874617360476 0.39853907472065941 0 0 0 0 -58.648234372554725 -123.64819419259584 0 -123.64819419259584 4.339846088098966 0 0 0 0 -1.7828526890880312 3.5320013807704527 0 3.5320013807704527 37.926307988265762 0 0 0 0 197.31607922126932 301.74097178668399 0 301.74097178668399 215.99155891181908 0 0 0 0 -2.6147515732709863 4.5467428648342958 0 4.5467428648342958 -4.2528646084339385 0 0 0 0 278.54263649542827 185.2341778642085 0 185.2341778642085 129.0536120103352 0 0 0 0 -22.293541231939798 185.85881568775483 0 185.85881568775483 205.78862224217119 0 0 0 0 -412.48088291212116 421.12112130295463 0 421.12112130295463 64.778672965448095 0 0 0 0 182.03434489707433 94.434919393781456 0 94.434919393781456 16.311629822652321 0 0 0 0 -0.023373462619707297 1.6879504107172707 0 1.6879504107172707 -0.80737703803462324 0 0 0 0 -763.53355911070184 364.54363186314549 0 364.54363186314549 236.49694694374921 0 0 0 0 -2.4052228147436097 1.8888208677132896 0 1.8888208677132896 -1.4305992235006535 0 0 0 0 -81.911788751574932 -33.348804520110662 0 -33.348804520110662 247.35666065306214 0 0 0 0 -594.23051516155465 233.15444159101389 0 233.15444159101389 127.2467588330328 0 0 0 0 -1.4255103247032821 12.87511822405304 0 12.87511822405304 -8.1731727063943254 0 0 0 0 -6.1399979565958471 9.6392243061631593 0 9.6392243061631593 -12.118064378973465 0 0 0 0 3.2292398031543144 28.112174201860057 0 28.112174201860057 -12.734855439302919 0 0 0 0 12.583902501281045 10.905131835946122 0 10.905131835946122 -24.497374532662434 0 0 0 0 -32.140600280127046 39.116536623273078 0 39.116536623273078 -22.936066128629136 0 0 0 0 0.043805666625083894 0.071612662352987577 0 0.071612662352987577 -0.67081292612240162 0 0 0 0 19.2556606396397 41.209788348391157 0 41.209788348391157 -43.181610570582052 0 0 0 0 52.55924517515632 15.951306391901653 0 15.951306391901653 -24.83786243598388 0 0 0 0 5.780047333134462 16.079699345087647 0 16.079699345087647 12.900065734505915 0 0 0 0 9.7366107280868164 23.321863716959342 0 23.321863716959342 11.971822706827879 0 0 0 0 -13.24426015071549 9.5425415580994013 0 9.5425415580994013 1.647568073348566 0 0 0 0 -61.900327543143248 4.9566941517841769 0 4.9566941517841769 1.2938180101746184 0 0 0 0 -7.2851588250523491 8.0874050226111649 0 8.0874050226111649 -1.4053292716689612 0 0 0 0 -0.51759472415340291 0.79977545830543173 0 0.79977545830543173 -1.3706887935763774 0 0 0 0 -16.46298272666877 5.0703294105610439 0 5.0703294105610439 1.8055045698511094 0 0 0 0 21.128424308017884 20.859864782194563 0 20.859864782194563 9.0208428502483002 0 0 0 0 -1.3514727314673354 4.7540737168112415 0 4.7540737168112415 -8.2093204013666465 0 0 0 0 -1.381775047528663 6.2318177585275407 0 6.2318177585275407 -7.0781576743936512 0 0 0 0 -0.85629202240215818 6.1944278942528399 0 6.1944278942528399 -9.6890814932467038 0 0 0 0 -0.24521051460587984 0.96560503007538401 0 0.96560503007538401 -1.0260131583581718 0 0 0 0 -2.5432179870653933 4.715528055379945 0 4.715528055379945 -3.4663245173515342 0 0 0 0 -11.211291348068244 4.5178476367336771 0 4.5178476367336771 -0.90473977879537415 0 0 0 0 0.36224085961978858 1.7565621446435742 0 1.7565621446435742 -2.6338571533780293 0 0 0 0 8.0165862672374715 16.523252211278304 0 16.523252211278304 -0.00054838026835568598 0 0 0 0 -5.4281333023170646 15.787952396242872 0 15.787952396242872 -18.828976030301419 0 0 0 0 -5.6546316696025158 9.3395363949346208 0 9.3395363949346208 -10.671766851248158 0 0 0 0 -12.606319154713788 21.723945317375183 0 21.723945317375183 6.5000306051388179 0 0 0 0 1.8042395398246072 12.036862089071292 0 12.036862089071292 -7.9362395167609066 0 0 0 0 -6.5232794050948826 10.280633968222332 0 10.280633968222332 -7.5253583527664887 0 0 0 0 18.945636428966168 14.05760973328961 0 14.05760973328961 -47.471680018479674 0 0 0 0 0.24104389218485345 0.34650788682613864 0 0.34650788682613864 0.4473507862989905 0 0 0 0 31.858557323939976 34.856134870437927 0 34.856134870437927 -15.101108319384366 0 0 0 0 18.195311427612523 49.4515711849117 0 49.4515711849117 35.176714874574827 0 0 0 0 20.348271616196371 48.820588421652246 0 48.820588421652246 30.284815177681594 0 0 0 0 21.695455959108131 50.636815105219739 0 50.636815105219739 31.740799247225368 0 0 0 0 15.873058139510249 46.666082265699515 0 46.666082265699515 32.351263492525504 0 0 0 0 1.7194439883689938 11.277413602877459 0 11.277413602877459 0.39542201972608382 0 0 0 0 52.441442894097158 90.135448630071778 0 90.135448630071778 65.786178143556754 0 0 0 0 -181.7895377840826 100.75994638259544 0 100.75994638259544 129.67462107414758 0 0 0 0 32.476994224131175 26.368200883360487 0 26.368200883360487 43.991237725294923 0 0 0 0 12.044734839130911 59.617287488228612 0 59.617287488228612 95.154362201219556 0 0 0 0 10.667787006289927 49.875801629014859 0 49.875801629014859 46.008905514041544 0 0 0 0 19.678961018031714 23.465145096128253 0 23.465145096128253 3.4592656916101987 0 0 0 0 14.61907913529393 38.867248244538132 0 38.867248244538132 39.247909628130401 0 0 0 0 30.591016702240147 41.168053405184764 0 41.168053405184764 16.696409407391911 0 0 0 0 -13.136122972146353 27.029853044645279 0 27.029853044645279 12.85190794369737 0 0 0 0 -36.030317678260218 61.370626462822656 0 61.370626462822656 56.829509907411193 0 0 0 0 -23.30733818093438 11.972200968511061 0 11.972200968511061 -7.4347087814094266 0 0 0 0 1.6738409731933928 28.195517336576813 0 28.195517336576813 -25.440118491129397 0 0 0 0 0.65781888571979152 29.29656982241795 0 29.29656982241795 -8.0179031502084399 0 0 0 0 21.365993234308974 28.79141564458314 0 28.79141564458314 -10.470938347662013 0 0 0 0 13.851883210208712 26.171367557741178 0 26.171367557741178 -8.314429504380314 0 0 0 0 2.3419647431227304 31.682862697223754 0 31.682862697223754 -7.357891147637929 0 0 0 0 -22.432027291263125 42.013782239562715 0 42.013782239562715 -10.364096453478851 0 0 0 0 4.0361327045932853 8.1914620492946142 0 8.1914620492946142 -21.104518499176265 0 0 0 0 12.516594272026623 22.200943960619043 0 22.200943960619043 4.8546702397597983 0 0 0 0 14.897752016386789 24.355277131446201 0 24.355277131446201 -7.1174070693068643 0 0 0 0 -6.8912189430468587 10.17655624559025 0 10.17655624559025 -12.366759963657252 0 0 0 0 11.993564505992481 21.276005951242041 0 21.276005951242041 -6.9656954068370851 0 0 0 0 4.350466371484174 6.8124949085749904 0 6.8124949085749904 -16.471537069126498 0 0 0 0 -11.039460235032493 6.8993065765166648 0 6.8993065765166648 -11.017363248298352 0 0 0 0 -1.233500720246866 7.9799611463577094 0 7.9799611463577094 -14.489706046729225 0 0 0 0 10.762581437534436 8.4583243868701175 0 8.4583243868701175 -17.012489258733694 0 0 0 0 -0.69027630780556137 4.9964354310814088 0 4.9964354310814088 -1.256376597817507 0 0 0 0 -20.731425993716414 21.073390099229982 0 21.073390099229982 8.1320477343288076 0 0 0 0 -0.68410178059577476 27.312076392608788 0 27.312076392608788 9.6653566060140292 0 0 0 0 -3.0206348655284527 5.3124903315178846 0 5.3124903315178846 1.2963510222005965 0 0 0 0 -9.2948888330256523 2.5188476347714186 0 2.5188476347714186 -18.702779862633179 0 0 0 0 1.6072896592232837 31.971778329367226 0 31.971778329367226 9.1029262937954627 0 0 0 0 -7.2693250275065973 10.846735547021886 0 10.846735547021886 -12.953969696714438 0 0 0 0 1.4473412688241751 35.560099452108261 0 35.560099452108261 5.3221366114157718 0 0 0 0 -16.264753250684407 9.4255585591181443 0 9.4255585591181443 -12.251906500189762 0 0 0 0 -4.1002262921899728 5.2725160980517103 0 5.2725160980517103 -2.5729316971337539 0 0 0 0 -10.989103526120175 20.736665605588314 0 20.736665605588314 5.6344470086442016 0 0 0 0 -2.5004611345005081 5.0464958686585 0 5.0464958686585 -7.6033187142435352 0 0 0 0 -2.0352127021672266 6.6725475958778802 0 6.6725475958778802 -7.0251046095110325 0 0 0 0 -1.8543028620471205 6.0967346482821085 0 6.0967346482821085 -6.6218394068182533 0 0 0 0 -3.2026028474895827 4.7965851897645067 0 4.7965851897645067 -0.89367987857251308 0 0 0 0 -10.073935057039307 6.3461260160347592 0 6.3461260160347592 -11.099803730894564 0 0 0 0 -11.934343784436351 9.8394983630932984 0 9.8394983630932984 -10.161520240057826 0 0 0 0 -10.227601602343839 7.6346438898053748 0 7.6346438898053748 -9.0935293912261841 0 0 0 0 -6.2925767894948876 7.4968174071782414 0 7.4968174071782414 -9.5963785869189451 0 0 0 0 -6.9795483359603878 5.1579751712069992 0 5.1579751712069992 -1.5868610012403224 0 0 0 0 -1.004655205307925 4.0881889524142867 0 4.0881889524142867 -4.95641349397836 0 0 0 0 -2.3443093028484636 -0.95814823767704738 0 -0.95814823767704738 -4.0675840292488274 0 0 0 0 -16.310426427695461 -3.76086263557454 0 -3.76086263557454 -1.4677876652422128 0 0 0 0 20.41263481445958 13.168501863930032 0 13.168501863930032 -25.631172468525619 0 0 0 0 8.1729845659315288 18.590769289754462 0 18.590769289754462 -7.407646283872964 0 0 0 0 -10.786569072246607 8.7880543631987393 0 8.7880543631987393 -7.7779956416015921 0 0 0 0 -2.5399131666381436 10.18095419358724 0 10.18095419358724 -10.100459964498441 0 0 0 0 -1.4964539318343668 9.7903287284843827 0 9.7903287284843827 -15.342397738237196 0 0 0 0 7.3276741587742436 5.5440719451416953 0 5.5440719451416953 -13.545150047523748 0 0 0 0 -5.9350509498133874 4.5543836856789994 0 4.5543836856789994 -9.6727452826671652 0 0 0 0 10.663113576897786 1.4436415504299021 0 1.4436415504299021 -34.383002964828847 0 0 0 0 18.19906929018407 -13.76620134818404 0 -13.76620134818404 -24.058972127095331 0 0 0 0 -3.7042169743040176 3.6743451793572603 0 3.6743451793572603 7.7671836907452416 0 0 0 0 63.695534788939312 51.164576521844538 0 51.164576521844538 -81.999808294189279 0 0 0 0 -0.11188658369588822 0.6241095813126627 0 0.6241095813126627 -0.43945884208932817 0 0 0 0 90.210726781485391 -54.113477171513296 0 -54.113477171513296 -173.33241548293699 0 0 0 0 50.790949001150693 -46.599698393815743 0 -46.599698393815743 -14.471914858055243 0 0 0 0 6.0994990725366733 33.890593035841903 0 33.890593035841903 35.375521623165696 0 0 0 0 16.152156361551988 12.779182075438712 0 12.779182075438712 12.068402849954509 0 0 0 0 32.468594328906192 38.441596339805301 0 38.441596339805301 4.8767671233727015 0 0 0 0 10.793012496566007 37.699023190503794 0 37.699023190503794 83.107692667492302 0 0 0 0 9.6513913859762397 1.8864481247437652 0 1.8864481247437652 6.6599668122753997 0 0 0 0 19.20571127026551 23.573022851181122 0 23.573022851181122 -0.72033615128566453 0 0 0 0 4.5102617767958009 27.595792248814632 0 27.595792248814632 -45.701594177430707 0 0 0 0 7.7012798715400095 -2.4414549378411721 0 -2.4414549378411721 -26.903007223666464 0 0 0 0 6.3603862998534169 51.381429128635318 0 51.381429128635318 -38.124212344693206 0 0 0 0 11.972037537769211 43.11567531521996 0 43.11567531521996 -25.954126072569125 0 0 0 0 -29.777899126736429 27.504352285484401 0 27.504352285484401 1.310105527196356 0 0 0 0 17.169792528788093 16.928680965062085 0 16.928680965062085 3.6912866397778998 0 0 0 0 -1.6132614834532433 20.135618033422361 0 20.135618033422361 18.542028094310808 0 0 0 0 -5.5242270502412794 24.599526310925285 0 24.599526310925285 38.060519618491526 0 0 0 0 10.452345593686005 29.207912092646438 0 29.207912092646438 12.981333672230903 0 0 0 0 -4.1347845223108379 38.719527586258778 0 38.719527586258778 9.4577175123340567 0 0 0 0 15.341593074697812 24.495206157733264 0 24.495206157733264 -19.441758390694304 0 0 0 0 -432.31460369193883 350.07700151191966 0 350.07700151191966 -54.883339675036041 0 0 0 0 -81.796624014567897 -41.570077715443404 0 -41.570077715443404 71.493772190702657 0 0 0 0 -2.734273781840141 1.8829028024156997 0 1.8829028024156997 -0.77118848451698341 0 0 0 0 -25.040166810096707 7.4171274343188998 0 7.4171274343188998 -3.8780040353740333 0 0 0 0 -43.137400413392243 81.478662578056174 0 81.478662578056174 -133.9627692882201 0 0 0 0 199.69002977739729 -116.3859402169328 0 -116.3859402169328 -122.05483563536836 0 0 0 0 -166.76574836008876 56.219485476372938 0 56.219485476372938 6.3113214841685021 0 0 0 0 -104.16531284244047 11.212085541008491 0 11.212085541008491 13.559778716689834 0 0 0 0 -73.228571519441175 13.076470366637295 0 13.076470366637295 11.903114686116169 0 0 0 0 -1.0413619009314061 23.946019799963324 0 23.946019799963324 65.949349168202389 0 0 0 0 -1.4658224713284014 1.7271847159909619 0 1.7271847159909619 -0.87887609775765796 0 0 0 0 104.10973612275848 16.717596028698608 0 16.717596028698608 15.624782525439514 0 0 0 0 16.41283003929766 10.155740459442313 0 10.155740459442313 21.674322381249112 0 0 0 0 197.09443382260542 162.88153912185021 0 162.88153912185021 -28.678219196202917 0 0 0 0 -0.43627637127094232 0.83814967266353069 0 0.83814967266353069 -1.03553707268631 0 0 0 0 -62.682313841096402 -154.14738658986971 0 -154.14738658986971 193.78697176772403 0 0 0 0 -155.85560475452121 81.132882573924235 0 81.132882573924235 56.936578371220094 0 0 0 0 -124.16855480416507 9.6440429589010819 0 9.6440429589010819 140.19828042175686 0 0 0 0 -67.847796876297252 21.51737355854857 0 21.51737355854857 24.942688952742174 0 0 0 0 -41.10833794185055 2.3058272615962778 0 2.3058272615962778 24.780456325828709 0 0 0 0 -60.785910386355681 52.893581454167361 0 52.893581454167361 33.651278234218807 0 0 0 0 -66.551147873416994 21.017894803682793 0 21.017894803682793 54.502375682532147 0 0 0 0 -65.768165571046666 69.073913756131333 0 69.073913756131333 -19.504682905142545 0 0 0 0 -84.574746061498445 38.706215953328865 0 38.706215953328865 25.284828534686312 0 0 0 0 -2.5168121512306314 0.85583320724814271 0 0.85583320724814271 -0.28688726638914464 0 0 0 0 -108.97484404526585 70.759870876406239 0 70.759870876406239 -2.1548747455854027 0 0 0 0 -13.811993853685635 59.151362835042164 0 59.151362835042164 -146.77887130665613 0 0 0 0 276.20035516133885 -138.76881719980247 0 -138.76881719980247 215.30557449943444 0 0 0 0 -95.643103525140759 67.443321357382956 0 67.443321357382956 -9.8900729373453942 0 0 0 0 -61.697917961415442 62.910561077702368 0 62.910561077702368 -21.755870229484572 0 0 0 0 -42.413034838835301 68.831060224987596 0 68.831060224987596 -83.444118221830649 0 0 0 0 -88.883535347356656 100.61420216443207 0 100.61420216443207 -60.598671535903122 0 0 0 0 -75.82884167283737 120.98361584259692 0 120.98361584259692 -126.6954381744581 0 0 0 0 -151.69208262005486 123.94389976043749 0 123.94389976043749 -54.577245336624401 0 0 0 0 1.4495237434221053 -0.66398038419720251 0 -0.66398038419720251 -57.158142347647072 0 0 0 0 -2.11801752838619 24.110175562307631 0 24.110175562307631 -116.96906508576376 0 0 0 0 -42.661754205317266 68.19604862280903 0 68.19604862280903 -66.940755370957049 0 0 0 0 -37.15249312305059 51.194286325679059 0 51.194286325679059 -28.082711806888256 0 0 0 0 -41.765988628802006 66.524218390124588 0 66.524218390124588 -66.097088486996654 0 0 0 0 -18.803954430466547 48.778245608067664 0 48.778245608067664 -64.538101855871901 0 0 0 0 -35.601406282795324 43.644805201684903 0 43.644805201684903 -2.4964470982813509 0 0 0 0 -42.132309474907743 56.876516878563052 0 56.876516878563052 -28.837931883270812 0 0 0 0 -60.598521360171617 52.192148508298487 0 52.192148508298487 15.510967507983878 0 0 0 0 -50.506627133250277 40.825652445921605 0 40.825652445921605 12.334782292924501 0 0 0 0 -40.662510888349971 39.700623276045008 0 39.700623276045008 -1.362033233510374 0 0 0 0 -35.570336355326617 26.044300647797172 0 26.044300647797172 -5.7413219209975068 0 0 0 0 -16.128381223939869 22.449057912946046 0 22.449057912946046 -6.2107885466557491 0 0 0 0 -19.984449181312812 25.449347270130602 0 25.449347270130602 -8.4855568058774224 0 0 0 0 -19.878505000933728 38.368198833022689 0 38.368198833022689 -29.016270891970635 0 0 0 0 -0.059634788135006112 -0.14967359425873639 0 -0.14967359425873639 0.83958067831571981 0 0 0 0 -26.186841224598538 11.951266978910553 0 11.951266978910553 -2.6304857017021277 0 0 0 0 -16.125384692353691 21.175370219353681 0 21.175370219353681 -9.1181533525632403 0 0 0 0 -15.195135006526584 5.4699292718658796 0 5.4699292718658796 1.0540245384545415 0 0 0 0 5.4786137635164778 4.7818130592008856 0 4.7818130592008856 0.46624575664645818 0 0 0 0 1.7810311942830594 1.5715092914647357 0 1.5715092914647357 -1.9181217625209683 0 0 0 0 -5.0312220205587437 12.158473469268756 0 12.158473469268756 -5.2069602376359398 0 0 0 0 -6.8598409439582611 10.0162813938623 0 10.0162813938623 4.0385054601210868 0 0 0 0 -6.8339993930549099 11.045753936006804 0 11.045753936006804 11.858713631128921 0 0 0 0 -1.489934544206335 5.3724104287794034 0 5.3724104287794034 4.5817636179963301 0 0 0 0 -8.7379445524411494 27.524112906873597 0 27.524112906873597 -22.453177039886214 0 0 0 0 -6.5765896926714049 7.679322938885889 0 7.679322938885889 -4.781602940747689 0 0 0 0 -7.4031296118864702 17.441096460637709 0 17.441096460637709 -38.067153732597944 0 0 0 0 -10.037247273803587 20.630199794972214 0 20.630199794972214 -20.167391086321004 0 0 0 0 -10.779887452234107 13.852925826156934 0 13.852925826156934 -1.0723737748285203 0 0 0 0 -10.474913550271594 5.7522024744521332 0 5.7522024744521332 4.9610648042871617 0 0 0 0 -10.702541470747747 7.8175724671873468 0 7.8175724671873468 -3.8458368357223662 0 0 0 0 -16.013354113360037 -3.9190572624411288 0 -3.9190572624411288 15.863773840997965 0 0 0 0 -1.1246611758797371 -12.053499458135775 0 -12.053499458135775 -8.8418875013503566 0 0 0 0 -5.6379960733120242 19.163078895513536 0 19.163078895513536 40.307058284136929 0 0 0 0 -12.732407139636052 5.2738642310796422 0 5.2738642310796422 16.895050719755091 0 0 0 0 -22.708838629238016 67.721277258240661 0 67.721277258240661 50.150096332993144 0 0 0 0 -5.9838135044230185 3.1311394852257095 0 3.1311394852257095 -0.050274139051702527 0 0 0 0 -12.141013861741158 105.30173377768915 0 105.30173377768915 1.6162436427657667 0 0 0 0 -5.7067070803277602 15.543459141792482 0 15.543459141792482 -46.384662959730122 0 0 0 0 -18.596420804967693 18.468936930946256 0 18.468936930946256 -35.836138715876587 0 0 0 0 4.2435877083084961 6.4177347248169099 0 6.4177347248169099 -0.55375754490341933 0 0 0 0 2.6693312960924231 2.6108089480803756 0 2.6108089480803756 15.666342341224663 0 0 0 0 19.737946058114176 -4.9360868720250437 0 -4.9360868720250437 15.8649862853988 0 0 0 0 11.951772447104304 3.3032318638652214 0 3.3032318638652214 12.95728748748661 0 0 0 0 0.2241141811302878 1.2862350519051091 0 1.2862350519051091 -0.65228903436226915 0 0 0 0 0.073604386270744726 7.3304282128228806 0 7.3304282128228806 13.007490331307054 0 0 0 0 1.4936262796163646 10.253070571911621 0 10.253070571911621 12.561974182041013 0 0 0 0 13.571687776066028 5.1380918377335547 0 5.1380918377335547 0.6350680734103662 0 0 0 0 24.776155268408729 -5.3685429749739342 0 -5.3685429749739342 -3.98920050614106 0 0 0 0 3.7755796834806068 7.2553497916296728 0 7.2553497916296728 0.39007892278395673 0 0 0 0 14.923217035752714 3.5853600797863692 0 3.5853600797863692 -0.28180612496726098 0 0 0 0 12.98683850316138 2.7548044415152617 0 2.7548044415152617 0.67509451651312702 0 0 0 0 -13.069789579540156 -5.3030995828230516 0 -5.3030995828230516 -19.300816824485082 0 0 0 0 -43.12869298974033 -8.1606535024211553 0 -8.1606535024211553 -15.518570140797237 0 0 0 0 -2.1833092738361302 12.726010700713232 0 12.726010700713232 0.73948225467574957 0 0 0 0 -34.166160868773659 15.8883195166718 0 15.8883195166718 -4.7297023782703036 0 0 0 0 -26.86050750083632 3.784174247421106 0 3.784174247421106 3.6685002341291693 0 0 0 0 -30.081245435518213 24.427098718639172 0 24.427098718639172 -5.9912683951606596 0 0 0 0 -54.175317387394443 39.848570593650493 0 39.848570593650493 -20.38674228934542 0 0 0 0 -49.596183481366097 6.0147943387401028 0 6.0147943387401028 -10.589179297039664 0 0 0 0 -46.793769813970584 16.31947745968705 0 16.31947745968705 -25.434232467974653 0 0 0 0 -36.756663927757472 56.831507650609637 0 56.831507650609637 -47.020137851133768 0 0 0 0 -41.266015524141039 34.620848694834422 0 34.620848694834422 -29.867703381958563 0 0 0 0 -29.37838924901007 22.53029426629837 0 22.53029426629837 -8.3233300035644788 0 0 0 0 -29.139114924222234 40.67907678061934 0 40.67907678061934 -19.625381105797715 0 0 0 0 0.51634695404754893 48.620631102872267 0 48.620631102872267 -43.574115832274401 0 0 0 0 10.274015393851187 38.494823103690578 0 38.494823103690578 -35.988076193986217 0 0 0 0 -6.2006930298648513 36.483388539623775 0 36.483388539623775 -33.527588624869168 0 0 0 0 -11.777733345715205 37.050438778689568 0 37.050438778689568 -58.414001610137348 0 0 0 0 -3.4234124568365587 46.216934089859024 0 46.216934089859024 -62.239659042006679 0 0 0 0 10.834883138680198 28.439182600417553 0 28.439182600417553 -40.226401666554011 0 0 0 0 9.2198010215270187 32.154692758076635 0 32.154692758076635 -27.68400534212924 0 0 0 0 13.602837224399991 -9.0831019483157434 0 -9.0831019483157434 -1.9263295785476657 0 0 0 0 11.379546521100565 5.1719856871623051 0 5.1719856871623051 -61.609072360015404 0 0 0 0 -83.483280549593474 4.7702222290899954 0 4.7702222290899954 207.33035968945012 0 0 0 0 -1.3725469815237226 0.80087834503091671 0 0.80087834503091671 -0.2757646592088463 0 0 0 0 -3.8593417291604055 30.391756269971665 0 30.391756269971665 -95.01440658609863 0 0 0 0 34.732556139169901 102.05183606908395 0 102.05183606908395 -172.32216716025869 0 0 0 0 -105.85422935891415 66.193826958713544 0 66.193826958713544 -45.242685723838804 0 0 0 0 -126.00062802435605 -2.5464684157486772 0 -2.5464684157486772 -26.780277838315669 0 0 0 0 -54.46305145088445 -35.357470635471145 0 -35.357470635471145 -88.819842432978476 0 0 0 0 -41.907483794971995 66.885442333885294 0 66.885442333885294 -87.951127914787321 0 0 0 0 48.05322947264176 -26.610610975711097 0 -26.610610975711097 -28.830028837691316 0 0 0 0 94.789712257883366 42.449075124195588 0 42.449075124195588 -11.32719892345267 0 0 0 0 0.4328476794255387 0.26948149633959328 0 0.26948149633959328 -1.1276301904538073 0 0 0 0 58.384242765638191 29.145794426758584 0 29.145794426758584 23.762830580006266 0 0 0 0 95.732105481141843 52.262329702808529 0 52.262329702808529 -1.222172459903959 0 0 0 0 94.2279987199272 53.802274670022598 0 53.802274670022598 11.886503276893563 0 0 0 0 50.64896451365712 41.481923771976653 0 41.481923771976653 34.922231619102604 0 0 0 0 171.36829296750693 69.941532717271002 0 69.941532717271002 8.9716452193761143 0 0 0 0 84.090541197849006 85.593154514539947 0 85.593154514539947 49.836957740626531 0 0 0 0 -0.087040750071537332 -0.77270875974659248 0 -0.77270875974659248 5.2626023955672281 0 0 0 0 28.392490671923042 35.087429361388786 0 35.087429361388786 50.147236038796109 0 0 0 0 0.1372190256457726 -0.26495024598865768 0 -0.26495024598865768 0.43656599098103044 0 0 0 0 0.99935431699357125 0.25549476165899954 0 0.25549476165899954 1.3053885619725136 0 0 0 0 7.3587045440390284 3.8146421693845696 0 3.8146421693845696 0.14755264960695058 0 0 0 0 2.747821660986574 1.661616456385218 0 1.661616456385218 5.0354101234352129 0 0 0 0 3.7701558671487874 0.99149092113657389 0 0.99149092113657389 2.680143623623735 0 0 0 0 6.891517826538152 2.8989415006141446 0 2.8989415006141446 -1.5466800362215141 0 0 0 0 5.8444401207748342 2.3515660738830775 0 2.3515660738830775 0.39108871724602068 0 0 0 0 3.9519203833657492 1.1865506668781372 0 1.1865506668781372 0.54264110898626772 0 0 0 0 12.956804543544422 4.2052649580509751 0 4.2052649580509751 -0.36547583682477125 0 0 0 0 12.086646888717951 4.6274178644416679 0 4.6274178644416679 2.1109668876688374 0 0 0 0 1.0877128310170132 0.78214196991160101 0 0.78214196991160101 0.27935576257677752 0 0 0 0 10.015731960369521 2.9905283530833913 0 2.9905283530833913 0.8299989544757409 0 0 0 0 11.948514920883099 4.7298899105826422 0 4.7298899105826422 0.50041773171506065 0 0 0 0 10.362540826252371 2.771256299968627 0 2.771256299968627 0.72557181669981219 0 0 0 0 9.875863948008373 3.3852473502779503 0 3.3852473502779503 0.63801895659707952 0 0 0 0 8.850808731325742 2.5265357973394202 0 2.5265357973394202 1.5241932421376987 0 0 0 0 11.053890642989245 -11.999661381186115 0 -11.999661381186115 19.414088989113225 0 0 0 0 0.80760163048593636 0.18527320371141442 0 0.18527320371141442 0.093066393549385396 0 0 0 0 0.78037564154783468 0.015157015161193499 0 0.015157015161193499 1.4218507732609282 0 0 0 0 1.2782943047529969 0.18192555164890933 0 0.18192555164890933 0.26073106018545733 0 0 0 0 101.18899322879224 78.8221797693177 0 78.8221797693177 16.810637191122169 0 0 0 0 70.921725778127438 77.595521670230482 0 77.595521670230482 80.995181925322868 0 0 0 0 80.612346902425998 -12.077853696325292 0 -12.077853696325292 -11.519260942571236 0 0 0 0 35.434740628444615 52.104773746517139 0 52.104773746517139 53.610309081779633 0 0 0 0 89.384283037086789 55.311810032249014 0 55.311810032249014 -28.474886757612694 0 0 0 0 52.367681752829412 -5.1046776891198533 0 -5.1046776891198533 64.586741403167252 0 0 0 0 -0.12066723882552566 0.71409963359715523 0 0.71409963359715523 -1.2296479767769526 0 0 0 0 0.98312873370150555 69.171258225199836 0 69.171258225199836 -28.42215983416645 0 0 0 0 23.636072892937591 12.61249709721892 0 12.61249709721892 -7.4382226752895804 0 0 0 0 36.508751778314036 34.701015350387934 0 34.701015350387934 -23.848869920620928 0 0 0 0 14.728525238258953 43.53476172059527 0 43.53476172059527 -27.342390893994889 0 0 0 0 -2.1644540245597454 21.803259428841557 0 21.803259428841557 -10.475662045967056 0 0 0 0 9.3906528392308246 7.8361867739918125 0 7.8361867739918125 -5.2736577258310717 0 0 0 0 11.089219037927251 8.9057973887188382 0 8.9057973887188382 -8.2871670817348786 0 0 0 0 22.549433581199992 5.1238026677056041 0 5.1238026677056041 -16.481316723406508 0 0 0 0 14.268036827567812 3.0292764143907789 0 3.0292764143907789 -1.2181893369415775 0 0 0 0 -0.0041628883184698928 -0.038021785013857112 0 -0.038021785013857112 0.036014130268284816 0 0 0 0 11.757375659975878 4.1385916843191808 0 4.1385916843191808 1.7502425265611237 0 0 0 0 13.18294366392729 4.1702858477060545 0 4.1702858477060545 -2.4534159381310019 0 0 0 0 11.278280367481784 2.3378310640764539 0 2.3378310640764539 0.50338022925461701 0 0 0 0 13.189227544808091 2.87092198959499 0 2.87092198959499 -4.4520167167738691 0 0 0 0 14.732859892176748 6.0761785583404162 0 6.0761785583404162 -0.87662008924598922 0 0 0 0 15.058191425236146 0.083797127381785685 0 0.083797127381785685 1.6534472931980417 0 0 0 0 2.7057445223435934 10.692897649751103 0 10.692897649751103 -2.8013864178437871 0 0 0 0 -13.127690862012969 19.413747799519115 0 19.413747799519115 16.283521925677633 0 0 0 0 24.280448706889729 -1.5259229653602233 0 -1.5259229653602233 1.7258552389666875 0 0 0 0 -12.234018782855856 33.096380651635627 0 33.096380651635627 -10.121674570325013 0 0 0 0 -20.282257936002679 21.582409383488994 0 21.582409383488994 0.62002679916986381 0 0 0 0 4.4826114464237889 18.595709510302754 0 18.595709510302754 -15.547326051921118 0 0 0 0 -31.124186651806667 48.246070812613652 0 48.246070812613652 -14.040551377617703 0 0 0 0 -32.786642023074592 57.827110392227496 0 57.827110392227496 -21.5404143076521 0 0 0 0 -51.285454591898088 60.167107861886507 0 60.167107861886507 -3.0331147073916327 0 0 0 0 -21.516247330480837 89.300194430470583 0 89.300194430470583 -39.062079710754915 0 0 0 0 -6.9209101724572974 13.230842869471417 0 13.230842869471417 9.2509024922437675 0 0 0 0 -10.290335772693652 8.398675460767663 0 8.398675460767663 10.69042107293717 0 0 0 0 -3.1560369368962711 9.64247982240704 0 9.64247982240704 10.877455984089465 0 0 0 0 -3.7118614100636478 9.8966737238879432 0 9.8966737238879432 10.77129341402906 0 0 0 0 -3.1123463706753682 11.441301784519965 0 11.441301784519965 10.08819787696666 0 0 0 0 -4.7807361843806575 18.194924674775393 0 18.194924674775393 10.030549829189113 0 0 0 0 7.1745619951714161 14.585724457788729 0 14.585724457788729 4.554587635993812 0 0 0 0 -5.3439923577898298 23.669271484403907 0 23.669271484403907 -2.0142773813277017 0 0 0 0 23.383108701456649 32.525943538043521 0 32.525943538043521 -34.730891240262281 0 0 0 0 -2.3043740635775976 20.410715887204788 0 20.410715887204788 -3.4414363392370433 0 0 0 0 -9.6538930026254093 30.350317089136297 0 30.350317089136297 -15.263201766297243 0 0 0 0 -22.473781022240928 15.210985385628192 0 15.210985385628192 3.5934542347786191 0 0 0 0 -8.9471935673398093 11.266298183895515 0 11.266298183895515 8.0302270236843469 0 0 0 0 -17.495219564749277 17.078228272070191 0 17.078228272070191 4.2328553450552135 0 0 0 0 4.3288253436185187 -2.6319670863904321 0 -2.6319670863904321 3.3852345919331128 0 0 0 0 -14.983052124879578 8.1434695463267417 0 8.1434695463267417 2.7388617422766401 0 0 0 0 -9.3872925653640777 -5.4085045003125742 0 -5.4085045003125742 9.4766000715244445 0 0 0 0 -13.503581813407891 3.1633811183933176 0 3.1633811183933176 8.5393182810403232 0 0 0 0 13.844599527481478 5.9875167508562299 0 5.9875167508562299 2.4485391400803564 0 0 0 0 14.828513105117963 5.7567954020646539 0 5.7567954020646539 -0.83002001391105296 0 0 0 0 3.0269188349973479 7.5612579765839438 0 7.5612579765839438 1.5539316584372997 0 0 0 0 12.489174263348104 8.8163811329795863 0 8.8163811329795863 2.9790040922525804 0 0 0 0 14.880714475354125 7.3441679912807558 0 7.3441679912807558 -0.38455294866434997 0 0 0 0 14.88507536049292 6.878115858556157 0 6.878115858556157 -4.2185823940490081 0 0 0 0 -4.1252348798516323 3.8829331697597809 0 3.8829331697597809 8.1740824291900935 0 0 0 0 -6.2325506571796723 4.3002248684460938 0 4.3002248684460938 8.4504652223258745 0 0 0 0 -3.7762420905528415 4.524444820323879 0 4.524444820323879 7.7257976287728525 0 0 0 0 -18.780392886768823 6.6250899548249436 0 6.6250899548249436 9.6426656523399288 0 0 0 0 -2.7848380444011127 3.9863201583357295 0 3.9863201583357295 8.0166808613867033 0 0 0 0 -0.074058279006820271 7.7140603767757785 0 7.7140603767757785 2.4556921836031833 0 0 0 0 0.71431022042088443 -0.93285861587355612 0 -0.93285861587355612 12.519043309323024 0 0 0 0 4.547156070060737 -2.5385708504691138 0 -2.5385708504691138 10.928282840555767 0 0 0 0 6.8903660524629231 3.7801636040276207 0 3.7801636040276207 8.3380760032086982 0 0 0 0 -2.2232535221519356 3.9385089288098243 0 3.9385089288098243 11.333866935143305 0 0 0 0 -0.1831935129557678 5.5804858676237927 0 5.5804858676237927 8.0097845797599803 0 0 0 0 -3.968295310843132 5.5442164855849114 0 5.5442164855849114 8.1814558400947135 0 0 0 0 -3.8261900872003025 8.4748534956070216 0 8.4748534956070216 10.064376403024653 0 0 0 0 0.72113036499740701 7.6269352814269951 0 7.6269352814269951 10.21548686640017 0 0 0 0 5.7334303719408126 16.870254398819043 0 16.870254398819043 -1.7602059793134686 0 0 0 0 23.836166186447372 10.565197310725125 0 10.565197310725125 -9.0897603139455896 0 0 0 0 -70.68078057429102 11.866011032042479 0 11.866011032042479 -7.0802414150821278 0 0 0 0 4.0188113459122583 7.357072984485729 0 7.357072984485729 1.9387107261942447 0 0 0 0 -2.1663734963486565 0.073309300024385848 0 0.073309300024385848 0.86289389283343354 0 0 0 0 8.720439132552201 11.562211100515924 0 11.562211100515924 0.73361350166669581 0 0 0 0 13.02065261343887 7.3828975659289426 0 7.3828975659289426 3.5927273489942309 0 0 0 0 6.5027717177326849 9.3819731555959152 0 9.3819731555959152 6.4148156629378263 0 0 0 0 5.7801944592320069 3.8097719563502324 0 3.8097719563502324 8.6359605501056649 0 0 0 0 4.4318250810065365 9.2736716561084904 0 9.2736716561084904 6.4105256872128393 0 0 0 0 12.971642039114158 -0.22153182731381094 0 -0.22153182731381094 6.1325149873300688 0 0 0 0 27.822446757587386 23.943053986689847 0 23.943053986689847 -22.7357502790328 0 0 0 0 7.2015774558949488 19.507074957122313 0 19.507074957122313 -4.956965336954454 0 0 0 0 0.94869659463438438 15.766091236964712 0 15.766091236964712 4.8163224654708756 0 0 0 0 6.2678687442639784 20.614536718778254 0 20.614536718778254 -1.4823004852805752 0 0 0 0 2.8169714815776388 14.298877022005399 0 14.298877022005399 4.2401588060165523 0 0 0 0 15.296147925701007 12.65433364380624 0 12.65433364380624 0.46006691675574984 0 0 0 0 19.953140541692846 12.434708699932798 0 12.434708699932798 -5.690880189256859 0 0 0 0 15.975236396538094 10.762022094577333 0 10.762022094577333 -6.36304126801042 0 0 0 0 16.012492820271291 11.370940930650249 0 11.370940930650249 -0.9082641510326539 0 0 0 0 20.679355754669814 17.806419146712869 0 17.806419146712869 -4.782845316143721 0 0 0 0 17.200189709803453 11.015801180687049 0 11.015801180687049 -2.4669241207702726 0 0 0 0 17.681455609443219 0.16494524750305573 0 0.16494524750305573 1.9731345789587067 0 0 0 0 -7.97206648701831 15.949530741540002 0 15.949530741540002 26.210999279059251 0 0 0 0 -1.1448547616089471 2.4417268565269303 0 2.4417268565269303 0.65161414258179562 0 0 0 0 45.459943730569648 16.056707562256634 0 16.056707562256634 -1.6083707673024037 0 0 0 0 16.213383037649692 25.524671896402651 0 25.524671896402651 19.890945747247315 0 0 0 0 2.5390865652918526 8.0996668379864776 0 8.0996668379864776 3.4800658735221504 0 0 0 0 -49.30063528739629 47.90967248414745 0 47.90967248414745 45.101143665327982 0 0 0 0 -16.467481288198542 9.3821636992270214 0 9.3821636992270214 22.245020769951225 0 0 0 0 25.126769132520167 49.738100852827301 0 49.738100852827301 -57.300301359995501 0 0 0 0 28.308278404052544 31.931901441550508 0 31.931901441550508 -32.04905086330109 0 0 0 0 16.359624014228757 65.847969670408929 0 65.847969670408929 -85.753295169910416 0 0 0 0 -8.6879355427190603 18.980925268806459 0 18.980925268806459 13.746031998911349 0 0 0 0 -6.4155162955648848 24.153026982648953 0 24.153026982648953 10.966718661104096 0 0 0 0 -17.230492470924219 45.059343162287405 0 45.059343162287405 -22.886237000260735 0 0 0 0 0.52079530016635545 24.405783438385697 0 24.405783438385697 0.98098050202679588 0 0 0 0 -5.6163617275451543 6.7200598639101372 0 6.7200598639101372 3.8429704990376194 0 0 0 0 -20.332911434328707 -17.257275436861164 0 -17.257275436861164 103.26038006162707 0 0 0 0 -0.84992168501217691 13.752587761463207 0 13.752587761463207 1.0672245655963515 0 0 0 0 1.5321527256356231 1.6571964579778191 0 1.6571964579778191 0.46254026625422284 0 0 0 0 -11.613991179199729 11.223958368081639 0 11.223958368081639 3.9027013809900382 0 0 0 0 -18.020582611714417 -9.0282096175706101 0 -9.0282096175706101 -60.101753370690858 0 0 0 0 -6.158418702648305 16.325490650859138 0 16.325490650859138 1.0876780171915925 0 0 0 0 -5.1232716521290058 14.821839118917524 0 14.821839118917524 -5.1926980413645651 0 0 0 0 -6.6317980876046931 12.626449059369406 0 12.626449059369406 -0.42680604543693335 0 0 0 0 -2.4989909580026506 14.863840353412797 0 14.863840353412797 0.19935785536654294 0 0 0 0 -4.7716364830735074 17.9197231276612 0 17.9197231276612 6.8861084179297904 0 0 0 0 -8.3602412449272379 18.496334179155383 0 18.496334179155383 9.4526827114605112 0 0 0 0 -5.9458761374517053 14.894520715688486 0 14.894520715688486 1.3172780740774215 0 0 0 0 -6.1126389428463881 22.839165742516343 0 22.839165742516343 5.7511360118587618 0 0 0 0 -0.55659862512038671 17.919189928794367 0 17.919189928794367 1.9903513428362203 0 0 0 0 -2.3331658611186867 13.102074058970175 0 13.102074058970175 8.7654878143403039 0 0 0 0 -4.330369225675895 15.915184796553149 0 15.915184796553149 8.3000483132345835 0 0 0 0 -3.3361127031948854 15.231563626521165 0 15.231563626521165 7.6191214364744155 0 0 0 0 -5.3912750229110316 14.340936139267797 0 14.340936139267797 12.375491907070682 0 0 0 0 -1.0149193905535867 12.026594479205414 0 12.026594479205414 11.077849046687334 0 0 0 0 -3.6625168615410075 13.202619175623113 0 13.202619175623113 11.630698536864656 0 0 0 0 -5.2908476914276434 12.029561124304564 0 12.029561124304564 11.983686549090635 0 0 0 0 -1.5529673504506718 11.030894768737198 0 11.030894768737198 9.5108690971901524 0 0 0 0 -1.1268662681513888 11.362099982637119 0 11.362099982637119 9.3118764123355504 0 0 0 0 8.0737316214598422 13.970024277656876 0 13.970024277656876 10.115941634936462 0 0 0 0 0.79804986874842143 15.816481929841757 0 15.816481929841757 12.255473796331898 0 0 0 0 13.848085001365689 14.745070181748815 0 14.745070181748815 8.834857073119565 0 0 0 0 11.847326997425625 17.595563547288293 0 17.595563547288293 16.801828123359883 0 0 0 0 6.5968142422088931 3.1734224947376788 0 3.1734224947376788 -10.020585188599398 0 0 0 0 -1.2260367771923484 18.475730681568166 0 18.475730681568166 7.0658265899637627 0 0 0 0 -1.1215601520771088 15.259551906335219 0 15.259551906335219 14.724145182439315 0 0 0 0 -2.8906060148465258 12.45768659107307 0 12.45768659107307 -9.1183970706251785 0 0 0 0 12.204408486120883 19.036434724606806 0 19.036434724606806 -6.3146367156077758 0 0 0 0 0.86087407622471801 6.9031169959594081 0 6.9031169959594081 -20.079448764838162 0 0 0 0 3.0893521037578466 15.690301556507166 0 15.690301556507166 -20.123924728453858 0 0 0 0 -0.5903766516699811 5.4772532425370919 0 5.4772532425370919 0.90859667706728864 0 0 0 0 -0.78261021742900994 8.896874114806451 0 8.896874114806451 -9.0482645002903155 0 0 0 0 -1.4461179066544787 7.9366050108557715 0 7.9366050108557715 -5.4057813751824142 0 0 0 0 -3.9885375929025031 5.8529156335571315 0 5.8529156335571315 -3.0123004652614327 0 0 0 0 -1.4461179066553882 7.9366050108508261 0 7.9366050108508261 -5.4057813751787762 0 0 0 0 -0.11912275431631514 4.2251682357234834 0 4.2251682357234834 -4.153870265170859 0 0 0 0 -3.0798948139648417 5.555762858326176 0 5.555762858326176 1.3105044801544636 0 0 0 0 -0.037320420266269139 9.2776392512275834 0 9.2776392512275834 -5.7470916300080717 0 0 0 0 -16.57316275551284 17.54333129477709 0 17.54333129477709 4.8753674494000734 0 0 0 0 -1.4461179066529439 7.9366050108437776 0 7.9366050108437776 -5.4057813751787762 0 0 0 0 -0.92802849505833596 0.76156985811224853 0 0.76156985811224853 0.46774872804719791 0 0 0 0 -3.4545188124465422 4.6118518976020386 0 4.6118518976020386 -5.1444465772447927 0 0 0 0 -3.0646715533084716 5.1448901899775592 0 5.1448901899775592 -2.1954348224608111 0 0 0 0 0.83573023404369451 7.2733720058909057 0 7.2733720058909057 -6.4050815490991226 0 0 0 0 -2.9990115579121266 8.0845903064432605 0 8.0845903064432605 -8.420681468458497 0 0 0 0 -2.8925994856708712 7.5825747353392217 0 7.5825747353392217 -6.1818711464861735 0 0 0 0 -1.944706733378613 5.9875091574163868 0 5.9875091574163868 2.0354972759164163 0 0 0 0 -6.8219681748814764 9.8108271221026371 0 9.8108271221026371 -8.6192203549617261 0 0 0 0 -1.1094945325886889 4.1419425699194328 0 4.1419425699194328 -2.7561740284419471 0 0 0 0 -6.8142435412291888 8.3281551885811496 0 8.3281551885811496 -4.8890602589544869 0 0 0 0 -2.0412688687965463 7.3491096097990827 0 7.3491096097990827 -0.0092242303319522989 0 0 0 0 -3.3865026101302647 5.3113515019213082 0 5.3113515019213082 0.71202609528882022 0 0 0 0 3.9135158672996777 7.7560849154434406 0 7.7560849154434406 -4.5303083987308881 0 0 0 0 5.1796774039762568 5.2979321875047845 0 5.2979321875047845 -0.12449365703287185 0 0 0 0 21.066989669855047 0.77531661886905567 0 0.77531661886905567 -1.6930570713157067 0 0 0 0 18.864506640838954 2.2195203548981226 0 2.2195203548981226 -1.2430115167626354 0 0 0 0 15.191737582823407 3.8953507718856599 0 3.8953507718856599 -5.1593498602323962 0 0 0 0 -2.3175981240995043 5.5788362286998563 0 5.5788362286998563 -3.3872200037149014 0 0 0 0 23.1199692588998 8.6388373736663198 0 8.6388373736663198 -8.2746445149969077 0 0 0 0 -0.39719583743117148 5.9431268534734185 0 5.9431268534734185 -2.5741142738170808 0 0 0 0 -7.0760460860064995 6.1604235651475392 0 6.1604235651475392 -0.8832187053430971 0 0 0 0 -0.30198289789999189 4.3835633481164571 0 4.3835633481164571 -1.6979036950742028 0 0 0 0 -1.377424389233056 6.5001541970577819 0 6.5001541970577819 -6.0201794271270046 0 0 0 0 -4.5793709216726537 6.4532635869749679 0 6.4532635869749679 -3.154503825380921 0 0 0 0 18.257398213061379 16.88988913614412 0 16.88988913614412 -14.372085268720184 0 0 0 0 -6.6464424582754873 16.786856978106698 0 16.786856978106698 -0.98086501421244066 0 0 0 0 -2.6750357409428034 31.786251528143111 0 31.786251528143111 8.713356456704787 0 0 0 0 -1.3753665777176138 6.7282585342491075 0 6.7282585342491075 -2.8680060453698388 0 0 0 0 -2.0245983711397457 2.7265621074884621 0 2.7265621074884621 -1.5186569090583362 0 0 0 0 -5.9303799571353011 5.3477374570429674 0 5.3477374570429674 -3.2008357900194824 0 0 0 0 -2.9932314930300112 3.8807643931630782 0 3.8807643931630782 -2.312039928498983 0 0 0 0 0.84222254719497869 4.5967523116851225 0 4.5967523116851225 -0.92457817251852248 0 0 0 0 -0.69277615034768836 0.30699760067914283 0 0.30699760067914283 -0.0287286754422027 0 0 0 0 -3.9145940897351466 4.1241122135179467 0 4.1241122135179467 -2.3825577281895676 0 0 0 0 -1.4043697275314067 3.2551181877356168 0 3.2551181877356168 -2.3657366102286552 0 0 0 0 -3.9017594107118612 4.1872805032738825 0 4.1872805032738825 -2.8876983494046726 0 0 0 0 -1.2333400690730709 1.6091362643225189 0 1.6091362643225189 -0.71806800025787254 0 0 0 0 -1.0011089747248434 3.9011984710432444 0 3.9011984710432444 -4.0114927055838052 0 0 0 0 0.0059214697115046455 2.3190832332496853 0 2.3190832332496853 -2.9915924757069234 0 0 0 0 0.41388903090455642 3.9564222683575281 0 3.9564222683575281 -7.160508840690909 0 0 0 0 -3.7282886361749661 2.2024443140289804 0 2.2024443140289804 -7.9770051652612892 0 0 0 0 -0.87187231955476818 4.0966277603147319 0 4.0966277603147319 -6.7739183730300283 0 0 0 0 -12.339519307434784 6.681270312329616 0 6.681270312329616 -7.970411120875724 0 0 0 0 6.1998075233327654 -1.6934747305949713 0 -1.6934747305949713 -12.736308365997502 0 0 0 0 -1.2151841122386031 7.185461840712378 0 7.185461840712378 -0.99029772537323879 0 0 0 0 6.3519326842056216 8.9969949692786031 0 8.9969949692786031 -5.6895140183205513 0 0 0 0 -2.0203632009491912 4.0294216142882 0 4.0294216142882 -4.7361818332232595 0 0 0 0 -123.45847269503793 68.792850890602494 0 68.792850890602494 10.23985416672258 0 0 0 0 -75.999277292812621 73.561307210611631 0 73.561307210611631 -6.4624552550178578 0 0 0 0 -127.18284056422783 62.781045639447058 0 62.781045639447058 15.557947205328674 0 0 0 0 -57.933130200681717 26.500947828447011 0 26.500947828447011 4.1360462498614652 0 0 0 0 -52.714879181317883 39.754772303110258 0 39.754772303110258 -3.8371998940669982 0 0 0 0 22.551289627136271 15.009735245337652 0 15.009735245337652 -8.8095554433748475 0 0 0 0 -8.2401481193828658 22.970168622244273 0 22.970168622244273 -7.319462667233438 0 0 0 0 -28.002825948342434 8.6145799637711207 0 8.6145799637711207 -3.3835890667414787 0 0 0 0 -6.6658659193495851 17.363076563378399 0 17.363076563378399 -13.643084871971951 0 0 0 0 -68.605517518815759 9.3641566629162298 0 9.3641566629162298 1.5328385475040704 0 0 0 0 -105.81867100398449 17.635066873037886 0 17.635066873037886 9.181365401867879 0 0 0 0 -74.084656482590617 31.197639200793674 0 31.197639200793674 -3.6254499165406742 0 0 0 0 -154.74944922056238 -5.4016095925423997 0 -5.4016095925423997 15.851464181843767 0 0 0 0 -190.5587963790349 69.368572159012729 0 69.368572159012729 19.344473624089915 0 0 0 0 -187.40812315551494 52.995157245395234 0 52.995157245395234 29.682987194149973 0 0 0 0 -247.27452170746938 -49.043740699217324 0 -49.043740699217324 26.55239884792536 0 0 0 0 -161.59960836450773 -11.907245993827928 0 -11.907245993827928 -16.665009552503307 0 0 0 0 -341.77157123853067 96.891321132646226 0 96.891321132646226 25.804534231740035 0 0 0 0 -145.05474672864602 24.997268020279989 0 24.997268020279989 9.9718332054162602 0 0 0 0 -51.904751405890238 -31.388988241810694 0 -31.388988241810694 -30.36492152952178 0 0 0 0 -10.162902508080418 6.6684781946105476 0 6.6684781946105476 -3.9798741167120184 0 0 0 0 -39.994059224773196 32.955421551515769 0 32.955421551515769 20.48596268786423 0 0 0 0 -0.57889418097965972 6.3767465846931373 0 6.3767465846931373 -21.217250281904853 0 0 0 0 -37.584921897234381 22.399006933232158 0 22.399006933232158 25.264330769974549 0 0 0 0 -23.482883364577447 -19.570482026444552 0 -19.570482026444552 5.1451093976938864 0 0 0 0 18.041096751350779 47.55221144002644 0 47.55221144002644 10.374888964019192 0 0 0 0 -38.01553078733923 24.420858008231335 0 24.420858008231335 -8.0094834765877749 0 0 0 0 -21.099772434650276 11.821720570586876 0 11.821720570586876 -11.794896809755301 0 0 0 0 -102.29583436984285 -2.6494444095314975 0 -2.6494444095314975 6.616150171155823 0 0 0 0 -31.398147001349571 -2.2260135188635104 0 -2.2260135188635104 -9.1840364111576491 0 0 0 0 -7.0437243252154076 14.658166846848872 0 14.658166846848872 -0.012935516138895764 0 0 0 0 1.2128621787414886 1.771604928517263 0 1.771604928517263 -2.0809269578303429 0 0 0 0 20.319149408063367 29.792322977153844 0 29.792322977153844 5.052477261500826 0 0 0 0 -7.5931215535780829 4.6724387727677676 0 4.6724387727677676 -2.5577881175652983 0 0 0 0 -158.7462081337344 -24.552100904418694 0 -24.552100904418694 27.077866348497992 0 0 0 0 5.2096617329843866 7.6637089032037693 0 7.6637089032037693 2.071966110395806 0 0 0 0 -3.5568561699975483 1.4428321265829833 0 1.4428321265829833 -0.8445587753419872 0 0 0 0 -838.85260514870424 -259.98284008457085 0 -259.98284008457085 -46.197313362103159 0 0 0 0 12.797675303976575 12.964628682908369 0 12.964628682908369 0.015513775879298919 0 0 0 0 -437.54157446426234 -210.98459364075279 0 -210.98459364075279 -41.380407701562945 0 0 0 0 0.52935606564664583 1.4280460262764461 0 1.4280460262764461 -1.0578820307309158 0 0 0 0 -1.187560745173414 2.168188410671064 0 2.168188410671064 -1.6292245857093803 0 0 0 0 -4.0210799341132315 2.9720670817996506 0 2.9720670817996506 -0.71317978475053678 0 0 0 0 -3.3783985126632707 0.54661646182989188 0 0.54661646182989188 1.5770861596789949 0 0 0 0 -2.199480060715814 2.5848357119302818 0 2.5848357119302818 -0.36134789908101084 0 0 0 0 0.80875459609233324 0.48781246221350116 0 0.48781246221350116 0.1210255574631347 0 0 0 0 -1.7721407125195583 3.7151346568534791 0 3.7151346568534791 -1.488722818223323 0 0 0 0 -6.0018896835649684 4.2421587729768362 0 4.2421587729768362 -1.5700460287462192 0 0 0 0 -2.5284274858801723 1.6155533468665908 0 1.6155533468665908 -0.44957588174656848 0 0 0 0 -1.4560572096356736 -0.32992985244527517 0 -0.32992985244527517 -5.7167331517666753 0 0 0 0 -2.5760426581146021 2.0121326376415709 0 2.0121326376415709 -3.1353630260309728 0 0 0 0 -0.013570260395773914 1.0143634399824748 0 1.0143634399824748 -0.15645443357603028 0 0 0 0 -3.6898618010345672 3.6778190673194331 0 3.6778190673194331 -3.1733528442073293 0 0 0 0 -3.8440924335554882 2.342222275752647 0 2.342222275752647 -0.41373624310836021 0 0 0 0 -3.686408648669385 3.5882376672670944 0 3.5882376672670944 -2.646148914837795 0 0 0 0 -10.883711760474316 8.4804213974074472 0 8.4804213974074472 -4.9922505612592012 0 0 0 0 -2.7490928115603923 0.15076838919848079 0 0.15076838919848079 2.5783391445114177 0 0 0 0 -8.6014494126357022 -3.7162088251461682 0 -3.7162088251461682 2.3677330592618091 0 0 0 0 -4.6542365542422885 3.7555568605230292 0 3.7555568605230292 0.14317863947508158 0 0 0 0 -35.014299649662462 26.223434590758188 0 26.223434590758188 29.019938839086535 0 0 0 0 -0.47605897512221418 2.0226660972639365 0 2.0226660972639365 1.0140605398646585 0 0 0 0 -70.250184861401067 7.4184883359121159 0 7.4184883359121159 -3.0492474615966785 0 0 0 0 -0.31426164505477772 0.22420851417044574 0 0.22420851417044574 0.16181591077248569 0 0 0 0 -75.272486716069579 -5.8871494904215069 0 -5.8871494904215069 14.835031600861839 0 0 0 0 0.10851033331518867 0.07299271122176032 0 0.07299271122176032 -0.72021161820421753 0 0 0 0 -4.6468979884712098 1.8448355840764634 0 1.8448355840764634 1.4106398781059397 0 0 0 0 -1.9847463157091401 0.69937746953216262 0 0.69937746953216262 1.6692818267416527 0 0 0 0 -4.7535145157357874 2.7439605818772179 0 2.7439605818772179 0.89306531950569479 0 0 0 0 -2.2935313543121083 1.5472811556446686 0 1.5472811556446686 -1.3794679456186714 0 0 0 0 6.222585799717308 1.6811834941154302 0 1.6811834941154302 -6.8920722918119282 0 0 0 0 0.074274777342559162 -0.25435619159869383 0 -0.25435619159869383 -0.32789350829684594 0 0 0 0 -4.6079644132214526 10.982728361383124 0 10.982728361383124 -10.46720212082073 0 0 0 0 -42.248488509539357 8.1952456042733957 0 8.1952456042733957 0.0063506929309369298 0 0 0 0 -8.9537301098989701 4.5549873164982273 0 4.5549873164982273 0.0101587243443646 0 0 0 0 -3.616847347989733 0.99659385369704978 0 0.99659385369704978 -0.010142857676328276 0 0 0 0 -3.0749175634896346 1.045891558826952 0 1.045891558826952 2.8194522534322459 0 0 0 0 -2.7456753965560665 -0.15266104379043099 0 -0.15266104379043099 1.7095865040209901 0 0 0 0 -1.1178764753794894 1.360221901199111 0 1.360221901199111 0.080608739583112765 0 0 0 0 -0.69023531563703244 1.3873664782478201 0 1.3873664782478201 0.54589295662158932 0 0 0 0 -0.71795102763272922 0.8037492721194468 0 0.8037492721194468 0.78838660898326296 0 0 0 0 -2.3834841670750393 2.403081022130209 0 2.403081022130209 -1.3866525111934607 0 0 0 0 -0.1816034264757036 2.5989406204225816 0 2.5989406204225816 -2.4267418002782506 0 0 0 0 -0.9427829956205187 0.73749797403831963 0 0.73749797403831963 0.40819111811106268 0 0 0 0 -0.70273628064705917 1.7198118060505294 0 1.7198118060505294 -0.80896215695611318 0 0 0 0 -0.46434937313415503 0.8925911162432385 0 0.8925911162432385 0.0025340492829855066 0 0 0 0 -0.48615614371910354 -0.074913138240155774 0 -0.074913138240155774 0.25137367228928298 0 0 0 0 0.18767501745203319 0.65885113996155553 0 0.65885113996155553 0.37245190852772225 0 0 0 0 101.56757877014206 -7.396509776068342 0 -7.396509776068342 -11.316332446660454 0 0 0 0 10.404118231511347 23.012186510470201 0 23.012186510470201 54.100267200727103 0 0 0 0 231.91110252309409 56.809107608009072 0 56.809107608009072 -0.23848168555923621 0 0 0 0 81.315802134309024 12.628338713810081 0 12.628338713810081 -8.4362079308357352 0 0 0 0 4.8917566810109747 -8.8966691450859798 0 -8.8966691450859798 7.9131676714559944 0 0 0 0 0.83448609668377483 0.51833378217409276 0 0.51833378217409276 -0.10659548941551122 0 0 0 0 -4.7151008805485617 15.916550011158506 0 15.916550011158506 0.062218174993176945 0 0 0 0 34.682040722231704 6.6111914023736063 0 6.6111914023736063 1.3056082477851305 0 0 0 0 17.274662989207286 27.872908750039642 0 27.872908750039642 -0.040083239186060382 0 0 0 0 130.42815296618346 36.864438402850283 0 36.864438402850283 55.121403358552925 0 0 0 0 57.301619632403799 27.334688733539224 0 27.334688733539224 0.026335610098043805 0 0 0 0 125.12618264922173 59.875499526340491 0 59.875499526340491 13.073612237045381 0 0 0 0 0.55172568870775196 -0.047555690582672838 0 -0.047555690582672838 -0.56091088947667345 0 0 0 0 83.228294649537702 34.20884313364968 0 34.20884313364968 -1.8789801289185561 0 0 0 0 68.963256655044006 18.530817336506516 0 18.530817336506516 6.1401270059461694 0 0 0 0 62.151815956668088 46.907821272319779 0 46.907821272319779 15.949534662669066 0 0 0 0 42.658170279104695 0.2054169841253497 0 0.2054169841253497 -19.939939869316731 0 0 0 0 0.53560639569060609 -0.0020902018830160074 0 -0.0020902018830160074 -0.76487811921150239 0 0 0 0 57.044934661297475 20.595354956314623 0 20.595354956314623 -1.8473202884424964 0 0 0 0 0.38854732001035863 -0.06075505432111683 0 -0.06075505432111683 -0.48554936953817673 0 0 0 0 74.920888186984826 22.015103019903108 0 22.015103019903108 -11.201489994980875 0 0 0 0 77.846669966282263 13.190303528541108 0 13.190303528541108 -8.7181374460669758 0 0 0 0 49.142755982552217 -10.859847891178106 0 -10.859847891178106 -15.223642490673228 0 0 0 0 74.939704887267339 11.530084405252637 0 11.530084405252637 -19.659726402962406 0 0 0 0 85.60475796783021 34.921644296240629 0 34.921644296240629 -4.2385104985569342 0 0 0 0 19.34077264117559 9.8848682536286105 0 9.8848682536286105 1.088142168986451 0 0 0 0 -3.7436855030523475 -4.6492601752524934 0 -4.6492601752524934 3.2602767007656439 0 0 0 0 18.962499863515859 11.275126892762273 0 11.275126892762273 -3.2781082158799109 0 0 0 0 -30.544323804352189 24.021419187682113 0 24.021419187682113 -6.9557971610156528 0 0 0 0 20.258510938237123 30.301850479811947 0 30.301850479811947 -7.4008958641779827 0 0 0 0 -1.4601109193754382 3.5791379469783351 0 3.5791379469783351 -9.5108318256607163 0 0 0 0 -3.8857579205950969 -0.44720778874398093 0 -0.44720778874398093 -1.5389002033020915 0 0 0 0 -6.3076660428514515 6.4380732534846175 0 6.4380732534846175 -7.2897646545325188 0 0 0 0 4.311949392638553 11.582860666690067 0 11.582860666690067 -18.280921390109143 0 0 0 0 -14.337780521329705 17.129483551316753 0 17.129483551316753 -13.529224704883745 0 0 0 0 -5.1401009893434093 9.917968534740794 0 9.917968534740794 -10.313468086334684 0 0 0 0 0.15927296555499026 0.20034764021913531 0 0.20034764021913531 0.62794130949146165 0 0 0 0 23.037322675497762 10.988805315888385 0 10.988805315888385 -1.3584166223008651 0 0 0 0 -0.078739924415663687 0.079468522196513902 0 0.079468522196513902 0.36369143818645 0 0 0 0 121.07280283426735 11.874885675984842 0 11.874885675984842 -3.9226709372396726 0 0 0 0 35.929708540874572 1.1891164020116776 0 1.1891164020116776 -3.8050710729362436 0 0 0 0 81.655757606441625 42.065237382413216 0 42.065237382413216 -13.854716609412208 0 0 0 0 120.69828797256355 30.667823039135328 0 30.667823039135328 -17.088518589554042 0 0 0 0 39.662709807709916 34.434023428121691 0 34.434023428121691 -12.988218554663035 0 0 0 0 18.970108871852062 28.948544845120523 0 28.948544845120523 8.6327238991016202 0 0 0 0 24.859857354059613 16.837564834696877 0 16.837564834696877 -15.633994850679301 0 0 0 0 11.438799748232611 17.011645921751892 0 17.011645921751892 -8.8670563265150122 0 0 0 0 13.316401523699895 33.719828496561263 0 33.719828496561263 23.252284049503942 0 0 0 0 -1.6197502490174429 9.4874365975229011 0 9.4874365975229011 -2.0350489157208358 0 0 0 0 -0.51944684206424441 0.97213676777875335 0 0.97213676777875335 -1.6534540133946578 0 0 0 0 -2.3667085838995074 4.9049227024810431 0 4.9049227024810431 -5.7098289800020439 0 0 0 0 -1.4239892675007013 6.8444436934596524 0 6.8444436934596524 -10.089489922678695 0 0 0 0 -1.2246889190564616 4.795036840728244 0 4.795036840728244 -4.0234468502821983 0 0 0 0 -0.22357022522033887 6.0549325891311554 0 6.0549325891311554 -8.7800262098741086 0 0 0 0 0.28456902645302762 5.4578305086688488 0 5.4578305086688488 -1.6837803628932306 0 0 0 0 -1.4588506297264221 3.9097182026494508 0 3.9097182026494508 -3.093819840327221 0 0 0 0 -2.1440984488301256 4.3919623354256521 0 4.3919623354256521 -1.1175289807083999 0 0 0 0 -0.42552797488929173 6.4350968910030133 0 6.4350968910030133 -4.3520559450462315 0 0 0 0 -0.64543722351365673 1.3617803285297754 0 1.3617803285297754 -0.45749021839010595 0 0 0 0 -1.8639591966702937 3.9540641329695063 0 3.9540641329695063 -5.7446895139073604 0 0 0 0 -3.032051981163022 7.3726498707092105 0 7.3726498707092105 -10.320393789275212 0 0 0 0 4.7806852496632928 2.3190684087221598 0 2.3190684087221598 -2.0065911727081129 0 0 0 0 34.764693167584937 49.84933966186145 0 49.84933966186145 -25.176483869980075 0 0 0 0 38.111406895902817 65.974531890590811 0 65.974531890590811 -2.9411439574141696 0 0 0 0 33.825143380269203 61.695907536512323 0 61.695907536512323 3.8231632171809906 0 0 0 0 34.158118460755759 46.183555320201776 0 46.183555320201776 -16.831267481467876 0 0 0 0 27.838503748353446 48.863428349946844 0 48.863428349946844 -23.116116164688719 0 0 0 0 27.262487909354377 37.825397860100566 0 37.825397860100566 -43.064712583196524 0 0 0 0 13.353614549314273 43.367051884799139 0 43.367051884799139 -26.602356709357991 0 0 0 0 9.0391743749528413 10.971344053953317 0 10.971344053953317 -43.475540285948227 0 0 0 0 40.737254968582306 43.035784876430625 0 43.035784876430625 -35.533995236051851 0 0 0 0 42.171289253735146 43.370913200923042 0 43.370913200923042 -30.932512941890309 0 0 0 0 -140.46530990750307 45.069400796244736 0 45.069400796244736 -25.367499888569 0 0 0 0 0.24759595821631342 0.75816606529173569 0 0.75816606529173569 1.1152469043069928 0 0 0 0 55.865812344349081 71.826260294618805 0 71.826260294618805 -5.4416206163223251 0 0 0 0 46.058883466486833 93.429174980854441 0 93.429174980854441 47.912324626500777 0 0 0 0 34.378228771811564 65.220331374277521 0 65.220331374277521 -2.0666179788604495 0 0 0 0 25.569429670742238 57.359292508474937 0 57.359292508474937 5.9024101077593514 0 0 0 0 29.338824783931159 74.78325053804565 0 74.78325053804565 46.321770971531805 0 0 0 0 26.282827176508476 51.930244531931748 0 51.930244531931748 35.585829128723844 0 0 0 0 45.836914619276968 49.337940171253649 0 49.337940171253649 4.7581752295736806 0 0 0 0 23.324961935011743 58.91211714205383 0 58.91211714205383 67.161544390726704 0 0 0 0 37.315473147249406 47.903895922463107 0 47.903895922463107 4.5526244798365951 0 0 0 0 47.79788192334513 55.295546603481853 0 55.295546603481853 -7.0060951060058869 0 0 0 0 36.595234832485517 56.937565579715738 0 56.937565579715738 -10.039790049637304 0 0 0 0 29.725650222310378 42.954733626769666 0 42.954733626769666 -15.958004771858214 0 0 0 0 34.433329433384642 45.394887390153599 0 45.394887390153599 -29.19474443684885 0 0 0 0 26.162800120934094 39.370731073979186 0 39.370731073979186 -29.862361331655848 0 0 0 0 51.467479165243049 46.009663506317338 0 46.009663506317338 -12.680488898798558 0 0 0 0 46.184075199463337 55.610050662974118 0 55.610050662974118 -30.114727463414965 0 0 0 0 0.041189733210901691 -0.088590951762973269 0 -0.088590951762973269 -0.013332434266970949 0 0 0 0 -44.043188170592146 38.135783782752696 0 38.135783782752696 -1.4291488870585454 0 0 0 0 16.046032496634098 60.788179708044481 0 60.788179708044481 -30.936782650017449 0 0 0 0 -21.012888722936168 55.01394904126937 0 55.01394904126937 -21.145165135010757 0 0 0 0 15.382640031610208 36.709757548946072 0 36.709757548946072 -22.240108794401749 0 0 0 0 29.635790050803962 38.904674643779799 0 38.904674643779799 -34.194718319586173 0 0 0 0 24.830313041417412 37.376996826936193 0 37.376996826936193 -32.812148780994903 0 0 0 0 27.314135863436377 38.665814231409968 0 38.665814231409968 -35.45889151540905 0 0 0 0 20.092671037600667 41.029551194609667 0 41.029551194609667 -30.930682432674075 0 0 0 0 27.307911712819706 37.678794348239208 0 37.678794348239208 -34.811490116491768 0 0 0 0 25.937190345082172 36.619902750002439 0 36.619902750002439 -32.678751034425659 0 0 0 0 26.090636348285216 35.873269492309191 0 35.873269492309191 -31.255125041519932 0 0 0 0 23.048777310646756 34.10680547431366 0 34.10680547431366 -34.728438840633316 0 0 0 0 21.756701415515977 35.907067737004581 0 35.907067737004581 -33.714258588290249 0 0 0 0 15.692328467120888 33.14487786429163 0 33.14487786429163 -34.395547232372337 0 0 0 0 16.170108244291214 34.942317858634851 0 34.942317858634851 -34.743632894507755 0 0 0 0 24.033295586138365 36.873346030137327 0 36.873346030137327 -34.868674407702997 0 0 0 0 23.24495544388725 34.219113475959148 0 34.219113475959148 -37.851729989844898 0 0 0 0 28.133919994013354 35.361802802981401 0 35.361802802981401 -36.712004979581252 0 0 0 0 28.480905432584677 40.871549373268863 0 40.871549373268863 -32.785430147010629 0 0 0 0 26.518490221046662 34.590361253071478 0 34.590361253071478 -39.193880258455465 0 0 0 0 32.727663187633333 40.611230239769114 0 40.611230239769114 -36.415410247635009 0 0 0 0 20.088470862483291 38.578435217177685 0 38.578435217177685 -32.11710771394246 0 0 0 0 30.525828947209106 38.5861882787176 0 38.5861882787176 -30.252541919609939 0 0 0 0 32.833967474729093 50.492154536728776 0 50.492154536728776 -21.949086152053496 0 0 0 0 4.8045523799228649 28.666290381866929 0 28.666290381866929 -40.317570669729321 0 0 0 0 4.3413990089434193 32.540425479952205 0 32.540425479952205 -35.442389286239631 0 0 0 0 20.44911159833066 33.766352108426872 0 33.766352108426872 -41.918411270864453 0 0 0 0 1.6692724425550693 30.921950569036198 0 30.921950569036198 -35.770489351458309 0 0 0 0 1.4672481672795286 33.036938693159755 0 33.036938693159755 -41.011359047948645 0 0 0 0 -3.5273415643161314 30.203565829837316 0 30.203565829837316 -38.342808892040921 0 0 0 0 16.178447881950888 34.901198503641353 0 34.901198503641353 -39.631596748437005 0 0 0 0 4.7910924102833405 29.493806059377675 0 29.493806059377675 -36.100854855623766 0 0 0 0 5.3300986984315273 31.287905421235337 0 31.287905421235337 -31.537102879519807 0 0 0 0 15.293123407918159 35.072803931197086 0 35.072803931197086 -34.481313595337269 0 0 0 0 0.43637805638849159 35.460229661859557 0 35.460229661859557 -32.782568499162153 0 0 0 0 5.5261179408383896 32.322029034061416 0 32.322029034061416 -35.031736849050503 0 0 0 0 -8.9543811623312379 32.738543856639808 0 32.738543856639808 -24.989189349438675 0 0 0 0 4.1040496921113423 35.353417212633815 0 35.353417212633815 -25.550343856095424 0 0 0 0 4.3594178989441339 30.716028566641 0 30.716028566641 -23.875333989770297 0 0 0 0 12.979254795563065 38.456352741921364 0 38.456352741921364 -17.449735254154803 0 0 0 0 15.004955942919764 36.527623830650555 0 36.527623830650555 -29.545458153279469 0 0 0 0 20.832494716509927 36.770227283772329 0 36.770227283772329 -27.304926163575146 0 0 0 0 15.94044261699139 32.506022630403095 0 32.506022630403095 -30.771844512635653 0 0 0 0 24.391608882253649 37.279770713410471 0 37.279770713410471 -24.668604502308881 0 0 0 0 22.461310703482695 33.636026322634279 0 33.636026322634279 -30.358062271936433 0 0 0 0 22.755839978637823 37.651510991561736 0 37.651510991561736 -17.662440378553583 0 0 0 0 27.297271115036665 32.325634148499375 0 32.325634148499375 -22.505011088665924 0 0 0 0 19.083227857109136 31.912493562036616 0 31.912493562036616 -26.366921764490144 0 0 0 0 19.196610451087736 30.685709894960382 0 30.685709894960382 -8.9276771034565172 0 0 0 0 34.499161007857879 38.613487382964195 0 38.613487382964195 -6.7196160735766171 0 0 0 0 1.8608774785252677 37.425007864367217 0 37.425007864367217 -3.8644139329353493 0 0 0 0 1.4660394349636121 35.602903125613011 0 35.602903125613011 -12.272087770979851 0 0 0 0 18.827877516504259 34.784777994354954 0 34.784777994354954 -17.532139977811539 0 0 0 0 119.90126403512213 -15.543481817407837 0 -15.543481817407837 -41.795123606163543 0 0 0 0 109.67115958469367 17.478908387125557 0 17.478908387125557 9.4249964903719956 0 0 0 0 12.068507339062762 36.713063281365976 0 36.713063281365976 -20.97682933761098 0 0 0 0 -9.1782831640202858 7.5562551076691307 0 7.5562551076691307 -0.53335097705348744 0 0 0 0 25.498762172708666 -0.14546850558326696 0 -0.14546850558326696 -0.0086436310132285143 0 0 0 0 34.796027625297938 27.491858917259378 0 27.491858917259378 -12.707137099758256 0 0 0 0 28.274153473540082 25.004458666971914 0 25.004458666971914 -13.387013706200378 0 0 0 0 13.621573925444409 33.771914132595157 0 33.771914132595157 -18.542472611996345 0 0 0 0 15.303845214457624 37.272720470793047 0 37.272720470793047 -25.733339380531106 0 0 0 0 24.942548758619068 37.57423909174031 0 37.57423909174031 -29.213137467315391 0 0 0 0 21.455504758610914 32.203072025335132 0 32.203072025335132 -21.63755268038949 0 0 0 0 26.966648107876608 36.900679531872811 0 36.900679531872811 -30.773512238578405 0 0 0 0 25.387429732841952 35.377651251088537 0 35.377651251088537 -22.96908722101216 0 0 0 0 24.33120301870531 30.448640141061333 0 30.448640141061333 -12.172631908244512 0 0 0 0 25.981289501641101 37.148610350879835 0 37.148610350879835 -21.753566433115338 0 0 0 0 41.30087929714 23.251966431457731 0 23.251966431457731 -7.5794193400461154 0 0 0 0 36.05162671650055 32.611021374217671 0 32.611021374217671 -13.194650298079068 0 0 0 0 38.244967767881008 23.734402996913559 0 23.734402996913559 -7.7471687491888588 0 0 0 0 30.680457895358927 20.665593368280497 0 20.665593368280497 -6.4663339420367265 0 0 0 0 68.724644177289065 9.7020420967146492 0 9.7020420967146492 -15.169449809316575 0 0 0 0 49.008057308056891 44.333520745723945 0 44.333520745723945 30.851306096605185 0 0 0 0 0.1170241551948118 0.074495289194556946 0 0.074495289194556946 0.040805566399107818 0 0 0 0 57.115527826019388 0.61058769062947249 0 0.61058769062947249 -10.595726909075893 0 0 0 0 59.720319130679172 22.8291640889056 0 22.8291640889056 -8.0649489728273238 0 0 0 0 115.2541254184332 7.2559025233913417 0 7.2559025233913417 -6.0398398696070217 0 0 0 0 41.707050632059918 25.380977043268103 0 25.380977043268103 0.61697579167775984 0 0 0 0 54.190191518741472 44.126267322860713 0 44.126267322860713 0.030279522667115089 0 0 0 0 0.036056541609863713 -0.20348581382260011 0 -0.20348581382260011 0.13448696997470933 0 0 0 0 -31.835669598207687 13.629215248213768 0 13.629215248213768 22.609932538882276 0 0 0 0 19.404624184735553 35.354188310495374 0 35.354188310495374 -4.729780828285584 0 0 0 0 -2.4383307211363672 40.167034178537961 0 40.167034178537961 4.6067213956848718 0 0 0 0 18.739607226148394 36.249648355746103 0 36.249648355746103 7.5389620956357248 0 0 0 0 35.050243527309362 22.842977018909551 0 22.842977018909551 4.3013229339230747 0 0 0 0 1.8704263961263621 46.351522892664434 0 46.351522892664434 0.0023004896775091765 0 0 0 0 25.167468795070192 37.446205861463568 0 37.446205861463568 0.83221480739530307 0 0 0 0 -1.8539098231290723 40.999677005074773 0 40.999677005074773 9.3532726980902225 0 0 0 0 -17.803235592549413 43.494308754367921 0 43.494308754367921 8.9683138656619121 0 0 0 0 -3.6151108276916375 37.453149245622171 0 37.453149245622171 0.8170719830559392 0 0 0 0 -26.737998013361846 37.624221801436761 0 37.624221801436761 5.7345224677465012 0 0 0 0 -4.3045487736565065 63.39279161351169 0 63.39279161351169 17.693685525908222 0 0 0 0 -12.368585731642554 51.340269263730988 0 51.340269263730988 0.013597827719422639 0 0 0 0 2.1477878454682013 60.775154671448036 0 60.775154671448036 0.036023779623519783 0 0 0 0 23.515273146953746 72.427814620341906 0 72.427814620341906 5.0404651785029273 0 0 0 0 41.9376240661785 101.39760693226799 0 101.39760693226799 15.628202209762094 0 0 0 0 50.354398922017481 81.578991363287059 0 81.578991363287059 7.8121677641720453 0 0 0 0 -28.66464015511815 51.09340079087724 0 51.09340079087724 13.617849305358959 0 0 0 0 -17.385209947409294 76.776643213663192 0 76.776643213663192 32.694323264144259 0 0 0 0 -38.98611344898859 56.500258906786257 0 56.500258906786257 18.53068860109488 0 0 0 0 -41.285770885233205 59.37527822780612 0 59.37527822780612 15.196558109830221 0 0 0 0 -6.8212070027636855 101.47869900504566 0 101.47869900504566 27.510353476309319 0 0 0 0 -78.447882132963969 -46.164563411232848 0 -46.164563411232848 -66.841754092029987 0 0 0 0 -67.309645418740658 73.241837510758415 0 73.241837510758415 18.414945638747668 0 0 0 0 -0.067076665880306585 0.36116110844191951 0 0.36116110844191951 0.69501735370517537 0 0 0 0 -70.111118719386695 28.11469384004522 0 28.11469384004522 -11.940470639521664 0 0 0 0 -39.082492301712819 48.189749963510621 0 48.189749963510621 -64.40191442890864 0 0 0 0 -44.074682068319362 31.475413815272987 0 31.475413815272987 -54.727172330418398 0 0 0 0 -35.219715768639844 33.277802365913885 0 33.277802365913885 -34.135804747356815 0 0 0 0 -46.931687693993581 50.90601868772319 0 50.90601868772319 -38.204846578455545 0 0 0 0 -36.466139321057426 42.218303633042524 0 42.218303633042524 -11.644477724345052 0 0 0 0 -46.786398104162231 27.862840108592081 0 27.862840108592081 -24.877248330445582 0 0 0 0 -31.012494769038994 28.433150561133516 0 28.433150561133516 -19.673197598594015 0 0 0 0 -23.288563760400223 41.201480186970002 0 41.201480186970002 -28.880653669351886 0 0 0 0 -25.70842574740567 33.181026364209174 0 33.181026364209174 -20.184114576174579 0 0 0 0 -9.0473284848962976 31.604500237517186 0 31.604500237517186 -32.615415824402589 0 0 0 0 -12.188349794781487 33.41894686881642 0 33.41894686881642 -12.342396144033046 0 0 0 0 -11.927040635704543 31.910750792250838 0 31.910750792250838 -22.286059014524653 0 0 0 0 -26.337797953011034 37.051819823824189 0 37.051819823824189 -5.0507629629719304 0 0 0 0 -16.935344827914975 37.55744723335556 0 37.55744723335556 1.1014968568556469 0 0 0 0 -16.585250318843322 37.635111952169609 0 37.635111952169609 -5.0360590454583871 0 0 0 0 -27.577963168350948 50.689649417344299 0 50.689649417344299 13.476760516923605 0 0 0 0 -45.877832017093226 34.167099198426399 0 34.167099198426399 1.3984676762302115 0 0 0 0 38.83671445386608 96.6586282986691 0 96.6586282986691 -5.3665833983650373 0 0 0 0 40.330457574078764 62.351512366083625 0 62.351512366083625 2.4833934609650896 0 0 0 0 55.474700186352152 79.665961319451299 0 79.665961319451299 0.024805744898912963 0 0 0 0 78.007197298248684 64.197288751138331 0 64.197288751138331 8.2165794357306368 0 0 0 0 54.303855281059441 89.555321942445516 0 89.555321942445516 13.600387702668058 0 0 0 0 97.118468395679429 46.183533432761806 0 46.183533432761806 71.861119222317939 0 0 0 0 69.410840528108338 64.875787608694282 0 64.875787608694282 53.771239194047666 0 0 0 0 84.865633423743475 76.203094503380271 0 76.203094503380271 9.5735805821609574 0 0 0 0 75.614650659032804 70.282361326360615 0 70.282361326360615 11.932706785431947 0 0 0 0 81.038812156909444 72.10801057669596 0 72.10801057669596 -0.031687217701798866 0 0 0 0 49.122611053313449 82.923701995517149 0 82.923701995517149 13.09847448864457 0 0 0 0 113.849555468159 84.567371130120591 0 84.567371130120591 4.3860971289268491 0 0 0 0 0.3183055186972048 0.50174769106914496 0 0.50174769106914496 0.61325439069710086 0 0 0 0 41.769828786840208 154.79357223060561 0 154.79357223060561 58.386896364649147 0 0 0 0 55.974725966711105 106.22588901770268 0 106.22588901770268 23.111220579059591 0 0 0 0 148.70153845136838 29.962547171755432 0 29.962547171755432 -29.978571551575442 0 0 0 0 55.359062703278596 -2.2491289562403836 0 -2.2491289562403836 -40.634805485435209 0 0 0 0 102.32807867156407 72.738652850721337 0 72.738652850721337 -27.775918531724528 0 0 0 0 85.646253648866605 73.261351941359862 0 73.261351941359862 -17.972131385557077 0 0 0 0 61.236395725836701 73.010666683883755 0 73.010666683883755 -14.699070480059163 0 0 0 0 97.430287710377343 99.84004028425079 0 99.84004028425079 -0.080891524146863958 0 0 0 0 157.80121054715809 118.65328804751584 0 118.65328804751584 10.403664111210674 0 0 0 0 78.485074025013091 112.29352996869966 0 112.29352996869966 89.311221714688145 0 0 0 0 77.342614370310258 99.793120778871867 0 99.793120778871867 28.910585497571446 0 0 0 0 47.060773414707683 80.272236143336158 0 80.272236143336158 24.978687498176441 0 0 0 0 52.633041467043768 94.160503463088389 0 94.160503463088389 29.717146226637851 0 0 0 0 52.580819407341039 93.499336185284392 0 93.499336185284392 22.421836605019053 0 0 0 0 36.081952876698324 88.753296790300737 0 88.753296790300737 21.179523837543456 0 0 0 0 11.15737688061472 101.79331855192959 0 101.79331855192959 30.251675980782238 0 0 0 0 31.879975077125209 84.178506161032146 0 84.178506161032146 44.742479211843602 0 0 0 0 33.967819330822749 100.3510207840327 0 100.3510207840327 27.787008849802078 0 0 0 0 30.648961634575699 94.104144366112905 0 94.104144366112905 24.27723236096972 0 0 0 0 50.587411000309203 34.519806833628536 0 34.519806833628536 9.3765841424134919 0 0 0 0 27.02735276311023 15.81679908397382 0 15.81679908397382 -0.90427164937864291 0 0 0 0 42.739861805070177 52.380443166974146 0 52.380443166974146 9.8556586157574202 0 0 0 0 13.168059550067937 58.45804270415374 0 58.45804270415374 31.296704522645086 0 0 0 0 48.707432232870815 61.5502436152874 0 61.5502436152874 6.3116728022264397 0 0 0 0 63.051718044449444 78.471851059717665 0 78.471851059717665 1.6782494666258572 0 0 0 0 64.959833087121751 57.609669798138384 0 57.609669798138384 -13.898074773984263 0 0 0 0 58.753240527172238 41.127043519156359 0 41.127043519156359 -9.6567383207766397 0 0 0 0 51.681783087790336 32.672807439169446 0 32.672807439169446 -18.331217237651799 0 0 0 0 53.299577243105887 40.163147003405356 0 40.163147003405356 -24.660736511403229 0 0 0 0 58.341019407803856 37.872109569059603 0 37.872109569059603 -26.110294480848097 0 0 0 0 79.718733657213761 69.501475135916735 0 69.501475135916735 -15.976496994905574 0 0 0 0 63.991830465678845 53.404207552030584 0 53.404207552030584 -30.962117082832265 0 0 0 0 67.681433855485125 37.682228774961914 0 37.682228774961914 -52.80457804868638 0 0 0 0 45.224683688684991 44.101661347681329 0 44.101661347681329 -38.138291879646204 0 0 0 0 6.0880944185573753 12.929316349416695 0 12.929316349416695 -37.327995789742999 0 0 0 0 49.707011788294778 26.427617835597175 0 26.427617835597175 -42.41552006800157 0 0 0 0 13.479881412371924 28.034003073783424 0 28.034003073783424 -20.749513707916776 0 0 0 0 4.5745913451723936 29.946166613985042 0 29.946166613985042 4.9884774392921827 0 0 0 0 42.751093560355912 31.499327036461182 0 31.499327036461182 -22.187983971289214 0 0 0 0 33.771897265357325 44.69739337455394 0 44.69739337455394 10.008331511377037 0 0 0 0 43.940792504141541 31.038693660107128 0 31.038693660107128 -5.5373602702202334 0 0 0 0 51.76837390821629 39.432147489388626 0 39.432147489388626 3.174441583953012 0 0 0 0 44.380936944689665 36.646992983826749 0 36.646992983826749 -6.0145631460618461 0 0 0 0 63.085412746325346 35.843758715840522 0 35.843758715840522 -25.2125244005897 0 0 0 0 61.645314128412281 31.313742076047674 0 31.313742076047674 -18.616864434206946 0 0 0 0 93.940240204819929 42.115224376364495 0 42.115224376364495 -15.378168964129145 0 0 0 0 122.93731697820249 90.738081581708684 0 90.738081581708684 23.164956434717169 0 0 0 0 106.51639148159285 -1.1535698723190535 0 -1.1535698723190535 -35.483387182925071 0 0 0 0 25.846767078114226 -13.570857707615687 0 -13.570857707615687 -19.981931359054215 0 0 0 0 22.250578535108161 15.647852045491163 0 15.647852045491163 -0.90597563050505414 0 0 0 0 -5.4094356219229667 6.2293498263343281 0 6.2293498263343281 4.6655451089372946 0 0 0 0 73.95324227983906 -1.2901275070871634 0 -1.2901275070871634 -20.645454812205571 0 0 0 0 -54.42010099771187 -15.979551265674672 0 -15.979551265674672 -46.48238618682899 0 0 0 0 -51.510648098424042 59.491961465117129 0 59.491961465117129 -44.569071098944278 0 0 0 0 0.008426063692129393 0.37415085061350517 0 0.37415085061350517 0.53754509944864992 0 0 0 0 -34.931081148142162 47.572610280758852 0 47.572610280758852 -44.725146421951649 0 0 0 0 -47.829846077368757 36.404631677240104 0 36.404631677240104 -51.953706060092372 0 0 0 0 -25.293210488004647 31.373052463244676 0 31.373052463244676 -34.216697226996985 0 0 0 0 -22.995826544117556 41.76127915828738 0 41.76127915828738 -42.920240678326081 0 0 0 0 -35.213923927150233 36.116284591684234 0 36.116284591684234 -36.3935869925117 0 0 0 0 -17.603469963613833 39.923560560675469 0 39.923560560675469 -41.389891156577505 0 0 0 0 -18.244843753469297 33.279945166765174 0 33.279945166765174 -34.378395868836378 0 0 0 0 -19.255856711721151 36.650253278556193 0 36.650253278556193 -30.422964346147637 0 0 0 0 -26.423756484934756 29.390102191564438 0 29.390102191564438 -37.220929246615015 0 0 0 0 -36.369389474997746 47.620418727899505 0 47.620418727899505 -37.57094380505805 0 0 0 0 -66.635231318309479 38.393974940182488 0 38.393974940182488 -33.654250333913296 0 0 0 0 -60.911443567353672 43.303503997343796 0 43.303503997343796 -33.303963655018379 0 0 0 0 0.77285264936299969 1.1699044385857 0 1.1699044385857 1.2209499785801796 0 0 0 0 -62.993529443344755 70.132084491237038 0 70.132084491237038 -51.569031401591928 0 0 0 0 -22.650299648194505 41.706617909445413 0 41.706617909445413 -23.042380788781884 0 0 0 0 -4.9308967427975858 72.546734186492358 0 72.546734186492358 -6.1025415312606128 0 0 0 0 0.65803904033159677 0.94130448914238762 0 0.94130448914238762 0.84084279235126047 0 0 0 0 -57.884487216933849 50.958626046084646 0 50.958626046084646 -22.310187141301867 0 0 0 0 -45.614704772559207 73.927865476930492 0 73.927865476930492 -52.317278080368851 0 0 0 0 -46.151563272350813 19.799116484438855 0 19.799116484438855 -22.226907717855283 0 0 0 0 -11.699497081646768 54.793663971002388 0 54.793663971002388 -51.023153508413088 0 0 0 0 10.587563716839497 40.59275500760964 0 40.59275500760964 -40.057325900157593 0 0 0 0 -19.071211594324268 27.61023255199143 0 27.61023255199143 -32.739953813628745 0 0 0 0 -17.592932021611375 34.547215489761584 0 34.547215489761584 -75.014921317597327 0 0 0 0 -65.58854640447089 23.310672564901324 0 23.310672564901324 -22.129681573469497 0 0 0 0 -74.460581536963304 91.931458886946643 0 91.931458886946643 -25.335370878527101 0 0 0 0 3.5515130193653022 71.235856843577039 0 71.235856843577039 -35.447452109525329 0 0 0 0 -25.951832064350583 23.145526352705929 0 23.145526352705929 14.000926942260776 0 0 0 0 -2.9694908790520458 18.718416710433303 0 18.718416710433303 -11.719052677321088 0 0 0 0 -18.586038654890444 46.800970919443898 0 46.800970919443898 -14.637656575529036 0 0 0 0 -0.007005749365362135 35.895676547891526 0 35.895676547891526 19.817472125321729 0 0 0 0 -4.9931023407968951 23.362082179351091 0 23.362082179351091 45.858777253754852 0 0 0 0 47.567959608526053 28.649733264591305 0 28.649733264591305 -8.508629800032395 0 0 0 0 19.79534940077815 49.709751033638895 0 49.709751033638895 -10.284534683239372 0 0 0 0 1.0669060783097284 1.5696735091644243 0 1.5696735091644243 1.6505683534018942 0 0 0 0 41.212223608928525 144.44518052055992 0 144.44518052055992 -52.414332603482762 0 0 0 0 -61.04285021211075 46.409874682289228 0 46.409874682289228 -25.957830327777629 0 0 0 0 -45.210561895416362 21.305755179311745 0 21.305755179311745 -27.566775655497622 0 0 0 0 11.149270391865286 22.811222824844663 0 22.811222824844663 -89.004269641533028 0 0 0 0 -148.41526929836596 59.836692405135182 0 59.836692405135182 33.552845651445296 0 0 0 0 -1.3239815521656055 105.26780971507014 0 105.26780971507014 42.724114815705889 0 0 0 0 -0.22571964304099024 0.50750741085123963 0 0.50750741085123963 -0.46502179056555804 0 0 0 0 -115.46094260451608 -10.608154841432224 0 -10.608154841432224 57.02605942529226 0 0 0 0 16.184567641090553 70.824590302552906 0 70.824590302552906 60.643171829364292 0 0 0 0 -49.52205320574825 45.16760512718065 0 45.16760512718065 45.026597402742482 0 0 0 0 -4.1227837213947396 11.568817687933006 0 11.568817687933006 58.27987857047475 0 0 0 0 1.9539346643988438 31.738178874436016 0 31.738178874436016 -29.753305884190922 0 0 0 0 -55.114596003250313 40.17496949539418 0 40.17496949539418 47.281782702163582 0 0 0 0 -0.3778579239933606 36.099011984792924 0 36.099011984792924 37.441830799187301 0 0 0 0 10.315766358987048 5.1405754328006878 0 5.1405754328006878 5.3544421862352465 0 0 0 0 3.4723529138223057 17.261914086324396 0 17.261914086324396 8.9968636134981352 0 0 0 0 1.8712269973407802 5.0271850920134327 0 5.0271850920134327 9.6554594860519742 0 0 0 0 -40.04118165287494 29.058458836680984 0 29.058458836680984 6.5572510951606091 0 0 0 0 0.20797062116295573 1.5340485285282242 0 1.5340485285282242 1.9075968393686153 0 0 0 0 -27.576229602786839 0.61840614432912844 0 0.61840614432912844 9.3550999652211431 0 0 0 0 4.1548796050792172 5.7641650770370063 0 5.7641650770370063 -3.6597354453920499 0 0 0 0 -4.9075707254005465 47.463470954122386 0 47.463470954122386 67.279460717305483 0 0 0 0 0.90226429066933633 34.911151185568087 0 34.911151185568087 48.377154597464141 0 0 0 0 24.220559043047615 42.420444297480572 0 42.420444297480572 50.774147438800355 0 0 0 0 26.105539922319622 10.04600835772726 0 10.04600835772726 17.731663586120703 0 0 0 0 4.1504245908869093 5.8794883464963554 0 5.8794883464963554 -2.8439461938111634 0 0 0 0 -25.961720770375905 12.07833606677741 0 12.07833606677741 18.213019755916321 0 0 0 0 29.90217577562953 15.210308750676631 0 15.210308750676631 10.27661960693149 0 0 0 0 8.5346020327947372 22.427275564099546 0 22.427275564099546 41.294167585008836 0 0 0 0 54.472656116997314 41.322999392170459 0 41.322999392170459 33.801250104277642 0 0 0 0 21.613834950846467 18.421088973869701 0 18.421088973869701 51.356465880682663 0 0 0 0 -0.035845803527330133 0.43737141256296042 0 0.43737141256296042 -0.44150241581094463 0 0 0 0 30.597703083672741 71.200324019082018 0 71.200324019082018 67.380064804208814 0 0 0 0 -7.1898565504458247 26.649631783026962 0 26.649631783026962 61.057131647738061 0 0 0 0 -0.72969916543073587 0.78539915746635458 0 0.78539915746635458 -0.47002693549310948 0 0 0 0 -5.7414139075752928 11.791776160162954 0 11.791776160162954 61.620672700639261 0 0 0 0 -1.4994382344120822 38.414879128926259 0 38.414879128926259 70.686301984166676 0 0 0 0 7.0139249495621243 30.501371278312945 0 30.501371278312945 49.417331344273407 0 0 0 0 8.1921299852520804 43.879672701664447 0 43.879672701664447 96.547349768727145 0 0 0 0 71.900967333157496 26.367765594637603 0 26.367765594637603 63.174318139073875 0 0 0 0 -8.2704594585420637 44.407840366946402 0 44.407840366946402 72.385102352993272 0 0 0 0 -40.393383908912483 -6.176335625579668 0 -6.176335625579668 49.040893239425714 0 0 0 0 0.68084232488199703 0.75806696310726096 0 0.75806696310726096 0.622677800885306 0 0 0 0 26.881638617959197 67.780250998392148 0 67.780250998392148 88.57498768176356 0 0 0 0 110.53532923829744 91.812075397288936 0 91.812075397288936 66.601523189452564 0 0 0 0 107.40572033814942 98.80609102393737 0 98.80609102393737 51.312677222529601 0 0 0 0 93.121281576226011 126.16145041002528 0 126.16145041002528 137.14002750990403 0 0 0 0 158.57159478815197 41.27667953334003 0 41.27667953334003 91.765837027029193 0 0 0 0 40.235599669976182 58.676864670014766 0 58.676864670014766 63.305718292524261 0 0 0 0 45.478769918375974 51.928935899103635 0 51.928935899103635 70.694505921605014 0 0 0 0 -8.5253863436792017 4.0138600619011413 0 4.0138600619011413 71.665335539292585 0 0 0 0 13.591702383250549 24.626373668714223 0 24.626373668714223 38.154370513020694 0 0 0 0 -11.153043323642578 23.382076640150444 0 23.382076640150444 142.03084600565853 0 0 0 0 -9.834759410560082 49.211447136081006 0 49.211447136081006 57.955139069068537 0 0 0 0 13.582342093498482 18.735924292308482 0 18.735924292308482 62.847606278543481 0 0 0 0 8.8536061858631001 32.774951901490567 0 32.774951901490567 21.286121004011875 0 0 0 0 3.1450769065395434 -1.4579930353320378 0 -1.4579930353320378 40.699743460187165 0 0 0 0 -13.654404120329218 -5.4803574285160721 0 -5.4803574285160721 47.882465555263479 0 0 0 0 -21.446937974692901 38.860144627392401 0 38.860144627392401 63.863065724879561 0 0 0 0 6.392902173487073 14.061782344993162 0 14.061782344993162 11.637194303370052 0 0 0 0 5.0497825674829073 9.3161022878721269 0 9.3161022878721269 5.3604907375120092 0 0 0 0 4.1383899155053321 5.6725979144883034 0 5.6725979144883034 -3.4579471216856597 0 0 0 0 1.7026446607819707 13.31689404970075 0 13.31689404970075 1.0477761007623485 0 0 0 0 -6.9940854981687153 25.889584419401217 0 25.889584419401217 -2.918575613601206 0 0 0 0 -8.0317467920681338 15.329942909911551 0 15.329942909911551 6.5934058004006602 0 0 0 0 8.2985915508643302 17.046438091274467 0 17.046438091274467 2.1950514158434089 0 0 0 0 0.48614444240217869 0.6271727524724513 0 0.6271727524724513 1.592027045087832 0 0 0 0 26.062006351282889 -13.127985284761962 0 -13.127985284761962 -10.536585548396033 0 0 0 0 -5.3522951414870477 -10.929729139658775 0 -10.929729139658775 57.947806800681064 0 0 0 0 3.9234753558340945 5.514838564473429 0 5.514838564473429 -4.1314444782375173 0 0 0 0 8.1807262412021373 10.929977205926662 0 10.929977205926662 -16.594200032675872 0 0 0 0 17.226376630045252 4.5328907500597779 0 4.5328907500597779 -16.257306003748454 0 0 0 0 1.9676100565879722 -8.9167920131819756 0 -8.9167920131819756 22.856743194650335 0 0 0 0 1.1151615980248102 0.5264518178854658 0 0.5264518178854658 -7.1998618504607848 0 0 0 0 -5.7977360007316747 -1.2603175884405573 0 -1.2603175884405573 -8.6840471275500022 0 0 0 0 12.199940753901501 29.0306077347268 0 29.0306077347268 27.193905519158761 0 0 0 0 36.590902696959347 -19.966851362430134 0 -19.966851362430134 -11.372885565897377 0 0 0 0 45.789266372805287 18.503993673633886 0 18.503993673633886 -15.336200499720235 0 0 0 0 16.949722174567796 34.154924982773991 0 34.154924982773991 -7.0176887115758291 0 0 0 0 65.658130584411083 -31.866038945173386 0 -31.866038945173386 4.8642730217179633 0 0 0 0 0.07405576286942761 0.35761103136644756 0 0.35761103136644756 0.57118506880165398 0 0 0 0 -0.054418762164580636 -0.2795979905895134 0 -0.2795979905895134 -4.131190449713003 0 0 0 0 39.100683341781405 6.7194420133218955 0 6.7194420133218955 -9.7749601831105792 0 0 0 0 30.59547535533261 6.0069617189453766 0 6.0069617189453766 -16.558133646132774 0 0 0 0 78.90572963265663 1.058632826979192 0 1.058632826979192 -10.228597421715676 0 0 0 0 -28.051692287260039 13.948514582332791 0 13.948514582332791 6.3990078762417397 0 0 0 0 7.2497315083260219 7.5839141838168871 0 7.5839141838168871 2.8329219082934287 0 0 0 0 -21.611063105220637 42.301000752116124 0 42.301000752116124 -8.3133069817049545 0 0 0 0 -11.197128251442109 18.719943078695906 0 18.719943078695906 -13.473409976541006 0 0 0 0 -22.934394015340786 33.898066878500686 0 33.898066878500686 -28.234607876060181 0 0 0 0 0.30367102120089484 -0.25252584954503021 0 -0.25252584954503021 -0.48100743836854321 0 0 0 0 -31.662620702492859 23.071709073330567 0 23.071709073330567 -3.3006536651246279 0 0 0 0 3.4433442436325095 -7.0790078932641336 0 -7.0790078932641336 -3.3362045472204045 0 0 0 0 32.932938472617479 43.474028183479277 0 43.474028183479277 -19.993478892614803 0 0 0 0 0.27014209282556312 -0.19894288075849964 0 -0.19894288075849964 -0.55712215110966667 0 0 0 0 0.65709595068119597 10.236705267851903 0 10.236705267851903 7.0729423786488042 0 0 0 0 -2.5757158101441746 2.1482864559066002 0 2.1482864559066002 14.188148228212413 0 0 0 0 0.8999175826205601 8.1215919243977623 0 8.1215919243977623 -9.5846098443635128 0 0 0 0 -1.6418319025709387 2.2429155683377111 0 2.2429155683377111 -2.9589516805985667 0 0 0 0 -2.5935316095123113 3.1701630267989458 0 3.1701630267989458 -2.9057350702451004 0 0 0 0 1.6742113715559483 5.2341254145312632 0 5.2341254145312632 -12.503975330517278 0 0 0 0 -3.2339682904140687 5.344956998026646 0 5.344956998026646 -10.289114692710427 0 0 0 0 -1.6504088888684691 8.0353389360698202 0 8.0353389360698202 3.0754957752178598 0 0 0 0 -2.7625784410885226 4.455253165435149 0 4.455253165435149 -2.8290413990656518 0 0 0 0 -3.2569204720400506 9.2685076181558088 0 9.2685076181558088 1.2403485592894867 0 0 0 0 -1.6431314718629437 7.8254242574075761 0 7.8254242574075761 6.0698644642643558 0 0 0 0 -2.6703560897607872 3.2512900982494557 0 3.2512900982494557 1.3694947913663782 0 0 0 0 -4.4694991029127777 9.6208686025283896 0 9.6208686025283896 4.9531699132921858 0 0 0 0 0.5514085240923674 5.4412818269974412 0 5.4412818269974412 8.1469131891702773 0 0 0 0 1.1078937561394469 8.5642348923274767 0 8.5642348923274767 3.1652598140956343 0 0 0 0 -0.70830594173469308 10.6246944597533 0 10.6246944597533 3.596312282490544 0 0 0 0 -0.7799496195420943 4.7726543467852025 0 4.7726543467852025 7.0311263248677278 0 0 0 0 -9.4902340521298356 16.639530050511894 0 16.639530050511894 10.445709839612391 0 0 0 0 -26.005206221126173 1.4900620224598242 0 1.4900620224598242 7.4401338496536482 0 0 0 0 0.30739013234551882 -0.30108977788904667 0 -0.30108977788904667 -0.40056081267564281 0 0 0 0 28.326429731174358 15.826435807726739 0 15.826435807726739 7.4689759683733428 0 0 0 0 20.941667387621237 15.913069609398008 0 15.913069609398008 11.41807665766828 0 0 0 0 22.157192435150137 7.8235733500650895 0 7.8235733500650895 3.8336123111184861 0 0 0 0 11.689749247199643 12.944778855397544 0 12.944778855397544 2.593131671565061 0 0 0 0 -2.5027402704063206 6.1083220639950468 0 6.1083220639950468 1.9461396892711491 0 0 0 0 2.7338412433475252 4.5124388248605998 0 4.5124388248605998 7.5770054229248558 0 0 0 0 142.79242002606952 6.0582794462661695 0 6.0582794462661695 1.7600113633034198 0 0 0 0 131.38108934148386 15.968536461047734 0 15.968536461047734 17.023750279826345 0 0 0 0 -20.970671476107782 43.900256226208512 0 43.900256226208512 -19.820209072144792 0 0 0 0 14.920097815829195 5.6285244153450549 0 5.6285244153450549 -3.7746935637733259 0 0 0 0 11.805188664520756 105.00848254556513 0 105.00848254556513 222.25823970848796 0 0 0 0 -23.36709522498677 15.113889635943451 0 15.113889635943451 116.01881529276943 0 0 0 0 -67.434850346789972 36.250238637025177 0 36.250238637025177 209.1651322605685 0 0 0 0 10.344801035282217 -24.762651080527576 0 -24.762651080527576 -16.233823754073455 0 0 0 0 1.1490048609083896 1.5940820872764103 0 1.5940820872764103 2.7516687553926715 0 0 0 0 201.89608466203572 4.9437895826958993 0 4.9437895826958993 16.075963450215568 0 0 0 0 548.38299555876256 55.050586960916917 0 55.050586960916917 11.221114268515521 0 0 0 0 274.27970386951347 126.41969095380227 0 126.41969095380227 11.103274733064609 0 0 0 0 121.51693042950865 88.190174450284758 0 88.190174450284758 88.037229341341401 0 0 0 0 84.813145293977868 172.74509554179713 0 172.74509554179713 90.651446186381747 0 0 0 0 101.95022330791835 110.0820804066916 0 110.0820804066916 15.224381553895 0 0 0 0 1.9854499236416814 109.21084529074142 0 109.21084529074142 73.593689638535579 0 0 0 0 51.746036080925478 113.13317380649823 0 113.13317380649823 15.36961507217859 0 0 0 0 101.81813616209911 107.44734034067005 0 107.44734034067005 9.2306704359302785 0 0 0 0 198.98616360139386 42.532061153664472 0 42.532061153664472 -0.49900719138167915 0 0 0 0 86.670620481701917 51.819756976173267 0 51.819756976173267 0.30049458221787972 0 0 0 0 110.41180746720511 71.913345255592503 0 71.913345255592503 -6.6555120429911767 0 0 0 0 49.221253937168512 67.414807791257772 0 67.414807791257772 -2.431967541279846 0 0 0 0 7.1397992443635303 94.728968078647085 0 94.728968078647085 20.629230810438457 0 0 0 0 54.413685137005814 94.92664786108071 0 94.92664786108071 11.090152025608404 0 0 0 0 38.92872114417969 66.869507287761735 0 66.869507287761735 0.44752303754830791 0 0 0 0 11.196477790699532 80.509326418094588 0 80.509326418094588 8.0547122166208283 0 0 0 0 41.670183087991973 69.40212630645874 0 69.40212630645874 -2.6954014779366844 0 0 0 0 62.024562154410887 44.567454267071298 0 44.567454267071298 0.51949814039471676 0 0 0 0 47.693794153670751 24.079492647098959 0 24.079492647098959 5.1004507336474489 0 0 0 0 34.22820830049659 31.229600828686671 0 31.229600828686671 6.484235019697735 0 0 0 0 49.053836803417653 19.724190749439913 0 19.724190749439913 1.1694605200855221 0 0 0 0 117.18644068998674 0.66159712398348347 0 0.66159712398348347 1.2946160070969199 0 0 0 0 3.385987424938202 7.3458128552860957 0 7.3458128552860957 11.379942538312108 0 0 0 0 7.8084567980372412 28.652570116080824 0 28.652570116080824 -2.9193939496581152 0 0 0 0 53.907882578227145 9.7261032246615287 0 9.7261032246615287 9.3253331047017127 0 0 0 0 1.2369650268888357 4.6214231001442734 0 4.6214231001442734 -1.911508925940673 0 0 0 0 2.2179122155229685 2.7628372877793801 0 2.7628372877793801 2.2179967463001162 0 0 0 0 26.130716377991121 13.517063789998247 0 13.517063789998247 10.826326253782554 0 0 0 0 -39.13271350562718 16.999592493177261 0 16.999592493177261 8.4870794660928368 0 0 0 0 -35.120573060545212 39.320097397272548 0 39.320097397272548 6.8786776997112611 0 0 0 0 -25.005943828577983 36.634093395323362 0 36.634093395323362 5.3698203791682317 0 0 0 0 -24.212556773905817 56.045657186967219 0 56.045657186967219 -5.2912347936917286 0 0 0 0 2.6967800046022603 62.505160548365893 0 62.505160548365893 -3.7408326928270981 0 0 0 0 -52.890886334087782 35.978586661773534 0 35.978586661773534 8.154303582450666 0 0 0 0 -42.147869564484381 72.600448406375563 0 72.600448406375563 0.50208517237115302 0 0 0 0 10.626582549621162 80.999058348301332 0 80.999058348301332 0.34130107027976919 0 0 0 0 -95.609329384012199 106.80365399356742 0 106.80365399356742 18.822772701234499 0 0 0 0 -109.56939517357387 8.2458167681434134 0 8.2458167681434134 3.3698483629013936 0 0 0 0 -65.17664919577328 16.155699080896738 0 16.155699080896738 10.215156016452966 0 0 0 0 -53.894860367615365 31.805321633230051 0 31.805321633230051 13.009580416839526 0 0 0 0 9.0767227213555088 39.242946421930355 0 39.242946421930355 -25.071676999894407 0 0 0 0 6.4359397872640329 -0.27899426808744465 0 -0.27899426808744465 5.5177251149725635 0 0 0 0 60.90640628685378 19.403315458343059 0 19.403315458343059 -19.739963717021965 0 0 0 0 0.69483093275448482 51.951345696870703 0 51.951345696870703 -15.717818495002746 0 0 0 0 5.1405668388160848 55.280038089476875 0 55.280038089476875 -15.600325022470997 0 0 0 0 7.9605039948287413 72.51315943253303 0 72.51315943253303 -14.666258144039602 0 0 0 0 36.281888827032617 69.879684702697887 0 69.879684702697887 -19.041600036882301 0 0 0 0 36.08737364080207 4.6227561298710498 0 4.6227561298710498 -22.902946942333074 0 0 0 0 73.504145249566136 5.2669021302881447 0 5.2669021302881447 -23.029828853249001 0 0 0 0 133.84536817187472 -31.01361906143029 0 -31.01361906143029 -22.04340355736349 0 0 0 0 1.4126511833271138 0.090513326932139648 0 0.090513326932139648 -0.81749866955883022 0 0 0 0 47.625738276366064 -38.905429146901952 0 -38.905429146901952 16.412726014284999 0 0 0 0 -2.4646594864807412 75.078118148823705 0 75.078118148823705 82.961991421578205 0 0 0 0 146.62203145276453 102.41872406153198 0 102.41872406153198 -11.484362167718245 0 0 0 0 175.58383130755283 24.628842282188089 0 24.628842282188089 18.319957153616997 0 0 0 0 -4.6532510532151719 31.068013232401427 0 31.068013232401427 97.125101062749309 0 0 0 0 157.13204239572042 95.814876825820647 0 95.814876825820647 58.890609247668181 0 0 0 0 194.87586795291594 108.692927549064 0 108.692927549064 49.697610086222994 0 0 0 0 -269.16284703594738 -13.299491102217871 0 -13.299491102217871 33.750212731890315 0 0 0 0 26.240954282803614 13.225382623752921 0 13.225382623752921 -26.84909557751962 0 0 0 0 -0.5205763227992346 0.48104882894584833 0 0.48104882894584833 -1.5783900739181078 0 0 0 0 -2.2236952695668037 63.698564224708917 0 63.698564224708917 -19.457766673367587 0 0 0 0 -134.46933798682403 124.24175160300729 0 124.24175160300729 -17.658533681380504 0 0 0 0 -5.4326662249377478 35.582898186755301 0 35.582898186755301 73.140865690646024 0 0 0 0 -77.694566764983392 -48.779205195771283 0 -48.779205195771283 -23.141708711217746 0 0 0 0 -72.274843322000379 98.572584970022945 0 98.572584970022945 -15.632935903507246 0 0 0 0 -175.38159343209463 28.926111505480549 0 28.926111505480549 125.09779287478523 0 0 0 0 -70.29351337958542 61.696987195801739 0 61.696987195801739 134.43488325575527 0 0 0 0 -80.378083027125058 19.156965600291983 0 19.156965600291983 109.13276042854341 0 0 0 0 0.50181275833529071 11.880746646222178 0 11.880746646222178 69.105104223860963 0 0 0 0 -42.730434094461998 1.9533398992098228 0 1.9533398992098228 97.917770497040692 0 0 0 0 -33.795510783656027 19.370999137081526 0 19.370999137081526 73.629876081264229 0 0 0 0 -17.291744419258066 42.611033706431044 0 42.611033706431044 71.490245067606338 0 0 0 0 -7.5099130811977375 59.404511236083636 0 59.404511236083636 75.153235738926014 0 0 0 0 83.783709361342517 81.270325373243395 0 81.270325373243395 181.21628133773447 0 0 0 0 0.7323327271569724 9.4792258300585672 0 9.4792258300585672 92.057935320597608 0 0 0 0 86.021917716469034 56.611543387999518 0 56.611543387999518 85.639338330249302 0 0 0 0 -32.551316565665957 37.076728804538561 0 37.076728804538561 117.40517076371179 0 0 0 0 67.671501729814736 76.017300828985753 0 76.017300828985753 78.742809598703388 0 0 0 0 -0.21725040415932018 -0.22568611827565999 0 -0.22568611827565999 0.44981175997445177 0 0 0 0 93.094042343033607 58.550812118051454 0 58.550812118051454 34.457255562710998 0 0 0 0 -26.527606496688804 -13.692265671191308 0 -13.692265671191308 19.908993741508311 0 0 0 0 -57.727726711268133 -4.3361818003359076 0 -4.3361818003359076 80.203973564613989 0 0 0 0 15.549237301717767 -18.731051926592954 0 -18.731051926592954 4.0350899349587053 0 0 0 0 -15.625603378602136 23.64480455537705 0 23.64480455537705 38.451369962913759 0 0 0 0 -31.894769285166603 20.802441509771597 0 20.802441509771597 39.117427302440774 0 0 0 0 -23.321078861993556 29.676545807016737 0 29.676545807016737 -3.1026401552126117 0 0 0 0 -12.366159176728615 17.232887202551865 0 17.232887202551865 -9.4666559502056771 0 0 0 0 -6.7934699692686991 18.324794607675358 0 18.324794607675358 -0.15824301763541371 0 0 0 0 1.8778132635034126 21.053340965528605 0 21.053340965528605 -1.6191144169042673 0 0 0 0 109.84253664942571 33.163930143355174 0 33.163930143355174 33.386360061186679 0 0 0 0 95.30126955985088 80.123045819681465 0 80.123045819681465 -14.671590234822361 0 0 0 0 0.018539572766294476 0.50658362279368951 0 0.50658362279368951 0.81012266568634317 0 0 0 0 18.229037550701833 47.006526078534989 0 47.006526078534989 25.72993476314241 0 0 0 0 -13.826778892621974 34.006085616528708 0 34.006085616528708 53.751026149318932 0 0 0 0 -8.291307948574854 48.786148078786709 0 48.786148078786709 57.76785652747094 0 0 0 0 119.28235448658461 83.724543747558528 0 83.724543747558528 -52.463723444587231 0 0 0 0 259.43249533661674 33.570781105273454 0 33.570781105273454 -47.521364188778534 0 0 0 0 -202.57722345939692 161.96891259798872 0 161.96891259798872 329.99995729659349 0 0 0 0 0.03236424314323294 0.04735615642197466 0 0.04735615642197466 0.55462340253900777 0 0 0 0 168.97550736586936 186.81471347935349 0 186.81471347935349 103.89563791613546 0 0 0 0 137.16351426686742 135.34621320492442 0 135.34621320492442 86.103891175196622 0 0 0 0 -8.3553010856610399 81.70730725909948 0 81.70730725909948 235.64269910451549 0 0 0 0 140.46358727438474 -22.503660059851427 0 -22.503660059851427 15.304959989856798 0 0 0 0 -1.2155370736768418 67.430827000132695 0 67.430827000132695 -11.186146183423261 0 0 0 0 140.74170921330551 -61.796663645824992 0 -61.796663645824992 279.15298550798252 0 0 0 0 202.6954789172205 240.21122103782955 0 240.21122103782955 284.85196619775888 0 0 0 0 14.369023537339672 17.881358629218084 0 17.881358629218084 25.127244655974209 0 0 0 0 -13.259508828741218 -55.42229180739514 0 -55.42229180739514 32.470039783827815 0 0 0 0 -43.037946773821204 39.780273804532044 0 39.780273804532044 -2.1013464943371218 0 0 0 0 86.508342518937752 -23.241462687857165 0 -23.241462687857165 -26.368582649916789 0 0 0 0 130.5433811855828 65.4100833456896 0 65.4100833456896 -22.690935652419284 0 0 0 0 30.954820536752663 52.938340545627852 0 52.938340545627852 35.806212123639853 0 0 0 0 109.62568482129336 42.268749575572656 0 42.268749575572656 -35.509508364302746 0 0 0 0 16.715964250664797 2.069888937935616 0 2.069888937935616 -27.788354585420166 0 0 0 0 -2.1041914198189033 20.961218686143866 0 20.961218686143866 28.622356431167645 0 0 0 0 -1.2776412750829422 27.778190618285294 0 27.778190618285294 64.951623220898909 0 0 0 0 43.518864047154239 11.379345352834207 0 11.379345352834207 20.917461796822636 0 0 0 0 66.523383538221424 81.544907284490364 0 81.544907284490364 35.822239641171109 0 0 0 0 228.60149097467456 84.090348849809743 0 84.090348849809743 -5.7335291181952925 0 0 0 0 -52.546549449845088 45.19095388545702 0 45.19095388545702 -4.6412900950854237 0 0 0 0 0.13292759750335303 0.088510151724181085 0 0.088510151724181085 0.16805637791388506 0 0 0 0 110.68850120211027 97.020548744838379 0 97.020548744838379 7.276497888717131 0 0 0 0 77.688316675102215 109.60048080705837 0 109.60048080705837 106.20699111492831 0 0 0 0 65.268396158262021 72.989186739432171 0 72.989186739432171 77.153350576512821 0 0 0 0 29.100713052444689 14.994367314517262 0 14.994367314517262 60.762898243125164 0 0 0 0 24.593696885711324 35.600310348980202 0 35.600310348980202 164.40505395349373 0 0 0 0 117.45516124475625 55.548619180162859 0 55.548619180162859 65.726277222491262 0 0 0 0 7.220297123049022 7.3638264142291519 0 7.3638264142291519 80.485262926420091 0 0 0 0 5.6104437451640479 32.272785920963543 0 32.272785920963543 50.976173745610595 0 0 0 0 0.5965131771646206 1.1042377504301761 0 1.1042377504301761 -1.2293097929002386 0 0 0 0 85.265502705899962 138.44050488929406 0 138.44050488929406 137.67210865456764 0 0 0 0 -7.6151793580456797 -0.81143689006285058 0 -0.81143689006285058 41.059744242284069 0 0 0 0 -6.9901300630608603 6.6669056394839572 0 6.6669056394839572 54.948741348740441 0 0 0 0 -10.384347874016385 -1.3526060022340971 0 -1.3526060022340971 60.639845504565528 0 0 0 0 -10.635638417035807 5.8858933277406322 0 5.8858933277406322 6.748893957132168 0 0 0 0 2.7105111648887714 26.889568861792441 0 26.889568861792441 -30.311457517871531 0 0 0 0 1.9002304579760487 1.643520193806836 0 1.643520193806836 0.86466013813544151 0 0 0 0 1.1298375494507127 -4.2857407191936545 0 -4.2857407191936545 -10.434357362669289 0 0 0 0 0.56851892963036832 0.12328116616430185 0 0.12328116616430185 0.042238536484937583 0 0 0 0 -37.956112560657402 20.990403555641478 0 20.990403555641478 -6.0177577730464691 0 0 0 0 0.59540396367834747 -0.28234741025640897 0 -0.28234741025640897 -0.74386564392085575 0 0 0 0 -37.485715849145436 39.590412171279695 0 39.590412171279695 24.516530079301447 0 0 0 0 -12.725557704838138 32.101398935514226 0 32.101398935514226 -23.974960014926182 0 0 0 0 24.521309974523319 16.295959635724103 0 16.295959635724103 6.4393917096012956 0 0 0 0 2.3152247224489226 2.2443473281728039 0 2.2443473281728039 1.1976457865128083 0 0 0 0 -13.885019813121744 33.378150963967983 0 33.378150963967983 -4.8493524593832262 0 0 0 0 -5.2358177425239774 17.246110787332327 0 17.246110787332327 -10.570538002264584 0 0 0 0 0.65992107296855096 1.0195319923439641 0 1.0195319923439641 0.94916632353209351 0 0 0 0 56.284629691895134 7.9829973936903116 0 7.9829973936903116 -48.622914306984967 0 0 0 0 5.9328841776668924 64.972826943176187 0 64.972826943176187 231.13656783684564 0 0 0 0 29.522232801002701 140.54836567868279 0 140.54836567868279 170.74891550905522 0 0 0 0 -50.757079448774675 29.876668981494731 0 29.876668981494731 177.49426177001237 0 0 0 0 27.985122618570131 140.32756577827058 0 140.32756577827058 173.92856877806923 0 0 0 0 -8.2955832138527512 5.6878724347552634 0 5.6878724347552634 62.6350756008178 0 0 0 0 90.005430662250546 141.19075111240272 0 141.19075111240272 95.865440660736567 0 0 0 0 15.668419065031685 13.944209669298289 0 13.944209669298289 24.389756042724912 0 0 0 0 17.39615742258502 -28.639064362469981 0 -28.639064362469981 135.66065470124522 0 0 0 0 -29.552864084013891 78.990062871358532 0 78.990062871358532 238.52063926397295 0 0 0 0 -27.599384369488689 76.055637224435486 0 76.055637224435486 101.39961169498247 0 0 0 0 10.980457775300238 59.695705169895518 0 59.695705169895518 70.182640188164441 0 0 0 0 -11.511386372100787 73.46994179637386 0 73.46994179637386 72.636574411682886 0 0 0 0 2.4478485090785398 27.605435107106132 0 27.605435107106132 36.750965617946349 0 0 0 0 -1.2287628393924024 28.464940110656244 0 28.464940110656244 36.555586969057913 0 0 0 0 -8.8471203500603224 16.682432653611613 0 16.682432653611613 115.87393931308998 0 0 0 0 26.123561406890531 94.776684706889682 0 94.776684706889682 25.127641263472469 0 0 0 0 10.586749317984868 112.11149648087303 0 112.11149648087303 84.303007977634479 0 0 0 0 -7.0923234800825412 53.123664707901298 0 53.123664707901298 11.000730729703719 0 0 0 0 41.397249489655223 118.89895118816912 0 118.89895118816912 17.065435669273938 0 0 0 0 -10.82266048803649 73.694774084873643 0 73.694774084873643 -4.4234698049185681 0 0 0 0 -16.013307788386101 -1.8592559815076584 0 -1.8592559815076584 -0.11678051686249091 0 0 0 0 -40.960509595971416 62.78939391579479 0 62.78939391579479 14.499244183750307 0 0 0 0 -111.8242836781028 61.536453546446864 0 61.536453546446864 16.681947581176246 0 0 0 0 -91.15129352310214 -8.1041872497626173 0 -8.1041872497626173 3.0849532242236819 0 0 0 0 130.99391171277875 145.757798358537 0 145.757798358537 60.206098780035063 0 0 0 0 0.030128226612522013 0.51859743332422248 0 0.51859743332422248 1.7734286257997383 0 0 0 0 -7.3208383319588393 29.17250886876991 0 29.17250886876991 -10.745027558487891 0 0 0 0 33.901526677196216 16.360540878409665 0 16.360540878409665 -7.1662492936338822 0 0 0 0 0.5144858086071924 2.2501873191795605 0 2.2501873191795605 3.4633300425478311 0 0 0 0 -4.832350379138461 21.004771386563334 0 21.004771386563334 -59.257988215433215 0 0 0 0 0.37165191989516977 1.0941087304340735 0 1.0941087304340735 0.83536933282451997 0 0 0 0 -47.900780411450796 37.937519881090338 0 37.937519881090338 -0.071533151965923025 0 0 0 0 -85.455556365301845 68.357110630994384 0 68.357110630994384 -24.137999119755477 0 0 0 0 -101.52177864293208 41.678228607461733 0 41.678228607461733 -6.9173362545079726 0 0 0 0 -71.83428025329431 57.640840236010263 0 57.640840236010263 0.034800440407707356 0 0 0 0 0.12500183189041891 1.0834860012679179 0 1.0834860012679179 0.15040981817590193 0 0 0 0 -54.131666119330475 22.321901202987647 0 22.321901202987647 -59.092189530113842 0 0 0 0 -20.701872233705672 97.66965645491473 0 97.66965645491473 -62.575104522305992 0 0 0 0 -16.911233857974935 53.984260303959672 0 53.984260303959672 -37.850264093001897 0 0 0 0 21.24266103504533 80.844952133807055 0 80.844952133807055 -0.047805824657189078 0 0 0 0 -16.577840299315767 50.952862299763865 0 50.952862299763865 -10.658613659034017 0 0 0 0 25.835682858806649 101.55518812103765 0 101.55518812103765 -20.556579817110105 0 0 0 0 155.62480622575913 129.64838447223246 0 129.64838447223246 65.907132865059566 0 0 0 0 95.931607568476011 126.53272096286446 0 126.53272096286446 131.17602838499988 0 0 0 0 85.23696780777982 99.066171582488096 0 99.066171582488096 72.505029196236137 0 0 0 0 93.614076073811702 82.463221163698108 0 82.463221163698108 51.905349922340974 0 0 0 0 11.898797653859219 -36.443672433381835 0 -36.443672433381835 3.0170426354238771 0 0 0 0 1.0761004597057457 1.242463878789227 0 1.242463878789227 -1.9862849008459165 0 0 0 0 19.460631267062126 34.1597840608365 0 34.1597840608365 3.5219313872930798 0 0 0 0 57.136462984837635 25.308769060467966 0 25.308769060467966 10.507822761024727 0 0 0 0 0.91329180718395975 2.1872370577178302 0 2.1872370577178302 -2.0445016444525379 0 0 0 0 20.345427439997593 -7.8705642570889722 0 -7.8705642570889722 -29.48060775074191 0 0 0 0 103.62606880745716 102.42874733397184 0 102.42874733397184 65.747065651098637 0 0 0 0 55.261143734024699 26.740014710401283 0 26.740014710401283 15.00261696855523 0 0 0 0 55.617912962092305 30.78891583798486 0 30.78891583798486 19.232148107302237 0 0 0 0 58.04261203558508 30.433631015706851 0 30.433631015706851 11.119626382683009 0 0 0 0 252.08375743189299 55.500924584244785 0 55.500924584244785 -15.974028571892632 0 0 0 0 0.10038229006309685 0.18262093601648122 0 0.18262093601648122 0.62675000961645111 0 0 0 0 153.83262480967778 136.86355488758954 0 136.86355488758954 0.10268037628520688 0 0 0 0 156.88554373608213 152.26226791344675 0 152.26226791344675 60.448617892358016 0 0 0 0 115.47752769014051 97.884493520156411 0 97.884493520156411 46.795317419666389 0 0 0 0 150.28802923049454 195.92246329905942 0 195.92246329905942 78.454844093021165 0 0 0 0 163.74835177666046 176.46410308122722 0 176.46410308122722 -0.076435140113972011 0 0 0 0 0.61748671833205293 0.95451615704434545 0 0.95451615704434545 0.50209869764513115 0 0 0 0 143.90977921510398 114.20714017674004 0 114.20714017674004 -118.20581951504755 0 0 0 0 -62.161948991380996 44.132891858382209 0 44.132891858382209 -0.061584628216223791 0 0 0 0 0.72761776653716836 0.85962919694031825 0 0.85962919694031825 0.33013045927714302 0 0 0 0 224.60651220376167 85.175906739783386 0 85.175906739783386 -173.02770559159217 0 0 0 0 -62.059309848563544 44.393981877514534 0 44.393981877514534 -0.074108705957769416 0 0 0 0 24.898226525005612 -35.746460492541246 0 -35.746460492541246 -109.34606397079733 0 0 0 0 164.78228713112003 91.78753623574994 0 91.78753623574994 5.7926222792639237 0 0 0 0 89.590966686715547 80.946797580540078 0 80.946797580540078 5.8811198629191495 0 0 0 0 -103.89086635349349 74.707802022722262 0 74.707802022722262 85.030912961921786 0 0 0 0 0.28874057106804685 185.46295077255127 0 185.46295077255127 122.84282996450838 0 0 0 0 55.591996368964828 153.20927234550709 0 153.20927234550709 110.16964620643694 0 0 0 0 55.467408147321294 156.10303895409106 0 156.10303895409106 97.201721667552192 0 0 0 0 21.011146919681778 119.26313912655132 0 119.26313912655132 105.74641454940684 0 0 0 0 65.030465952232589 138.94586873595745 0 138.94586873595745 110.45935533481361 0 0 0 0 85.100002472889173 147.27757219299747 0 147.27757219299747 96.463572564352262 0 0 0 0 57.075186839497292 137.17227954145528 0 137.17227954145528 140.97255575594681 0 0 0 0 86.749855586820559 176.03626202615396 0 176.03626202615396 125.15994304521155 0 0 0 0 151.11078379667924 192.58998002620683 0 192.58998002620683 98.580751524597872 0 0 0 0 83.464351731337956 161.65527415398174 0 161.65527415398174 143.20592185518763 0 0 0 0 61.220590739680574 135.07452474929141 0 135.07452474929141 120.90782464945914 0 0 0 0 123.55476217057731 153.30487913716388 0 153.30487913716388 59.638801778126435 0 0 0 0 127.10439804421912 130.31209174468495 0 130.31209174468495 47.018811223900229 0 0 0 0 170.76198082546489 190.9929038381847 0 190.9929038381847 35.136381331260054 0 0 0 0 198.7075516423775 189.4453128023319 0 189.4453128023319 31.818967332834291 0 0 0 0 164.76847626980452 104.46852528066847 0 104.46852528066847 -59.116316047509827 0 0 0 0 200.93198647289631 146.26120263605395 0 146.26120263605395 -20.469442880741553 0 0 0 0 312.06614814080149 185.51822606417682 0 185.51822606417682 -94.632530493341619 0 0 0 0 242.02605305591123 230.40330490373026 0 230.40330490373026 -0.31979519775450171 0 0 0 0 225.65038820252903 216.55711201541226 0 216.55711201541226 -11.762435432159691 0 0 0 0 171.42716931104405 200.74961740426807 0 200.74961740426807 0.0086038241734058829 0 0 0 0 228.51572747588125 195.24806333712604 0 195.24806333712604 -55.977172723076364 0 0 0 0 538.13950895949074 267.67709447122843 0 267.67709447122843 -89.827517302483102 0 0 0 0 0.91393165962783485 1.1219150388837837 0 1.1219150388837837 0.84924605891827554 0 0 0 0 -101.38042590436908 171.06410935581152 0 171.06410935581152 -0.11675652103306086 0 0 0 0 49.016520952920928 41.486536255878491 0 41.486536255878491 -62.89878724909795 0 0 0 0 343.36408724977809 133.2921810751468 0 133.2921810751468 -102.72203874618413 0 0 0 0 55.675562959086619 95.134135467121041 0 95.134135467121041 27.943626748909082 0 0 0 0 0.75478599355819043 1.0482174802245741 0 1.0482174802245741 0.99682612333298692 0 0 0 0 -66.218326918529328 272.78219667152052 0 272.78219667152052 146.07137860937291 0 0 0 0 141.23844413737061 250.42252504469252 0 250.42252504469252 148.18297534478722 0 0 0 0 88.199418909323867 202.20966289349121 0 202.20966289349121 233.84550567332917 0 0 0 0 181.53944241583827 227.57451242896536 0 227.57451242896536 148.4436554941185 0 0 0 0 276.0028409249262 273.71046123515134 0 273.71046123515134 18.910243187651758 0 0 0 0 221.44506003918104 178.64588578121948 0 178.64588578121948 101.68380279905432 0 0 0 0 230.08737327528206 192.67117750181046 0 192.67117750181046 96.296707113309822 0 0 0 0 182.17186001955906 185.1389132035938 0 185.1389132035938 106.55562439524601 0 0 0 0 243.94817222411393 178.14347172439147 0 178.14347172439147 94.416665711783935 0 0 0 0 223.87024353902052 206.46146655482062 0 206.46146655482062 81.205349145144282 0 0 0 0 107.33013878604925 122.91193223170148 0 122.91193223170148 203.82281023131691 0 0 0 0 323.20537325284931 186.23711430030744 0 186.23711430030744 40.239626837533933 0 0 0 0 172.01734625128302 104.60116816696654 0 104.60116816696654 34.067865667766455 0 0 0 0 194.02999804083447 135.04168039533488 0 135.04168039533488 138.40146916653612 0 0 0 0 197.28487699243078 140.20575724021273 0 140.20575724021273 14.544624371988903 0 0 0 0 411.21588189574595 30.687815837108701 0 30.687815837108701 179.63156927771797 0 0 0 0 540.4518554706583 276.85662614933244 0 276.85662614933244 117.97632411085942 0 0 0 0 191.68374602609447 310.69877019284695 0 310.69877019284695 212.36347311970167 0 0 0 0 300.84781995807316 234.29789814249307 0 234.29789814249307 81.902815793604617 0 0 0 0 266.80013967820651 191.95595300979494 0 191.95595300979494 96.752180865494665 0 0 0 0 37.622369819700907 149.13735661510236 0 149.13735661510236 215.78955900687833 0 0 0 0 91.587264831137873 232.74936599628472 0 232.74936599628472 278.17121295236666 0 0 0 0 26.553526020104982 170.50161072115225 0 170.50161072115225 180.4963881284184 0 0 0 0 48.212685979699927 153.21903382833261 0 153.21903382833261 184.74289961580689 0 0 0 0 156.18440184379187 239.59339058965588 0 239.59339058965588 135.42380900495118 0 0 0 0 -108.08143482829928 153.17787349205355 0 153.17787349205355 155.43199404458028 0 0 0 0 29.702499533310629 173.20209523799849 0 173.20209523799849 97.807239628395109 0 0 0 0 -105.45854589001829 80.726165208522616 0 80.726165208522616 35.822683760040491 0 0 0 0 -103.92234346981877 9.0079613058842369 0 9.0079613058842369 40.623470705088948 0 0 0 0 -33.422935568850335 77.05625838159267 0 77.05625838159267 37.53821211194736 0 0 0 0 -106.85741073485133 66.684006157442127 0 66.684006157442127 53.401746044964057 0 0 0 0 -17.030073141983848 153.82071669541165 0 153.82071669541165 193.53174425081488 0 0 0 0 0.28731566544259124 0.64882789188874312 0 0.64882789188874312 -0.53746162336368997 0 0 0 0 83.085981444808567 121.43666484673849 0 121.43666484673849 144.84288720311133 0 0 0 0 41.071981043751293 128.78116310265432 0 128.78116310265432 192.27707857570749 0 0 0 0 74.372421181734353 197.34518500449667 0 197.34518500449667 141.96874278468749 0 0 0 0 20.273835867184971 161.42437831856296 0 161.42437831856296 147.10811640049906 0 0 0 0 159.55630156446432 222.86437693539165 0 222.86437693539165 119.45238288366454 0 0 0 0 113.69753121185568 178.64007611250145 0 178.64007611250145 123.88240631040844 0 0 0 0 81.20192990437863 224.09605242319321 0 224.09605242319321 139.92271696142689 0 0 0 0 36.819088646774617 218.94993405519745 0 218.94993405519745 99.709119140045004 0 0 0 0 65.054429068980198 183.94253453911301 0 183.94253453911301 141.95438921895402 0 0 0 0 0.44871357788010613 0.7979043281481637 0 0.7979043281481637 0.41883437557311431 0 0 0 0 -4.2640495441046369 270.83468021960471 0 270.83468021960471 461.22933798010115 0 0 0 0 -0.15774210928157117 437.80414771119786 0 437.80414771119786 177.82333495046259 0 0 0 0 110.26510406663101 418.97453401108305 0 418.97453401108305 0.083289799577869417 0 0 0 0 161.94395238265861 355.77083829334651 0 355.77083829334651 77.343253210685361 0 0 0 0 142.57035450288004 372.42863159722083 0 372.42863159722083 175.59764331072438 0 0 0 0 139.41758807022234 410.80660354550218 0 410.80660354550218 64.284128758745055 0 0 0 0 37.352284118023817 301.45326799061081 0 301.45326799061081 -15.907135653103978 0 0 0 0 0.44077251986468724 0.75411025973941292 0 0.75411025973941292 0.26842523101060101 0 0 0 0 176.41163445100938 362.50248105054743 0 362.50248105054743 442.31999031790178 0 0 0 0 55.75228945620438 369.80047387897321 0 369.80047387897321 180.14594441404734 0 0 0 0 82.488019736043498 298.09773591919111 0 298.09773591919111 195.08849181659798 0 0 0 0 206.00093842473871 264.17186611921716 0 264.17186611921716 164.31871846558442 0 0 0 0 127.94486540602247 336.41238240583925 0 336.41238240583925 98.404037668171441 0 0 0 0 208.26235289715441 321.70446999185697 0 321.70446999185697 89.751852525309459 0 0 0 0 226.10268737747083 352.15418038429561 0 352.15418038429561 0.20746517944007792 0 0 0 0 224.98335729177188 324.97206492396208 0 324.97206492396208 25.289453976282857 0 0 0 0 163.89808790904908 366.43645409104829 0 366.43645409104829 47.495452545641456 0 0 0 0 326.43795594297808 268.10692703646419 0 268.10692703646419 50.283998700936536 0 0 0 0 274.98829076781658 317.55704701793456 0 317.55704701793456 24.580066049640664 0 0 0 0 291.26013865871573 174.72456812372911 0 174.72456812372911 -118.35607077738496 0 0 0 0 303.2028692166823 325.2254944111055 0 325.2254944111055 -0.10706646716494836 0 0 0 0 211.52843728632411 263.32020042530894 0 263.32020042530894 50.165434898306557 0 0 0 0 249.04451976997461 154.31908304021636 0 154.31908304021636 194.58061305008414 0 0 0 0 252.53432971833809 212.67872184715452 0 212.67872184715452 97.553247555762937 0 0 0 0 174.87637950899989 237.05366089865129 0 237.05366089865129 85.927075117463573 0 0 0 0 0.058146567206842192 0.4658549256980784 0 0.4658549256980784 2.6961325163089995 0 0 0 0 382.92073251775037 369.50973560718558 0 369.50973560718558 167.34348145261447 0 0 0 0 137.50377303773712 308.96336861035979 0 308.96336861035979 312.80089082581526 0 0 0 0 -102.18866051875375 -76.776489345284062 0 -76.776489345284062 49.376399036094881 0 0 0 0 -0.37496517217563152 0.92414166991405367 0 0.92414166991405367 5.9713925781831136 0 0 0 0 -76.97279952783083 174.43083188895787 0 174.43083188895787 158.67024466515431 0 0 0 0 -61.835499863014775 -34.04848621691599 0 -34.04848621691599 96.466656194586903 0 0 0 0 272.62312816183839 248.71067991243945 0 248.71067991243945 51.367107673245755 0 0 0 0 7.0790041573764029 92.968332291857223 0 92.968332291857223 51.001172725624201 0 0 0 0 19.882865271885748 161.45480490038062 0 161.45480490038062 338.87964385634314 0 0 0 0 60.815772213287346 169.36962441402648 0 169.36962441402648 278.70489522670584 0 0 0 0 -0.084839702452882193 313.67727567614065 0 313.67727567614065 259.20744591093717 0 0 0 0 32.784679066348417 330.33907019613457 0 330.33907019613457 206.23528529283249 0 0 0 0 133.34788879908092 286.22165958521691 0 286.22165958521691 190.32249999183841 0 0 0 0 282.14073997665218 338.73126850505923 0 338.73126850505923 218.20215197872704 0 0 0 0 157.32863452286983 429.66913346366982 0 429.66913346366982 214.61964397013526 0 0 0 0 209.63513580041035 260.03550816971301 0 260.03550816971301 338.93459833722227 0 0 0 0 -0.86048151145885043 1.1677044272548116 0 1.1677044272548116 0.087560790221047569 0 0 0 0 34.784311944900765 222.87416823591775 0 222.87416823591775 370.48096456360327 0 0 0 0 183.45847896236592 231.37495867104599 0 231.37495867104599 278.80763146774825 0 0 0 0 110.6942483068724 186.04108176912996 0 186.04108176912996 360.19363067330278 0 0 0 0 65.185930332948146 201.67193064472661 0 201.67193064472661 380.48922749872327 0 0 0 0 -1.9362603461535386 1.9423958254361402 0 1.9423958254361402 0.14443167072705521 0 0 0 0 177.27665884291753 281.37018953601864 0 281.37018953601864 399.13050828269661 0 0 0 0 187.63099971019074 238.68007106922687 0 238.68007106922687 363.49675358716468 0 0 0 0 203.78771216572204 293.49281052668221 0 293.49281052668221 474.75284534487764 0 0 0 0 0.30609545864899701 222.37031385513365 0 222.37031385513365 394.06057914757366 0 0 0 0 168.59578844268071 352.99618559517512 0 352.99618559517512 398.82972694565069 0 0 0 0 -0.8941352049547362 1.1080159791448949 0 1.1080159791448949 0.61624346764395455 0 0 0 0 124.89196113482103 205.96561454029188 0 205.96561454029188 383.26281710221065 0 0 0 0 0.098941121793387696 295.99251075462274 0 295.99251075462274 327.30732806179367 0 0 0 0 137.58849773501242 367.50801806291929 0 367.50801806291929 425.31508914366168 0 0 0 0 95.746494049786634 274.47353202188151 0 274.47353202188151 350.02495526937673 0 0 0 0 96.231849328321914 185.08597319268301 0 185.08597319268301 8.7379557799844179 0 0 0 0 -0.22306812976378251 295.2902139083767 0 295.2902139083767 327.29731809886471 0 0 0 0 -8.593837542059191 12.022783949437326 0 12.022783949437326 -4.0171188601980248 0 0 0 0 0.93254147829227207 3.0829306822585707 0 3.0829306822585707 6.8552298560260319 0 0 0 0 -7.8519611494575656 5.0479278760785746 0 5.0479278760785746 8.8928229294833727 0 0 0 0 -44.496993907850992 48.75773102436051 0 48.75773102436051 16.231762256206821 0 0 0 0 105.08386024932042 35.938274503235334 0 35.938274503235334 -22.103550993047065 0 0 0 0 37.44614927146813 -53.730767948427911 0 -53.730767948427911 159.26834665973729 0 0 0 0 20.919392334220902 267.90247841546443 0 267.90247841546443 390.19270457069433 0 0 0 0 0.22071606681879885 0.6219331581622356 0 0.6219331581622356 3.3135243287522016 0 0 0 0 -6.0647598741124966 -226.21220700846334 0 -226.21220700846334 567.0180945135553 0 0 0 0 -0.013528997167668422 3.9070014888252445 0 3.9070014888252445 3.3196497659173474 0 0 0 0 0.025971201231671102 414.03609299420975 0 414.03609299420975 776.41434354869853 0 0 0 0 -112.26975288693029 187.57782938886703 0 187.57782938886703 973.11951192029483 0 0 0 0 44.122496278900144 316.50328692809126 0 316.50328692809126 669.93825311447108 0 0 0 0 0.64779910471989188 442.70372116015352 0 442.70372116015352 511.55047390503569 0 0 0 0 97.979331157346678 205.67059261710165 0 205.67059261710165 626.72224313806146 0 0 0 0 44.528528261171232 295.4942556540218 0 295.4942556540218 476.51952249395254 0 0 0 0 -141.85236510261348 69.530075144331249 0 69.530075144331249 694.04784371217647 0 0 0 0 77.85773235889792 117.03911293536021 0 117.03911293536021 698.22939667691935 0 0 0 0 120.31866760644698 131.10361565084941 0 131.10361565084941 557.85351248014013 0 0 0 0 68.547259468958146 195.73031719983419 0 195.73031719983419 521.57435752073798 0 0 0 0 -44.996354708702711 67.444556775428282 0 67.444556775428282 603.48362138146422 0 0 0 0 122.9134538006474 234.13570468728881 0 234.13570468728881 459.22880990922022 0 0 0 0 110.92925509704219 227.2780053111137 0 227.2780053111137 455.97704799448184 0 0 0 0 16.610123822276364 153.75356207933874 0 153.75356207933874 460.61717148734351 0 0 0 0 19.984162216343975 113.4679258423007 0 113.4679258423007 426.19059640581509 0 0 0 0 -55.507690114085563 50.581359266548134 0 50.581359266548134 479.42281993744473 0 0 0 0 -35.540396905817033 -11.318004779403765 0 -11.318004779403765 344.5461902183888 0 0 0 0 33.540559543164818 -89.280289677652036 0 -89.280289677652036 60.342712417608709 0 0 0 0 -34.887846430654463 12.354253606017664 0 12.354253606017664 374.23930002841007 0 0 0 0 -41.541196693007805 11.299152566238263 0 11.299152566238263 376.06795682214943 0 0 0 0 70.940650799042942 65.736430557419226 0 65.736430557419226 83.477902205801001 0 0 0 0 0.48881018700206624 0.96846220643586634 0 0.96846220643586634 3.0252242365867588 0 0 0 0 14.83888252997167 -84.215187663204233 0 -84.215187663204233 384.61385604407587 0 0 0 0 -0.094876384841487749 -0.3800491525430516 0 -0.3800491525430516 -0.85672814438402156 0 0 0 0 29.816842044408986 -1.7303326451133216 0 -1.7303326451133216 6.2485903766337287 0 0 0 0 29.489600694350884 -29.633636055470561 0 -29.633636055470561 -51.428765163864227 0 0 0 0 -17.450601087328323 41.744191036876146 0 41.744191036876146 -47.049122561225886 0 0 0 0 -5.1641696989681805 -16.135255024426442 0 -16.135255024426442 -39.196614171954025 0 0 0 0 66.237518015715864 -51.242857004623716 0 -51.242857004623716 -22.71777668323557 0 0 0 0 59.746792674653989 34.927200348209226 0 34.927200348209226 -62.406905915055177 0 0 0 0 13.118009777528641 46.364400884586757 0 46.364400884586757 13.301510511510969 0 0 0 0 108.54846569408437 57.554936123401831 0 57.554936123401831 7.9051130682328221 0 0 0 0 -2.7512037469540083 2.5507487790626016 0 2.5507487790626016 -2.295202126775731 0 0 0 0 0.064948977744105463 -0.27851382371958167 0 -0.27851382371958167 0.55074643017132985 0 0 0 0 -29.995826803828095 -38.694719050487492 0 -38.694719050487492 29.046691199862835 0 0 0 0 33.065553235450807 109.16567097439747 0 109.16567097439747 332.71217716520914 0 0 0 0 28.649689147510799 71.127091764558827 0 71.127091764558827 72.351166445263516 0 0 0 0 -41.019661554577169 53.75639810690609 0 53.75639810690609 400.67977777105625 0 0 0 0 -38.109539271621543 60.108837017429323 0 60.108837017429323 372.44820196900855 0 0 0 0 6.0586065077246758 92.33207533872735 0 92.33207533872735 300.48249391435093 0 0 0 0 -87.844005709302593 106.59885079267767 0 106.59885079267767 474.14813661484368 0 0 0 0 -87.532785392266305 52.568974202329628 0 52.568974202329628 405.27485587666251 0 0 0 0 134.83517846267932 236.64351469758458 0 236.64351469758458 273.40810740088273 0 0 0 0 -283.81821846850471 -77.672822675699535 0 -77.672822675699535 328.54895382990526 0 0 0 0 -0.19579552712182924 0.57123694334908492 0 0.57123694334908492 3.3011691902901745 0 0 0 0 254.19214028726992 332.05246328938097 0 332.05246328938097 358.64364089024093 0 0 0 0 132.37543846832523 288.31900847315592 0 288.31900847315592 561.49496806809293 0 0 0 0 -0.2330548831304462 0.26748010716707427 0 0.26748010716707427 0.76538316071117407 0 0 0 0 20.649315826245584 120.81349757428711 0 120.81349757428711 565.8863623739835 0 0 0 0 146.97387580312005 133.69384520817354 0 133.69384520817354 106.39570178720169 0 0 0 0 -0.97507725993134997 1.0496015709806308 0 1.0496015709806308 -0.30120586659440818 0 0 0 0 146.98849061234978 125.44927229229143 0 125.44927229229143 87.706275037244268 0 0 0 0 -0.99930059960388462 30.72349966758884 0 30.72349966758884 193.34184163992177 0 0 0 0 98.523800341443348 83.836873067381021 0 83.836873067381021 45.680314196575637 0 0 0 0 144.265512044356 130.3229591760537 0 130.3229591760537 88.218278135944843 0 0 0 0 185.76089604761546 122.1360582553466 0 122.1360582553466 24.400421635880775 0 0 0 0 233.1682213934273 166.01900167069016 0 166.01900167069016 64.87686260159353 0 0 0 0 224.9156748695259 129.18732902808915 0 129.18732902808915 2.2997176908829715 0 0 0 0 197.18822171325883 129.83553854135698 0 129.83553854135698 24.292952557145327 0 0 0 0 177.49316401043689 103.39953711482872 0 103.39953711482872 4.4267727899969032 0 0 0 0 142.58879586806506 94.893763116451737 0 94.893763116451737 8.8274961882543721 0 0 0 0 174.0792999359619 110.49474582933726 0 110.49474582933726 10.09061155411473 0 0 0 0 197.57412914225642 125.19207043386541 0 125.19207043386541 12.931594463350848 0 0 0 0 211.52156904276035 96.338684808455127 0 96.338684808455127 -11.797951738401025 0 0 0 0 204.5049538605017 123.09120480544607 0 123.09120480544607 3.9122660460061525 0 0 0 0 205.1613285309536 120.6562443725087 0 120.6562443725087 -0.69874381617955805 0 0 0 0 190.23328894734004 111.71644185157584 0 111.71644185157584 8.3945383418431447 0 0 0 0 175.78746032610434 102.95117937049076 0 102.95117937049076 34.69686089955394 0 0 0 0 199.81784159421295 118.08482329476942 0 118.08482329476942 12.594639298855327 0 0 0 0 176.09107801377104 109.91721467012394 0 109.91721467012394 37.847884905974752 0 0 0 0 334.92775983664433 134.60063364315738 0 134.60063364315738 52.128894365914221 0 0 0 0 184.63439055120898 120.45027358905259 0 120.45027358905259 56.60032335748474 0 0 0 0 220.44470382720306 64.978837685630765 0 64.978837685630765 97.615981921249841 0 0 0 0 235.66506064422538 119.27702055359168 0 119.27702055359168 23.864688049285178 0 0 0 0 198.25963663577022 112.5822877614944 0 112.5822877614944 25.062470503495206 0 0 0 0 239.35285880743868 108.60625177853763 0 108.60625177853763 11.085817485130974 0 0 0 0 260.68895876751412 32.392081755955587 0 32.392081755955587 43.261786910903538 0 0 0 0 217.20635532104325 120.98987983265556 0 120.98987983265556 -6.5796527913898899 0 0 0 0 267.72775970215662 78.583932429355627 0 78.583932429355627 15.147349204614329 0 0 0 0 -0.32375288567622107 0.84631329769764641 0 0.84631329769764641 1.5697319493227346 0 0 0 0 102.46571188268354 87.840302371365397 0 87.840302371365397 68.883443218970456 0 0 0 0 91.405069229731453 36.906193146525766 0 36.906193146525766 -62.545088590493833 0 0 0 0 162.86844712594166 -1.9774352802351132 0 -1.9774352802351132 -2.3384911203393131 0 0 0 0 1.3816856680580258 0.68526857370319672 0 0.68526857370319672 -0.30542830556416334 0 0 0 0 0.18374473022185001 0.69331320865703105 0 0.69331320865703105 -0.51022906054461004 0 0 0 0 16.560888764865012 40.29848669419107 0 40.29848669419107 91.310655963050976 0 0 0 0 51.89959464288404 -27.891301126840517 0 -27.891301126840517 -1.2499459912178281 0 0 0 0 -57.101938299965695 23.690608017166596 0 23.690608017166596 -5.7395796215323571 0 0 0 0 26.517927653822881 -26.12808348976796 0 -26.12808348976796 2.3396348169480916 0 0 0 0 141.9240436972068 8.5817568855727586 0 8.5817568855727586 -12.630602386387181 0 0 0 0 169.02926134124209 68.539348188520307 0 68.539348188520307 1.5849151113989137 0 0 0 0 145.77123794901308 80.108564014529293 0 80.108564014529293 1.3884113407002587 0 0 0 0 69.182521586844814 78.385728010754974 0 78.385728010754974 17.540288424203027 0 0 0 0 149.60729765300675 57.565628368639409 0 57.565628368639409 -12.5762584637705 0 0 0 0 -4.4094018805007025 4.9606610083006544 0 4.9606610083006544 -3.2085109333525494 0 0 0 0 -29.419135479397482 -3.9601462721589087 0 -3.9601462721589087 28.526117863199033 0 0 0 0 14.39229628033172 -8.7791999680548543 0 -8.7791999680548543 15.05711262303339 0 0 0 0 -0.16673381735381554 14.809543414658037 0 14.809543414658037 4.9027374326651625 0 0 0 0 -0.24665310620605041 0.75760426441345885 0 0.75760426441345885 1.7179045181521673 0 0 0 0 0.19556916620936349 2.6715125939007027 0 2.6715125939007027 7.4394638056210454 0 0 0 0 -23.91438370382275 6.8075193807512733 0 6.8075193807512733 29.032549464434851 0 0 0 0 13.845809378945887 2.0149642162868986 0 2.0149642162868986 -18.644982602023447 0 0 0 0 -2.7799527904899151 0.043825402584843687 0 0.043825402584843687 1.0775661658117315 0 0 0 0 0.24347443309886074 0.13031770915192098 0 0.13031770915192098 -3.0527947933530299 0 0 0 0 -0.22701843661889143 9.3965902142481355 0 9.3965902142481355 -8.6049302072278806 0 0 0 0 -8.9503788126512518 12.412250258485074 0 12.412250258485074 5.4003060941304284 0 0 0 0 4.0427090028853883 6.1386660044738592 0 6.1386660044738592 5.0451410121078588 0 0 0 0 -2.584878728746844 16.862958062258258 0 16.862958062258258 4.7406124356198234 0 0 0 0 13.197749977443891 4.0548383543118689 0 4.0548383543118689 7.3714757627931249 0 0 0 0 0.50067606335234416 5.8444920205994606 0 5.8444920205994606 4.8351204861959722 0 0 0 0 -11.435147191506076 -2.6965541956724337 0 -2.6965541956724337 10.230981912529387 0 0 0 0 -1.9183112433929637 4.7946730862913682 0 4.7946730862913682 1.4143482058716472 0 0 0 0 1.0562095612931195 9.4869564512306255 0 9.4869564512306255 5.9794217440043695 0 0 0 0 -2.6100876587550559 4.4940054293466112 0 4.4940054293466112 4.9811678756183682 0 0 0 0 -5.0370808452898927 8.2127217811103037 0 8.2127217811103037 2.1987389613786945 0 0 0 0 -3.9416434799864604 3.7801279442320324 0 3.7801279442320324 2.0831065463585539 0 0 0 0 -7.4915337628044654 1.2495916601510544 0 1.2495916601510544 2.5664109678400564 0 0 0 0 -4.4785413933349041 2.92911110306121 0 2.92911110306121 6.6886770538369831 0 0 0 0 0.40269119226338645 5.1654703987442492 0 5.1654703987442492 -1.4429091440442647 0 0 0 0 -5.6836185084714472 1.6714794274474931 0 1.6714794274474931 2.4044111185809207 0 0 0 0 -7.7881301280976913 5.4587091638222773 0 5.4587091638222773 3.6033787008764193 0 0 0 0 -4.646649693469044 14.84911627112615 0 14.84911627112615 5.9124268820651196 0 0 0 0 6.6602354570541138 -14.48040009009128 0 -14.48040009009128 3.7340594605520891 0 0 0 0 -32.382817281164535 4.4595652575198983 0 4.4595652575198983 14.837307452452478 0 0 0 0 2.6078266163611659 8.668244550299498 0 8.668244550299498 7.6120705606722865 0 0 0 0 -72.118555072549498 0.19729399927109625 0 0.19729399927109625 31.445380865559855 0 0 0 0 2.3331975732833321 8.4767533101372621 0 8.4767533101372621 7.5268144565162878 0 0 0 0 -10.816437688794053 0.84556319777843392 0 0.84556319777843392 1.9641047908309761 0 0 0 0 -25.203777530523439 22.695548835466525 0 22.695548835466525 37.750548854341105 0 0 0 0 0.095692558166774688 0.48721015834144055 0 0.48721015834144055 23.666138471540762 0 0 0 0 -26.221686021533969 11.758860371371156 0 11.758860371371156 7.6599638204992573 0 0 0 0 1.9019716730110332 2.1270729660478551 0 2.1270729660478551 1.6205531531853374 0 0 0 0 9.9857511926247753 15.146361268077499 0 15.146361268077499 5.857100888635614 0 0 0 0 -17.030247788821725 38.473640079507277 0 38.473640079507277 6.9061875056104327 0 0 0 0 -27.164426197952707 27.22418864379506 0 27.22418864379506 0.78249987761364537 0 0 0 0 -18.21974802692057 29.435734430712728 0 29.435734430712728 14.405952620966673 0 0 0 0 -2.4828285888343089 21.133834945056151 0 21.133834945056151 12.035110330572934 0 0 0 0 -9.9368799003423192 30.67839415223898 0 30.67839415223898 14.278670564173808 0 0 0 0 -14.425712311258394 22.894994613514427 0 22.894994613514427 11.97958097674109 0 0 0 0 2.0236693218976143 3.7279619513419675 0 3.7279619513419675 39.702958318835954 0 0 0 0 -8.1897377793611668 28.898030616703181 0 28.898030616703181 -1.1496849409477363 0 0 0 0 -23.421207291477003 -1.763365989978638 0 -1.763365989978638 94.624374530123532 0 0 0 0 -20.811877418685981 32.534218826241158 0 32.534218826241158 63.741331508527765 0 0 0 0 -9.7096164015086117 -0.25925116376407331 0 -0.25925116376407331 0.097023285674750603 0 0 0 0 -0.55201306874732836 8.3830713311454019 0 8.3830713311454019 106.05288075054665 0 0 0 0 -0.11882192516951307 2.498440776596798 0 2.498440776596798 -0.44884537798807567 0 0 0 0 0.018027371268544812 31.658959014151151 0 31.658959014151151 25.500879164019352 0 0 0 0 -9.3238079615985043 32.668560582859755 0 32.668560582859755 48.293162604024474 0 0 0 0 -2.9016768458859588 14.930821682286478 0 14.930821682286478 -5.1412266709630785 0 0 0 0 -4.3134668858892837 34.338839125578431 0 34.338839125578431 -22.391922819111642 0 0 0 0 -10.573995776670927 31.270792897948922 0 31.270792897948922 -18.15273654966677 0 0 0 0 -35.784197593675344 40.855283675587998 0 40.855283675587998 -13.364165926720943 0 0 0 0 1.0476055051881055 1.0884860607560256 0 1.0884860607560256 -1.165185860090304 0 0 0 0 -9.9184655166372977 33.976613219390401 0 33.976613219390401 -5.5870719062404532 0 0 0 0 -1.1115079757728381 23.516506510351064 0 23.516506510351064 -16.242824398585981 0 0 0 0 18.235339472899796 8.9935537707146977 0 8.9935537707146977 -8.6479790341272746 0 0 0 0 3.132553757806825 4.9674163857827631 0 4.9674163857827631 5.3482921635249241 0 0 0 0 14.888967640062219 31.937666629567502 0 31.937666629567502 -39.293624235988318 0 0 0 0 18.697388251326629 -10.436257690629645 0 -10.436257690629645 0.32637133587013523 0 0 0 0 32.701374824710001 12.701825497821801 0 12.701825497821801 -31.273849323619288 0 0 0 0 -0.019138543003474329 20.459838834331737 0 20.459838834331737 -21.409528326472355 0 0 0 0 -0.55105009203566624 0.13705886032720205 0 0.13705886032720205 1.5358141405509684 0 0 0 0 -13.938332358797197 25.20742597809658 0 25.20742597809658 -25.852583028312438 0 0 0 0 -13.366934381345345 11.541006022656802 0 11.541006022656802 -0.49745535531110363 0 0 0 0 -20.701155095817739 19.640744328846267 0 19.640744328846267 -21.209431967527053 0 0 0 0 -141.71499236972613 76.554714223668725 0 76.554714223668725 -40.122911021182517 0 0 0 0 -1.009478225351689 3.45715860384 0 3.45715860384 -3.647542352185944 0 0 0 0 -14.238417887141622 1.8612842843303952 0 1.8612842843303952 -1.0600196377126849 0 0 0 0 42.103103335394735 4.1084079491247394 0 4.1084079491247394 -22.196921634236787 0 0 0 0 19.825408753322336 15.044383464619386 0 15.044383464619386 -27.513616592010294 0 0 0 0 13.636134762697111 -12.243154090987446 0 -12.243154090987446 6.0306522336595663 0 0 0 0 -2.0919842846178653 12.478740826914873 0 12.478740826914873 5.1240317609326667 0 0 0 0 3.1234182285411336 9.4877506870659154 0 9.4877506870659154 5.1448628922983861 0 0 0 0 9.816676471699779 7.8181464030762999 0 7.8181464030762999 2.6964781085374696 0 0 0 0 -111.13555074304168 -105.56295653743109 0 -105.56295653743109 -70.989070846697359 0 0 0 0 -2.6744190033388797 1.2971022859523025 0 1.2971022859523025 0.5408981638535586 0 0 0 0 -238.18612760319047 121.52636058633834 0 121.52636058633834 -55.894015117552954 0 0 0 0 -342.64011258042865 36.906369566631838 0 36.906369566631838 35.693837378217722 0 0 0 0 -199.22475739012771 134.31686984057887 0 134.31686984057887 -44.864257035744231 0 0 0 0 -213.63353067650132 -73.444277354689802 0 -73.444277354689802 -81.015947711293393 0 0 0 0 -144.61961793949558 36.56943717257127 0 36.56943717257127 56.075119155968423 0 0 0 0 -116.4754115813048 -14.226328678294522 0 -14.226328678294522 99.463214356612298 0 0 0 0 -51.863391306346784 -5.9402729330558941 0 -5.9402729330558941 -5.9966087446846359 0 0 0 0 -239.40353855691501 2.1474790623178706 0 2.1474790623178706 46.175254503299584 0 0 0 0 -207.00409086479158 -24.319698280754892 0 -24.319698280754892 27.387135314926127 0 0 0 0 -340.3951388917194 -1.8014486332303932 0 -1.8014486332303932 41.041671140334074 0 0 0 0 -113.64004852961261 -33.476408730592993 0 -33.476408730592993 -2.0301936151963673 0 0 0 0 -204.12310103808613 -5.6752857039809896 0 -5.6752857039809896 26.479885040019326 0 0 0 0 -0.33611100969860352 0.3368419110074008 0 0.3368419110074008 -0.38253514280016532 0 0 0 0 -188.39749024794583 22.668505845361324 0 22.668505845361324 -2.0141859736177139 0 0 0 0 -419.92932488666156 -39.682033537246753 0 -39.682033537246753 36.432460466050543 0 0 0 0 110.57893231526214 141.5355038229709 0 141.5355038229709 110.04065742885905 0 0 0 0 40.198739828988209 74.087026063170015 0 74.087026063170015 47.253026118680282 0 0 0 0 -11.073324275330378 10.874184669125498 0 10.874184669125498 61.386833081935038 0 0 0 0 -0.86861880758059229 1.3100124457379998 0 1.3100124457379998 -1.8048009861854837 0 0 0 0 -12.509716736116388 -3.7568913001323381 0 -3.7568913001323381 164.71834215242416 0 0 0 0 32.494046342584625 41.013694462829335 0 41.013694462829335 36.402320801174938 0 0 0 0 56.086974435354932 141.64657170892133 0 141.64657170892133 192.78988389443475 0 0 0 0 22.712047326718675 106.54496692750217 0 106.54496692750217 157.93478745830498 0 0 0 0 189.23444128502888 394.18577339270769 0 394.18577339270769 561.95115177046318 0 0 0 0 682.59825113583611 168.29538589453296 0 168.29538589453296 6.0583536950143753 0 0 0 0 -58.371838689176002 -49.226422709307371 0 -49.226422709307371 391.93248433556801 0 0 0 0 2.4784879212648008 3.0266315112738145 0 3.0266315112738145 4.576868390593539 0 0 0 0 89.933304592210334 -16.031891290327621 0 -16.031891290327621 14.764623476432462 0 0 0 0 180.25134991579125 209.4361418495082 0 209.4361418495082 367.66469870962828 0 0 0 0 178.42921263846051 204.56275632025859 0 204.56275632025859 600.09626059319089 0 0 0 0 548.7923847889233 432.12134184904426 0 432.12134184904426 388.70447590017557 0 0 0 0 515.84087710942549 17.401690901943766 0 17.401690901943766 -44.966854292338212 0 0 0 0 254.99270038926988 150.26924862881333 0 150.26924862881333 156.59557374720862 0 0 0 0 268.26697487477941 188.65301467813333 0 188.65301467813333 223.68895894934303 0 0 0 0 206.47389426975133 189.7515803422375 0 189.7515803422375 159.02301525086239 0 0 0 0 308.8377003285259 160.83314630859513 0 160.83314630859513 60.394476409535855 0 0 0 0 296.71615932019085 153.7907602310288 0 153.7907602310288 122.31881052537574 0 0 0 0 489.15318654862858 196.33225649787801 0 196.33225649787801 120.39659965442479 0 0 0 0 462.12410103616094 94.374326524883145 0 94.374326524883145 -22.3471086495083 0 0 0 0 233.11387549016217 16.621391605849567 0 16.621391605849567 -47.181636973368768 0 0 0 0 330.71241708095658 124.52775378945444 0 124.52775378945444 -17.245643727384959 0 0 0 0 229.34577290548441 134.57825070014769 0 134.57825070014769 51.807051972707995 0 0 0 0 8.0072264272484972 23.129489727212899 0 23.129489727212899 20.995091927907197 0 0 0 0 -5.568963140140113 55.621146733380556 0 55.621146733380556 9.3676505902731151 0 0 0 0 6.7181468621413138 8.6555079948149114 0 8.6555079948149114 9.7949104891551357 0 0 0 0 2.1221415376508048 2.1724530301723952 0 2.1724530301723952 3.0276170379878877 0 0 0 0 -0.15168277303746436 42.928757625480102 0 42.928757625480102 128.96132065597158 0 0 0 0 1.7345422791331373 -0.80820309231281584 0 -0.80820309231281584 -0.38023975054369785 0 0 0 0 188.58706332735528 -111.17014781563557 0 -111.17014781563557 -14.451931468695875 0 0 0 0 -4.5695136265912879 25.1778066672573 0 25.1778066672573 30.86402137195364 0 0 0 0 101.9242742892493 -24.448037609598941 0 -24.448037609598941 2.5121835329200621 0 0 0 0 -20.781189621764497 41.03172435259512 0 41.03172435259512 1.6280277683949862 0 0 0 0 29.24276031660338 34.485252005060829 0 34.485252005060829 -52.65581757515065 0 0 0 0 10.854860433253634 11.839406512745882 0 11.839406512745882 21.482788154966556 0 0 0 0 12.61059378295613 16.978750719354139 0 16.978750719354139 -6.6650190768345965 0 0 0 0 12.112114984018262 13.54624530305864 0 13.54624530305864 7.5092630771723634 0 0 0 0 28.833670193180296 36.715452807285146 0 36.715452807285146 14.796740790436161 0 0 0 0 143.46744173547813 24.723770302526646 0 24.723770302526646 -5.0295091452735505 0 0 0 0 75.884495464983047 26.530088375930745 0 26.530088375930745 15.11920872734845 0 0 0 0 75.625364813665556 27.734491381489647 0 27.734491381489647 11.009198934039887 0 0 0 0 15.074419019478228 22.335649381479016 0 22.335649381479016 23.518402513241199 0 0 0 0 200.4496915255877 81.528954049370441 0 81.528954049370441 -17.975689142156625 0 0 0 0 226.44777205887294 97.465128299621028 0 97.465128299621028 -12.918731855412261 0 0 0 0 169.35827200678068 18.89755278454777 0 18.89755278454777 -16.395098673115172 0 0 0 0 203.05168690054052 76.630621515395433 0 76.630621515395433 -8.7938669543818833 0 0 0 0 135.74359561045094 61.111029456455981 0 61.111029456455981 9.5691261083466088 0 0 0 0 170.55567027141842 58.271740371511441 0 58.271740371511441 -17.347826386236193 0 0 0 0 193.11853521145895 99.678143382598137 0 99.678143382598137 5.5210676245260402 0 0 0 0 175.39820623664809 90.602279123807875 0 90.602279123807875 1.3395266582701879 0 0 0 0 155.20753531607443 82.86474692072261 0 82.86474692072261 12.50735278305001 0 0 0 0 141.09335430427018 84.033700721868172 0 84.033700721868172 35.32586933321727 0 0 0 0 109.49077199822568 43.213019054475808 0 43.213019054475808 7.5397037349624725 0 0 0 0 96.074578858745554 53.926699263234013 0 53.926699263234013 49.191543132908919 0 0 0 0 140.81090312495144 110.24942795404695 0 110.24942795404695 83.877098921213474 0 0 0 0 62.172970463576348 56.919992877368713 0 56.919992877368713 88.507683973963367 0 0 0 0 104.26056181087188 59.182056096197812 0 59.182056096197812 29.668391318551357 0 0 0 0 6.8909043016628857 37.330755757601537 0 37.330755757601537 18.983082627421027 0 0 0 0 73.343730726386639 51.525915506432284 0 51.525915506432284 30.440649363483317 0 0 0 0 64.223934197798371 21.291873550288074 0 21.291873550288074 4.3516128858163938 0 0 0 0 35.248924937857737 37.744138323902916 0 37.744138323902916 35.898188245702841 0 0 0 0 87.240301581108724 34.237632195699462 0 34.237632195699462 15.849267528594282 0 0 0 0 -6.3291658522748548 37.042355581167158 0 37.042355581167158 34.029443844785874 0 0 0 0 -30.488861926911341 1.4125186862552255 0 1.4125186862552255 18.318564143331997 0 0 0 0 -57.5000311470817 21.000784197494795 0 21.000784197494795 26.03930483179829 0 0 0 0 -8.8171510486495528 15.275562312440497 0 15.275562312440497 14.834238773182911 0 0 0 0 -72.026705612084697 35.179652773786984 0 35.179652773786984 30.848019718107025 0 0 0 0 -53.394722225947589 42.500112745217848 0 42.500112745217848 33.430400322188234 0 0 0 0 -80.196100114196383 34.142510355457262 0 34.142510355457262 40.421082112785371 0 0 0 0 -110.31000964789746 17.653868533176137 0 17.653868533176137 32.897157718625749 0 0 0 0 -83.66417083243806 1.5285866134836397 0 1.5285866134836397 12.340034002780158 0 0 0 0 -6.867555083540438 15.843983861043426 0 15.843983861043426 15.026854623845452 0 0 0 0 -24.565538230569473 17.751908104800805 0 17.751908104800805 28.815977130740976 0 0 0 0 -78.811112880294786 -4.5644366769229237 0 -4.5644366769229237 17.549141440302265 0 0 0 0 -91.84462868192486 -38.976818792207268 0 -38.976818792207268 6.0516712392600311 0 0 0 0 -119.83282822897218 23.798926548564395 0 23.798926548564395 29.077741094559315 0 0 0 0 -153.3529985195637 -13.834586316250352 0 -13.834586316250352 21.029740033376584 0 0 0 0 -161.79731946971151 -11.613300456943762 0 -11.613300456943762 43.852370742832136 0 0 0 0 -8.042005402844536 0.20185969367220657 0 0.20185969367220657 3.8134126974530176 0 0 0 0 -25.043115571036196 -1.5800463452924305 0 -1.5800463452924305 -39.340286969429144 0 0 0 0 -1.6039849060606386 8.1906058760772833 0 8.1906058760772833 5.8412410943868309 0 0 0 0 -159.08134258978851 -17.068465298218598 0 -17.068465298218598 50.009534745055134 0 0 0 0 -159.56598507647504 -12.255950526718152 0 -12.255950526718152 43.608103046820361 0 0 0 0 -6.2546934505917307 30.943695394751558 0 30.943695394751558 9.775270047955928 0 0 0 0 -0.94358293171171681 13.798002665033891 0 13.798002665033891 3.4549693540675435 0 0 0 0 3.3285767731011759 11.093717747959857 0 11.093717747959857 10.081555062886437 0 0 0 0 -30.493341961413535 37.492286930599221 0 37.492286930599221 12.635024154387793 0 0 0 0 -20.914887829821964 16.673538403898419 0 16.673538403898419 12.281032480270369 0 0 0 0 -13.160572958165176 144.48193421986207 0 144.48193421986207 50.795787365481374 0 0 0 0 -105.29567360767442 85.106278387042494 0 85.106278387042494 -28.042178858020634 0 0 0 0 -104.3201283756971 72.653351100194413 0 72.653351100194413 95.006499882018034 0 0 0 0 -315.3157951394569 96.178536718541181 0 96.178536718541181 50.54828876760439 0 0 0 0 -293.01719406736447 -74.987929675789928 0 -74.987929675789928 40.673031358535809 0 0 0 0 -230.38699864467799 44.738307871873985 0 44.738307871873985 68.136097344624432 0 0 0 0 -109.64318723569704 82.936552841314551 0 82.936552841314551 69.80835925252245 0 0 0 0 -112.54859404166655 64.179206078120842 0 64.179206078120842 63.413606557473031 0 0 0 0 -161.01716424822257 31.537419465463699 0 31.537419465463699 47.049587031287956 0 0 0 0 -149.33015600427279 -2.6977705598819739 0 -2.6977705598819739 41.526184200144598 0 0 0 0 -35.228838800427184 110.36863414228355 0 110.36863414228355 55.01263411792911 0 0 0 0 -109.56318468404152 85.246727734893284 0 85.246727734893284 58.086698320983487 0 0 0 0 7.4591540327852499 99.986904386819049 0 99.986904386819049 28.575196163128567 0 0 0 0 -70.134726747461173 96.485071216222423 0 96.485071216222423 55.279898349312134 0 0 0 0 -27.78940972554301 85.267945595336641 0 85.267945595336641 28.418375976485436 0 0 0 0 -25.737369085905812 83.968496469340607 0 83.968496469340607 28.376569928299432 0 0 0 0 -63.930111687809585 66.68658971980949 0 66.68658971980949 43.362934607321677 0 0 0 0 -81.105524866972019 57.614999416748788 0 57.614999416748788 40.145340023875178 0 0 0 0 -22.564529923103692 62.160416843495113 0 62.160416843495113 25.306873561235079 0 0 0 0 -40.943689016753524 59.435945831240133 0 59.435945831240133 25.78253020090051 0 0 0 0 -21.460696132658995 62.421648713569084 0 62.421648713569084 12.342776808896815 0 0 0 0 9.7900127703459248 72.4765567848508 0 72.4765567848508 14.20525709512367 0 0 0 0 13.057290966936307 59.882705502499448 0 59.882705502499448 7.4567848952437998 0 0 0 0 -39.361399287226959 43.93171042872018 0 43.93171042872018 22.196574073223019 0 0 0 0 -45.011264721063071 43.591753230117774 0 43.591753230117774 22.185649409793768 0 0 0 0 -18.589616357593627 40.985320996150449 0 40.985320996150449 6.9086005097542511 0 0 0 0 -38.84091038670249 39.531321998381827 0 39.531321998381827 6.9163981518449873 0 0 0 0 24.747489527533617 42.175627635353521 0 42.175627635353521 -5.8098983530962869 0 0 0 0 -15.930109547020948 49.08501788977901 0 49.08501788977901 6.6864132288628753 0 0 0 0 9.5709855515183335 48.140509565983393 0 48.140509565983393 2.5278665536097833 0 0 0 0 51.637426505421899 61.961197129536231 0 61.961197129536231 -15.461896859149419 0 0 0 0 21.283434582559494 41.911302192543189 0 41.911302192543189 -17.566880079655675 0 0 0 0 4.0780146471770422 57.803007870455986 0 57.803007870455986 -18.392325420001498 0 0 0 0 -0.42562655235315106 31.100934342503479 0 31.100934342503479 -21.22512848025508 0 0 0 0 -23.96959286864103 15.520053502539213 0 15.520053502539213 -72.907784496537715 0 0 0 0 37.588158899170594 111.21457521838238 0 111.21457521838238 -129.82405104435384 0 0 0 0 0.73624910082030937 0.48813582220142493 0 0.48813582220142493 0.30348536818960348 0 0 0 0 8.6498936853422492 12.243855071026701 0 12.243855071026701 273.34135451409475 0 0 0 0 36.78330982136049 101.80509912609159 0 101.80509912609159 176.34735001946683 0 0 0 0 44.916092107655459 153.84125696928822 0 153.84125696928822 16.975819974064507 0 0 0 0 -17.835586951320693 26.581466817549881 0 26.581466817549881 64.034905616014839 0 0 0 0 -1.1354392410275977 -5.0928418180610606 0 -5.0928418180610606 32.157843785076693 0 0 0 0 2.4985511830745963 4.9653459386672694 0 4.9653459386672694 55.675157438388851 0 0 0 0 2.3689078455107193 0.52114908605624599 0 0.52114908605624599 0.016140778898197539 0 0 0 0 -1.410424345469437 -30.045281393455298 0 -30.045281393455298 97.765689877433942 0 0 0 0 -49.824649365634514 57.808888742461932 0 57.808888742461932 -34.76214081434955 0 0 0 0 -25.593624151184486 39.646656013490428 0 39.646656013490428 -28.428857209592024 0 0 0 0 -18.415112030309047 12.059231634123989 0 12.059231634123989 15.13430551406509 0 0 0 0 -24.181077222036151 30.619425624288851 0 30.619425624288851 8.1686540692589915 0 0 0 0 -1.6033636148318706 4.9977891369390992 0 4.9977891369390992 4.0739105814438261 0 0 0 0 -10.548676697323572 29.341451468814739 0 29.341451468814739 4.4160422292134172 0 0 0 0 -25.207420759376873 25.891590173061559 0 25.891590173061559 5.170621188939549 0 0 0 0 -41.062888807355193 38.516089406364699 0 38.516089406364699 6.7676175209498979 0 0 0 0 -26.337847807466005 22.401864902163652 0 22.401864902163652 21.124184276135566 0 0 0 0 -56.53170569374538 23.178156517982529 0 23.178156517982529 21.427832217010291 0 0 0 0 35.258527588606739 36.105398840179987 0 36.105398840179987 11.279025592234575 0 0 0 0 -11.273377487072139 -6.2286825861228863 0 -6.2286825861228863 11.760521029456569 0 0 0 0 97.538265827573923 48.519285353362648 0 48.519285353362648 26.092841614403369 0 0 0 0 40.65751655337408 36.015603292588821 0 36.015603292588821 38.563064040175959 0 0 0 0 34.187246180530565 42.152746125171689 0 42.152746125171689 48.752892948923545 0 0 0 0 2.1639935992938248 -0.87658443184533752 0 -0.87658443184533752 -1.1678306928921884 0 0 0 0 25.150717188643284 45.014025095091256 0 45.014025095091256 82.461010053419159 0 0 0 0 -10.556642680807272 -10.418610995747713 0 -10.418610995747713 32.45580405986766 0 0 0 0 -45.968426565808841 -5.4205122337393732 0 -5.4205122337393732 29.618652113755161 0 0 0 0 -17.610123412521716 9.2443699197297065 0 9.2443699197297065 -8.1545654110550458 0 0 0 0 -8.4172606363976659 15.63996295079054 0 15.63996295079054 14.352745021158896 0 0 0 0 -2.4588063607944761 5.3064630871453904 0 5.3064630871453904 4.3331792703162044 0 0 0 0 53.287344318101077 66.02299176262045 0 66.02299176262045 69.490526819321531 0 0 0 0 93.068099014477411 39.374727881764102 0 39.374727881764102 67.920790532054525 0 0 0 0 32.814812704113137 38.544553108578839 0 38.544553108578839 33.9336069515075 0 0 0 0 38.741678915742341 16.801177262635065 0 16.801177262635065 58.546220134367104 0 0 0 0 84.487253179784602 20.801005863811042 0 20.801005863811042 33.445947143758985 0 0 0 0 94.151193387409876 20.149506471590939 0 20.149506471590939 25.488854815683226 0 0 0 0 125.02895638827249 74.057713800809324 0 74.057713800809324 47.923616615091305 0 0 0 0 165.90910081109541 11.516959589269391 0 11.516959589269391 23.998123664865602 0 0 0 0 161.67997406130598 16.026451423843355 0 16.026451423843355 -32.186805836230633 0 0 0 0 117.11462746206234 88.28545604658666 0 88.28545604658666 -3.9483511909329536 0 0 0 0 55.052962784187912 -44.616793589299959 0 -44.616793589299959 73.455725020328828 0 0 0 0 -0.46282775944609256 0.42970297168553984 0 0.42970297168553984 -0.23337115579537482 0 0 0 0 7.08522143596565 -36.365824244353462 0 -36.365824244353462 -44.478043382931219 0 0 0 0 53.160538397989512 3.5132630433781742 0 3.5132630433781742 -60.892359333955028 0 0 0 0 20.968088318388254 9.5677694726409754 0 9.5677694726409754 50.19829011566253 0 0 0 0 95.010455650797667 58.947911505505544 0 58.947911505505544 28.261044042130834 0 0 0 0 111.04777637513325 87.102792237044468 0 87.102792237044468 7.1737757384689758 0 0 0 0 104.1299874494066 28.32737543225096 0 28.32737543225096 -11.547673963728812 0 0 0 0 80.118083812658369 44.461141135585876 0 44.461141135585876 8.4382100204020389 0 0 0 0 75.803765013311931 31.107583704735134 0 31.107583704735134 4.6982040361349391 0 0 0 0 48.6432372603158 32.137534370918729 0 32.137534370918729 10.74461143903045 0 0 0 0 91.725293338201936 33.219705287928946 0 33.219705287928946 9.7483604582357657 0 0 0 0 93.655998800668385 40.084439520862816 0 40.084439520862816 6.39616132998799 0 0 0 0 -7.8232699916545583 16.50222918893504 0 16.50222918893504 12.650045924999596 0 0 0 0 10.54624428263196 29.740613720212423 0 29.740613720212423 3.0480991679419276 0 0 0 0 2.8218089896672609 22.615275188902615 0 22.615275188902615 15.060814110145657 0 0 0 0 48.703465925063938 3.5033268196430072 0 3.5033268196430072 -13.665302028560291 0 0 0 0 9.0670381221789285 20.858550642999944 0 20.858550642999944 9.8152014983188565 0 0 0 0 44.857704125002783 18.322907902993393 0 18.322907902993393 7.6124211527805983 0 0 0 0 13.52365302092403 33.039784995150058 0 33.039784995150058 16.168794967263239 0 0 0 0 24.645400666078785 20.215839149090243 0 20.215839149090243 9.4921864435814314 0 0 0 0 -16.762326571178164 22.202720954338474 0 22.202720954338474 10.86130402264871 0 0 0 0 -33.548703095214478 -0.6091921718652884 0 -0.6091921718652884 29.196366265116012 0 0 0 0 -8.7377420565482531 15.76508308927459 0 15.76508308927459 13.474777783200917 0 0 0 0 -17.060307443614875 36.205486783117976 0 36.205486783117976 36.13547611809372 0 0 0 0 -16.52849084375157 19.566901054624395 0 19.566901054624395 27.826367151520571 0 0 0 0 12.257436219701049 5.2554760873722444 0 5.2554760873722444 7.6978201016432877 0 0 0 0 15.855247257813971 43.524834878568981 0 43.524834878568981 18.438251334309825 0 0 0 0 -1.0439792384058819 43.280077334939961 0 43.280077334939961 21.089292092225151 0 0 0 0 104.18838142466666 29.351841922713675 0 29.351841922713675 11.00176894490869 0 0 0 0 111.59933153838392 43.227736074837139 0 43.227736074837139 3.9151182903610788 0 0 0 0 59.029451149105626 61.332195472672311 0 61.332195472672311 44.224625392658709 0 0 0 0 38.572132868608605 26.458153985364788 0 26.458153985364788 15.203906472075232 0 0 0 0 33.567702925568028 43.227235247595218 0 43.227235247595218 24.238315980732295 0 0 0 0 50.761379752450011 16.738293389432329 0 16.738293389432329 34.276638565423468 0 0 0 0 25.207884217314131 40.54524201129334 0 40.54524201129334 27.329655698335046 0 0 0 0 245.70506624985137 67.88020893811472 0 67.88020893811472 12.296922044718485 0 0 0 0 88.62800178564521 42.266944644184605 0 42.266944644184605 18.203386562927335 0 0 0 0 88.840960054222705 33.032373254056665 0 33.032373254056665 91.170961195039126 0 0 0 0 138.9875117021038 36.516253324623221 0 36.516253324623221 -0.35755836737735081 0 0 0 0 99.529660524541214 50.391471114090223 0 50.391471114090223 -3.1635284246794981 0 0 0 0 56.38408121991597 26.444045750949954 0 26.444045750949954 30.835789328389183 0 0 0 0 87.713692668283329 19.238794069803134 0 19.238794069803134 11.216528680218289 0 0 0 0 74.38553802862225 33.077870965770671 0 33.077870965770671 4.5935531384811839 0 0 0 0 40.642121789776866 40.194196105531773 0 40.194196105531773 24.262955820773641 0 0 0 0 37.300052155333333 16.281285605246921 0 16.281285605246921 13.325824873501915 0 0 0 0 11.748785892639717 26.232505984442469 0 26.232505984442469 19.666117625086372 0 0 0 0 21.721323035662863 13.586497389338547 0 13.586497389338547 -0.095706451862497488 0 0 0 0 -27.464851304868716 9.904797311200582 0 9.904797311200582 26.946730418758762 0 0 0 0 25.843304373993305 8.4898497357930864 0 8.4898497357930864 5.3795263089391483 0 0 0 0 25.598854506174689 37.006153119027516 0 37.006153119027516 10.591121172202293 0 0 0 0 87.791151210247335 46.926454175469189 0 46.926454175469189 -3.9088554361433125 0 0 0 0 77.104116745806095 54.484386223469528 0 54.484386223469528 9.8479572464561898 0 0 0 0 25.590740231251402 43.471541575044284 0 43.471541575044284 11.608932909159194 0 0 0 0 58.270142855831637 89.928862608637246 0 89.928862608637246 -1.397841677244287 0 0 0 0 8.8893571662129034 62.583775375198002 0 62.583775375198002 6.6557469693871099 0 0 0 0 101.11179487767686 -112.60523347657863 0 -112.60523347657863 -16.919898008134624 0 0 0 0 -34.300718802036499 14.207723774943133 0 14.207723774943133 32.403109331751693 0 0 0 0 -8.4927852123238239 15.629453849615555 0 15.629453849615555 13.960932463879232 0 0 0 0 8.6996223315281895 35.09273438954142 0 35.09273438954142 -1.8427299472714367 0 0 0 0 41.165119026529283 33.5358856808989 0 33.5358856808989 17.636179703613379 0 0 0 0 198.14722206614897 225.57656970190146 0 225.57656970190146 11.868697392363515 0 0 0 0 -8.9726604176397515 15.975776162197572 0 15.975776162197572 12.340357050410159 0 0 0 0 1.7255102878837345 1.528148709950977 0 1.528148709950977 0.76780784307708316 0 0 0 0 13.846591149908818 23.65273776354843 0 23.65273776354843 39.836120137563967 0 0 0 0 -37.797694893735752 39.886089497727426 0 39.886089497727426 1.8913573800628001 0 0 0 0 0.78217468322034911 0.63257684698541361 0 0.63257684698541361 -0.84706386962349356 0 0 0 0 109.97572214077172 -7.2804028366963394 0 -7.2804028366963394 0.10315795710812381 0 0 0 0 -10.68298614757623 53.488576421828839 0 53.488576421828839 6.6403303908664384 0 0 0 0 -1.4650471826671492 24.951845226905789 0 24.951845226905789 -20.986415851141373 0 0 0 0 -0.98323775732023933 26.849634920954031 0 26.849634920954031 -13.855324434872273 0 0 0 0 -22.827942641179106 15.488608002279761 0 15.488608002279761 -18.330777419326296 0 0 0 0 -20.737544638815052 32.014092038980834 0 32.014092038980834 -5.8916933449690987 0 0 0 0 3.7250764272939705 48.288867676737937 0 48.288867676737937 1.63743767449796 0 0 0 0 5.4075170065743805 37.207806355593675 0 37.207806355593675 -15.113104963131264 0 0 0 0 -2.2413330484705511 38.721229726621459 0 38.721229726621459 -6.6711153305441258 0 0 0 0 8.1277932932298427 56.486478397788233 0 56.486478397788233 -0.90113176836757702 0 0 0 0 1.1141204080176976 47.634730497555665 0 47.634730497555665 5.9933468570015975 0 0 0 0 10.741817752285897 34.575000360742479 0 34.575000360742479 -36.978120589310493 0 0 0 0 2.0637262626933079 42.172582020062691 0 42.172582020062691 -25.243734375544591 0 0 0 0 6.2365968041185624 51.173437961727359 0 51.173437961727359 -14.543807426198327 0 0 0 0 15.087344449020748 47.099843010862969 0 47.099843010862969 -15.072070259771863 0 0 0 0 2.2061419616420608 30.835894096479024 0 30.835894096479024 -25.616037697116553 0 0 0 0 -0.19416595888833399 23.435409732947846 0 23.435409732947846 -29.151197743558441 0 0 0 0 3.9385763993896035 29.336458933690665 0 29.336458933690665 -24.609850337361422 0 0 0 0 1.8540811262973875 21.444865454961473 0 21.444865454961473 -31.963990578536141 0 0 0 0 -0.84518231808033306 16.895302469269154 0 16.895302469269154 -37.622561536468083 0 0 0 0 -4.2914191626186948 31.24279402211414 0 31.24279402211414 -39.200349813784328 0 0 0 0 -13.83362579588902 38.964438643685071 0 38.964438643685071 -47.644328816326379 0 0 0 0 -2.7738166227013608 19.576655754287913 0 19.576655754287913 -52.282603099994958 0 0 0 0 -20.533583335308322 31.476589881247946 0 31.476589881247946 -54.330899190191076 0 0 0 0 -8.4375932588832256 27.906325870097589 0 27.906325870097589 -40.433701715357529 0 0 0 0 -15.675362749274427 48.717892440230571 0 48.717892440230571 -51.228797029439193 0 0 0 0 -7.7381234927242986 28.133805411566755 0 28.133805411566755 -39.097208206418145 0 0 0 0 25.923591922730338 45.722229904652522 0 45.722229904652522 -66.551580088063929 0 0 0 0 -10.120637189307672 29.336146367420042 0 29.336146367420042 -85.472275258511218 0 0 0 0 39.273342530083028 -0.29353439679925941 0 -0.29353439679925941 0.60263573612064647 0 0 0 0 0.15963646761068873 0.45838140755645718 0 0.45838140755645718 -0.039650772007568946 0 0 0 0 0.035058679142185412 0.49497335104037177 0 0.49497335104037177 0.38547259727402405 0 0 0 0 59.344567778653641 148.26532277625836 0 148.26532277625836 21.621930819745103 0 0 0 0 3.005412417149639 1.4863537821707205 0 1.4863537821707205 -0.15032786022197087 0 0 0 0 -1.7275667670719486 4.2522512315999847 0 4.2522512315999847 -0.094923810509044415 0 0 0 0 -8.7115452814418859 36.881758006805512 0 36.881758006805512 -53.388816995086017 0 0 0 0 54.268565227446743 17.992576304106478 0 17.992576304106478 99.159068414748617 0 0 0 0 3.2611609199066152 8.9912721521177446 0 8.9912721521177446 0.90180161203170428 0 0 0 0 -2.6132289657012748 1.1473713100785687 0 1.1473713100785687 0.96599909207089851 0 0 0 0 7.0657670806940587 43.294214267330972 0 43.294214267330972 153.43366904541108 0 0 0 0 93.702250893621567 123.18864519977342 0 123.18864519977342 155.57891035153443 0 0 0 0 123.9338671345713 87.506138815457689 0 87.506138815457689 61.759038848304044 0 0 0 0 37.540837356853444 118.75255560883761 0 118.75255560883761 228.45708702957381 0 0 0 0 59.513444262575319 37.638602451226973 0 37.638602451226973 113.91735379439342 0 0 0 0 -1.6763528530955227 99.212327937442751 0 99.212327937442751 181.88857193719559 0 0 0 0 56.937743454283918 86.155365519010957 0 86.155365519010957 172.88242676247683 0 0 0 0 4.5913363566432963 51.736555630415751 0 51.736555630415751 127.62863581532383 0 0 0 0 -5.0296904851275031 91.801408820794677 0 91.801408820794677 77.196850001200801 0 0 0 0 -0.61813837969384622 68.481079598656834 0 68.481079598656834 148.86021870375498 0 0 0 0 -15.676243437136691 33.034594159884364 0 33.034594159884364 114.34159945941428 0 0 0 0 -15.851976388530716 37.727143372965202 0 37.727143372965202 48.559226807103187 0 0 0 0 -0.16152958740258327 58.445830632638717 0 58.445830632638717 22.778632981633564 0 0 0 0 -7.9828601752992654 54.358708013674686 0 54.358708013674686 25.654935851252958 0 0 0 0 -7.7790816188262397 64.559231440633084 0 64.559231440633084 60.087347284506905 0 0 0 0 20.541134696593872 81.767948334626453 0 81.767948334626453 17.991791438561449 0 0 0 0 37.550516333565611 63.225803146784529 0 63.225803146784529 -46.322254803776559 0 0 0 0 -5.0706922665567618 66.719527852547344 0 66.719527852547344 33.722806111725731 0 0 0 0 0.03552426530586672 145.3624439791663 0 145.3624439791663 -105.83518853569967 0 0 0 0 -53.170405997372654 114.32238618834617 0 114.32238618834617 -153.1157857044609 0 0 0 0 -0.015759061856442713 110.18203731939911 0 110.18203731939911 -147.35562169483865 0 0 0 0 -57.311808987757104 111.26236336917964 0 111.26236336917964 -126.10605910667255 0 0 0 0 -80.749495897973247 94.916132016323445 0 94.916132016323445 -91.198524576225282 0 0 0 0 4.8654484808505423 4.5472872304627163 0 4.5472872304627163 0.83034331089687896 0 0 0 0 -16.521608437471059 65.495115978602712 0 65.495115978602712 -83.190395287066167 0 0 0 0 -0.11348512096083141 28.242448012887508 0 28.242448012887508 -59.651067036705314 0 0 0 0 -22.80835531665798 10.438426980928853 0 10.438426980928853 10.368430950694744 0 0 0 0 -112.42206087687282 163.6457669446844 0 163.6457669446844 -137.57530513917027 0 0 0 0 5.4019675304492623 5.2894534357113407 0 5.2894534357113407 2.3020853358732865 0 0 0 0 -56.72551063060564 25.9802836319177 0 25.9802836319177 4.14679379497084 0 0 0 0 -22.827119399038565 -21.791940290820776 0 -21.791940290820776 28.599782801909896 0 0 0 0 -10.041028802810615 -0.41501839539569119 0 -0.41501839539569119 3.558958364242244 0 0 0 0 -12.225766353685685 1.112499886049136 0 1.112499886049136 16.488847556955534 0 0 0 0 0.0017707037226362132 3.1942494942680071 0 3.1942494942680071 5.4175652775876131 0 0 0 0 55.92357332930078 80.827911489405778 0 80.827911489405778 83.085769361434359 0 0 0 0 1.7931256623514855 -5.3208303873225304 0 -5.3208303873225304 1.12604174763419 0 0 0 0 8.1631729057762641 2.0718620638870107 0 2.0718620638870107 2.9712726724310414 0 0 0 0 15.936303723321544 -20.006514374447306 0 -20.006514374447306 52.012686778228272 0 0 0 0 -8.1770339788863566 97.736550085541694 0 97.736550085541694 160.15387859159819 0 0 0 0 -1.4502672460566828 90.32819122349656 0 90.32819122349656 -10.98465186770477 0 0 0 0 4.7189477123791477 5.3139454863186018 0 5.3139454863186018 3.3949136657432 0 0 0 0 -230.41867176687811 256.16576706187618 0 256.16576706187618 -137.96145246679316 0 0 0 0 420.66563376328486 79.036309016577434 0 79.036309016577434 -92.824778332539495 0 0 0 0 416.73702467370094 115.57281325105214 0 115.57281325105214 13.165409163611002 0 0 0 0 193.24213381160189 162.16940204565708 0 162.16940204565708 40.970183637115042 0 0 0 0 210.44649929028492 75.87160421602357 0 75.87160421602357 13.67341810616881 0 0 0 0 247.8415182785111 178.36821542627331 0 178.36821542627331 155.75899809902467 0 0 0 0 255.98775488639899 133.16951849178628 0 133.16951849178628 22.286301089921835 0 0 0 0 454.24053827994067 156.42847000805602 0 156.42847000805602 8.3044061788241379 0 0 0 0 228.64923761016144 74.38969418826764 0 74.38969418826764 -18.582728043138104 0 0 0 0 1.0850129912249677 1.394457065592082 0 1.394457065592082 1.8693139966404644 0 0 0 0 87.225886139058275 47.348638297326488 0 47.348638297326488 50.80427182510175 0 0 0 0 197.46769248808778 71.895608612537217 0 71.895608612537217 49.592151100041519 0 0 0 0 285.16707164390937 141.85326337033985 0 141.85326337033985 30.799538390860562 0 0 0 0 196.01882603186823 75.785465002587443 0 75.785465002587443 85.296274135189378 0 0 0 0 411.60547753477658 170.90346782370034 0 170.90346782370034 51.032870198452656 0 0 0 0 0.75304160868488346 1.3768366132354153 0 1.3768366132354153 1.5429674486605229 0 0 0 0 270.94196430732609 49.908631937351856 0 49.908631937351856 103.64469932299471 0 0 0 0 267.75139137000997 180.3412898256995 0 180.3412898256995 147.27236840607475 0 0 0 0 87.218836839292635 170.01336992305096 0 170.01336992305096 177.12150872939947 0 0 0 0 72.072081479938788 54.031722517821436 0 54.031722517821436 75.445694273135814 0 0 0 0 29.696378267968612 1.9539328277926415 0 1.9539328277926415 -24.210739233593813 0 0 0 0 -49.308798290137929 39.966166598411291 0 39.966166598411291 99.897755152738682 0 0 0 0 0.59223505380529318 2.7623868139174839 0 2.7623868139174839 4.2319199921899582 0 0 0 0 -5.7510951248550555 17.157294050115524 0 17.157294050115524 -10.270056585794464 0 0 0 0 66.982493094994425 83.316473852013132 0 83.316473852013132 60.692013954278082 0 0 0 0 13.28836291798757 5.866175275822286 0 5.866175275822286 -24.764097074099482 0 0 0 0 147.970659027289 46.831087289845073 0 46.831087289845073 -1.0711303438715731 0 0 0 0 96.072808669950973 47.081146308538678 0 47.081146308538678 -8.5453933219687315 0 0 0 0 72.095704546089109 77.19606998663312 0 77.19606998663312 88.830529089551419 0 0 0 0 -0.25298805553011405 1.6635325272143895 0 1.6635325272143895 -0.53339201268908809 0 0 0 0 106.59135157568926 30.274691317195902 0 30.274691317195902 6.8363828370843294 0 0 0 0 14.245427759837185 -0.36056917409678135 0 -0.36056917409678135 -9.1102644302595763 0 0 0 0 -1.1538368772705354 1.1925046165990629 0 1.1925046165990629 1.7021506857704694 0 0 0 0 -0.22830123233552513 1.4470958883697449 0 1.4470958883697449 -9.0119746350774221 0 0 0 0 0.2231792725246784 1.5556908435135881 0 1.5556908435135881 1.5675897818446849 0 0 0 0 48.229663406927102 121.30157092148011 0 121.30157092148011 63.550109698860979 0 0 0 0 -33.470065392579272 -33.377783692316825 0 -33.377783692316825 38.105477479739648 0 0 0 0 -1.298406857499522 0.34118998271037171 0 0.34118998271037171 1.0880676668387466 0 0 0 0 -0.86816997959112996 -9.9416356448645047 0 -9.9416356448645047 10.589682599545995 0 0 0 0 25.523110348944101 29.76319986272938 0 29.76319986272938 17.2219338208306 0 0 0 0 -4.2211295773813617 41.636906354136954 0 41.636906354136954 72.052709492947542 0 0 0 0 0.36820146769817441 0.70258500289095238 0 0.70258500289095238 0.46966741797790945 0 0 0 0 -19.745848273490992 8.4399852370011104 0 8.4399852370011104 41.941664509067778 0 0 0 0 65.568176243961716 59.047442685442547 0 59.047442685442547 11.899041626887993 0 0 0 0 114.90828250549384 93.731055316824495 0 93.731055316824495 24.743540231477482 0 0 0 0 92.336721200057582 55.146264701989594 0 55.146264701989594 -6.1891806492762953 0 0 0 0 58.811566558964842 35.154382625621565 0 35.154382625621565 6.7960411868346 0 0 0 0 19.768429278112308 7.7512878941820418 0 7.7512878941820418 1.8530262950662291 0 0 0 0 69.844797097477567 35.362173130374742 0 35.362173130374742 -14.102335132378357 0 0 0 0 -1.8033248027640241 1.3441442716288776 0 1.3441442716288776 -0.47883860502234299 0 0 0 0 19.239896428182533 -33.223365943905307 0 -33.223365943905307 -9.7369386478294473 0 0 0 0 -29.681686584566705 25.279421556515445 0 25.279421556515445 2.7440414598061125 0 0 0 0 8.9505188994007767 39.917747327501729 0 39.917747327501729 -11.224787340630428 0 0 0 0 106.90975687843365 75.900598849803941 0 75.900598849803941 -14.668457179891448 0 0 0 0 14.20256387597874 -57.714681827583036 0 -57.714681827583036 -21.322406837351082 0 0 0 0 147.46008826246361 -17.497450446300263 0 -17.497450446300263 158.15348726504453 0 0 0 0 148.54202285379142 61.873250895294404 0 61.873250895294404 -38.506487351200349 0 0 0 0 39.97011447157638 107.17146741110651 0 107.17146741110651 285.46531539063108 0 0 0 0 56.7412184769546 135.93571680416562 0 135.93571680416562 138.95929699120916 0 0 0 0 -13.044784310443902 -55.100451701838892 0 -55.100451701838892 19.240198674833664 0 0 0 0 453.72155386121813 305.29131380651302 0 305.29131380651302 102.66434245317259 0 0 0 0 2.1594308444381198 2.514765214121601 0 2.514765214121601 1.7706769221129814 0 0 0 0 588.5894567576288 134.84894793699232 0 134.84894793699232 -80.352543062008749 0 0 0 0 -395.76107161583241 339.83904603088126 0 339.83904603088126 211.63181316303098 0 0 0 0 -61.20927971729725 68.40549112319286 0 68.40549112319286 -165.69578541239792 0 0 0 0 -162.09343105528569 270.42679511271695 0 270.42679511271695 446.04220728761811 0 0 0 0 299.6481805035437 272.38740193599142 0 272.38740193599142 166.09736973113741 0 0 0 0 63.781281288020182 348.87069523183868 0 348.87069523183868 205.90404758582008 0 0 0 0 -116.1057103105868 88.313009243452598 0 88.313009243452598 89.360491428352816 0 0 0 0 -30.174550838366486 24.849580193124439 0 24.849580193124439 0.94434440766417538 0 0 0 0 12.489240881732258 14.312143136236955 0 14.312143136236955 1.3878727216893481 0 0 0 0 -4.0906288270125515 49.963803616379664 0 49.963803616379664 -16.687264654261071 0 0 0 0 -25.320485551754246 19.683889736846595 0 19.683889736846595 5.6862404479961697 0 0 0 0 -57.887079876574717 -11.408529609845118 0 -11.408529609845118 10.317353063645896 0 0 0 0 -180.18690272826097 -56.739460266855644 0 -56.739460266855644 11.622344635768968 0 0 0 0 288.59679026528647 489.30139864109606 0 489.30139864109606 406.39795081312388 0 0 0 0 -0.41305265103108724 0.069429855964514786 0 0.069429855964514786 1.6862862135765315 0 0 0 0 131.74425725112224 166.72658897744009 0 166.72658897744009 270.32225424797434 0 0 0 0 -15.631894648709931 198.27602420301832 0 198.27602420301832 319.34709769783058 0 0 0 0 31.960709095068523 185.76188008004942 0 185.76188008004942 284.77258008561125 0 0 0 0 -0.94373051358278204 -0.72436535939129243 0 -0.72436535939129243 4.2794357422989933 0 0 0 0 24.577312800898653 168.88911955404319 0 168.88911955404319 274.41175267407652 0 0 0 0 -15.88553967635562 115.71536173296795 0 115.71536173296795 227.71089393396687 0 0 0 0 -0.040262070224343915 173.7698075399926 0 173.7698075399926 282.80279460441625 0 0 0 0 -0.067755613452391117 165.56886803868338 0 165.56886803868338 165.31459002208885 0 0 0 0 44.795537329531726 94.550250661250629 0 94.550250661250629 141.04432164725858 0 0 0 0 -58.735563227519378 180.80687130540082 0 180.80687130540082 99.739634179074528 0 0 0 0 -30.764962957279749 50.390556984929503 0 50.390556984929503 9.184421927366202 0 0 0 0 1.6392780909918656 8.3294165926461119 0 8.3294165926461119 6.3847398989378235 0 0 0 0 -2.0708509562127801 15.867636281078717 0 15.867636281078717 6.2398039333102133 0 0 0 0 -15.219718502691649 18.098510885351516 0 18.098510885351516 11.221402427489011 0 0 0 0 5.451176097501957 11.246452948218575 0 11.246452948218575 -8.4528392365120908 0 0 0 0 0.039250155110494234 19.362040202358457 0 19.362040202358457 -1.0461058871535442 0 0 0 0 7.4523707335465588 5.1261672673599605 0 5.1261672673599605 2.3239472394307086 0 0 0 0 0.014490098426904297 4.1624136175369131 0 4.1624136175369131 3.3507900040958702 0 0 0 0 0.38724937834638595 0.91475243793816219 0 0.91475243793816219 1.0715291380365413 0 0 0 0 3.4514416169713087 5.0951607840171267 0 5.0951607840171267 2.4847945797685527 0 0 0 0 -1.117902110068826 3.6250819829547254 0 3.6250819829547254 2.1364916987549805 0 0 0 0 -0.89498446233235995 2.3726854925793077 0 2.3726854925793077 3.5883761466994013 0 0 0 0 -9.8109500946841877 5.6461708993954574 0 5.6461708993954574 6.8930734256360431 0 0 0 0 0.13304650940442997 0.56555242240709624 0 0.56555242240709624 1.8326697106888639 0 0 0 0 -2.3260106561210705 0.7590966062566622 0 0.7590966062566622 6.437314291216353 0 0 0 0 -0.0060683437004627194 3.5045011785983888 0 3.5045011785983888 4.2849098810193027 0 0 0 0 6.0820506126829059 -42.543410404196038 0 -42.543410404196038 186.19941168004925 0 0 0 0 -0.19574888843580496 0.41755218258616367 0 0.41755218258616367 1.080886354175977 0 0 0 0 -20.355449560000125 0.0035661120391523582 0 0.0035661120391523582 29.713906565369143 0 0 0 0 -5.7129551206317046 -5.6777654290808641 0 -5.6777654290808641 9.7398009932940113 0 0 0 0 -1.3136265880361613 -1.0618940973836182 0 -1.0618940973836182 7.1925045416156372 0 0 0 0 -16.86917339568754 23.71726279048994 0 23.71726279048994 12.725422618007542 0 0 0 0 -12.15303387551937 5.4936661043364126 0 5.4936661043364126 1.0741767739748145 0 0 0 0 -10.529282487417731 23.488877333476466 0 23.488877333476466 10.762405901686179 0 0 0 0 6.6199926659943671 8.5126154811745955 0 8.5126154811745955 1.9256505682126317 0 0 0 0 -3.3331854560983629 18.438991499653639 0 18.438991499653639 10.009805749941961 0 0 0 0 -20.939039502733067 24.231556124246254 0 24.231556124246254 53.375886916106992 0 0 0 0 -9.7867070664469793 22.101756735574781 0 22.101756735574781 13.072469693714311 0 0 0 0 -6.0604316506378382 8.3902443072938695 0 8.3902443072938695 37.480247048082674 0 0 0 0 -28.111960876978628 20.553873111900202 0 20.553873111900202 30.351159699292111 0 0 0 0 -5.3635495585622266 0.76418284858800689 0 0.76418284858800689 4.6002823487692694 0 0 0 0 -8.8809981250717911 3.2695041491707872 0 3.2695041491707872 -0.90322889903836501 0 0 0 0 -10.827422289858077 3.851368904379342 0 3.851368904379342 44.82204513148281 0 0 0 0 13.434551560610998 11.410712205203254 0 11.410712205203254 6.7825254207727994 0 0 0 0 -10.083741649750664 27.716477438395486 0 27.716477438395486 30.025429817549593 0 0 0 0 -12.151925551246677 23.332216598975265 0 23.332216598975265 21.060228300015297 0 0 0 0 -19.96090687692049 14.742776796403632 0 14.742776796403632 30.199026582835359 0 0 0 0 -21.353318767010933 22.272666996103453 0 22.272666996103453 36.48263297315134 0 0 0 0 -19.81967688237637 26.725221915551629 0 26.725221915551629 35.971121663051235 0 0 0 0 -15.669885710463859 24.472165204997509 0 24.472165204997509 31.420288592250472 0 0 0 0 -15.974802522694517 24.091448384921023 0 24.091448384921023 41.602093796354666 0 0 0 0 -13.683270675086533 31.338981627445719 0 31.338981627445719 38.852281517429219 0 0 0 0 -13.539711916710075 28.428213606220652 0 28.428213606220652 19.760090861983826 0 0 0 0 -9.0442573413674836 16.101428030888314 0 16.101428030888314 29.473832956058686 0 0 0 0 -12.034330890357523 25.005784846218148 0 25.005784846218148 25.667119884955355 0 0 0 0 -18.187297937714902 29.116000367882407 0 29.116000367882407 27.456775261658549 0 0 0 0 -9.2460429263264814 35.769748732859171 0 35.769748732859171 7.1366810490757757 0 0 0 0 -13.550834367972129 37.412351182679231 0 37.412351182679231 6.906464902972516 0 0 0 0 -2.2098388327480052 24.610358617995189 0 24.610358617995189 -16.885631403575189 0 0 0 0 -3.1832243180888327 18.197595599996703 0 18.197595599996703 -2.7958733498267065 0 0 0 0 -2.7735602319462487 29.113668713288007 0 29.113668713288007 -7.9902132637265595 0 0 0 0 -8.705578335597238 30.025889909128182 0 30.025889909128182 9.7448605454644621 0 0 0 0 3.9782824652520503 16.732263103911805 0 16.732263103911805 -20.376009768674066 0 0 0 0 8.1897943536289866 7.5690681807640754 0 7.5690681807640754 1.0336433730603538 0 0 0 0 -6.3033135738132842 34.526825372822486 0 34.526825372822486 -26.346313861772614 0 0 0 0 6.1333850948249165 25.918877454914991 0 25.918877454914991 -42.643471544376098 0 0 0 0 -9.7913375355692551 22.884934257844179 0 22.884934257844179 -24.816412511337091 0 0 0 0 5.1360777252041956 -0.12238503625029828 0 -0.12238503625029828 -0.16697852728208062 0 0 0 0 -52.501784146055797 16.67751641472853 0 16.67751641472853 -46.377451893194575 0 0 0 0 38.73409468614409 41.424475445479914 0 41.424475445479914 -147.51776223636716 0 0 0 0 110.51208866384331 50.542031698593291 0 50.542031698593291 -44.234690874279295 0 0 0 0 -19.064526349100561 31.605356775476139 0 31.605356775476139 87.697710723668933 0 0 0 0 -2.8267050943777576 34.584214791499335 0 34.584214791499335 -27.96536949678466 0 0 0 0 -17.991207138367827 58.213994579880591 0 58.213994579880591 11.329080793430421 0 0 0 0 -22.87177986689494 34.162348844696567 0 34.162348844696567 49.131963290620661 0 0 0 0 -16.997652975433994 18.735467460110613 0 18.735467460110613 50.146898169260567 0 0 0 0 7.5881737229137798 21.271466730219345 0 21.271466730219345 40.823612522880239 0 0 0 0 -23.870430352197218 27.958109096575754 0 27.958109096575754 38.811167766457402 0 0 0 0 -22.906322182367148 21.830884894852716 0 21.830884894852716 44.568156814115355 0 0 0 0 -21.026146595126193 13.692105273170455 0 13.692105273170455 42.839832985018802 0 0 0 0 -18.112586321931303 4.8745698181405714 0 4.8745698181405714 25.354529536320115 0 0 0 0 -12.974189796903374 -22.253324381070797 0 -22.253324381070797 36.189864151207075 0 0 0 0 -3.1371081693907676 3.4657539674979922 0 3.4657539674979922 -3.1340669405588599 0 0 0 0 -10.829167166673869 7.286484135941464 0 7.286484135941464 10.352588351652685 0 0 0 0 -20.528810334793434 9.2527146239079912 0 9.2527146239079912 52.739279762068691 0 0 0 0 -4.1896060208673589 22.208692526384766 0 22.208692526384766 62.874235551677657 0 0 0 0 35.512687961843767 -30.95189753781824 0 -30.95189753781824 50.405448231048013 0 0 0 0 8.6085290297669417 30.70330890085188 0 30.70330890085188 51.885794625344715 0 0 0 0 46.274256821478048 2.9218141351079794 0 2.9218141351079794 42.380077853243165 0 0 0 0 46.230235076559893 12.599726207931951 0 12.599726207931951 203.6071960242416 0 0 0 0 163.12618316081989 -21.184493312412087 0 -21.184493312412087 22.09464788219384 0 0 0 0 170.46050531367399 88.917499090828571 0 88.917499090828571 8.1917165783133896 0 0 0 0 3.0018876820455347 -0.9903899207729121 0 -0.9903899207729121 -0.45695875775985328 0 0 0 0 39.341220748819978 87.040841638843631 0 87.040841638843631 136.60891993638825 0 0 0 0 214.60082981625965 -53.825737429486594 0 -53.825737429486594 -95.129550113183541 0 0 0 0 119.37727844623259 -77.65932612157485 0 -77.65932612157485 2.3062364315128434 0 0 0 0 162.65196344301512 109.17892365274884 0 109.17892365274884 20.33157699151252 0 0 0 0 152.57745019606409 -68.803655903597189 0 -68.803655903597189 -213.12190164836511 0 0 0 0 2.1698136195564572 -0.28715512834975065 0 -0.28715512834975065 -0.00089338677168226965 0 0 0 0 181.81635895014188 8.4977346628547821 0 8.4977346628547821 -110.69754536824831 0 0 0 0 109.19366277693371 -79.993331488729268 0 -79.993331488729268 107.71347231442587 0 0 0 0 159.898975821759 113.88007417109441 0 113.88007417109441 22.921556368702113 0 0 0 0 243.38293590531066 75.632187975687543 0 75.632187975687543 -0.28971903310502967 0 0 0 0 109.23722216879105 73.155540538484956 0 73.155540538484956 28.693425068534566 0 0 0 0 47.763173590004953 70.547738749486484 0 70.547738749486484 66.572510458868237 0 0 0 0 118.99495705015943 157.57126962561426 0 157.57126962561426 156.43725533024505 0 0 0 0 99.128634476686784 103.47639229840308 0 103.47639229840308 51.144200302004265 0 0 0 0 83.092327854021278 95.770501664523522 0 95.770501664523522 49.52895095773647 0 0 0 0 119.3738451826639 90.600130126935824 0 90.600130126935824 27.355050677297413 0 0 0 0 89.627634381340613 66.203335163798812 0 66.203335163798812 21.241760767724529 0 0 0 0 48.290233406089101 35.753387197179507 0 35.753387197179507 12.706883191692896 0 0 0 0 7.697158735884841 9.2162553900791409 0 9.2162553900791409 -26.928604095001958 0 0 0 0 40.735809908474039 25.277386168226485 0 25.277386168226485 -21.177478854801507 0 0 0 0 -0.36015786431897823 0.014359596882556502 0 0.014359596882556502 0.27059387252466827 0 0 0 0 -7.5903355121081404 44.913641413839677 0 44.913641413839677 9.9234020827059908 0 0 0 0 8.7709445826776573 28.573473827250965 0 28.573473827250965 4.2438375061889246 0 0 0 0 58.565237263941526 59.88697462956587 0 59.88697462956587 9.8114749565696542 0 0 0 0 70.8015823095011 41.343299310281267 0 41.343299310281267 -3.5028453903036194 0 0 0 0 95.192474496001523 82.755247010391344 0 82.755247010391344 55.677251442282454 0 0 0 0 109.44693915458447 36.59705525276155 0 36.59705525276155 3.0584909849974906 0 0 0 0 143.35933240022496 76.575650145723927 0 76.575650145723927 -1.9382617693907918 0 0 0 0 110.6988788961462 118.8439546172778 0 118.8439546172778 74.271596558622207 0 0 0 0 79.045564147029836 68.764139205197495 0 68.764139205197495 4.7445359666265858 0 0 0 0 120.42451564871953 59.826811942836287 0 59.826811942836287 -8.8766670031899508 0 0 0 0 95.573152077115083 65.207319338539406 0 65.207319338539406 23.785956437307675 0 0 0 0 121.70494684177811 64.617951496571351 0 64.617951496571351 4.0303026927177257 0 0 0 0 102.4613437726407 17.403162494794451 0 17.403162494794451 1.7571053789002917 0 0 0 0 63.423601956418679 1.189480411757863 0 1.189480411757863 -3.9954293569656443 0 0 0 0 1.6538696097270531 0.021145587251091946 0 0.021145587251091946 -0.3722009477981793 0 0 0 0 42.847041863373306 51.276508356863872 0 51.276508356863872 20.115656398957952 0 0 0 0 5.8233979626675136 7.000281345699122 0 7.000281345699122 -18.621750473762972 0 0 0 0 10.241044446785963 17.412676874425586 0 17.412676874425586 1.7588113915830945 0 0 0 0 127.83538930331633 51.202966865334503 0 51.202966865334503 9.3379438931713139 0 0 0 0 31.782744422202086 -20.747279523106499 0 -20.747279523106499 -23.416756798324542 0 0 0 0 0.47821168621327104 -0.45035827160568864 0 -0.45035827160568864 0.21478054291757376 0 0 0 0 41.52886412385385 3.9133639541808591 0 3.9133639541808591 8.7543205169870362 0 0 0 0 30.172307541419286 12.835336592290105 0 12.835336592290105 2.5653666782866367 0 0 0 0 -0.20200205772198387 -1.1585228679020929 0 -1.1585228679020929 20.117927602257964 0 0 0 0 6.5255118598964614 1.402375114762485 0 1.402375114762485 -0.24620299662026135 0 0 0 0 -0.46932858004061018 1.1894089259776095 0 1.1894089259776095 -0.49880374164206387 0 0 0 0 -0.2680802315735491 1.8952293901654116 0 1.8952293901654116 -2.1780254219802657 0 0 0 0 4.861243240681798 3.1420563477324741 0 3.1420563477324741 -1.6688904240123237 0 0 0 0 -14.586588449155897 9.5699359266172621 0 9.5699359266172621 -2.4009518230911908 0 0 0 0 -12.231228603411182 4.616872878994684 0 4.616872878994684 -2.1397936717653465 0 0 0 0 -4.880206427846133 4.6109148480193198 0 4.6109148480193198 -1.9745555029255115 0 0 0 0 -9.031281412106182 8.7200165770617559 0 8.7200165770617559 -4.3391737283228622 0 0 0 0 -0.62948940319620306 8.8353942832789301 0 8.8353942832789301 0.4979169039586786 0 0 0 0 3.0778373435704722 2.8038492665885641 0 2.8038492665885641 -2.3915603345442102 0 0 0 0 -4.2566843874137703 4.9907985066151168 0 4.9907985066151168 -1.34031641680604 0 0 0 0 -3.3638809818640141 2.9598119498546911 0 2.9598119498546911 -0.56360023823528971 0 0 0 0 -5.9394326726114741 6.137148603776609 0 6.137148603776609 -2.259723196666755 0 0 0 0 0.38844810194381196 0.74473450615534986 0 0.74473450615534986 -0.25819066812265307 0 0 0 0 -3.496835471052691 2.6637141282862444 0 2.6637141282862444 5.5476337523013513 0 0 0 0 1.1459681281713685 2.1070823481717014 0 2.1070823481717014 -0.87885160544160468 0 0 0 0 -17.001111216170102 35.012557590827171 0 35.012557590827171 -62.059430747452311 0 0 0 0 0.03792424378854875 1.3868904364302921 0 1.3868904364302921 0.29427649185952154 0 0 0 0 3.323607223423096 9.3080478529912511 0 9.3080478529912511 1.3007683747443934 0 0 0 0 4.8464527211772293 7.4040323078015717 0 7.4040323078015717 3.5405196973622992 0 0 0 0 -1.0478106596008629 0.69633222447071041 0 0.69633222447071041 -0.18681581906419523 0 0 0 0 -17.099749052300467 36.719339560771928 0 36.719339560771928 -70.287497341710832 0 0 0 0 9.3281757540116814 34.864323429620562 0 34.864323429620562 -106.52210319201698 0 0 0 0 16.238303932214421 36.253817872650245 0 36.253817872650245 -245.88384806124316 0 0 0 0 -0.0071141477328637848 98.481674036612077 0 98.481674036612077 -144.27754394591346 0 0 0 0 0.020091274282247714 18.076358357327333 0 18.076358357327333 8.0002710723124437 0 0 0 0 -0.51293682643918004 -0.062473261412171688 0 -0.062473261412171688 -0.13441859480128429 0 0 0 0 0.66376208119982039 11.45477079910097 0 11.45477079910097 23.692195333240647 0 0 0 0 -0.035656096441016416 16.19308896263351 0 16.19308896263351 -9.588366653099115 0 0 0 0 -13.441358389361994 11.324975834375209 0 11.324975834375209 4.8771068396334059 0 0 0 0 -4.093294420883467 8.046369502245625 0 8.046369502245625 3.874932092090944 0 0 0 0 3.182673472391798 22.369760078735965 0 22.369760078735965 4.5786469644281169 0 0 0 0 19.113411912479933 10.10424676275511 0 10.10424676275511 -0.90083670612705191 0 0 0 0 54.6555467514263 8.3234186878828496 0 8.3234186878828496 -8.4780702823467209 0 0 0 0 0.31436514589405107 0.35001392446523028 0 0.35001392446523028 0.13902636201252339 0 0 0 0 -5.9285243788890511 3.7400175619246738 0 3.7400175619246738 -3.8957252016875827 0 0 0 0 69.555854231468402 24.477471438402745 0 24.477471438402745 -42.662596183437699 0 0 0 0 -0.036395036316967833 1.8772130993155525 0 1.8772130993155525 0.18353241391652986 0 0 0 0 24.37332305126256 38.527357617280472 0 38.527357617280472 5.8555182681193401 0 0 0 0 -61.42260570534927 8.4065989923572033 0 8.4065989923572033 26.553615905309243 0 0 0 0 -1.6587598928454099 -22.095728710030016 0 -22.095728710030016 -53.385057241604954 0 0 0 0 -0.021405665909696836 18.347310355848776 0 18.347310355848776 25.592956556121862 0 0 0 0 -0.14920449858356477 -0.65723446203607505 0 -0.65723446203607505 0.092915790660731523 0 0 0 0 1.7882576295742183 6.6046325467634688 0 6.6046325467634688 -33.850803368916786 0 0 0 0 0.059905970265390351 6.8470742989156861 0 6.8470742989156861 1.8233794418856633 0 0 0 0 5.5696070146654328 7.1148218613393048 0 7.1148218613393048 5.1147838786734141 0 0 0 0 -0.25561148263318501 26.066407913449609 0 26.066407913449609 -9.3260061113351185 0 0 0 0 19.497068192587903 6.3662255555955198 0 6.3662255555955198 -6.524146383629045 0 0 0 0 -3.8718379840211128 12.684683143340862 0 12.684683143340862 -0.40201676917786244 0 0 0 0 10.083481272096833 8.2430002153791975 0 8.2430002153791975 -3.9406614882718713 0 0 0 0 5.0723788036430051 15.579793175589657 0 15.579793175589657 -6.6934740290489572 0 0 0 0 -0.91425794490508316 1.1473854722661123 0 1.1473854722661123 2.787690726372773 0 0 0 0 2.4211155594821321 3.4749518518165132 0 3.4749518518165132 -3.6370688468214212 0 0 0 0 2.3902861514870892 5.8692600986078105 0 5.8692600986078105 0.78237737574818311 0 0 0 0 4.5719312316723517 10.920129578590377 0 10.920129578590377 -4.6169925140711712 0 0 0 0 3.3862652127548643 7.4741201806623536 0 7.4741201806623536 4.3371688668856754 0 0 0 0 1.0416841155310976 5.0180822319707659 0 5.0180822319707659 0.50301071523836072 0 0 0 0 2.0661598752994905 2.8472981357481331 0 2.8472981357481331 2.0225929848966189 0 0 0 0 0.21806116663628927 2.9031940543800374 0 2.9031940543800374 0.38518169749568187 0 0 0 0 1.8796205794913696 1.1950758406740842 0 1.1950758406740842 -0.42834171579121616 0 0 0 0 2.7897226462047051 3.6973079715601305 0 3.6973079715601305 -0.025390169709496035 0 0 0 0 8.2719998368065717 7.2128294781969089 0 7.2128294781969089 -3.6740046268823789 0 0 0 0 4.3407174259878047 3.7217028861184183 0 3.7217028861184183 -3.2498867287201634 0 0 0 0 0.027128262149709315 0.092917743203862813 0 0.092917743203862813 0.081423545638617867 0 0 0 0 3.7114706390348147 1.5220078719376033 0 1.5220078719376033 -6.7451721118050045 0 0 0 0 3.0302892952860638 3.5773081146292434 0 3.5773081146292434 1.1162373479973819 0 0 0 0 6.0058852567526628 3.5483856645691958 0 3.5483856645691958 -5.2415234969448647 0 0 0 0 -4.7923087405288243 4.9438001212738527 0 4.9438001212738527 0.32695408006384241 0 0 0 0 9.8712085876686615 8.5093100193653299 0 8.5093100193653299 -1.8712503395181557 0 0 0 0 10.940322693902999 5.0709890217003704 0 5.0709890217003704 -3.3960971660162613 0 0 0 0 11.852162898918323 5.6971880240198516 0 5.6971880240198516 -5.1903725633892464 0 0 0 0 1.8234858518117107 2.2785336084743903 0 2.2785336084743903 -0.60122796674841084 0 0 0 0 4.8442856777619454 3.6018669269087695 0 3.6018669269087695 -2.4668567191329203 0 0 0 0 2.9245378663962711 1.73639541345662 0 1.73639541345662 -3.0947949233388687 0 0 0 0 2.0082895264012457 1.72600731332918 0 1.72600731332918 -0.27442835480580774 0 0 0 0 0.002409969285789515 0.00901012900621323 0 0.00901012900621323 -0.034886361743071248 0 0 0 0 12.854366854109685 9.9251389262426528 0 9.9251389262426528 -1.2348467472547782 0 0 0 0 18.32925855941852 8.4269320704953543 0 8.4269320704953543 -4.1328352998971241 0 0 0 0 18.436190280575829 -3.9994209502729063 0 -3.9994209502729063 -8.5440655271086143 0 0 0 0 0.33280806334235713 0.6113749877958945 0 0.6113749877958945 1.1994211602064837 0 0 0 0 26.205547783885777 -5.5960246186114091 0 -5.5960246186114091 1.3090888034830641 0 0 0 0 -9.3536397148627657 8.9003555551505542 0 8.9003555551505542 -2.6496342113568971 0 0 0 0 0.85404646034294274 11.906267054934688 0 11.906267054934688 -6.8656153134093074 0 0 0 0 0.21956288394721923 6.7116593263365303 0 6.7116593263365303 -7.106751511852508 0 0 0 0 -5.571490833270218 10.045230152847239 0 10.045230152847239 -6.502029798914009 0 0 0 0 -2.600555530407064 7.2056442916207288 0 7.2056442916207288 -6.2325054935554363 0 0 0 0 -2.8991252623118271 5.9138231303370503 0 5.9138231303370503 -2.9510249530612782 0 0 0 0 11.012875264193099 4.9447436440452748 0 4.9447436440452748 16.203415128475626 0 0 0 0 13.65304342730451 1.7661786819689951 0 1.7661786819689951 2.0792721268735477 0 0 0 0 29.806863614402573 1.0953029420452367 0 1.0953029420452367 -10.822341559573033 0 0 0 0 14.105936232776912 20.206428944199388 0 20.206428944199388 -19.72773398568188 0 0 0 0 9.2407635053223203 -8.6432840348406899 0 -8.6432840348406899 -11.667713753430803 0 0 0 0 -11.355213772110801 48.906621853823708 0 48.906621853823708 37.841378509990136 0 0 0 0 3.9114185234592931 4.2641098148464689 0 4.2641098148464689 4.6106447652677947 0 0 0 0 -12.506517468775201 27.368104829121876 0 27.368104829121876 7.950243816715556 0 0 0 0 48.878614480299802 23.583642242292171 0 23.583642242292171 -0.64297817414035308 0 0 0 0 38.682568154664068 45.411846394798999 0 45.411846394798999 -4.513686855441847 0 0 0 0 24.010011777631462 28.719988199861291 0 28.719988199861291 35.141967569518783 0 0 0 0 -8.5754084419095307 12.937755946698871 0 12.937755946698871 11.027619815719845 0 0 0 0 -3.3823300066649402 2.7562488925633613 0 2.7562488925633613 0.78527890030909919 0 0 0 0 -0.54822505796528276 5.2547869069439912 0 5.2547869069439912 13.107703431726577 0 0 0 0 -5.7342834353175931 8.0817211845728707 0 8.0817211845728707 1.74978626812117 0 0 0 0 -0.32634643546680309 1.7041672745799588 0 1.7041672745799588 -21.992845391454466 0 0 0 0 -3.0593482495879663 1.5085670908218418 0 1.5085670908218418 -0.57293783760875527 0 0 0 0 -7.9491945251766083 10.911607748515507 0 10.911607748515507 -22.197506190344029 0 0 0 0 -5.5317214049782706 20.061173920948477 0 20.061173920948477 -32.578725210702032 0 0 0 0 0.52997667603267473 17.316168632298286 0 17.316168632298286 -36.609198064277734 0 0 0 0 3.2220204794321035 11.19084905243335 0 11.19084905243335 -27.831272264929794 0 0 0 0 1.3510528573815463 19.653737241465933 0 19.653737241465933 -34.158017714173184 0 0 0 0 -4.2938574178360795 12.198277135821627 0 12.198277135821627 -10.396110165855816 0 0 0 0 0.15268263641746671 15.533691916873522 0 15.533691916873522 -26.116608351929244 0 0 0 0 1.9094470367841723 16.272108486917659 0 16.272108486917659 -25.812670919451193 0 0 0 0 -0.097122606633092801 12.291038060728624 0 12.291038060728624 -14.37091776095258 0 0 0 0 2.7917479919142352 10.478942176807323 0 10.478942176807323 -14.143631132571045 0 0 0 0 0.79945420943272438 6.0340568446277416 0 6.0340568446277416 -9.5419596502506465 0 0 0 0 0.69761244795108723 6.2566849382196779 0 6.2566849382196779 3.038044422857638 0 0 0 0 0.13412349026486936 1.6741181711967386 0 1.6741181711967386 1.1324313941822766 0 0 0 0 1.9404850716061732 2.7710045056130426 0 2.7710045056130426 0.79623971408290828 0 0 0 0 2.8218219682448762 3.4079584455389522 0 3.4079584455389522 -0.37773381929582683 0 0 0 0 2.617582096462284 3.3619914452828992 0 3.3619914452828992 1.401839585080225 0 0 0 0 -1.8120922208199772 1.9755048693969002 0 1.9755048693969002 0.85403180510911625 0 0 0 0 0.25720102539162326 5.8008241058869316 0 5.8008241058869316 -0.46850722655472055 0 0 0 0 -0.49575321384327253 5.9215092575323069 0 5.9215092575323069 -1.4142507152255348 0 0 0 0 -4.9443860622900502 14.750016943459059 0 14.750016943459059 -19.976405386069018 0 0 0 0 2.2972947871758258 2.8972912078776698 0 2.8972912078776698 0.40507438120132733 0 0 0 0 1.4397479420866599 1.6888763899221262 0 1.6888763899221262 1.3265763771035068 0 0 0 0 35.613225665490063 -15.163338988258147 0 -15.163338988258147 6.9266613607910585 0 0 0 0 -2.3485626923225027 5.4060529829957886 0 5.4060529829957886 7.9471538247144053 0 0 0 0 67.762461434776924 30.427419290112994 0 30.427419290112994 9.1838355170925752 0 0 0 0 18.158461020994764 14.292128682422117 0 14.292128682422117 4.4578583258371509 0 0 0 0 50.241372416671766 23.833243758499066 0 23.833243758499066 -3.2189724352820122 0 0 0 0 38.995762654394639 13.97321462892296 0 13.97321462892296 0.36634875456002192 0 0 0 0 38.711814501242316 25.008501875734737 0 25.008501875734737 3.6497761021373663 0 0 0 0 24.752107617432557 8.1906998166077756 0 8.1906998166077756 -0.81447610719772001 0 0 0 0 15.960444323847696 -4.2229896330500196 0 -4.2229896330500196 -0.2149747624698648 0 0 0 0 10.372889134923753 32.145864094866965 0 32.145864094866965 42.195798647451966 0 0 0 0 15.057318847744682 19.39026643875718 0 19.39026643875718 -8.7461747399293017 0 0 0 0 -5.9339522688738464 17.583461325289967 0 17.583461325289967 8.7882330712743606 0 0 0 0 -22.101566102579454 5.9711815260720869 0 5.9711815260720869 25.116998347692061 0 0 0 0 -0.95106218817636545 23.521451943328657 0 23.521451943328657 19.169224615013718 0 0 0 0 24.593239289150006 19.280000095575815 0 19.280000095575815 11.875542179293006 0 0 0 0 4.6753580273001631 4.5213624021918211 0 4.5213624021918211 1.2636989208345493 0 0 0 0 18.980702314916925 38.449370090851176 0 38.449370090851176 -22.727689817830651 0 0 0 0 0.38741186322658905 25.425570892483961 0 25.425570892483961 -9.7330892135464637 0 0 0 0 1.1798839037355719 16.657797020460293 0 16.657797020460293 10.332925594886547 0 0 0 0 -5.790668635891052 27.761673477054046 0 27.761673477054046 -4.5120187023849212 0 0 0 0 -2.2218085898347653 12.687202346107426 0 12.687202346107426 3.0908127839776345 0 0 0 0 1.1464615018303448 16.874483517960471 0 16.874483517960471 12.689226679713101 0 0 0 0 16.350112951970004 17.958814893311001 0 17.958814893311001 5.0462537690968929 0 0 0 0 -7.3443574267074911 9.2027091114924566 0 9.2027091114924566 8.5949460580822858 0 0 0 0 -31.699997757743404 -9.6757089808738783 0 -9.6757089808738783 38.993583300983119 0 0 0 0 3.4162430081996717 18.35425172358282 0 18.35425172358282 6.150035930141712 0 0 0 0 -17.321202411392733 0.75414905513798658 0 0.75414905513798658 2.92009510732737 0 0 0 0 11.924066132914049 57.888516166021816 0 57.888516166021816 32.754085181881692 0 0 0 0 8.2927369770477526 44.39398975660788 0 44.39398975660788 14.593694424472233 0 0 0 0 -12.008391014336667 24.873223262078682 0 24.873223262078682 69.526392899426355 0 0 0 0 57.961615225191053 26.009585035890041 0 26.009585035890041 -9.8335500390106318 0 0 0 0 6.2277421508373436 4.0151399257565004 0 4.0151399257565004 -7.4658800415218138 0 0 0 0 8.3530338190445903 3.0158827702573925 0 3.0158827702573925 0.43066800436511787 0 0 0 0 13.996690297014538 1.1670578106318317 0 1.1670578106318317 -7.124644192609594 0 0 0 0 -139.82834149755945 -18.995202354897629 0 -18.995202354897629 9.8896669760288205 0 0 0 0 13.209690335665073 -1.1740367078991767 0 -1.1740367078991767 -1.8929086043581265 0 0 0 0 3.5340954654748202 19.798071226633056 0 19.798071226633056 12.094877589562202 0 0 0 0 97.516369561930333 -29.834438287137573 0 -29.834438287137573 -40.368652704395572 0 0 0 0 17.113967010742272 20.654006855910666 0 20.654006855910666 7.1536601361181056 0 0 0 0 1.603872332318133 17.765877770168117 0 17.765877770168117 14.090328845405111 0 0 0 0 13.067260032496431 9.679071606079706 0 9.679071606079706 2.28867172864636 0 0 0 0 42.697786781540344 -46.145112258436711 0 -46.145112258436711 -14.582933139487977 0 0 0 0 -0.35375126955198155 0.15972031526935382 0 0.15972031526935382 -0.73837438028975377 0 0 0 0 3.5678495411575568 19.299578822050535 0 19.299578822050535 9.1306926806250885 0 0 0 0 0.76415369381795628 0.964939826776817 0 0.964939826776817 -0.05756528291033014 0 0 0 0 11.089156172769435 -2.3845302965014525 0 -2.3845302965014525 -30.422185835373057 0 0 0 0 -42.781617752778402 36.604487848995404 0 36.604487848995404 24.838642554288867 0 0 0 0 17.274083616073767 29.960376521899434 0 29.960376521899434 -27.864371946532685 0 0 0 0 -0.96369299952675647 22.310233122988166 0 22.310233122988166 32.295532634728715 0 0 0 0 9.6037433511019117 51.602161816302669 0 51.602161816302669 28.685839705473882 0 0 0 0 -35.09600417564161 -5.4588074078803857 0 -5.4588074078803857 -3.4008515533269019 0 0 0 0 0.17931657132513834 0.12388479736289248 0 0.12388479736289248 -0.51165536357579811 0 0 0 0 -42.574561417657605 18.738121258368437 0 18.738121258368437 15.426909154452233 0 0 0 0 32.000495404570756 -60.847683908260706 0 -60.847683908260706 -49.998479899181802 0 0 0 0 47.12710225513365 -61.699318261869848 0 -61.699318261869848 -16.152519287948962 0 0 0 0 83.08389893839194 16.594028762863672 0 16.594028762863672 -5.9318488184386524 0 0 0 0 146.38144470993393 10.530504060335261 0 10.530504060335261 -20.795058014824917 0 0 0 0 7.4345375794146094 -4.7375730092699087 0 -4.7375730092699087 0.48760926226373158 0 0 0 0 98.028751225765973 -83.689730869997788 0 -83.689730869997788 68.628759675007132 0 0 0 0 -35.415052412830846 37.17611196721009 0 37.17611196721009 209.72166306683948 0 0 0 0 47.11024437897504 95.970822427552321 0 95.970822427552321 74.541710468714882 0 0 0 0 -0.92128260436407317 0.19067583670302923 0 0.19067583670302923 -0.51041282462623538 0 0 0 0 15.571601896294851 38.49136454501928 0 38.49136454501928 56.673346857669685 0 0 0 0 -14.007124640487746 8.4034885529242729 0 8.4034885529242729 -15.163246652917223 0 0 0 0 -9.2737561424892192 -9.3644822484338306 0 -9.3644822484338306 30.275849596194007 0 0 0 0 105.41241753167355 2.6110972682167066 0 2.6110972682167066 -27.168170149684101 0 0 0 0 5.1909980696618732 5.4151338041040162 0 5.4151338041040162 3.9142635751281887 0 0 0 0 0.96509487814329731 8.2768451719271212 0 8.2768451719271212 7.9115941227854574 0 0 0 0 16.917917929506075 -25.823296466981901 0 -25.823296466981901 -56.434232489150418 0 0 0 0 16.539180558433145 -4.1656288106987631 0 -4.1656288106987631 -17.644462244612441 0 0 0 0 1.5693327310975 3.391784694019794 0 3.391784694019794 0.097438377512590435 0 0 0 0 -88.804744834425946 -8.2369096297843498 0 -8.2369096297843498 -4.1539921583625983 0 0 0 0 -88.053618177349563 -2.8337046932865633 0 -2.8337046932865633 -19.236501880352534 0 0 0 0 10.567335283958982 -30.122479120298067 0 -30.122479120298067 -13.608143824980289 0 0 0 0 -34.675344496223261 32.611594068966497 0 32.611594068966497 41.407026150124693 0 0 0 0 -77.119632370726322 29.126419448632532 0 29.126419448632532 83.777931704952607 0 0 0 0 -79.015388686775623 11.054651535912285 0 11.054651535912285 -50.027222684169828 0 0 0 0 -118.8119181990387 -38.219915459259255 0 -38.219915459259255 14.145908565485115 0 0 0 0 0.32895816036779202 7.4568365987038483 0 7.4568365987038483 6.65009328304743 0 0 0 0 1.8885897197105805 8.6959860349055589 0 8.6959860349055589 5.5026598106807114 0 0 0 0 4.7814219293868518 6.7800032129600822 0 6.7800032129600822 6.292642298859505 0 0 0 0 -2.6583761185390919 4.7980598319281746 0 4.7980598319281746 5.3058606541604396 0 0 0 0 68.483344883258724 -21.128322565534091 0 -21.128322565534091 -23.128517042201793 0 0 0 0 0.27444481175923841 0.99228180879947914 0 0.99228180879947914 0.75765278989786067 0 0 0 0 7.5628932946327723 7.5480028603980873 0 7.5480028603980873 3.9878680135467448 0 0 0 0 1.6109853964553622 8.4442601939367421 0 8.4442601939367421 6.4074816134925641 0 0 0 0 11.655451015290055 28.278864720726773 0 28.278864720726773 10.38939321664428 0 0 0 0 3.430456024325462 2.4484069541931781 0 2.4484069541931781 0.84207164875986473 0 0 0 0 3.4285889527309337 11.371136498510396 0 11.371136498510396 1.1300094618315484 0 0 0 0 -123.02190201663439 41.597306823689792 0 41.597306823689792 114.57963520361773 0 0 0 0 5.4533463676956764 12.994755930550797 0 12.994755930550797 12.168543876616894 0 0 0 0 -129.13690930453595 75.899226239707787 0 75.899226239707787 72.377852976001577 0 0 0 0 7.4457245556738023 13.457832992395655 0 13.457832992395655 12.751389734280725 0 0 0 0 -11.761112852328552 31.959418352768228 0 31.959418352768228 16.406134051398112 0 0 0 0 -0.21596681485027602 0.21909697405722639 0 0.21909697405722639 0.035092692203619075 0 0 0 0 -37.318654886104923 12.184363467751794 0 12.184363467751794 2.3469182532018706 0 0 0 0 63.289137601454058 24.494233983509048 0 24.494233983509048 -7.6546238962098982 0 0 0 0 -14.91856824061415 47.377677056045286 0 47.377677056045286 116.92982809392788 0 0 0 0 123.71612437913518 -42.585454046106406 0 -42.585454046106406 10.242303533780614 0 0 0 0 1.7679490006823038 0.94854812877203187 0 0.94854812877203187 0.69145661943534442 0 0 0 0 125.01545327631175 104.57623017592823 0 104.57623017592823 31.41052998359055 0 0 0 0 30.558665278384069 16.610813102459588 0 16.610813102459588 -33.763847351121512 0 0 0 0 -15.806242785532049 67.31071208414744 0 67.31071208414744 -18.544421566489291 0 0 0 0 32.470145070566105 6.4037561257932794 0 6.4037561257932794 -5.1343329077099042 0 0 0 0 28.477172089209489 1.5843995101924975 0 1.5843995101924975 -10.110106332696887 0 0 0 0 24.344813090762727 0.21446316750268579 0 0.21446316750268579 5.4225475247740178 0 0 0 0 27.079013367875632 3.1516853398046578 0 3.1516853398046578 -1.8088838906296587 0 0 0 0 4.0875443255861228 3.447311239146237 0 3.447311239146237 1.7543576690977725 0 0 0 0 -24.450750841730041 27.667323683824634 0 27.667323683824634 -23.014875239962294 0 0 0 0 0.86297393027672875 0.90020971986170473 0 0.90020971986170473 -0.32121930319608971 0 0 0 0 -104.42275218390569 35.566246192753169 0 35.566246192753169 -13.094013937825366 0 0 0 0 -70.663979625024695 23.425593332916151 0 23.425593332916151 49.004046695664329 0 0 0 0 3.8276330237949878 62.258299917707518 0 62.258299917707518 -41.768712267380295 0 0 0 0 3.877105646034579 3.4210292287116317 0 3.4210292287116317 -35.640221734616716 0 0 0 0 -17.440215623214613 25.359619220980221 0 25.359619220980221 50.504669771902627 0 0 0 0 -13.881602756990105 62.993971575285741 0 62.993971575285741 65.960609577562764 0 0 0 0 24.203332700277315 27.859405160122606 0 27.859405160122606 48.637673906720465 0 0 0 0 24.747767946579188 7.4932858298643623 0 7.4932858298643623 74.162511135706154 0 0 0 0 75.308965372192233 40.361649873419083 0 40.361649873419083 31.932087351859991 0 0 0 0 -10.74200105809723 23.666741230958905 0 23.666741230958905 122.19456488431024 0 0 0 0 4.9364326597897161 6.5782238499623418 0 6.5782238499623418 111.61374393184633 0 0 0 0 -0.10896280453492579 -0.092269108110345499 0 -0.092269108110345499 0.67465401792801849 0 0 0 0 -13.01131686619874 73.866240974063317 0 73.866240974063317 107.3919825704761 0 0 0 0 -22.867933992144117 -1.7775985088823063 0 -1.7775985088823063 64.171524682429663 0 0 0 0 247.23336821827979 31.336997849174168 0 31.336997849174168 -9.9138361670612767 0 0 0 0 -14.435397206514608 71.579046076557461 0 71.579046076557461 -129.17291024370206 0 0 0 0 1.6556254175583476 1.6665036007942913 0 1.6665036007942913 1.5361197857493831 0 0 0 0 64.345302698267005 -6.4785420865041488 0 -6.4785420865041488 -16.724658800954785 0 0 0 0 13.10632917134717 -5.8641035728587667 0 -5.8641035728587667 24.757053362523266 0 0 0 0 -149.75880592815156 51.38425793976694 0 51.38425793976694 193.96238669884406 0 0 0 0 -5.9994220355938523 26.975149448344609 0 26.975149448344609 86.967781433653727 0 0 0 0 -7.6005323129502358 11.47603684036676 0 11.47603684036676 114.02814106059668 0 0 0 0 159.54855465736546 136.78654073755115 0 136.78654073755115 106.92132721085454 0 0 0 0 60.542435675506567 133.08450498040656 0 133.08450498040656 175.00579488726862 0 0 0 0 103.86014229364082 53.586437723468407 0 53.586437723468407 98.34117307174688 0 0 0 0 76.631923634657142 32.564792981058417 0 32.564792981058417 26.870024082470991 0 0 0 0 3.8310749501306418 28.76065592136365 0 28.76065592136365 89.470293798658076 0 0 0 0 17.066709692429868 0.98347366759162469 0 0.98347366759162469 66.629209961707602 0 0 0 0 225.48158914849364 31.168846350778381 0 31.168846350778381 1.4087353907425495 0 0 0 0 -197.7705888193741 216.31620299944552 0 216.31620299944552 386.16765157797408 0 0 0 0 0.11838591778512431 0.4271140082342022 0 0.4271140082342022 0.21549370893831998 0 0 0 0 111.57261473711696 -107.97600382012411 0 -107.97600382012411 -95.327874348694422 0 0 0 0 64.393210053470511 39.549169104705015 0 39.549169104705015 -93.13245208401986 0 0 0 0 122.06901456618107 1.2000510028847202 0 1.2000510028847202 -173.82404963264162 0 0 0 0 123.57319269659092 -42.368746570025678 0 -42.368746570025678 19.051459061149217 0 0 0 0 0.51549354139838766 1.2277966486780016 0 1.2277966486780016 -0.70333015057918757 0 0 0 0 85.815954818266619 18.749279741775354 0 18.749279741775354 -23.591589533905335 0 0 0 0 1.3433057863348949 65.646553176702582 0 65.646553176702582 -69.409765806108226 0 0 0 0 31.018919513608125 -25.95149669581383 0 -25.95149669581383 -48.164059606194314 0 0 0 0 66.058218735114053 4.5901412167480871 0 4.5901412167480871 -20.541143277143419 0 0 0 0 66.366648639343111 22.685927699475997 0 22.685927699475997 -59.178985601717613 0 0 0 0 19.016815971173855 41.956677611217401 0 41.956677611217401 -19.922790544464988 0 0 0 0 49.130564281422267 48.387980784257707 0 48.387980784257707 -49.937909466857491 0 0 0 0 47.027461476418011 36.008054543501089 0 36.008054543501089 -44.504229952091919 0 0 0 0 24.581797654775073 33.758065506252024 0 33.758065506252024 -1.0203816878502039 0 0 0 0 71.086122338223504 2.6295635506280632 0 2.6295635506280632 -4.4084636588977446 0 0 0 0 102.34955029168486 3.819867405519517 0 3.819867405519517 -35.201960847815826 0 0 0 0 55.847939598981611 18.69828625768605 0 18.69828625768605 -5.5177316420044349 0 0 0 0 45.194671590454163 -8.1811558618790059 0 -8.1811558618790059 -72.235050597167174 0 0 0 0 -29.433724403144879 -18.460135793066456 0 -18.460135793066456 -48.624617248838149 0 0 0 0 14.168263890820526 11.562260615284231 0 11.562260615284231 -36.135420240791916 0 0 0 0 -29.328243885485449 -19.869128581188093 0 -19.869128581188093 -73.413564361235331 0 0 0 0 30.60178058976453 -22.242239987135235 0 -22.242239987135235 -66.757121938461751 0 0 0 0 -52.792818386157705 -20.174151243032611 0 -20.174151243032611 -27.084979141112399 0 0 0 0 104.15120007241876 -54.518391935065665 0 -54.518391935065665 -53.730465814756826 0 0 0 0 31.792747027840164 -10.524957792043978 0 -10.524957792043978 -72.531148853825471 0 0 0 0 -90.026981253405211 18.414298269581877 0 18.414298269581877 -174.20732856988297 0 0 0 0 -91.733413492857835 -8.9884596323154256 0 -8.9884596323154256 -32.702313729317439 0 0 0 0 -66.12194511886446 24.435619720646628 0 24.435619720646628 -60.605304901683553 0 0 0 0 -221.70245709092706 60.688774380011637 0 60.688774380011637 2.4536560208296123 0 0 0 0 -189.36998794436658 81.462720939138762 0 81.462720939138762 -20.402187305244752 0 0 0 0 -2.3279877775344424 -0.62889299803791765 0 -0.62889299803791765 0.047303831181768285 0 0 0 0 -145.03608678557157 77.759368012146979 0 77.759368012146979 -40.822707566762801 0 0 0 0 -76.638156270900254 94.535873980793212 0 94.535873980793212 -112.60685863957406 0 0 0 0 -176.22125835633506 -47.225556562480392 0 -47.225556562480392 -36.843133062041488 0 0 0 0 -204.14984070422997 40.973127104352898 0 40.973127104352898 60.975353017622183 0 0 0 0 -182.96360818078756 -41.339505893329545 0 -41.339505893329545 38.262121861430387 0 0 0 0 -55.849157884390479 -64.316649346272698 0 -64.316649346272698 -50.732650795795053 0 0 0 0 28.667085531794328 -75.484627107493452 0 -75.484627107493452 276.52310925761412 0 0 0 0 32.431454271232724 12.65704967473539 0 12.65704967473539 -10.516178789983314 0 0 0 0 25.69557530397833 -12.336759648192128 0 -12.336759648192128 -67.850645649508351 0 0 0 0 32.703286431776178 82.60693607581652 0 82.60693607581652 16.240741607295604 0 0 0 0 -74.512798243705902 72.580153637190847 0 72.580153637190847 84.68992481737223 0 0 0 0 186.58882604522864 199.96894382548368 0 199.96894382548368 118.72801025578337 0 0 0 0 37.147702555644173 104.86155599311996 0 104.86155599311996 58.980514059643156 0 0 0 0 159.340856557802 70.362005452852827 0 70.362005452852827 -6.4034945249723023 0 0 0 0 38.631928957473065 62.09402461862237 0 62.09402461862237 22.975637805208862 0 0 0 0 24.403278428136218 46.04917749336073 0 46.04917749336073 57.678059027287077 0 0 0 0 40.218500225087269 75.562976629578998 0 75.562976629578998 54.59952769786014 0 0 0 0 20.606454677017609 32.370239731752918 0 32.370239731752918 31.941810712763527 0 0 0 0 -7.1431472014955943 108.34992969871246 0 108.34992969871246 37.149894935881775 0 0 0 0 -54.363703976956913 40.868185504640792 0 40.868185504640792 72.628279688715338 0 0 0 0 -90.074750120706085 66.31311364482417 0 66.31311364482417 62.938584914167819 0 0 0 0 -88.868842857272881 -21.488544911777915 0 -21.488544911777915 36.70763219775381 0 0 0 0 -60.806298930632693 3.9685338725607835 0 3.9685338725607835 59.224943733578584 0 0 0 0 -74.516344854901945 27.931777819318995 0 27.931777819318995 53.805507603701699 0 0 0 0 -69.372497431925694 5.9600959968897769 0 5.9600959968897769 107.52463018973503 0 0 0 0 -30.93001848734275 58.202062010508598 0 58.202062010508598 78.645475443772057 0 0 0 0 33.251682211001025 21.695198031838572 0 21.695198031838572 99.273960478322806 0 0 0 0 -1.0345706623986111 0.10810493393049114 0 0.10810493393049114 -0.0063025357335240173 0 0 0 0 -80.983186142077102 43.967974109772058 0 43.967974109772058 214.52199876204304 0 0 0 0 76.373871879862236 98.286438514896417 0 98.286438514896417 -277.46611957302321 0 0 0 0 -197.79642805165349 40.440677657475135 0 40.440677657475135 -36.73182437730793 0 0 0 0 0.75871892045963563 -0.05176342377787746 0 -0.05176342377787746 -0.87736850993464799 0 0 0 0 -87.623611045936286 111.00124166432653 0 111.00124166432653 8.4293806380319438 0 0 0 0 -90.998684638527266 88.274563348874835 0 88.274563348874835 123.68889550122594 0 0 0 0 -24.691421086099581 30.515982585129677 0 30.515982585129677 -45.196210904165127 0 0 0 0 -33.064241036829117 56.525104974867645 0 56.525104974867645 -41.94280595430223 0 0 0 0 -34.440295112177409 21.237993505412305 0 21.237993505412305 -22.099269750105123 0 0 0 0 1.2718574832126919 0.28674991600025868 0 0.28674991600025868 -0.68153891715286008 0 0 0 0 -28.831128242026352 41.665765514769191 0 41.665765514769191 -134.18270475968393 0 0 0 0 -33.010310939369447 33.736106987510539 0 33.736106987510539 -61.080782615563294 0 0 0 0 -17.667162271853158 31.738648899495274 0 31.738648899495274 -51.697904835775262 0 0 0 0 0.5908810826813351 2.6483832246149177 0 2.6483832246149177 -47.541457319592155 0 0 0 0 -11.460118502656314 26.49235545112424 0 26.49235545112424 -82.652771041395681 0 0 0 0 -2.2414612718827946 1.2326790135395225 0 1.2326790135395225 -0.29644274594769371 0 0 0 0 1.2504455016533029 73.453779133930311 0 73.453779133930311 117.15765736963203 0 0 0 0 -17.998486025169768 19.951887636975925 0 19.951887636975925 -2.1050149107886682 0 0 0 0 -21.612317689689007 23.293577166457453 0 23.293577166457453 -4.7439512000455579 0 0 0 0 5.7788889436322028 9.6514148979113195 0 9.6514148979113195 -0.46904337898913084 0 0 0 0 10.646475807231809 13.174516375420467 0 13.174516375420467 -6.5228705152794646 0 0 0 0 -26.592177902868116 37.759374564145219 0 37.759374564145219 -4.8621758229246552 0 0 0 0 24.885868276550354 7.3305884993139898 0 7.3305884993139898 -10.68893789750382 0 0 0 0 -10.772528713629072 15.958293651775875 0 15.958293651775875 -9.4051433051672575 0 0 0 0 5.4961706935608099 9.9588873458719398 0 9.9588873458719398 0.37052545125924752 0 0 0 0 -15.659937723581606 20.130989844969918 0 20.130989844969918 -3.5977418196830513 0 0 0 0 -16.325118178174307 28.768105875383753 0 28.768105875383753 -17.776594876595482 0 0 0 0 -21.251355907967081 27.81194037953901 0 27.81194037953901 -12.531215857366988 0 0 0 0 -31.098417744367907 34.159196933224393 0 34.159196933224393 -15.850009990568651 0 0 0 0 -19.742727408693099 30.410851671750606 0 30.410851671750606 -22.19825732933532 0 0 0 0 -41.489331558605045 47.544857574888738 0 47.544857574888738 -17.182500015830328 0 0 0 0 -32.201253513414485 33.187579449569057 0 33.187579449569057 -0.24295094239641912 0 0 0 0 -27.001701346722257 27.267199616603648 0 27.267199616603648 3.7116016418431172 0 0 0 0 -26.357129210913627 25.07066109440666 0 25.07066109440666 2.1940878300083568 0 0 0 0 -24.637957880375325 18.964401639397693 0 18.964401639397693 7.9147731921925697 0 0 0 0 -32.690791788354545 13.172821219645243 0 13.172821219645243 3.8446216503762116 0 0 0 0 -33.098413541394621 11.751358854770842 0 11.751358854770842 27.565771533030329 0 0 0 0 -42.865143749402705 29.464854002913398 0 29.464854002913398 14.887934469350512 0 0 0 0 -48.437625700542412 45.050890890892333 0 45.050890890892333 63.16317192642282 0 0 0 0 -57.186244686562532 -9.588484216393681 0 -9.588484216393681 9.7625900065386304 0 0 0 0 -25.064115642053366 11.894136313198032 0 11.894136313198032 -0.304202306796725 0 0 0 0 -12.823961316047644 9.90228868586928 0 9.90228868586928 -0.3660625875816379 0 0 0 0 -20.198003732200959 15.74160650645581 0 15.74160650645581 -1.7086636113485838 0 0 0 0 -18.504989099945305 15.051740948611041 0 15.051740948611041 -1.508764240952587 0 0 0 0 -24.596047112371991 17.818445814594568 0 17.818445814594568 -2.693957303685238 0 0 0 0 12.714233544312265 8.0050213249926401 0 8.0050213249926401 -1.9617795125923294 0 0 0 0 18.140282838639905 7.3340538400325386 0 7.3340538400325386 -2.7135575326271919 0 0 0 0 -13.768895050874562 14.298232479595754 0 14.298232479595754 -5.0477036406991829 0 0 0 0 -20.723647092571809 17.274515804844896 0 17.274515804844896 -1.7668642848811942 0 0 0 0 2.8047447715386973 10.080370205907135 0 10.080370205907135 -1.5412054288042718 0 0 0 0 1.1903878056177657 3.2851080969425404 0 3.2851080969425404 -1.3925457045770102 0 0 0 0 -5.7328790694452589 16.687202433970068 0 16.687202433970068 1.2655198335549898 0 0 0 0 -5.2543068431050415 15.22522651157567 0 15.22522651157567 -14.542303571220145 0 0 0 0 -8.3660041761097688 6.0822616128896261 0 6.0822616128896261 -2.6894045194609841 0 0 0 0 -2.3535867442589087 2.1625643505960532 0 2.1625643505960532 -1.4155425278162621 0 0 0 0 -2.7229250279240977 3.2701895251291706 0 3.2701895251291706 -3.0120661667008939 0 0 0 0 -0.69241062892797345 5.7832474464394181 0 5.7832474464394181 -0.15136904382961802 0 0 0 0 -10.211500628063121 3.4440185428713157 0 3.4440185428713157 3.8372042297578446 0 0 0 0 -10.331315834171619 13.399344728975393 0 13.399344728975393 -1.3823025860760367 0 0 0 0 -4.3290675807262708 4.3242439273515778 0 4.3242439273515778 -2.182578864095253 0 0 0 0 -7.7326606459910181 9.0546938994891661 0 9.0546938994891661 -3.6699915562312526 0 0 0 0 -10.018533912980274 7.6281696299543 0 7.6281696299543 -4.4781243926149727 0 0 0 0 -4.1984637749319518 12.218197885945301 0 12.218197885945301 -0.8001197993689857 0 0 0 0 13.828347285470954 14.296833192817758 0 14.296833192817758 -0.58122936131621827 0 0 0 0 -24.734231184331293 4.4639471090772531 0 4.4639471090772531 2.9089571780514234 0 0 0 0 0.1879186992354569 0.70072342057598735 0 0.70072342057598735 -0.57510707242529779 0 0 0 0 -0.46594116879631997 0.30986658422876801 0 0.30986658422876801 0.18258114242273393 0 0 0 0 -11.37725857082296 3.3603638727286125 0 3.3603638727286125 2.2580504154607297 0 0 0 0 -21.381609509293412 -3.0323149384225871 0 -3.0323149384225871 -1.1876357211986033 0 0 0 0 -20.77089965684354 8.441867631412606 0 8.441867631412606 1.5090027844557881 0 0 0 0 15.063253665482989 -7.9680255102366573 0 -7.9680255102366573 -0.12094365037668808 0 0 0 0 -19.995688900473397 3.2580133726798977 0 3.2580133726798977 8.8616910418918451 0 0 0 0 -4.9149394675796323 2.8084082628243454 0 2.8084082628243454 -2.1832876476025254 0 0 0 0 -6.0601288206825394 0.23491636829825069 0 0.23491636829825069 -0.4132524815566494 0 0 0 0 12.332788177603106 -15.555454629237602 0 -15.555454629237602 -21.179608712940535 0 0 0 0 11.880303628262482 -22.046111596184346 0 -22.046111596184346 -137.54619650064342 0 0 0 0 -1.100304457787864 1.2149367546521841 0 1.2149367546521841 -1.2975608434100678 0 0 0 0 -179.28565939699138 33.073719348512526 0 33.073719348512526 -10.321314253762466 0 0 0 0 -7.3915837482327333 2.1466330667581133 0 2.1466330667581133 -2.3046030620234887 0 0 0 0 0.22200950600165115 0.36089812461191162 0 0.36089812461191162 -0.13584665308777422 0 0 0 0 2.1873591732501154 4.0582703396278248 0 4.0582703396278248 -75.572932420279813 0 0 0 0 -29.117502267125928 -48.739788402013346 0 -48.739788402013346 -17.298748384090231 0 0 0 0 3.2901810042856141 30.196285237974024 0 30.196285237974024 -99.339254320342661 0 0 0 0 4.3705461279137126 39.186581028105252 0 39.186581028105252 -26.049324859384797 0 0 0 0 -154.93717200029619 129.41118686196978 0 129.41118686196978 -104.41445415588078 0 0 0 0 -6.6380150550339749 4.244106219834066 0 4.244106219834066 -69.322188767476291 0 0 0 0 -8.1495104431005529 27.747370680783206 0 27.747370680783206 -198.90768461297603 0 0 0 0 0.47120567928764601 0.50683283348418318 0 0.50683283348418318 -0.14340039669196258 0 0 0 0 19.228318089119057 15.085297011670718 0 15.085297011670718 -45.982030911337972 0 0 0 0 1.6968391172990778 11.418875114352318 0 11.418875114352318 -13.612061273531253 0 0 0 0 4.2811715447196548 1.663922084313981 0 1.663922084313981 -72.845747179865612 0 0 0 0 3.8201215279802199 21.431770661162606 0 21.431770661162606 -26.536484271525296 0 0 0 0 15.437944756467914 17.493166992802799 0 17.493166992802799 -27.093386043266264 0 0 0 0 21.122905309743146 35.485414568652232 0 35.485414568652232 -4.6444765688747793 0 0 0 0 20.819159606611493 36.94620107501828 0 36.94620107501828 -6.8480841039199731 0 0 0 0 8.5235022244960419 9.7809191695234858 0 9.7809191695234858 -23.716202834945307 0 0 0 0 7.5304231078221164 27.007557966652641 0 27.007557966652641 6.6480783652841637 0 0 0 0 27.253351141499479 52.658132255657335 0 52.658132255657335 7.9422445685204366 0 0 0 0 11.212140878265927 -7.5849025251809508 0 -7.5849025251809508 -38.764537036131912 0 0 0 0 21.985786212205312 46.892617843032326 0 46.892617843032326 33.1060111315021 0 0 0 0 0.29561687946669934 0.42348269322408161 0 0.42348269322408161 -0.076988838951112415 0 0 0 0 16.640345617754519 36.833818547088072 0 36.833818547088072 11.613131057677947 0 0 0 0 33.772655336588286 42.08616742067079 0 42.08616742067079 11.976084659182106 0 0 0 0 7.8714667733001988 33.771955212436865 0 33.771955212436865 14.444856090015264 0 0 0 0 7.7708040695973768 22.772917507568359 0 22.772917507568359 -1.3080945224123752 0 0 0 0 21.878038996939722 27.185942782547272 0 27.185942782547272 12.863707655558528 0 0 0 0 12.689484243054721 36.400756276537777 0 36.400756276537777 11.650640155648205 0 0 0 0 13.982563373991297 32.359577873451769 0 32.359577873451769 4.5304553218306864 0 0 0 0 11.53999994429978 35.293956699638784 0 35.293956699638784 10.591423284938628 0 0 0 0 10.569242210018729 39.690660946164826 0 39.690660946164826 22.749419078028268 0 0 0 0 6.007947370412694 32.255210614507632 0 32.255210614507632 11.257265365358307 0 0 0 0 7.8662659060728402 20.926969107507148 0 20.926969107507148 7.6858998989564498 0 0 0 0 13.566077370673156 28.079415879319072 0 28.079415879319072 5.3523557583839647 0 0 0 0 7.7083969900040756 15.408176173894844 0 15.408176173894844 -3.4203805375600496 0 0 0 0 11.238480514299226 24.192072657160224 0 24.192072657160224 -1.1302749404349015 0 0 0 0 15.667835225127419 21.726568408595085 0 21.726568408595085 -0.0067592310508644005 0 0 0 0 13.38451512537813 14.003255871037027 0 14.003255871037027 -9.5176731095989453 0 0 0 0 11.976310762361209 17.334414803112168 0 17.334414803112168 -5.6076180077075151 0 0 0 0 9.7453201299922512 12.790248113074995 0 12.790248113074995 -5.0377620673545209 0 0 0 0 -1.9937396848526987 7.6993755547805449 0 7.6993755547805449 -7.1174405699030103 0 0 0 0 23.663030087252992 15.241867143979107 0 15.241867143979107 -26.470242654087997 0 0 0 0 6.2807069708487688 4.1738447250099853 0 4.1738447250099853 -15.261139295581415 0 0 0 0 15.697855721242377 8.4078345138586883 0 8.4078345138586883 -27.271759872679468 0 0 0 0 3.7535357892575121 22.436344887355972 0 22.436344887355972 21.559226346767929 0 0 0 0 20.917470869832869 22.052550675595967 0 22.052550675595967 -6.8865447043122003 0 0 0 0 25.006480968984761 33.764821073493522 0 33.764821073493522 1.9331334031389815 0 0 0 0 0.98614982727303868 5.6719955216888138 0 5.6719955216888138 23.338402902572852 0 0 0 0 -69.960427774587515 15.890524921846122 0 15.890524921846122 0.35337160657422828 0 0 0 0 4.331519565181452 16.793747729546908 0 16.793747729546908 -3.3871232802728173 0 0 0 0 2.5409762872821986 48.139647289621529 0 48.139647289621529 4.6270151652836375 0 0 0 0 4.0135973581941471 14.796244664049198 0 14.796244664049198 -6.1920554320868177 0 0 0 0 11.993186085265734 7.8050922933878155 0 7.8050922933878155 -12.40833512919744 0 0 0 0 -1.6351418550532237 10.168821197476735 0 10.168821197476735 -10.103582368059481 0 0 0 0 15.041561181859379 22.652047735231008 0 22.652047735231008 -10.089500978802789 0 0 0 0 -3.4110028161418278 11.106479718168172 0 11.106479718168172 -10.641269176784665 0 0 0 0 14.24938217432009 16.267523779645217 0 16.267523779645217 -29.227932614524775 0 0 0 0 9.8188402478767784 31.089001220421778 0 31.089001220421778 7.0253864532717216 0 0 0 0 20.67338846365783 39.690150835684562 0 39.690150835684562 8.2847733241674177 0 0 0 0 19.451990870969439 37.541463441819133 0 37.541463441819133 15.652033563154419 0 0 0 0 79.892697239972222 57.170486082238313 0 57.170486082238313 20.254000473884503 0 0 0 0 37.210414968851182 35.410859882872046 0 35.410859882872046 -1.3843139936075204 0 0 0 0 -3.8598751594877285 8.0781859653466199 0 8.0781859653466199 -5.638999838787413 0 0 0 0 33.829157125035294 0.85913712994241109 0 0.85913712994241109 -27.000372118023733 0 0 0 0 8.1963553047289679 44.422630424430736 0 44.422630424430736 19.670243279615079 0 0 0 0 -3.3797404694487341 10.563513566930624 0 10.563513566930624 49.316868002970295 0 0 0 0 -0.074508155686999089 8.6432145905228026 0 8.6432145905228026 47.364327787226102 0 0 0 0 -0.10247771008485174 0.28922125841961144 0 0.28922125841961144 -0.15437385960577599 0 0 0 0 0.095655723961568739 8.9239518780800822 0 8.9239518780800822 -9.3388700216461107 0 0 0 0 -6.4204804499604506 5.5619523926752663 0 5.5619523926752663 -17.881725247565782 0 0 0 0 -2.9000712082643645 9.7297469066495239 0 9.7297469066495239 -49.359645057933449 0 0 0 0 -8.3185479344806481 35.504350537056666 0 35.504350537056666 31.000116160467769 0 0 0 0 3.4843080119662773 10.486194478829304 0 10.486194478829304 42.040453057343711 0 0 0 0 -1.2494859607877515 18.265497512756951 0 18.265497512756951 45.087702885048202 0 0 0 0 3.1321950867923078 11.345778009427022 0 11.345778009427022 48.220209077388972 0 0 0 0 15.412655520924091 21.932731273634772 0 21.932731273634772 50.640061718213644 0 0 0 0 42.905290459460048 18.073526476069901 0 18.073526476069901 39.672478501277965 0 0 0 0 75.433763733586602 25.755626269650293 0 25.755626269650293 30.635546210885195 0 0 0 0 13.76919772122119 33.327041346409459 0 33.327041346409459 75.835040015052982 0 0 0 0 34.21183850467969 8.9112678381965225 0 8.9112678381965225 -1.4024558400510614 0 0 0 0 14.453646361655956 39.358021542787128 0 39.358021542787128 35.122906702041007 0 0 0 0 67.051302763785316 47.934078776237357 0 47.934078776237357 40.698232214469954 0 0 0 0 124.89764542201374 62.938300298687409 0 62.938300298687409 26.366899091274036 0 0 0 0 91.758258926784038 -15.19831762494664 0 -15.19831762494664 -9.231455075911299 0 0 0 0 -0.79369849425719252 1.0253207982180967 0 1.0253207982180967 -0.52785003522277041 0 0 0 0 -0.98127237182716553 0.8086017761392883 0 0.8086017761392883 0.62475244201119651 0 0 0 0 -23.448179858906173 0.48692301853761677 0 0.48692301853761677 27.189498230894969 0 0 0 0 100.09097901333234 81.670130858607649 0 81.670130858607649 58.182207175126678 0 0 0 0 31.476735452703451 34.526786336292162 0 34.526786336292162 97.856621927872766 0 0 0 0 -2.5521042251659765 19.340919567696517 0 19.340919567696517 16.707425204597257 0 0 0 0 -12.184879810713937 34.439334807010937 0 34.439334807010937 81.261776570666143 0 0 0 0 -2.3788421245072122 3.2582837799399034 0 3.2582837799399034 3.6215397878665248 0 0 0 0 -1.3931755250782771 11.632586095368879 0 11.632586095368879 -10.946577129312573 0 0 0 0 -6.7748412584273865 11.704289826641684 0 11.704289826641684 19.991549155364282 0 0 0 0 -9.5795029370387965 9.6104213770593105 0 9.6104213770593105 14.005186072736251 0 0 0 0 -5.3652577574625866 4.2610017355875698 0 4.2610017355875698 8.118252586464223 0 0 0 0 -16.817676618403311 3.2217087716185233 0 3.2217087716185233 12.633333306526424 0 0 0 0 17.458321133521167 -22.979017759337694 0 -22.979017759337694 -63.89820657369637 0 0 0 0 -13.762128409096476 -3.28584668272606 0 -3.28584668272606 3.7872836930932863 0 0 0 0 -0.98241576443987277 0.22735369774321157 0 0.22735369774321157 0.27905578807804687 0 0 0 0 3.1710076367172126 4.7450262703205759 0 4.7450262703205759 -12.632462902076059 0 0 0 0 26.004993087882212 30.287982255421412 0 30.287982255421412 -29.6312597027528 0 0 0 0 54.582235674818293 29.85433371270662 0 29.85433371270662 -88.724068689707565 0 0 0 0 5.0287646217393558 14.627260942101202 0 14.627260942101202 -4.3096930635251738 0 0 0 0 43.084028738952185 7.8502637465687641 0 7.8502637465687641 -7.9212172340203324 0 0 0 0 -0.5758700426942267 3.4777813535052191 0 3.4777813535052191 -8.3378345300169343 0 0 0 0 13.186859385048137 6.735837564584358 0 6.735837564584358 -13.620695632407887 0 0 0 0 59.314468665679669 22.853972981575566 0 22.853972981575566 -9.7059340149580748 0 0 0 0 -10.102502087756875 24.304240838062469 0 24.304240838062469 -12.659138555181926 0 0 0 0 6.8294393923280836 35.636616416070865 0 35.636616416070865 -9.9762594047617768 0 0 0 0 13.067409306302091 10.017424181715784 0 10.017424181715784 7.4995367737398517 0 0 0 0 11.318703354511772 10.483479767028753 0 10.483479767028753 9.1109476465994153 0 0 0 0 1.0599665744125559 56.355690473999402 0 56.355690473999402 -24.125664362623127 0 0 0 0 10.777110435034501 20.295467264342392 0 20.295467264342392 -14.385255683360356 0 0 0 0 3.672679770891591 9.6225229201818365 0 9.6225229201818365 -1.6652041957952406 0 0 0 0 -1.3341164945068513 4.5820910356823283 0 4.5820910356823283 -7.0424765795957187 0 0 0 0 2.4875538325238153 8.9061468925877136 0 8.9061468925877136 2.0385083502296766 0 0 0 0 2.608241087490569 7.9873484698800894 0 7.9873484698800894 1.1810855901117066 0 0 0 0 2.5494665272414636 4.1876448287855794 0 4.1876448287855794 -6.5087627883622137 0 0 0 0 13.839854840505041 7.3880293614187167 0 7.3880293614187167 1.1036762857720532 0 0 0 0 4.7580804808885659 7.3109019679861831 0 7.3109019679861831 -7.3509773894573414 0 0 0 0 4.2636613363110882 7.5872486986281729 0 7.5872486986281729 -5.3039909447977891 0 0 0 0 17.328068419234569 8.9064851993791763 0 8.9064851993791763 -2.8968608192408283 0 0 0 0 6.6159192555608115 12.891046217197868 0 12.891046217197868 0.69482477049768931 0 0 0 0 4.011540927373062 16.651883546458976 0 16.651883546458976 3.7345917108721096 0 0 0 0 3.5777504084817338 14.106603271305289 0 14.106603271305289 5.3503558219534852 0 0 0 0 5.0449979892647434 21.785500374260266 0 21.785500374260266 12.074801683217174 0 0 0 0 -3.4439792925295478 22.262177427867073 0 22.262177427867073 26.515111202649791 0 0 0 0 -2.1462109886283542 7.1077197445407592 0 7.1077197445407592 -1.3141186065522561 0 0 0 0 -0.54265444550492248 13.390488572666527 0 13.390488572666527 13.252263537904355 0 0 0 0 2.8002040772116743 10.551420609054844 0 10.551420609054844 -1.9207487589821994 0 0 0 0 1.5544784815019739 10.850931994203052 0 10.850931994203052 -1.7917021330690091 0 0 0 0 -1.665673218724443 7.3183059249621829 0 7.3183059249621829 -7.0228558211373064 0 0 0 0 1.6287585222489724 16.349855759438924 0 16.349855759438924 -10.719825832474726 0 0 0 0 1.5452571607705323 5.8624265204346742 0 5.8624265204346742 2.6695558454607333 0 0 0 0 -2.8753613574717747 8.9275429086433178 0 8.9275429086433178 1.7886676766656819 0 0 0 0 2.2452946908088052 13.563006351415538 0 13.563006351415538 -8.9572279704796074 0 0 0 0 12.55147384002521 22.925315959389081 0 22.925315959389081 -3.6167216145377097 0 0 0 0 13.607552083628889 26.713183410409329 0 26.713183410409329 -47.86290499208917 0 0 0 0 -1.012614630761643 1.8016081515985896 0 1.8016081515985896 0.83510738585060551 0 0 0 0 11.323409955603893 -3.9286081305872358 0 -3.9286081305872358 -47.157171131701944 0 0 0 0 -26.447671236670203 -9.5145037817717366 0 -9.5145037817717366 32.280856138494528 0 0 0 0 2.5028719774290948 4.2728910552705202 0 4.2728910552705202 -14.063998924168118 0 0 0 0 13.646826316036822 64.371639351660633 0 64.371639351660633 -54.564873495462052 0 0 0 0 5.5465200974055815 3.0588882881216968 0 3.0588882881216968 -2.6088820385794369 0 0 0 0 -10.651577304231978 0.96255634543649649 0 0.96255634543649649 5.285506310634446 0 0 0 0 -11.043590827365279 10.314658791687179 0 10.314658791687179 -0.48837531171375304 0 0 0 0 -2.7147286155481503 4.5526854988709902 0 4.5526854988709902 2.0098383548398928 0 0 0 0 -0.48989842281232043 1.0232828912335332 0 1.0232828912335332 1.4719938440500613 0 0 0 0 -8.4129716922925581 8.0651156918520428 0 8.0651156918520428 2.0130084855446739 0 0 0 0 -1.4432616414885651 3.3464926360245943 0 3.3464926360245943 -4.4607669061428723 0 0 0 0 13.506804273435591 8.4382155822845561 0 8.4382155822845561 -3.4593545787870426 0 0 0 0 2.7354249361687835 0.2399781532049019 0 0.2399781532049019 -7.0826484518438519 0 0 0 0 4.198015218556975 15.266652184872783 0 15.266652184872783 -13.097689420622601 0 0 0 0 15.831359685751522 3.5032411717670584 0 3.5032411717670584 -4.6412011605907537 0 0 0 0 -1.2537013096452014 4.9623117765631619 0 4.9623117765631619 -6.8519231856239244 0 0 0 0 -0.55671234377635415 1.5930234769542579 0 1.5930234769542579 -0.29447775661132525 0 0 0 0 -4.1351979213995946 5.0591486387847908 0 5.0591486387847908 24.606206169022698 0 0 0 0 -1.5822553017760583 9.9091421283033014 0 9.9091421283033014 27.927538253563398 0 0 0 0 25.13269961540027 34.73937679125811 0 34.73937679125811 29.195855557094092 0 0 0 0 16.355986027940617 19.536401631500212 0 19.536401631500212 4.6191376423266775 0 0 0 0 17.695830419678941 12.304371723746726 0 12.304371723746726 0.8308919943337969 0 0 0 0 28.036160948075121 13.858189536178543 0 13.858189536178543 0.06909584667209856 0 0 0 0 25.177870620238537 18.698578265680226 0 18.698578265680226 -6.7301990151390783 0 0 0 0 25.544498682244011 22.041040685790904 0 22.041040685790904 2.3980781900427246 0 0 0 0 10.817368521909884 4.3101488693760075 0 4.3101488693760075 -14.51138257933826 0 0 0 0 -88.534400287790959 39.756547508550284 0 39.756547508550284 6.7598768149346142 0 0 0 0 -50.615681260363999 -39.776898759267169 0 -39.776898759267169 -16.622834200614989 0 0 0 0 -37.203830642837374 38.436717732350985 0 38.436717732350985 -0.54571055779524613 0 0 0 0 -0.7246724001010989 3.2960264223750073 0 3.2960264223750073 0.39075112379032362 0 0 0 0 -16.572400096920319 21.637736597209368 0 21.637736597209368 10.838486062076299 0 0 0 0 -5.8391298695054719 7.7443597567714662 0 7.7443597567714662 -6.3768909569941385 0 0 0 0 -0.66827004327910799 25.891348622124156 0 25.891348622124156 9.1352111183859961 0 0 0 0 7.5646179053012759 -17.406107099038564 0 -17.406107099038564 11.567942100915388 0 0 0 0 27.115016840509952 0.096901373994114692 0 0.096901373994114692 -53.971497463122432 0 0 0 0 26.256216666287401 1.8291848949666019 0 1.8291848949666019 -49.126769869182567 0 0 0 0 -0.95216554335267034 0.13345858965440982 0 0.13345858965440982 0.37355120889559501 0 0 0 0 -4.4277268236546448 7.9777865430255002 0 7.9777865430255002 -4.9134540560960431 0 0 0 0 2.1668647447895637 21.99499590196092 0 21.99499590196092 19.758532205228107 0 0 0 0 1.0009459868749673 11.000168096186172 0 11.000168096186172 6.4010662636082998 0 0 0 0 5.6094253343089591 7.972008580764375 0 7.972008580764375 2.4295187224116788 0 0 0 0 7.532657750763974 7.9762853787742642 0 7.9762853787742642 2.7358612455755065 0 0 0 0 23.518796630351972 22.418998469876897 0 22.418998469876897 -8.4720434661430772 0 0 0 0 0.49376644165931793 29.608364164956583 0 29.608364164956583 -26.202714295166516 0 0 0 0 18.649332911920283 11.933396949587404 0 11.933396949587404 -13.07574549063429 0 0 0 0 8.8762276593324714 5.3224626146848095 0 5.3224626146848095 0.5644033123699046 0 0 0 0 2.4398663510310143 9.6491838512738468 0 9.6491838512738468 2.7447674348732107 0 0 0 0 6.4775480788394511 5.0870915762197244 0 5.0870915762197244 3.5543420080850758 0 0 0 0 2.2919910411724231 8.7442432969195352 0 8.7442432969195352 2.4915428721687931 0 0 0 0 -2.4643594925845393 5.1090132404999569 0 5.1090132404999569 -1.8172450182586886 0 0 0 0 4.7401612495516474 12.334529347686043 0 12.334529347686043 3.1544297165419266 0 0 0 0 4.5272288443820798 10.888058592610832 0 10.888058592610832 -0.80756166195078549 0 0 0 0 6.553158000934399 6.8607559503245747 0 6.8607559503245747 1.9210059509456201 0 0 0 0 4.6734759079245123 8.5069520246579486 0 8.5069520246579486 3.6872184214080335 0 0 0 0 2.3346979917469071 8.9851407999431103 0 8.9851407999431103 2.3526558824487438 0 0 0 0 3.4658726485490661 10.149880906761609 0 10.149880906761609 1.4861186262987758 0 0 0 0 1.9656667333883888 10.205030687311591 0 10.205030687311591 0.36638403496272076 0 0 0 0 1.3954833176899228 9.5915857067689103 0 9.5915857067689103 1.9523953217867529 0 0 0 0 -0.41954833273633252 5.679410858485296 0 5.679410858485296 3.4366813010751756 0 0 0 0 4.2106406132515986 9.57233829799452 0 9.57233829799452 10.958125067476431 0 0 0 0 -0.89844300867304128 0.65783844741531894 0 0.65783844741531894 0.36023330786609975 0 0 0 0 -37.267719663574098 -28.959054202096013 0 -28.959054202096013 26.939421097878949 0 0 0 0 -28.994258019300105 55.155088773042735 0 55.155088773042735 -1.1728999012266286 0 0 0 0 5.9525227779167835 15.46964239038607 0 15.46964239038607 9.1661477793863924 0 0 0 0 10.433396417904078 22.801785076299097 0 22.801785076299097 -9.4940953685945715 0 0 0 0 -4.3209548716949939 33.707290708091023 0 33.707290708091023 15.892985406144362 0 0 0 0 11.821320935245694 29.612610174313886 0 29.612610174313886 -7.8968326102876745 0 0 0 0 9.672112501794345 47.486301730080868 0 47.486301730080868 -27.175040066918882 0 0 0 0 24.274689421469475 34.557946247052996 0 34.557946247052996 -24.859826432326372 0 0 0 0 27.173623787397446 20.833425746777721 0 20.833425746777721 -13.067123872325283 0 0 0 0 16.746534846388386 28.967082778408439 0 28.967082778408439 -17.16521432380614 0 0 0 0 16.335839216560998 32.628763520086068 0 32.628763520086068 -8.5396640023200234 0 0 0 0 20.324872452731142 20.492046088396819 0 20.492046088396819 -10.712692326404976 0 0 0 0 21.175744950552144 21.375087732187239 0 21.375087732187239 -9.7966438943003595 0 0 0 0 25.53996280186584 17.970604312872638 0 17.970604312872638 -9.9658531042805407 0 0 0 0 23.545116928476091 21.324077592499179 0 21.324077592499179 -7.8836802578916831 0 0 0 0 0.74010827502945808 1.0774385766459886 0 1.0774385766459886 -0.39891488580851586 0 0 0 0 37.192323090764148 23.36053904320579 0 23.36053904320579 -15.293498841505425 0 0 0 0 -91.237845576063137 29.434071149378724 0 29.434071149378724 -13.311482567951316 0 0 0 0 -0.2628443126597233 0.54468451696671849 0 0.54468451696671849 -0.21792105586601451 0 0 0 0 -13.152986315426006 18.7210504487457 0 18.7210504487457 10.88703695181357 0 0 0 0 -27.635472391119947 26.317297551068805 0 26.317297551068805 24.49860001669731 0 0 0 0 -27.396977602530569 15.704731374382391 0 15.704731374382391 20.732888412165266 0 0 0 0 -18.461978193755385 19.455619271531759 0 19.455619271531759 11.213132929015956 0 0 0 0 -21.274775281443226 30.158760760413315 0 30.158760760413315 -4.8432626531212009 0 0 0 0 -25.996553326309709 50.384003152101968 0 50.384003152101968 -7.5328755321861536 0 0 0 0 11.686817659676006 11.202138255106462 0 11.202138255106462 8.0036930446017678 0 0 0 0 -0.43731154582250664 15.393380066465056 0 15.393380066465056 -4.1142715660325848 0 0 0 0 -7.9042441919575701 31.344499951410398 0 31.344499951410398 0.20117333241068991 0 0 0 0 8.304427115350407 22.387681215653174 0 22.387681215653174 -6.9622522081044735 0 0 0 0 11.398980823360809 12.466139782150995 0 12.466139782150995 8.7934297690303893 0 0 0 0 -11.629063349490025 22.065171823199535 0 22.065171823199535 5.258804095819869 0 0 0 0 6.4708172541095337 18.583304312167456 0 18.583304312167456 5.8678184155910458 0 0 0 0 1.7039800993168228 9.5931881959913881 0 9.5931881959913881 2.6753690450168506 0 0 0 0 18.750093471800255 13.134785914811346 0 13.134785914811346 -2.8723490514757941 0 0 0 0 8.6150404880304876 13.650192292509857 0 13.650192292509857 -1.5879124395196413 0 0 0 0 4.3319456828557765 36.364076734251739 0 36.364076734251739 -14.824058147165488 0 0 0 0 9.6229021349390678 8.8603965506772511 0 8.8603965506772511 7.6265099633383215 0 0 0 0 4.0912345785136148 8.4451734919628425 0 8.4451734919628425 -0.85782689107730903 0 0 0 0 -1.24655881106202 9.0671282512015541 0 9.0671282512015541 5.343385465045948 0 0 0 0 0.18890146080093473 8.3254731727211038 0 8.3254731727211038 4.8598578860692214 0 0 0 0 -6.7296559141592907 6.7203453118165939 0 6.7203453118165939 7.6106122879982507 0 0 0 0 -13.667307841846196 17.155402582544411 0 17.155402582544411 25.034756084165565 0 0 0 0 -3.0864253158905735 10.48775364208938 0 10.48775364208938 5.4113210103921361 0 0 0 0 -3.508421253721183 0.89960798549784293 0 0.89960798549784293 2.4273517117566499 0 0 0 0 2.1838164449172108 3.8467490710156422 0 3.8467490710156422 0.99049694528915921 0 0 0 0 -11.113558224200531 8.0817474450313966 0 8.0817474450313966 10.417018327287224 0 0 0 0 4.510346249743634 34.302828300524652 0 34.302828300524652 23.201270346606179 0 0 0 0 -33.004744963045596 -18.236676817771695 0 -18.236676817771695 57.779792264515891 0 0 0 0 9.1635092298156451 39.606179829586381 0 39.606179829586381 -54.115916757513105 0 0 0 0 7.9181478107616563 6.7807575583203725 0 6.7807575583203725 -1.0882258447733566 0 0 0 0 0.029191742688844613 2.2726089631011668 0 2.2726089631011668 1.587513401605591 0 0 0 0 5.6784882210464502 9.0885468546461539 0 9.0885468546461539 1.6751296454458497 0 0 0 0 -0.16080337202086703 6.8412308279679444 0 6.8412308279679444 -0.91286888500894037 0 0 0 0 5.2021844079899893 12.178120291984669 0 12.178120291984669 3.1196913230451173 0 0 0 0 9.5054205091814765 14.071018436760824 0 14.071018436760824 1.5222461748812748 0 0 0 0 6.9774253858774955 7.9889017704244907 0 7.9889017704244907 3.2180239808585611 0 0 0 0 -1.7060149116793708 3.909512897201072 0 3.909512897201072 -0.86153810399292752 0 0 0 0 8.918668542483374 12.458847198029162 0 12.458847198029162 0.96435536641911312 0 0 0 0 0.15863091051835454 7.82026010745858 0 7.82026010745858 1.7697034598895698 0 0 0 0 0.23128946645484474 7.430844574249762 0 7.430844574249762 2.8081766514502249 0 0 0 0 8.5464720651011703 13.350009319051424 0 13.350009319051424 2.9795044936981867 0 0 0 0 5.8114963092870653 8.3849394914333857 0 8.3849394914333857 5.1785785666070296 0 0 0 0 -3.6817329610360048 9.4500087619917394 0 9.4500087619917394 3.8151926513128274 0 0 0 0 0.11062371691423323 11.779507079318137 0 11.779507079318137 2.4728359486398404 0 0 0 0 1.9656092091519923 9.4776726877655619 0 9.4776726877655619 2.2218221702205483 0 0 0 0 -1.3241172972014734 7.0968940821821533 0 7.0968940821821533 1.821663795240859 0 0 0 0 5.0873565658618496 7.8464105915154594 0 7.8464105915154594 1.6911968315813084 0 0 0 0 -3.7843762167331256 4.2746528177384704 0 4.2746528177384704 0.76452643914034368 0 0 0 0 -11.088142727238846 16.385927920249742 0 16.385927920249742 12.845928864073358 0 0 0 0 -9.3976346721801747 12.039068359238627 0 12.039068359238627 11.98819008641658 0 0 0 0 4.1553766725895409 4.9709675130740543 0 4.9709675130740543 -0.47697721102141344 0 0 0 0 -2.2564435161867431 6.3212172259406412 0 6.3212172259406412 1.7131922827383832 0 0 0 0 -5.1019950080517447 8.0315671657081111 0 8.0315671657081111 -9.634250673241695 0 0 0 0 -0.21354134199748387 8.5021338164845019 0 8.5021338164845019 1.590111091709332 0 0 0 0 -35.297012280572744 -13.531131912501223 0 -13.531131912501223 32.19152045672854 0 0 0 0 -0.081543951919153201 0.10491329988889575 0 0.10491329988889575 0.059278153353538698 0 0 0 0 -76.904644419846591 -2.605913193528977 0 -2.605913193528977 0.28752676756266737 0 0 0 0 -0.12380019851864077 0.14305601180397254 0 0.14305601180397254 0.12827310533062786 0 0 0 0 13.199225020291124 25.154204080032287 0 25.154204080032287 -54.892917761688295 0 0 0 0 -33.756489082370535 26.079063532066357 0 26.079063532066357 -51.527746692849178 0 0 0 0 -81.702258654699108 48.864951212741289 0 48.864951212741289 -11.206496091112058 0 0 0 0 -31.436892278203231 16.947940023910633 0 16.947940023910633 -15.875180544688192 0 0 0 0 -38.505742796944105 31.783458480993431 0 31.783458480993431 -16.52427758589954 0 0 0 0 -28.813041389619684 13.37898038628191 0 13.37898038628191 8.2929475967139297 0 0 0 0 -49.297086126010072 17.195571121788817 0 17.195571121788817 15.227788657713972 0 0 0 0 -26.670308819981074 10.815150305184943 0 10.815150305184943 12.068928731685901 0 0 0 0 -8.8826564343630707 7.5753857713143589 0 7.5753857713143589 8.5458317132506636 0 0 0 0 -38.241251848299726 16.66398082377782 0 16.66398082377782 13.197761288407492 0 0 0 0 -25.37147327972707 13.36327218050792 0 13.36327218050792 16.030257757949585 0 0 0 0 -25.936760690698975 13.535542280571462 0 13.535542280571462 16.041790493054577 0 0 0 0 -19.738261688022249 17.35302261851939 0 17.35302261851939 3.2338786360523954 0 0 0 0 -21.347120018296664 22.089461523214595 0 22.089461523214595 -0.73367707585202879 0 0 0 0 -23.434992723519827 15.00076538245321 0 15.00076538245321 -0.154568284189736 0 0 0 0 -22.68476139437189 14.297076293445571 0 14.297076293445571 0.39575155170314247 0 0 0 0 -25.359051186937904 16.779518510358685 0 16.779518510358685 3.2359810460083196 0 0 0 0 -31.940630116246211 13.777246043534433 0 13.777246043534433 -0.32984910401137313 0 0 0 0 -28.70572052663465 13.32098115566987 0 13.32098115566987 -6.3701012686979084 0 0 0 0 -52.62425098229869 3.282128989640114 0 3.282128989640114 -21.713753439540596 0 0 0 0 -38.549503993305279 17.700937842988878 0 17.700937842988878 -7.5163210972241359 0 0 0 0 -11.732598992464773 19.195750269373093 0 19.195750269373093 -11.404308066837984 0 0 0 0 -47.559977625289889 37.06102397193763 0 37.06102397193763 -19.171872429767973 0 0 0 0 -31.806211093044567 25.272854198092318 0 25.272854198092318 -2.381007561518345 0 0 0 0 -17.951987544503936 19.724791839551472 0 19.724791839551472 -1.1462354993454937 0 0 0 0 -17.468325300580545 17.687703337898711 0 17.687703337898711 1.0409665839979425 0 0 0 0 -1.499082963810942 10.625426234934205 0 10.625426234934205 -5.2974826469734708 0 0 0 0 9.3354512144815089 18.126077972526218 0 18.126077972526218 -11.308958655086826 0 0 0 0 5.4946068538457666 26.235020908982278 0 26.235020908982278 -1.0810152629419463 0 0 0 0 -9.1235766116824379 24.263387396933467 0 24.263387396933467 -10.754374473738608 0 0 0 0 -19.155837363274259 19.85386686133279 0 19.85386686133279 0.87424181358801434 0 0 0 0 -12.943046916851927 17.592109923205498 0 17.592109923205498 1.4422265267639887 0 0 0 0 63.769809735103081 94.808982091857615 0 94.808982091857615 -112.60626273678645 0 0 0 0 -5.4045366647498723 11.574465383088967 0 11.574465383088967 -1.4170476778181111 0 0 0 0 -7.23614862263139 35.105609961861774 0 35.105609961861774 17.149531796694646 0 0 0 0 -52.312153236730865 67.681605917554407 0 67.681605917554407 -3.6204388509268028 0 0 0 0 45.579231063622501 -0.58709740382983 0 -0.58709740382983 9.7365115743705246 0 0 0 0 0.87736372535581264 10.346948754244551 0 10.346948754244551 -6.0995828581008666 0 0 0 0 0.81046762770549741 2.0273636041386283 0 2.0273636041386283 -4.5984168484650496 0 0 0 0 64.85372103475629 -8.2039375927997753 0 -8.2039375927997753 -33.912367985743913 0 0 0 0 41.323365094159271 -35.822495260244978 0 -35.822495260244978 -16.858794175932417 0 0 0 0 -59.5315974753521 -23.932350654336915 0 -23.932350654336915 -9.11581137299072 0 0 0 0 1.2573700179435603 0.49975392808075725 0 0.49975392808075725 -0.67671216521975452 0 0 0 0 0.35309535463346037 0.54319087259181886 0 0.54319087259181886 -0.027767274059748104 0 0 0 0 2.6645051029754541 -0.48541524069878506 0 -0.48541524069878506 -3.9670050225686282 0 0 0 0 -41.540677092807755 -33.646682367935227 0 -33.646682367935227 26.645114103932428 0 0 0 0 -23.015453814548891 0.1134558796438796 0 0.1134558796438796 25.767010241070238 0 0 0 0 -0.46300713333116339 3.52654015774297 0 3.52654015774297 4.2686795806906233 0 0 0 0 -15.844231608213249 29.801107782315739 0 29.801107782315739 16.099124558655603 0 0 0 0 -35.793032917727032 16.967260683111817 0 16.967260683111817 12.810643598371826 0 0 0 0 -6.2492254153814857 7.2943862772732615 0 7.2943862772732615 3.9056940238994358 0 0 0 0 -6.3057287548715522 14.142653555392826 0 14.142653555392826 -2.0566003175699734 0 0 0 0 2.2405450413839496 6.6204977022694873 0 6.6204977022694873 1.4078247603808904 0 0 0 0 0.98327851192368598 5.4114425459896438 0 5.4114425459896438 1.871439059759723 0 0 0 0 4.1161356327952419 3.9625805050696243 0 3.9625805050696243 -1.9708904137359227 0 0 0 0 1.0231321381934322 -7.7340510468857246 0 -7.7340510468857246 -15.295325753504585 0 0 0 0 32.92746748870195 -9.3188010785925144 0 -9.3188010785925144 -15.355311953226192 0 0 0 0 6.7862375856220751 11.99749358223562 0 11.99749358223562 -14.254670766897107 0 0 0 0 3.986794359499072 10.658754753349058 0 10.658754753349058 3.0399840411273544 0 0 0 0 13.815177617029008 20.276943007202135 0 20.276943007202135 -16.325497470261325 0 0 0 0 7.335290696422387 7.309540875647885 0 7.309540875647885 2.3132339695461894 0 0 0 0 0.68546169090996045 10.958183416409156 0 10.958183416409156 -1.7174068211643316 0 0 0 0 -2.4500581857419093 12.592412767348833 0 12.592412767348833 -1.6403112132957176 0 0 0 0 -1.8903837808031145 8.0316862053755038 0 8.0316862053755038 -1.0688667631817292 0 0 0 0 -8.4339502405291569 10.248955600305635 0 10.248955600305635 15.913190595141714 0 0 0 0 33.462733748545361 34.901778587986882 0 34.901778587986882 2.303218762132019 0 0 0 0 1.6470171759302197 3.144498497273613 0 3.144498497273613 0.65428153302123349 0 0 0 0 -179.62101641945992 -11.968760443922292 0 -11.968760443922292 19.306307665356144 0 0 0 0 -10.117645515351114 -35.688716797210077 0 -35.688716797210077 0.23757738804488326 0 0 0 0 14.087574128054257 43.044109140737419 0 43.044109140737419 -73.65029309313104 0 0 0 0 -63.309606171758219 76.635782968850435 0 76.635782968850435 -29.60443313633732 0 0 0 0 -0.063645678104325754 0.85372869094726411 0 0.85372869094726411 -1.4644260138655625 0 0 0 0 -38.06619419781191 -0.3920881471458415 0 -0.3920881471458415 -3.9700511722010106 0 0 0 0 7.4170499044530516 -11.773259825458808 0 -11.773259825458808 -81.850364916455874 0 0 0 0 2.06417377889818 -2.5586695799911467 0 -2.5586695799911467 -37.67638130292471 0 0 0 0 11.992519673794959 23.768004058592851 0 23.768004058592851 -39.375623318883299 0 0 0 0 0.093014708326563778 19.358354243788199 0 19.358354243788199 -30.111668982224728 0 0 0 0 5.521038658052845 50.299041562138086 0 50.299041562138086 -18.80523643082779 0 0 0 0 26.870492252980966 15.26338527144253 0 15.26338527144253 -20.794573920582479 0 0 0 0 -3.0623709578598524 5.7096744536030553 0 5.7096744536030553 1.6683049625538544 0 0 0 0 -18.655142332324758 19.605267700195327 0 19.605267700195327 -10.864009993711079 0 0 0 0 0.13713744770669223 17.256997705714639 0 17.256997705714639 -16.876843148675107 0 0 0 0 0.063715762066067327 18.178112601340217 0 18.178112601340217 -23.864683575906383 0 0 0 0 5.6393237382922052 25.58065883004565 0 25.58065883004565 -16.722168564067033 0 0 0 0 2.4908303693582639 10.009344191801574 0 10.009344191801574 -27.758828067779177 0 0 0 0 3.1144846116220606 3.4828840772179319 0 3.4828840772179319 -16.050149792856246 0 0 0 0 2.5171500478261812 9.5491763246568553 0 9.5491763246568553 -19.720743447720452 0 0 0 0 -2.3413379048880074 8.54980759078353 0 8.54980759078353 -14.305971127190787 0 0 0 0 -4.0387060892977615 11.081385674765443 0 11.081385674765443 -13.90616130253693 0 0 0 0 -4.8863837604407649 13.395148394403805 0 13.395148394403805 -12.554386341224017 0 0 0 0 -19.728615971081126 17.345738737347347 0 17.345738737347347 2.454762786246647 0 0 0 0 -13.859279128706577 11.013280657335137 0 11.013280657335137 -4.0720035236514249 0 0 0 0 -13.923327973710343 11.491778462908997 0 11.491778462908997 8.3577604321035324 0 0 0 0 26.3443177886993 0.11107150743191596 0 0.11107150743191596 -7.9409739431221169 0 0 0 0 -8.856903417862668 6.3922911826030031 0 6.3922911826030031 -8.5855914318908617 0 0 0 0 18.504260314958174 30.903262781783269 0 30.903262781783269 2.2830386785681185 0 0 0 0 6.0059074670862174 14.029515756010369 0 14.029515756010369 -11.297681137622931 0 0 0 0 66.296228543497818 38.137038138078424 0 38.137038138078424 -2.9473676265361064 0 0 0 0 6.4363664888201129 16.376090037196946 0 16.376090037196946 -2.8702313800768025 0 0 0 0 3.8111836655285067 8.4937487955042101 0 8.4937487955042101 -5.0121356106064141 0 0 0 0 1.9550781699963409 11.964857170195046 0 11.964857170195046 9.5946907791303602 0 0 0 0 21.817632909701388 1.6566931104293872 0 1.6566931104293872 -23.074918734071616 0 0 0 0 6.0315186021022065 8.5836696231846474 0 8.5836696231846474 -6.277133487324317 0 0 0 0 0.3065495851872484 6.225120993174432 0 6.225120993174432 -0.71864759504966891 0 0 0 0 3.105372666639596 9.622787661323855 0 9.622787661323855 -1.9491317292176973 0 0 0 0 2.2058337907692476 8.1009158771776129 0 8.1009158771776129 -2.6934344215678721 0 0 0 0 2.1444886009976472 9.0096641791278671 0 9.0096641791278671 1.8505033047949837 0 0 0 0 5.7944762390438882 9.1686853011374296 0 9.1686853011374296 -2.3073452473399811 0 0 0 0 4.4217494135655908 5.4926816022819196 0 5.4926816022819196 0.15229660561954717 0 0 0 0 3.5633771870507189 11.34315584475371 0 11.34315584475371 -3.834337793900886 0 0 0 0 0.31671355906473764 10.70792076705402 0 10.70792076705402 -7.7197117337482268 0 0 0 0 2.6191534957979457 7.9117703778319992 0 7.9117703778319992 -1.48530524807029 0 0 0 0 1.943367438463337 5.7108325023061113 0 5.7108325023061113 -0.36819387405155268 0 0 0 0 -0.40605959656113555 9.3725470488225255 0 9.3725470488225255 -5.4105665094939468 0 0 0 0 2.4472353795496211 6.0552679372771436 0 6.0552679372771436 -5.8588258462656455 0 0 0 0 -4.6703753594404134 -10.895277806372178 0 -10.895277806372178 -15.208158480858401 0 0 0 0 0.57781244488957384 0.6209552006742598 0 0.6209552006742598 -0.010646586574353023 0 0 0 0 -11.064005988505755 17.480478234296925 0 17.480478234296925 -10.310778163453506 0 0 0 0 -0.016586313669449737 -0.23856749828519241 0 -0.23856749828519241 -28.259720587651827 0 0 0 0 -0.24375817787267806 30.616644629651091 0 30.616644629651091 -7.2195110674656462 0 0 0 0 -12.986460403455567 -1.847015597499194 0 -1.847015597499194 -3.3777994498013868 0 0 0 0 3.7040305618784259 7.3513968248080346 0 7.3513968248080346 -9.7928387429965369 0 0 0 0 0.24789513835958132 7.1228865565890374 0 7.1228865565890374 0.60605717751241173 0 0 0 0 0.83055144294009864 0.85932246830489767 0 0.85932246830489767 1.3936276221443435 0 0 0 0 36.523540180179225 6.2297566914639901 0 6.2297566914639901 -56.568786284369708 0 0 0 0 48.639684808204947 90.010693228026867 0 90.010693228026867 -74.286413325274225 0 0 0 0 3.5756459204953899 -7.9220321141579007 0 -7.9220321141579007 -2.6593472116219345 0 0 0 0 13.361261058936179 7.7179832726242239 0 7.7179832726242239 -1.1381566246782313 0 0 0 0 53.856843873594926 9.3293991494028887 0 9.3293991494028887 -41.110890503150586 0 0 0 0 18.115156373700302 -4.0340679526671011 0 -4.0340679526671011 12.84752790379116 0 0 0 0 52.259209871366693 2.6587242087007326 0 2.6587242087007326 -15.502895106412325 0 0 0 0 72.964437884044855 22.81065383589339 0 22.81065383589339 -31.604989726394706 0 0 0 0 20.223668926464597 20.854491449605121 0 20.854491449605121 -19.367745713405384 0 0 0 0 41.667695589221694 27.732937085978847 0 27.732937085978847 -21.555061600716726 0 0 0 0 1.2379211492908766 0.99914764695765967 0 0.99914764695765967 -0.12647871050831938 0 0 0 0 16.905275450624686 35.883226978463426 0 35.883226978463426 -10.775409590300114 0 0 0 0 9.8470433556594799 19.326601698359809 0 19.326601698359809 35.518022745560302 0 0 0 0 44.955476291230752 38.341628635810139 0 38.341628635810139 -40.210765328964044 0 0 0 0 62.032333789271433 85.51696660338348 0 85.51696660338348 19.411076038993087 0 0 0 0 -80.060981430792708 -36.441309159930825 0 -36.441309159930825 76.457058770996809 0 0 0 0 11.979051083133527 68.980711488394263 0 68.980711488394263 55.031662748486269 0 0 0 0 116.64854777543405 85.227601025215336 0 85.227601025215336 -113.54030607454479 0 0 0 0 -11.79067236398987 -22.846398567482538 0 -22.846398567482538 -80.802681254872368 0 0 0 0 28.410152681748002 -11.133081760254584 0 -11.133081760254584 -37.265720587871328 0 0 0 0 -37.802653764102615 43.757536383913759 0 43.757536383913759 -33.059615738071443 0 0 0 0 0.0042015098183809663 -0.037852610227030681 0 -0.037852610227030681 -1.3969277452961535 0 0 0 0 64.75291336162627 -10.290245075591884 0 -10.290245075591884 -104.19348189992274 0 0 0 0 13.867575092282095 36.784165149329056 0 36.784165149329056 -32.991272048853716 0 0 0 0 8.6878793685491473 32.003180279213666 0 32.003180279213666 -31.397344542798237 0 0 0 0 3.0941569153601449 28.804282838169456 0 28.804282838169456 -30.926615792436223 0 0 0 0 -3.2766567999580616 37.738648606192129 0 37.738648606192129 -43.371002596235485 0 0 0 0 -3.3565308249098962 43.999641928572601 0 43.999641928572601 -95.464197084853367 0 0 0 0 14.237038048820068 46.980048721781714 0 46.980048721781714 -19.343406741343642 0 0 0 0 8.1030477284257358 33.888986734156788 0 33.888986734156788 -21.041089157675742 0 0 0 0 2.3812846894115864 36.308456594117615 0 36.308456594117615 -11.059669702426618 0 0 0 0 3.6599717342214717 37.625175577632035 0 37.625175577632035 -24.182798570913292 0 0 0 0 -1.4604033758305377 29.474314105984377 0 29.474314105984377 -13.344684350347961 0 0 0 0 1.0042613699824869 26.586109315137946 0 26.586109315137946 -10.137505738126492 0 0 0 0 6.7286943322487787 24.048560300732788 0 24.048560300732788 -21.852145378799833 0 0 0 0 7.2325894595298905 22.07901718314406 0 22.07901718314406 -32.572026648027531 0 0 0 0 -3.3604999735925958 19.309203593766142 0 19.309203593766142 0.64503467560643912 0 0 0 0 -0.22161831850735325 21.625944595340115 0 21.625944595340115 -9.7984890189436555 0 0 0 0 -10.945074304514492 -14.09186221044547 0 -14.09186221044547 -10.237778857303056 0 0 0 0 5.5936875167462858 6.1982419616797415 0 6.1982419616797415 -61.721912669718222 0 0 0 0 4.9452842641640018 12.18547185064017 0 12.18547185064017 -15.152326878847816 0 0 0 0 -4.5364040494441724 12.038592885593971 0 12.038592885593971 -15.14910179870526 0 0 0 0 -10.617478450116323 15.603293025002131 0 15.603293025002131 16.622004710754481 0 0 0 0 -2.2160356766216864 31.08469027438332 0 31.08469027438332 14.001873629793408 0 0 0 0 -18.561286685378946 23.280994215529972 0 23.280994215529972 10.502058520665742 0 0 0 0 -6.9822551839993139 20.126884716288259 0 20.126884716288259 8.2815596318905591 0 0 0 0 -0.37457513798290165 21.000951952630203 0 21.000951952630203 0.57206482639355727 0 0 0 0 -4.0174053163254939 18.962337838349413 0 18.962337838349413 7.126109383039875 0 0 0 0 -0.77674851786559884 20.147057375163058 0 20.147057375163058 7.5266558551702474 0 0 0 0 0.94242744119765121 24.13473456635802 0 24.13473456635802 9.882041384371405 0 0 0 0 -0.82576731625294997 20.205020422059533 0 20.205020422059533 21.114261607399385 0 0 0 0 0.22660374428960495 21.609431960462643 0 21.609431960462643 16.658062219024941 0 0 0 0 -1.1348998622322597 17.082455542145453 0 17.082455542145453 13.549892968992935 0 0 0 0 8.3828569368552053 22.023819876665584 0 22.023819876665584 -3.9591467785467103 0 0 0 0 8.8148380460706903 19.329438977529207 0 19.329438977529207 12.815003721796529 0 0 0 0 -26.59477471235914 21.863870801482335 0 21.863870801482335 -6.8337300501916616 0 0 0 0 0.59935588050497657 1.2269315570387285 0 1.2269315570387285 0.49442512052889498 0 0 0 0 -34.474150730162364 41.738034490662358 0 41.738034490662358 40.420478670082048 0 0 0 0 -22.781338993434474 16.806563422049294 0 16.806563422049294 -0.63090428835130297 0 0 0 0 -12.279546034678788 9.6865489719075413 0 9.6865489719075413 3.8402694774249539 0 0 0 0 5.9598688415149148 13.317340357514357 0 13.317340357514357 14.010797196747333 0 0 0 0 1.7368487740532146 17.085012246445331 0 17.085012246445331 12.499805777515576 0 0 0 0 47.437357142209294 21.537393603060991 0 21.537393603060991 8.8691486631432781 0 0 0 0 44.221675475297161 7.4205611577799573 0 7.4205611577799573 -47.516576747510044 0 0 0 0 -8.6171197771564039 22.275896752276822 0 22.275896752276822 5.3792909308031085 0 0 0 0 -3.044815592100349 14.625503070888954 0 14.625503070888954 11.274812870127789 0 0 0 0 -2.1640384012507639 20.014604371062887 0 20.014604371062887 1.212317818957672 0 0 0 0 -7.0968982072427025 18.789448520194128 0 18.789448520194128 10.587411874663303 0 0 0 0 40.502882592098103 10.885971887702908 0 10.885971887702908 -14.533510965957248 0 0 0 0 -65.25899559921254 -6.1491161779013055 0 -6.1491161779013055 39.730128529242393 0 0 0 0 0.41821837834478437 0.78049459542297939 0 0.78049459542297939 0.13478693402278452 0 0 0 0 14.631765322639694 1.8895591504042386 0 1.8895591504042386 -1.6405736413653358 0 0 0 0 -8.5342212239023638 22.146269353416528 0 22.146269353416528 3.1272881231234351 0 0 0 0 7.4180913789198124 10.352827479953397 0 10.352827479953397 12.719835495765999 0 0 0 0 -16.74421793552392 17.46255219687373 0 17.46255219687373 35.088908864621771 0 0 0 0 -13.164129711896749 23.152169603108632 0 23.152169603108632 6.1512436835291737 0 0 0 0 -3.5181091326903697 21.685402245271689 0 21.685402245271689 1.2692080537933634 0 0 0 0 -3.7241052440831481 22.970135978132021 0 22.970135978132021 -2.8346023207486724 0 0 0 0 -8.7934381546920122 29.435503086848257 0 29.435503086848257 -2.2022329190767778 0 0 0 0 -5.5750250306573435 27.314166985128395 0 27.314166985128395 -2.6040635715557983 0 0 0 0 -14.804771875920778 34.252283193734911 0 34.252283193734911 -0.86547481598881859 0 0 0 0 -13.625458429676655 32.302472805165962 0 32.302472805165962 2.2394790500766248 0 0 0 0 -0.47936240215756243 46.842932687260145 0 46.842932687260145 -7.590431419757806 0 0 0 0 -6.3608499713354831 40.789076025661416 0 40.789076025661416 -8.6621771048739902 0 0 0 0 -21.121746465912111 21.410506594853359 0 21.410506594853359 5.5795893790036644 0 0 0 0 -21.260581894724965 27.850364211437409 0 27.850364211437409 5.1356698460467669 0 0 0 0 -25.668036826343268 28.997775092277152 0 28.997775092277152 6.2068678086143336 0 0 0 0 -20.643234724762806 33.467870249722182 0 33.467870249722182 2.6860198026952276 0 0 0 0 6.2050021409846874 9.8694550983064495 0 9.8694550983064495 9.9628278570425692 0 0 0 0 9.5542478385295908 20.998349139979837 0 20.998349139979837 2.8285808737200568 0 0 0 0 10.033868749858016 12.608191284475481 0 12.608191284475481 11.336177775450778 0 0 0 0 28.276312904168662 22.820855994083104 0 22.820855994083104 13.352247410259224 0 0 0 0 -0.44800411641977078 0.22622392264281288 0 0.22622392264281288 0.31910600537791112 0 0 0 0 -27.298897341441261 42.471964515126274 0 42.471964515126274 10.174846584381157 0 0 0 0 34.393784529024742 33.404666764855392 0 33.404666764855392 9.0938713755740537 0 0 0 0 -38.345370435263249 23.485030965936858 0 23.485030965936858 19.763689324729967 0 0 0 0 -5.247359880417207 27.301822003204506 0 27.301822003204506 16.361811896829749 0 0 0 0 21.318402756058276 47.870826631489763 0 47.870826631489763 23.838821296778406 0 0 0 0 9.3727165574928222 0.73673016565953731 0 0.73673016565953731 51.441372695591781 0 0 0 0 30.669082791784604 -9.844720667252659 0 -9.844720667252659 -5.862905697144015 0 0 0 0 23.724469331078581 68.403336864770608 0 68.403336864770608 0.56814837960473596 0 0 0 0 12.637648320827793 61.648447549157027 0 61.648447549157027 0.036187097713991534 0 0 0 0 30.601426876302867 63.43460915812193 0 63.43460915812193 -3.197565177357319 0 0 0 0 17.923419539027236 55.245323157880193 0 55.245323157880193 -2.0219600992631968 0 0 0 0 29.052030019962331 66.740530546775517 0 66.740530546775517 -3.5472191889660962 0 0 0 0 -53.636892487897057 73.036841197827925 0 73.036841197827925 19.809592696087748 0 0 0 0 21.823797994143206 68.614648606060655 0 68.614648606060655 14.050066822794179 0 0 0 0 26.408343308752592 62.932143846346662 0 62.932143846346662 -4.0905091155336777 0 0 0 0 42.593932028383279 69.730537639414251 0 69.730537639414251 -1.2416774501052714 0 0 0 0 70.350814637784424 54.638906692772252 0 54.638906692772252 6.8556570920172817 0 0 0 0 45.852127616778489 67.490078684094442 0 67.490078684094442 87.475055756254733 0 0 0 0 -1.309656128644626 0.30146776171536871 0 0.30146776171536871 0.6012285370474828 0 0 0 0 65.259893926453287 122.31934242433329 0 122.31934242433329 30.364602074794675 0 0 0 0 -103.43990973605469 -20.900793311287089 0 -20.900793311287089 4.1883132715665852 0 0 0 0 -24.639813750068242 -9.1019717160033906 0 -9.1019717160033906 4.3841493153895499 0 0 0 0 -2.4729269159804232 0.67786040888610799 0 0.67786040888610799 0.89467165473017118 0 0 0 0 35.731488861649268 128.55791971174949 0 128.55791971174949 110.32791844237863 0 0 0 0 -10.277655428102662 25.944736762593493 0 25.944736762593493 -2.9115470888700656 0 0 0 0 15.799727818612155 33.172199618253217 0 33.172199618253217 -16.57564611413909 0 0 0 0 -13.147422527040362 20.692330139946534 0 20.692330139946534 3.9469795439545123 0 0 0 0 -2.6587002555934305 34.385783761272251 0 34.385783761272251 -20.349851151600888 0 0 0 0 -59.486375673699513 62.297341860197776 0 62.297341860197776 -17.364754393681096 0 0 0 0 -109.299406006249 51.893728650278945 0 51.893728650278945 9.9749875740890275 0 0 0 0 -42.824227554870959 28.305728161447405 0 28.305728161447405 7.634789147646643 0 0 0 0 -73.470329383479111 33.178653722417039 0 33.178653722417039 6.8616819373273756 0 0 0 0 -19.258876261486876 50.08748595185898 0 50.08748595185898 -21.146175453330216 0 0 0 0 -5.133660710805998 26.930529209523229 0 26.930529209523229 -9.5958709466285654 0 0 0 0 -19.420439931192959 33.43863026001236 0 33.43863026001236 -11.394785076449352 0 0 0 0 -40.366255113835905 26.138531647337913 0 26.138531647337913 1.3581923246601946 0 0 0 0 -36.136485074948723 31.279146799191949 0 31.279146799191949 -7.0087716051584721 0 0 0 0 -25.856966663761341 22.823944817755546 0 22.823944817755546 -5.5922725888594869 0 0 0 0 -34.745378133507984 21.096771829395038 0 21.096771829395038 -1.8161442207747314 0 0 0 0 -36.813578036675608 22.79940553529832 0 22.79940553529832 -0.72131547603385116 0 0 0 0 -50.08499709528769 23.943591198619288 0 23.943591198619288 6.0940692163003405 0 0 0 0 -40.851754559333131 19.686868736604083 0 19.686868736604083 6.6137345702136372 0 0 0 0 -34.253065154028263 15.567140249461772 0 15.567140249461772 3.4299850735860673 0 0 0 0 -34.550348178101558 14.878158790938187 0 14.878158790938187 1.8357328614492872 0 0 0 0 -36.576032479748392 17.343199463928613 0 17.343199463928613 2.1127052976617051 0 0 0 0 -35.644790745550381 17.376167209697087 0 17.376167209697087 -0.13188767109204491 0 0 0 0 3.8916900789281499 2.8048723537840488 0 2.8048723537840488 -2.8397671122856991 0 0 0 0 -12.352368775700143 5.4047225302974766 0 5.4047225302974766 10.714076341180771 0 0 0 0 -13.758995262406643 9.1659496318302445 0 9.1659496318302445 1.2939633716268872 0 0 0 0 -52.929759620965569 9.3962229205013728 0 9.3962229205013728 10.101063329726458 0 0 0 0 -22.596568943953571 1.1728737009325414 0 1.1728737009325414 4.8800677168646871 0 0 0 0 -23.241464869087395 7.31030308541267 0 7.31030308541267 4.8730759860532089 0 0 0 0 -10.769905436784029 7.4248531633306811 0 7.4248531633306811 -1.5238603727057125 0 0 0 0 -0.86864078311555204 4.7392431581656638 0 4.7392431581656638 -4.7186481047756388 0 0 0 0 2.3328374484601859 0.79533191559138139 0 0.79533191559138139 -0.37382959409733374 0 0 0 0 -15.525851289266711 13.441827758717636 0 13.441827758717636 -8.2667746511742735 0 0 0 0 -17.000122205823573 9.1683468111091315 0 9.1683468111091315 -5.5839448952337989 0 0 0 0 -27.30214603425793 51.577765421166987 0 51.577765421166987 -69.584745432851378 0 0 0 0 -17.665103803317834 26.292370830406071 0 26.292370830406071 -66.26815679397896 0 0 0 0 -33.195711594302338 16.990277588520257 0 16.990277588520257 1.91053004625428 0 0 0 0 -36.458569506976573 19.357362493415053 0 19.357362493415053 0.20248864606583084 0 0 0 0 -35.349808496506739 23.080324038732215 0 23.080324038732215 0.36249856194746144 0 0 0 0 -33.554167058691746 15.277063632340287 0 15.277063632340287 1.7777107841242241 0 0 0 0 -32.402318498920067 27.54945074743955 0 27.54945074743955 -16.853945767565165 0 0 0 0 -29.11965378336572 24.964053406949461 0 24.964053406949461 -17.694438951635675 0 0 0 0 -32.042437362932105 28.566734112811901 0 28.566734112811901 -16.045118945547074 0 0 0 0 -31.196014803575054 20.06616936303999 0 20.06616936303999 -8.0023381501014228 0 0 0 0 -32.854722885738738 23.41512142452757 0 23.41512142452757 -6.748289150362325 0 0 0 0 -35.273422674902577 26.4601463959375 0 26.4601463959375 -6.1077374838932883 0 0 0 0 -28.326782209413068 23.006682945026114 0 23.006682945026114 -14.799366629508768 0 0 0 0 -22.505294699780734 30.258230419724441 0 30.258230419724441 0.42030200931731088 0 0 0 0 -33.065783357058535 24.173773056398204 0 24.173773056398204 0.69920462862683053 0 0 0 0 -22.830138370957684 28.416091956062701 0 28.416091956062701 -9.5850926339844591 0 0 0 0 -39.203821108327247 15.391122116432598 0 15.391122116432598 4.705854313007876 0 0 0 0 -25.822216723085148 28.603096171714242 0 28.603096171714242 3.258283823360216 0 0 0 0 -36.019999191903935 21.435340424039168 0 21.435340424039168 9.7009906854455039 0 0 0 0 -23.69259034434026 25.130592786396846 0 25.130592786396846 -2.226151852075418 0 0 0 0 -37.105050697846309 29.001356137955554 0 29.001356137955554 14.638807009623633 0 0 0 0 0.92606710996187758 48.172155716922134 0 48.172155716922134 13.088838746579029 0 0 0 0 -8.2029457529383762 14.275554980788456 0 14.275554980788456 -8.3243142914834607 0 0 0 0 17.497894824995456 10.51533240499873 0 10.51533240499873 -9.2527330638040439 0 0 0 0 -1.7494601372745819 25.79823720915374 0 25.79823720915374 -14.430584898473626 0 0 0 0 0.09966815495499759 -81.586264312218191 0 -81.586264312218191 81.428037772162497 0 0 0 0 1.3642351664356838 0.90217752688966613 0 0.90217752688966613 -1.1705255665317047 0 0 0 0 100.11761331589696 61.51636237385901 0 61.51636237385901 -38.263106012198477 0 0 0 0 8.4335051085454324 22.191995428614973 0 22.191995428614973 42.964919236106653 0 0 0 0 32.241101993141456 -17.270044189560394 0 -17.270044189560394 1.0334557030457745 0 0 0 0 26.725914655135057 25.825428399712109 0 25.825428399712109 -4.9530454606938292 0 0 0 0 48.603351524319805 53.824758801949429 0 53.824758801949429 30.600287584395119 0 0 0 0 86.663265623398729 27.815099035114144 0 27.815099035114144 -39.277664526201988 0 0 0 0 39.899859053602995 11.507850682016397 0 11.507850682016397 -9.9591878525498032 0 0 0 0 26.52356940896243 -4.3899952090559964 0 -4.3899952090559964 -22.912063252412281 0 0 0 0 29.124753469453026 18.574496723343145 0 18.574496723343145 -6.8062232810370915 0 0 0 0 31.208056823910738 20.893809610099197 0 20.893809610099197 -5.1670677308059112 0 0 0 0 -78.895920199419834 9.6552059993205148 0 9.6552059993205148 15.083844413042243 0 0 0 0 5.5002212295688597 9.6894424070662915 0 9.6894424070662915 0.46293808506155187 0 0 0 0 -17.915013869351242 19.464960891073133 0 19.464960891073133 38.629920505916743 0 0 0 0 0.28578252023956274 0.10598182436729209 0 0.10598182436729209 -0.39931567489513498 0 0 0 0 -31.722504677067263 13.425142732686254 0 13.425142732686254 -2.9448679829993125 0 0 0 0 -25.566506782935903 13.243498755364271 0 13.243498755364271 -12.826153425374287 0 0 0 0 23.660390605399698 -0.83435619358260737 0 -0.83435619358260737 -6.9115438220833312 0 0 0 0 14.169444044871852 -0.0062395858913077973 0 -0.0062395858913077973 -2.6516032944282415 0 0 0 0 1.5315269627844827 3.4533130270938273 0 3.4533130270938273 -3.4374331927328967 0 0 0 0 27.248851147762252 14.744904075452723 0 14.744904075452723 -9.9117616150469985 0 0 0 0 24.035886287450921 17.915969027952087 0 17.915969027952087 -6.6505408873490524 0 0 0 0 21.126438692997908 8.238681777864258 0 8.238681777864258 -10.52185998171808 0 0 0 0 10.677357073856911 7.3778138923589722 0 7.3778138923589722 -7.2695427177959573 0 0 0 0 19.956335843091438 8.7250022090911443 0 8.7250022090911443 -7.0913605117639236 0 0 0 0 16.072546192026493 14.185725248606104 0 14.185725248606104 -6.6784769707046507 0 0 0 0 19.576258543213044 14.081544849603233 0 14.081544849603233 -9.7588463169540773 0 0 0 0 10.820799288425405 17.668976609473248 0 17.668976609473248 -2.6260618003034324 0 0 0 0 4.9665557541220551 11.395842467446528 0 11.395842467446528 -6.998660539604316 0 0 0 0 6.6881750575671504 5.2184982301873788 0 5.2184982301873788 -9.1359878840085003 0 0 0 0 -1.0323596383907443 8.7706527352884223 0 8.7706527352884223 -6.4424460106783954 0 0 0 0 5.2825117110087376 6.9577611025360966 0 6.9577611025360966 -11.284611887956999 0 0 0 0 2.5115624595584123 10.317063212508717 0 10.317063212508717 -3.1043075583535966 0 0 0 0 -0.74402494018175069 1.9318161982193134 0 1.9318161982193134 -2.329142323773965 0 0 0 0 10.438493990253846 7.9530716003509951 0 7.9530716003509951 -8.5611569190295995 0 0 0 0 54.235368850746454 9.1445264607846184 0 9.1445264607846184 0.4867954036599258 0 0 0 0 -25.802293704404292 17.011163105942614 0 17.011163105942614 -4.3884184351481963 0 0 0 0 40.776170971515967 -6.3932827969510981 0 -6.3932827969510981 5.3526127312215976 0 0 0 0 -3.3093222988088051 0.43550342829188082 0 0.43550342829188082 0.14801812771125356 0 0 0 0 -4.4411115438342676 -9.895516764668173 0 -9.895516764668173 11.806390434547211 0 0 0 0 1.3925060273735923 2.35714960081906 0 2.35714960081906 -0.77692697122166976 0 0 0 0 -11.138378151856422 14.255252552154452 0 14.255252552154452 8.5668065680829528 0 0 0 0 57.510015221746244 -37.459325981116024 0 -37.459325981116024 24.967352394523914 0 0 0 0 -25.831688584130006 18.94031020084185 0 18.94031020084185 -7.8861712369725865 0 0 0 0 -32.806526252017647 20.483461645182615 0 20.483461645182615 -4.1554539597918847 0 0 0 0 -29.381608155092181 16.287685224413508 0 16.287685224413508 -9.650793376726142 0 0 0 0 -41.676438103209875 11.020972434268515 0 11.020972434268515 -4.701062086199272 0 0 0 0 -36.481487154337628 17.502981475150136 0 17.502981475150136 3.3864687685108947 0 0 0 0 67.050815904203773 14.205977475130567 0 14.205977475130567 -45.776331884717365 0 0 0 0 0.53904392566041182 0.95518256519790334 0 0.95518256519790334 0.029639491514700467 0 0 0 0 -49.651511843062508 20.192543461472724 0 20.192543461472724 8.7344343321710767 0 0 0 0 4.1411104036673869 9.6308650292005602 0 9.6308650292005602 -0.78579639811747626 0 0 0 0 63.690201788905142 22.777671023116454 0 22.777671023116454 -24.73657430282492 0 0 0 0 
</DataArray>
<DataArray type="Float64" Name="cross_section_updated" format="ascii">
1 1 1 1 1 1 1 1 1 1 1 1 1 1 1 1 1 1 1 1 1 1 1 1 1 1 1 1 1 1 1 0.0094812386625407231 1 1 1 1 1 1 1 1 1 1 0.0099858401835387842 1 1 0.0088358908822841562 1 1 1 1 1 1 1 1 1 0.0098487451446663266 1 0.01009264386467814 1 1 0.0097659835793938027 1 1 1 1 1 1 0.0085919505131783792 1 1 1 1 1 1 1 1 1 1 1 1 1 1 1 1 1 1 1 1 1 1 1 1 1 1 1 1 1 0.0097122614109903544 1 1 1 1 1 1 1 1 1 1 1 1 1 1 1 1 1 1 1 1 1 1 1 1 1 1 1 1 1 1 1 1 1 1 1 1 1 1 1 1 1 1 1 1 1 1 1 1 1 1 1 1 1 1 0.0099924621601879433 1 1 1 0.010014752631256268 1 1 1 1 1 1 1 0.01001416723224732 1 1 1 1 1 1 1 0.010014111468033719 1 1 0.010055217410957804 0.0099531541614046731 1 0.0099738844016827033 1 1 1 1 1 0.0096798272067332731 1 1 1 1 1 0.0097281092603581035 1 1 1 1 0.0097216191034248979 1 1 0.0099257974672475567 0.010419846923847455 1 0.0094127557978304875 1 0.0099759531614839053 1 1 0.0096247745693632258 1 1 1 1 1 1 1 1 1 1 1 1 1 1 1 0.0094501671144253518 1 1 0.010420489912871469 0.010021706342305146 1 1 1 1 1 1 1 1 1 1 1 1 1 1 1 0.010295962441563835 1 1 1 1 0.010153506410969664 1 1 0.0099999420055662067 0.0094581133083061278 1 1 0.010492970704742416 1 1 0.010010091265932811 1 1 1 1 1 1 1 1 1 1 1 1 1 1 1 1 1 1 1 1 1 1 1 1 1 1 1 1 1 1 0.0098474806352001655 1 1 1 1 1 1 0.0099218787739473197 1 1 1 1 1 1 0.009817186066865595 1 1 1 1 0.0088555248618534463 1 1 1 0.0090798529739821669 1 1 1 1 1 0.0099986298479618433 1 0.0098996961196351606 1 1 0.0094745634020482906 0.010030102022226057 1 1 1 1 1 1 1 1 1 1 1 1 1 0.010187157048594641 1 1 1 1 1 1 1 0.0099274816704316253 1 1 1 0.0088600263620684828 1 1 1 1 0.0096627474990183086 1 0.0097742045714073189 1 1 1 0.0097073400734830131 0.0097153681288245988 1 1 1 0.0097185140989411532 1 1 1 0.010026322047970007 0.01031725898078982 1 1 1 0.01107904788771805 1 1 0.010395656263621378 1 1 1 1 0.0099080682436212177 1 1 1 1 1 1 1 1 1 1 1 1 1 1 1 1 1 1 1 1 1 1 1 1 1 1 1 1 1 1 1 1 1 1 1 1 1 1 1 1 1 1 1 1 1 1 1 1 1 1 1 1 1 1 1 1 1 1 1 1 0.0098381629832522844 1 1 1 1 0.010476168913321791 1 1 0.0100021923693186 1 1 1 1 1 1 1 1 1 1 1 1 1 1 1 1 1 1 0.01033338471962034 0.0099837641485120455 1 1 1 0.0094109497492875366 0.0098090104056873031 1 1 1 0.010673988135666918 1 1 0.010066705699236043 1 1 1 1 1 0.0083176386678461105 1 1 1 1 0.0099985342695706678 1 1 1 1 1 1 1 0.010022655621937493 1 1 1 1 1 1 1 1 1 1 1 1 1 1 1 1 1 1 1 0.0099772656782077772 1 1 0.0099555643362759568 1 0.0093515854152286353 1 1 1 1 1 0.0099607653794068843 1 1 0.0093237349332943257 1 1 1 1 1 1 1 1 1 1 1 1 0.0097790278241345965 1 1 1 1 1 1 1 1 1 1 1 1 1 1 1 1 0.0083520725724680021 1 1 1 0.009471989976919868 0.0098896445018439461 1 1 1 0.0097685699143828606 1 0.0078928528324883167 1 0.010143051661618323 1 0.0091444963568991493 0.0086601277397310612 1 1 1 1 1 1 1 1 1 1 1 1 1 0.010035943366231651 1 0.0096948010419251867 1 0.01010145450186682 1 1 0.0094234858807412721 1 1 1 0.010027401129375654 1 1 1 1 1 1 1 1 1 1 1 1 1 1 1 0.0097961949907952699 1 1 1 1 1 1 1 1 1 1 1 1 1 1 1 1 1 1 1 1 1 1 1 1 1 1 1 1 1 1 1 1 0.0099643722629185853 1 1 1 1 1 1 0.010711583161520856 1 1 1 1 1 1 1 1 1 1 0.0096509234729017911 1 1 1 0.010245757006154422 1 1 1 0.0099700191899964891 1 1 0.0096290701804692472 0.010200946241704926 1 1 1 1 1 1 1 0.0098744518960827369 1 1 1 1 1 1 1 1 1 1 1 1 1 1 1 1 1 1 1 1 1 1 1 1 1 1 1 1 1 1 0.0097330897260452937 1 1 1 0.009989586942327492 1 0.0099620378377419539 1 1 0.010029955160473064 1 1 0.0099969379278745177 0.0097714408374145884 1 1 1 1 1 1 1 1 1 1 1 1 0.010000210715181968 1 1 1 1 1 1 1 1 1 1 1 1 1 0.010000217386903055 1 1 1 1 1 1 1 1 0.010388785592915584 1 1 1 1 1 1 1 1 1 1 1 1 1 1 1 1 1 1 1 1 1 1 0.010491794672576001 1 1 1 0.010562031205456009 1 0.010165353044707046 1 1 1 1 1 0.0094075580955923915 1 1 0.010001750877021605 1 0.010246951538679319 1 1 0.010339637291149766 1 1 0.0094138737623344522 1 1 0.010539810146112815 1 0.0097284238343033694 1 0.0093493616493264906 1 1 1 1 1 1 1 1 1 0.0099584295049044754 0.009985231856544376 1 0.0090970401721041632 1 1 0.009588846099235453 0.0096839056287911871 1 1 1 0.0097021395005933778 1 1 1 1 1 1 1 0.0099609229933891562 1 1 1 1 0.0093114127047307215 1 1 1 1 1 1 1 1 1 1 1 1 1 1 1 1 1 1 1 1 1 1 1 1 1 1 1 0.010006743909979856 1 1 1 1 1 1 1 1 0.011534164740455146 1 1 1 0.011434455720017967 0.0089194943197400504 1 1 1 1 0.0099767697706429036 1 1 0.010881343456971381 1 1 1 1 1 0.010924651198326724 1 1 0.0090165045352051092 1 1 1 1 1 1 0.0092066171767434292 1 1 1 0.010881048694627485 1 1 1 1 0.0099937652131274288 1 1 1 0.0086986366392106853 1 1 1 1 0.0084778879987847285 1 1 1 0.0099765192345832969 1 1 1 1 1 1 1 1 0.0099349001694639619 1 1 1 1 1 1 1 1 1 1 1 1 1 0.0094804278179793713 1 1 1 1 1 1 1 0.0092856132613335397 1 1 1 1 1 1 1 1 0.0098886123875501861 0.0091130960853042942 1 1 1 1 0.0092236480328530615 1 1 1 0.0093011327938638567 1 1 0.0094757023531807823 1 1 0.011018054977602696 1 0.0093613842598130118 1 0.0099801133484816607 1 1 1 1 1 1 1 0.0097028042438646652 1 1 0.010002822483032395 0.0095675180374730148 1 1 1 1 1 0.0094856290687873254 1 1 0.0092360881722055518 1 1 1 1 1 1 1 0.010113108566167154 1 0.010045906857851165 1 1 1 1 0.0091149116866343517 1 0.010393941718519735 1 1 1 1 0.0085182329579795713 1 1 1 1 0.010087228276569271 1 1 1 1 1 1 1 1 0.010117021028492839 1 1 1 0.010044040630713538 1 1 1 1 1 1 1 1 1 1 1 1 1 0.0099079533672875812 1 1 1 0.010014895372353987 1 0.010042604838911505 0.009405595524278559 1 1 1 0.010660149377498188 1 1 0.008381609610690231 1 1 1 1 1 1 1 1 0.0090197153933490454 1 0.010952278302272057 0.01021944896375505 1 1 1 1 1 0.010787990842759431 1 1 1 0.01016669954437901 1 1 0.010722956309624207 1 1 1 1 0.010584150567535588 1 0.010359394474964338 1 1 1 1 0.0108848526332334 1 0.010001504909753784 1 1 0.0092291270947708424 1 0.0096668493305688639 1 0.0101868508417578 0.011112355170234334 1 1 1 1 0.0095512067014579555 1 0.01135344257515899 1 0.010043816855434781 1 1 1 0.0099495768340705018 1 1 0.010126924527682398 1 1 1 1 1 0.010079036098141259 1 1 1 1 1 1 1 1 1 1 1 1 1 1 1 1 0.010000602039539154 1 1 1 1 1 1 0.010023607175545542 1 1 1 1 1 1 1 1 0.0098515597331944784 1 1 1 0.010004928486315066 0.0097145270757362026 1 0.0098633493072971361 1 1 1 0.010231732634192584 1 1 1 1 1 1 1 1 1 1 1 0.011974778506125161 1 1 0.011997735520368424 1 1 1 1 1 1 1 1 1 1 1 0.0099583728607573491 1 1 1 1 1 1 1 1 1 1 1 1 1 1 1 1 1 0.010075620132442306 1 1 1 1 1 1 1 0.010148313162652599 1 1 1 1 1 1 1 1 1 1 1 1 1 1 1 1 1 1 1 1 1 1 1 1 0.0098928816008355923 1 1 1 1 1 1 1 1 1 1 1 1 0.0099372373357893735 0.010091423276345515 1 1 1 1 1 0.010000675195622829 1 0.010247249624249111 1 0.0099998528118949437 1 1 1 1 1 1 1 1 0.0099974220834272206 1 1 1 1 1 1 0.01000178047705506 1 1 1 1 1 1 1 1 0.010060103851828307 1 1 1 1 1 1 1 0.010136544888076224 1 1 1 1 1 1 0.0099555716747987827 1 0.010069343179760232 1 1 1 1 1 1 1 1 1 1 1 1 1 1 1 1 1 1 1 1 1 0.0099487265484102267 1 1 1 1 1 1 1 1 1 1 1 1 1 1 1 1 1 0.01045755145778624 1 1 1 0.010010027893657616 1 1 1 1 1 0.010303804964002284 1 1 0.010109468942513326 1 1 1 1 1 1 1 1 1 1 1 1 1 1 1 1 1 1 0.0083377533909991287 1 1 1 1 1 1 1 1 1 0.0080296079504604025 1 1 1 1 1 1 1 1 1 1 1 1 1 1 1 1 1 1 1 0.0074643184809385929 1 1 0.0077123914013039647 1 1 1 1 1 1 1 1 1 1 1 1 1 1 1 1 1 1 1 1 1 1 1 1 1 1 1 1 1 0.0072972099831007378 1 0.010006024629579172 1 1 1 1 1 1 1 1 1 1 1 1 1 1 1 0.010154203103096778 1 1 1 0.011056792952824936 1 1 0.010786618317165101 1 1 1 1 1 1 1 1 0.0086745100748580849 1 1 1 1 1 1 0.0088968750307274053 0.0083205344900074488 1 1 1 1 1 1 1 1 1 1 0.011428590247189108 1 0.010369309473310514 1 1 1 1 0.0084128583945437211 1 1 1 1 0.0088226913139833833 0.011109894568467822 0.010822573926107006 1 1 1 1 1 1 0.0082260943237403607 1 0.008397331926190776 1 1 0.010791256661026427 1 1 0.010002719358395463 0.010583551799676447 1 1 1 1 1 0.010087208420669761 1 1 1 1 1 1 1 0.01022266364054214 1 1 1 1 1 1 1 0.010258702277481137 1 1 1 1 1 1 1 0.010027737594991912 1 0.011233025760276349 1 1 1 1 0.010191864535263537 1 1 1 1 1 1 1 1 1 0.0099954970434419383 1 1 1 1 1 1 1 1 0.0099677382935189716 1 0.011189279638246598 1 1 1 1 1 1 0.01011720531967125 0.010873631999045619 1 0.0097675993290524364 1 1 1 1 0.009543384216732894 1 1 0.0093483564532548524 1 1 1 1 1 1 1 1 1 0.0098938010192023695 1 0.010750098186996394 1 1 1 1 1 1 1 1 1 1 1 1 1 1 1 1 1 1 1 1 1 1 1 0.010141779203294107 1 1 1 1 1 1 1 0.010228613658742093 1 1 1 1 1 1 0.0099991097420493082 1 0.010563393155661828 1 0.010332697625611866 1 1 1 1 1 1 0.010677131825068317 1 1 0.011174625590642664 1 0.011188618815751852 1 1 1 1 1 1 1 1 1 1 1 1 1 1 1 1 1 1 0.010010823208595681 1 1 1 1 1 1 0.011189159414445652 1 1 1 0.0098515963617412557 0.0097248583072609071 1 1 0.0097509495256049884 1 1 1 1 1 0.0099563701239164318 1 1 1 1 1 1 1 1 1 1 1 0.010068617477654777 1 1 1 1 1 1 1 1 1 1 1 1 0.010006802485161517 1 1 1 1 1 0.009887219897147902 1 1 1 0.0099384933487376755 1 1 1 1 0.0099619170149283509 1 1 1 1 1 0.010010122909750943 1 1 1 1 0.0099941891626961488 1 1 1 1 1 1 1 1 0.0097136556003867731 1 1 1 0.009906738758609689 1 1 1 1 1 0.010101166934645352 1 1 1 1 1 0.0099369630649368233 0.010408317866012116 1 1 1 1 1 1 1 0.0099003375153197282 1 1 1 1 1 1 1 1 1 1 1 1 1 1 1 1 0.0074513212469999139 1 1 1 0.010134924598182774 1 1 1 1 1 1 1 0.0085920719280598544 0.0099122872383476061 1 1 1 1 1 1 1 1 1 1 1 0.010208122036827779 1 1 0.0096563777268170309 1 1 0.011142255982434308 1 1 1 1 1 1 0.0086054989525732005 0.011117779957513793 1 0.011332774378236479 0.0099993032607361334 1 1 1 1 1 1 1 1 1 1 1 1 1 1 0.0087926651785277549 1 0.010204186652907081 1 1 1 1 1 1 0.0099650773089485049 0.010021868089655286 1 1 1 1 1 1 1 1 1 1 1 1 1 1 1 1 0.0083409881975197338 1 1 1 1 1 1 0.010639015956215662 1 1 1 1 1 1 1 0.010510559377666814 1 1 0.009285238288016159 1 1 1 1 1 1 1 0.0097910747441386278 1 1 1 1 1 1 1 1 1 1 1 1 0.0084221427081667168 1 1 1 1 1 0.0089661311136198327 0.010546261759755388 1 1 1 0.010525508955919759 1 1 0.0092855234501096635 1 1 1 1 1 1 0.0095101783034850541 1 1 1 1 0.0093714681710533321 1 1 1 1 1 1 1 0.009895701522333945 1 1 0.010391464146179932 1 1 1 1 1 1 0.009999425371270217 1 1 1 1 1 1 1 0.010656542291098244 0.0096266942050894852 1 1 0.0098043370327307103 1 1 1 0.00999982933125022 1 1 1 0.0096549690264418533 0.010579288220005534 1 0.009709347125224697 1 1 1 1 1 1 0.010894478703295046 1 1 1 0.010340703299604775 1 1 0.009695342289617305 1 0.0098501337020264201 1 1 1 0.010049729903838385 1 1 1 1 0.0099671676829125744 1 0.0098979118845607915 1 1 1 1 1 1 1 1 1 1 1 1 1 1 1 1 0.0090681636987098788 1 1 0.010000318924026788 1 1 1 0.0085428496384359204 1 1 0.010000707104963117 0.010763692642655219 1 1 1 1 1 1 1 1 1 1 1 1 1 1 1 0.0097202974255876217 1 1 1 1 0.0093505802093451947 0.010252761276861387 0.0098759736285925753 1 1 1 0.0093178291116028447 0.010912433768360409 1 1 1 0.010189262343813687 1 1 0.010019221735131667 1 0.010817445394206551 1 1 1 1 1 1 1 1 0.010446690603988111 1 1 1 1 1 1 1 1 1 1 0.010004656133090487 1 1 1 1 1 1 1 1 1 1 0.010020219006028777 0.0098703514049773965 1 0.00981016573472639 1 1 1 1 1 1 0.010095230964556411 1 1 1 1 0.0097261774168476197 1 1 1 0.010115356923133811 1 1 1 1 1 1 1 0.01005814502744809 1 1 1 1 1 0.010165874631552775 1 1 1 1 1 1 1 1 1 1 1 1 1 1 1 1 0.0094483827791539254 1 0.0099817157258758407 1 1 0.00954074714418272 1 1 1 1 1 1 1 0.010432237496227299 1 1 1 1 1 0.010435688977922851 1 1 1 1 1 0.010391159899604908 1 1 0.010001957346240584 0.0099412767449261197 0.010042142623449796 1 1 1 1 0.0099776228828437341 1 1 1 0.0096201136488760705 1 1 1 1 1 1 1 1 1 1 1 1 1 0.0099937473158638046 1 1 1 1 0.0099878690389237305 1 0.009999951217399685 1 1 1 1 1 1 1 1 1 1 1 1 1 1 1 1 0.010035383539004624 0.010004220683906138 1 1 1 1 1 0.010176570456185306 0.010086798911501563 1 1 1 1 1 1 1 0.010027434761956666 1 1 1 1 1 1 0.010000860753429647 1 1 1 1 1 1 1 1 1 1 0.0099986527085002778 1 1 1 1 1 1 1 1 1 1 1 1 1 0.0092592227956918051 1 1 1 0.0099838528608975248 0.0093408051920908178 1 1 1 1 1 1 1 0.009965568586773367 1 1 1 1 1 0.010315889609781609 1 1 1 1 1 1 1 0.01039993994435141 1 1 1 1 1 1 1 1 1 1 1 1 1 1 1 0.01001312641871306 1 1 1 1 0.010044712406567981 1 1 1 1 1 1 1 1 1 1 1 1 1 1 1 1 1 1 1 1 1 1 1 1 1 1 1 1 1 1 1 1 1 1 1 1 1 1 1 1 1 1 1 1 1 1 1 1 1 1 1 1 1 0.0099439666164816871 1 1 1 1 1 1 0.010684452338865669 1 1 0.009851233833594375 1 1 1 1 1 1 1 1 1 1 1 1 1 1 1 1 1 1 1 1 1 1 1 1 1 1 1 1 1 1 1 1 1 1 1 1 0.010104618900961629 0.009874865209486175 0.0099930268187658159 1 1 1 0.010186693386732584 1 0.009986385017851266 1 1 1 1 0.010098072274994785 1 1 1 1 1 1 1 1 1 1 1 0.010028813497513557 1 1 1 1 1 1 1 1 1 1 1 1 1 1 1 1 1 1 1 1 1 1 1 1 1 1 1 1 1 1 1 1 1 1 1 1 1 1 1 1 1 1 1 0.010014031297394364 1 1 1 1 1 1 1 1 1 1 1 1 1 1 1 1 0.010025226130963806 0.0099679395638656732 1 1 1 1 0.010033385419933651 1 1 1 1 0.0099507319900646908 1 0.0099898037026233989 1 0.010032870919672428 1 1 1 1 1 1 1 1 1 1 1 1 1 1 1 1 1 1 1 1 1 1 1 1 1 0.010005611200640264 1 1 0.0099939770948745173 0.010001647273722075 1 1 1 1 1 1 1 1 1 1 1 1 1 1 1 1 1 1 1 1 1 1 1 1 1 1 1 1 1 1 1 1 1 1 1 1 1 1 1 1 1 1 1 1 1 1 1 1 1 1 1 1 1 1 1 0.0099896037517163867 1 1 1 1 1 1 1 1 1 1 1 1 1 1 1 1 1 1 1 1 1 1 1 1 1 1 1 1 1 1 1 1 1 1 1 1 1 1 1 1 1 1 1 1 1 1 1 1 1 1 1 1 1 1 1 1 1 1 1 1 1 1 1 1 1 1 1 1 1 1 0.0098733843435587186 1 1 1 0.0095988392789035561 1 1 1 1 1 1 1 1 1 1 1 1 1 1 1 1 1 1 1 1 1 1 1 1 1 1 1 1 1 1 1 1 1 1 1 1 1 1 1 1 1 1 1 1 1 1 1 1 1 1 1 1 1 1 1 1 1 1 1 1 0.0099725775259678542 1 0.010030593210711715 1 1 1 1 1 1 1 1 1 1 1 0.010041366265189582 1 1 1 1 0.010032654374911068 1 1 1 1 0.010755821113858446 1 1 0.011011460211018873 1 1 1 1 1 1 1 1 1 1 1 1 1 1 1 1 1 0.010309794254837166 1 1 1 0.010143653407499254 1 1 1 1 1 1 1 1 1 1 1 1 1 0.010004590232605472 1 0.010253845019679013 1 0.010805791872206282 1 0.010235941027438506 1 1 1 0.010427335182025047 1 1 1 1 1 1 1 1 1 0.010565312445723349 0.010197272727215755 1 1 0.010069436143420946 1 1 1 1 1 1 1 1 0.01102614422114034 1 0.011718457541252234 1 1 0.0091304910108537807 1 1 1 0.010425027280611211 1 1 0.010220759325270737 1 1 1 1 1 1 1 1 1 1 1 0.0098138655318945681 1 1 1 1 0.0098078588567600388 1 1 1 1 1 1 1 1 1 1 1 1 1 1 1 1 0.010043689470061604 1 1 1 1 1 1 1 1 1 0.0093486735286748019 1 0.010652734332603692 1 0.011613672294648571 1 1 0.009828091170398295 1 1 0.0096698398212062414 1 1 1 1 1 1 1 1 1 1 1 0.010953150250354147 1 0.011656660478723995 1 1 1 0.010198870335712587 1 1 1 1 1 1 1 0.0089477008353605857 1 0.0099758938932181657 0.0090981724898643174 1 1 1 1 1 0.0094405263723160091 0.0094011723704165509 1 1 1 1 1 1 1 1 1 1 1 1 1 1 1 1 1 0.011320440725944219 1 0.010775639211429256 0.009407802573845464 1 1 1 0.01162761668432956 1 1 1 1 1 1 1 1 1 1 1 1 0.011159287364550168 1 1 0.010800610981557842 1 0.010634791955747576 0.0092847041722572115 1 1 1 1 0.010092905806043873 1 1 1 1 1 1 1 1 1 1 1 1 1 0.0098931903339717735 1 1 1 1 1 1 1 1 1 1 1 0.010039724115198927 1 1 1 1 1 0.010124853533255995 1 1 1 1 1 1 1 1 1 1 1 1 1 0.0099093981743104669 1 1 1 1 1 1 1 1 1 1 1 1 1 1 1 1 1 1 1 1 1 1 1 1 1 1 1 1 1 1 1 1 1 1 0.0091024423622440877 1 1 1 1 0.0090544759340681295 1 0.0099120204543400488 1 1 1 1 1 1 1 1 0.0074882000628162084 1 1 1 0.010046410807398131 1 1 1 1 1 1 1 1 0.010124055794955962 0.0091613830036291581 1 1 0.0087662915643238973 1 0.010396420335847364 1 1 1 1 1 1 0.010310160170187582 1 1 1 1 0.0091043125704061111 1 1 0.0094235487155208165 1 1 1 1 0.0099560842134291967 1 1 1 1 1 1 1 1 0.010193285039532511 0.0098798042503129568 1 1 1 1 1 1 1 1 1 1 1 1 1 1 1 1 1 1 1 1 1 1 0.010805275965373649 1 1 0.0099171175460092808 1 0.0097680014913325425 1 1 1 1 1 1 0.0098795212996976318 1 0.010449450488523287 1 1 1 1 1 1 1 1 1 1 1 1 1 1 1 1 1 1 1 1 1 1 1 1 1 1 1 1 1 1 1 1 1 1 1 1 1 1 1 1 1 1 1 1 1 1 1 1 1 0.010137370677871415 1 1 0.010274321591347531 1 1 1 1 0.011189024626657456 1 1 1 1 1 1 1 1 1 0.011061206738469177 1 1 1 1 1 1 1 1 1 0.010739099071033804 1 1 1 1 0.010349331034022679 1 1 0.010279494394016927 1 1 1 1 1 1 1 0.0099561753875992125 1 1 0.010079404218757533 0.010049929343638783 1 1 0.010143709931849938 1 1 1 1 1 1 1 1 1 1 0.0098851632901301896 1 1 1 1 1 1 1 1 1 1 0.010083698965641822 1 1 1 1 0.010180708729627445 1 1 0.010097152916789611 1 1 1 1 1 1 1 1 1 1 1 1 1 1 1 1 0.010176823640347334 1 1 1 0.010526469066454084 1 1 0.009844267596745622 1 1 1 1 1 1 1 1 1 1 1 1 1 1 1 1 1 1 1 1 1 1 1 1 1 1 1 1 1 1 1 1 1 1 1 1 1 0.010244877001432616 1 1 1 1 1 1 1 1 1 1 1 1 1 1 1 1 1 1 1 1 1 1 1 1 1 1 1 1 1 1 1 1 1 1 1 0.009964567162834774 1 1 1 1 1 1 0.010704565983137888 1 1 0.011151564476362789 1 1 1 1 0.010063865889627731 1 1 1 1 1 1 0.0093362413900870602 1 1 0.011624576529140519 1 1 1 1 0.011836936680223129 1 1 1 1 0.010180731679005522 1 1 1 1 0.010211855861165877 1 1 1 1 1 1 0.010094990071788086 1 1 1 1 1 1 1 1 1 1 0.0094575701451521874 1 1 1 1 1 1 1 1 0.0097828594236690283 1 1 0.0098039348049280828 1 1 1 1 1 1 1 1 1 1 1 1 1 1 1 0.01002147659924091 1 1 0.010751681528571928 1 1 0.0097911190255781759 1 1 0.010984785358313775 1 1 1 1 1 1 1 0.010002199402465153 1 1 0.0099561443932614235 1 1 1 1 1 1 1 1 1 1 1 1 1 1 1 0.010064534405922244 1 1 1 0.010147553067016512 1 1 1 1 1 1 1 1 0.010280397434393072 1 1 1 1 0.0097044991765670094 0.0091834336140281907 1 1 1 1 0.010756733411687014 1 1 1 1 1 1 1 0.0085786710993457568 1 1 0.0098697251554957684 1 0.0092914784226307036 0.010700198258153147 1 0.0095888535401243251 0.010859459167455045 1 1 1 1 1 1 1 1 1 1 1 1 1 0.010005496846609159 0.0099974756343608542 1 1 1 1 0.0086173846045860952 1 1 0.010081337708977152 0.009990654562662583 0.009906082622985285 1 1 0.010633496550002496 1 1 0.010003077853565556 1 1 1 0.010364644743799906 1 0.0099950782349814173 1 1 1 1 1 1 1 1 1 1 1 1 1 1 1 1 1 1 1 1 1 1 1 1 1 1 1 1 1 1 0.0098347619027325285 1 1 1 0.0099386184559596726 1 1 1 1 1 1 1 0.0099474320766388263 1 1 1 1 0.010415439100603085 1 1 1 1 1 0.010035912324843143 1 1 1 1 1 0.011105481914931997 1 1 1 1 1 1 0.0096890790141155678 1 1 1 1 1 1 1 1 1 1 1 1 1 1 0.010519980578018475 1 1 1 1 1 1 1 1 0.009989722233758002 1 1 1 1 1 1 0.010004231189575868 1 1 1 1 0.011105145269291957 0.0089144782853988781 1 0.010598614215207655 1 0.0098737626229583909 1 1 1 1 0.010454273067564931 1 0.010126362794665495 1 0.01052130118893372 1 0.010783648713073982 0.0095947881100709349 0.011107584295506387 1 1 1 1 0.010436462541915202 1 0.0099995221585606666 1 1 1 1 1 1 1 1 1 0.010103295118078797 1 1 1 1 1 1 1 1 1 1 0.010050950281062331 1 1 0.010134549321737827 1 1 0.010249135011412922 1 1 1 1 1 0.010306041251379884 1 1 1 1 1 1 1 1 1 0.0099523022705449854 1 1 1 1 1 1 0.0098547601950811862 1 1 1 0.010000022825826609 1 1 1 0.0097675205627832974 1 1 1 0.010440953844806374 0.010001412488969658 1 0.01064217916715134 1 1 1 1 0.012283286999818885 1 1 0.011468222279021731 1 1 1 1 1 1 1 1 1 1 1 0.0095106591608466601 1 1 1 0.010593534975753882 1 1 1 0.010863124620489203 1 0.0099958796209900745 1 1 1 1 1 1 1 1 1 0.0094246963205867722 1 0.0098723432938866863 1 1 1 1 0.0099996565752589681 1 1 1 0.0082759733625488233 1 1 1 1 1 0.0086708991331452198 0.010126823999403765 0.010048828627949102 1 1 1 0.010051834138053684 1 1 1 1 1 1 1 1 1 1 1 1 1 1 1 1 1 1 1 1 1 1 1 1 1 1 1 0.01031686087368157 1 1 1 1 1 1 1 1 1 1 1 1 1 1 1 1 0.010037231733575286 1 1 1 1 1 0.0096007113206386628 1 1 1 1 0.0098172947571859917 0.010620214315007242 1 0.010532657971135563 0.010049103405955127 1 1 1 0.010072898368421368 1 0.010099326221347547 1 1 0.011087507987192637 1 1 1 1 1 1 1 1 1 1 0.0096430658056337586 1 1 1 1 1 1 1 1 1 1 1 1 1 1 1 1 1 1 1 1 1 1 0.010132429228460955 1 1 0.01008059509040727 1 1 1 1 1 0.010164655263080082 0.010514960047286245 1 1 1 1 1 1 1 1 1 1 1 1 1 1 1 0.010846588020790662 1 1 1 1 0.010174310529537925 1 1 0.010509722933453234 1 1 1 1 1 1 0.010797168158818277 1 1 1 1 0.0099078206502361335 1 1 1 0.009994647169346102 1 1 1 1 1 1 1 1 1 1 1 1 1 1 1 0.0098686713379930839 1 0.011135368064101094 1 1 1 0.010007784615830587 1 1 1 1 1 1 1 1 1 1 1 1 1 1 0.009651255771969949 1 1 1 1 1 1 1 0.0094495029962710572 1 1 1 0.0099019480023748493 0.010110868419703508 1 1 0.0097663828243317388 0.010107625341146117 0.010035408632238261 1 1 1 1 1 0.0098640998882699588 1 0.010182014691816064 1 0.010965420153819915 1 1 1 1 1 1 0.0099756422360483456 1 0.0099929521050886386 1 1 1 0.0097912444933040844 1 0.0098551429589996721 0.0099128114046550097 0.010538593734894771 1 1 0.01032544341652338 1 1 1 1 0.0099439215357829298 1 1 0.0099835521299086079 1 1 0.0099288650993379721 1 1 0.0095331451591371477 1 1 1 0.010001599716120597 1 1 0.009963546694381719 1 1 0.010430278806851982 0.0097099382220346281 1 0.010165085151041468 1 1 1 1 1 1 1 1 0.0099996149266970147 1 0.010926824143227794 0.009914256740453261 1 0.010452147549466467 0.0098712556213862452 0.0099740722922511058 1 1 0.0098518956577603022 1 1 0.0098151090533415072 1 1 1 1 0.0099555811416969561 1 1 1 0.0094394987358815789 1 1 1 1 0.009999594751687841 1 1 0.010928641732109196 1 0.009912304080376905 1 0.0099948348940672345 1 1 1 0.0097302583535825403 0.010112575242685586 1 0.0097126801712845 0.010266088398742173 1 0.0098231408956861305 1 1 0.010189727283964067 1 1 1 1 1 1 1 0.010157615647273698 1 1 0.010255715139857855 1 0.010283193205691245 1 1 0.01017903940836533 1 1 0.010510423645367096 1 1 0.010012834645427526 1 1 1 1 1 1 1 1 1 1 1 1 1 1 1 1 1 1 1 1 1 1 1 1 1 1 1 1 1 0.010024128435753376 1 1 1 1 1 0.0096742369668491209 0.010991171032472203 1 1 1 1 0.010850234718755363 1 1 0.010746214636419555 1 1 1 1 0.011082025787231808 1 1 1 1 1 0.011120493715606493 1 1 1 1 1 0.010102511021974741 1 0.010933255565700791 0.010383453701978105 1 1 1 1 1 1 1 1 1 1 1 1 1 1 1 1 1 0.011223836275515969 1 1 1 1 1 1 1 1 0.010007648793776892 1 1 1 1 1 0.010325960741174593 1 0.011782258772748452 1 1 1 1 1 1 1 1 1 1 1 1 1 1 1 1 1 1 1 0.011198907621537503 1 1 1 1 1 1 1 1 1 1 1 1 1 1 1 1 1 1 1 1 1 1 1 1 1 1 1 1 1 1 1 1 1 1 1 1 1 1 1 1 1 1 1 1 1 1 1 1 1 1 1 1 1 1 1 1 1 1 1 1 1 1 1 1 1 1 1 1 1 1 1 1 1 1 1 1 1 1 1 1 1 1 1 1 1 1 1 1 1 1 1 1 1 1 1 1 1 1 1 1 1 1 1 1 1 1 1 1 1 1 1 1 1 1 1 1 1 1 1 1 1 1 1 1 1 1 1 1 1 1 1 1 1 1 1 1 1 1 1 1 1 1 1 1 1 1 1 1 1 1 1 1 1 1 0.0096470573495892106 1 1 1 1 0.010482414359142312 1 1 1 1 1 0.0098432463166697026 1 1 1 0.0098850990045084002 1 0.010947657118006845 1 1 1 1 0.010347758129148649 1 1 1 0.010221346671432718 0.010063237266694572 1 1 1 1 1 0.010018427048090178 0.010344867296099493 1 1 1 1 1 1 1 1 1 1 1 1 1 0.010002382242799288 1 1 1 1 1 1 1 1 1 1 1 1 1 1 1 1 1 0.010168084830027572 0.0099141828356848968 1 1 1 1 1 1 1 0.0099508324579134413 1 1 1 1 1 0.010023567948173759 1 0.010086095603415481 1 1 1 0.010008914555876974 1 1 1 1 1 1 1 1 0.010011280679536581 1 1 1 1 1 0.010121958688067215 1 1 1 1 1 1 1 1 1 1 1 1 1 1 1 1 1 1 1 1 0.0099072663172702392 1 1 1 1 1 1 0.0097060222173041902 1 1 1 1 1 1 1 1 1 1 1 1 1 1 1 1 1 1 1 1 0.010017961691489198 1 1 1 1 1 1 1 1 1 1 1 1 1 1 1 1 1 1 1 0.0085049428951623936 1 1 1 1 1 1 1 1 1 0.0086369158801692762 1 1 0.010602457166443891 1 1 1 0.011083500830862458 1 1 1 1 1 0.010860336459315128 1 1 1 0.0092147764807393763 1 1 0.010789900642180494 1 1 1 0.010836050461312498 1 1 1 1 0.0093811104447230047 1 1 1 0.010028392621177985 1 1 1 1 1 1 1 0.0086236299194509293 1 1 0.010849767044387315 1 1 1 0.0085570361739384267 1 1 1 0.010000935197181017 0.0091374198558673778 0.01131754354635312 1 1 0.0099602590646173193 1 1 0.011001476176236126 1 1 1 0.010566511883773756 0.0083804401880559591 1 1 0.0082661922897308004 1 1 1 1 1 1 1 1 0.0090553626340496296 1 1 1 1 0.01097150741615446 1 1 1 1 0.0075799989955082437 1 1 1 0.0099997371175602496 1 1 1 1 1 0.01137687870378359 1 1 1 1 0.010590707228707341 0.0096896080906604849 1 1 0.01005773266930883 1 1 0.01110515352380209 1 1 1 1 1 1 1 1 0.010180177930148044 1 1 1 1 1 0.01084787057794896 0.010310469285931368 1 1 0.010704485313478901 1 1 1 1 0.0099527987925792979 1 1 0.010580804224107017 1 1 1 1 1 1 1 1 1 0.0098280095064425393 1 1 1 1 1 1 1 1 1 1 1 1 0.01000505756649012 1 1 1 1 1 1 0.0098314305109978573 1 1 0.0095139361830494599 0.010489127718609013 1 1 1 1 1 1 1 1 1 1 1 0.010645311613389366 1 1 1 0.010057467466415252 1 1 1 0.011053532738901514 0.008012760904430781 1 1 1 0.010002191559781675 1 1 0.0092868482818757852 0.010214745034656641 0.0089103001622268044 1 1 1 1 1 1 1 0.0092425856343023305 1 0.010205786673181286 1 1 0.0091416193540769641 0.010041266694284309 0.0099788277159433628 1 1 0.010040296241249889 1 1 1 1 1 1 1 0.010060469618595675 1 1 1 1 1 1 1 1 0.010145048279430699 1 1 1 0.010259993488593657 1 1 1 1 1 1 1 0.010084578660835028 1 1 1 0.010074105336382286 1 1 1 1 1 1 1 1 1 1 1 1 1 1 1 1 1 1 1 1 1 1 1 1 1 1 1 0.010170856419617097 1 1 0.010052697832390017 1 1 1 1 1 1 1 0.010321547781864995 1 0.0095301297908230338 1 1 1 1 1 1 1 1 1 1 0.0098763990834716195 1 1 1 0.010016317163100561 1 1 1 0.010036678701700658 1 1 1 0.010020706641533785 0.0089035368736554918 1 1 1 0.010009432192911977 1 1 1 0.0090966769070424704 1 1 1 1 1 1 1 1 1 1 1 1 0.010046193750201488 1 1 0.0099181295416130508 1 1 1 1 1 0.010052178971042484 1 1 0.010212878063995841 1 1 1 1 1 0.010084663735843038 1 1 1 1 1 1 1 1 1 1 1 1 0.010078722808214946 1 0.0094968464075796608 1 1 0.0099834299167170289 1 0.0098233785216618359 1 1 1 1 1 1 0.0099788498240094003 1 1 1 1 1 0.010001188745945777 1 1 1 1 1 1 0.0098296940901115744 1 0.0081353875352795334 1 1 1 1 0.0085811402569779139 1 0.0099568521995184872 1 0.0086601420402024204 1 1 1 1 0.0090650783292541628 1 1 0.0099702269175921433 1 1 1 1 1 1 1 1 1 1 1 0.0099782609676955531 1 1 1 1 1 1 1 0.0092324990237363444 1 1 1 1 1 1 0.0089927246476914288 1 1 1 0.0088146050527544914 1 1 1 1 1 1 1 1 1 1 1 0.010869917968427354 1 1 1 1 0.0095232202218667548 1 1 1 1 1 1 1 1 0.010013069015721632 1 1 1 1 1 1 1 1 1 1 1 1 0.010113312232843473 1 0.0097062531331408419 0.01095236940713679 1 0.0099209027542055024 1 1 0.010044079538243218 1 1 1 1 0.010024303293464158 1 0.0097805937897939687 1 1 0.010821624366326794 1 0.0099895371732893375 1 1 0.01089071534674145 1 0.0096172633596622661 1 1 1 1 0.009723239087174932 1 1 1 0.0099057575071114078 1 1 1 1 1 1 1 1 1 1 1 0.0098902243333476251 1 1 1 1 1 1 1 1 1 0.0099648503973857501 1 1 1 1 1 1 1 1 1 1 1 1 1 1 1 1 1 1 1 1 1 1 1 1 0.0084195591035060805 1 1 1 1 1 0.0083291915230860238 1 1 1 1 1 1 0.0091046506331795684 0.010027666385918501 1 1 0.010583453786319219 1 1 1 1 0.011305456169484845 1 1 1 1 1 0.010369044394187394 1 0.010001130211585231 1 1 1 0.010043823185500031 1 1 1 1 1 0.010029255739470472 1 1 1 1 1 1 0.0092411856259262057 1 1 1 1 1 1 1 1 1 0.0099442382393469878 1 1 1 1 1 0.0093193839728029897 1 1 1 0.0099575670471309281 1 0.0093545440473570031 1 1 1 1 1 1 1 1 0.0099391915551355382 1 0.0098167886240898526 1 1 1 1 0.0094358266477780305 1 1 1 1 1 1 0.0095748917851948886 1 1 0.0095248728236380243 1 1 1 0.0099990558426033393 1 0.0094900734801037674 1 0.01108114607529309 1 0.0095473604496958096 1 1 0.0096816091286452775 0.0093878264380775692 1 0.01002958389255772 1 1 0.0099209675763418537 1 1 1 1 0.0118065106884057 1 0.011818429851516642 1 1 0.0097697109279611671 1 1 0.009446673387627464 1 1 1 1 0.010833488498852463 1 0.0090245907533029867 0.01109870668986189 0.0095074152086961333 1 0.011199037352278099 1 0.009523520853007594 1 1 0.01152849682453781 1 1 1 0.011733026828625426 0.011534729618555464 1 1 1 1 1 1 1 1 1 1 1 1 1 0.011958147197275448 1 1 0.010223555077973297 1 1 1 0.0099963139562698738 0.0095201424088179869 1 1 1 1 1 1 1 0.0098029158947257992 1 1 0.0099185728697133938 1 1 1 0.0097219769207284625 1 1 0.010704625092495899 1 1 1 1 1 1 1 1 0.0099999489914981785 1 1 1 1 0.008853634523524152 1 1 1 1 1 0.0091486790020505332 1 1 1 0.010001616739124631 1 1 0.0091422227349847729 1 1 0.009494229108542019 0.0092980112212288323 1 1 1 1 1 1 1 1 1 1 1 1 1 0.0093084828046282684 1 1 1 1 1 0.009981551219226269 1 1 0.0099398599983036694 1 1 1 1 0.010400080401087605 1 1 1 1 1 0.010753170962707285 1 1 0.0095896747517516829 1 0.010897100672151357 1 0.0099128782807973818 1 1 1 0.011366247889560015 1 1 1 1 1 1 1 0.010125823282605789 1 1 0.011559152170397706 1 1 1 0.011634930154603405 1 1 1 1 1 0.010062506524106696 1 1 0.0095277079590306152 1 1 0.0097133085183484964 0.0099374341271283445 0.010009826219266599 1 1 1 1 1 1 1 1 0.0098654923778657127 1 1 1 0.0087850374499515854 0.0087295208540088872 1 1 1 1 1 1 0.010026393072937734 1 1 1 1 1 1 1 1 1 1 1 1 0.010621334485257639 1 1 0.010695342019760485 1 1 1 1 1 1 1 0.0096001990435909887 1 0.0089945099258937206 1 1 0.0099956294822503358 1 1 1 0.0087586159842444489 0.0093060512439204178 1 0.010366122398999287 1 0.010356145592150414 1 0.011055364809006343 1 1 1 0.0091238342475907785 0.010490685623076314 1 1 1 0.010329978247801222 0.0092289634744962389 1 1 0.0090791242937613807 1 0.010286870646011401 1 0.010519182886798959 1 1 0.0091552147439236085 1 1 1 1 0.0091330991750945955 1 1 1 1 1 1 1 1 1 0.010034181829584623 1 1 1 1 1 0.0119461010921745 1 1 1 1 1 1 1 1 1 1 1 1 1 1 1 1 1 1 1 1 1 1 1 1 1 1 1 1 1 1 0.011999074525246251 1 0.010008105958149856 1 1 1 1 0.010817601532347294 1 1 1 1 1 1 1 0.0098697384909394968 1 1 0.0092231212583778269 1 0.0095301523080580097 0.0100268007450353 1 1 1 1 0.010357680823466414 0.010299755857389219 1 1 1 1 1 1 1 1 1 1 1 1 0.0098703283596226384 1 1 1 1 1 1 1 0.0097305961662601682 1 1 1 0.0096140097748087308 0.010085593564261709 1 1 1 1 0.011822117449995392 1 1 1 0.011423693761739202 1 1 1 1 1 1 1 1 1 0.010302955680816642 1 1 0.010014231575399084 1 1 1 0.0097948322878152107 1 1 1 1 1 1 1 1 0.0097270147750262055 1 1 1 1 1 1 0.010249591694916604 1 1 1 1 1 1 0.010538100993399503 1 1 0.010027608774528941 1 1 1 1 1 1 0.010653744141527536 1 1 1 0.010010258947217984 1 1 1 1 1 1 1 1 1 1 1 1 1 1 1 1 1 1 1 1 1 1 1 0.0099778653556054364 1 1 1 0.010026218674420939 1 1 1 1 0.011007275411485221 1 1 1 1 1 1 1 1 1 1 1 1 1 1 0.01003414725386345 1 1 1 1 1 1 1 1 0.010571310245215227 1 1 1 1 0.010174979116000285 1 1 1 1 1 1 1 1 1 1 1 1 1 0.0093650186155485246 1 1 1 0.0095540935783298558 1 1 1 1 1 1 1 1 1 0.0099450007611437616 1 0.0099750241965582027 1 1 1 1 1 0.0087474704746743608 1 1 1 1 0.0097420407312919996 1 1 1 1 1 1 1 1 1 1 1 1 1 1 1 1 1 1 1 1 1 1 1 0.010001938673031386 0.0099987697853525757 1 1 1 1 1 1 1 1 1 1 1 1 1 1 1 1 1 1 1 1 1 1 1 1 1 1 1 1 0.0099816170490113071 1 0.0099844717483414096 1 1 1 1 1 1 1 1 1 0.010008537446444938 1 1 0.01004749292082326 1 1 1 1 1 1 0.010270965008969256 1 1 0.010072080421740985 1 1 1 1 1 1 1 1 1 1 1 1 0.010031533428802765 1 1 1 1 1 1 1 1 1 1 1 1 1 1 1 1 1 1 1 1 1 1 1 0.01002281828773393 1 1 1 1 1 1 1 1 1 1 1 0.0099004115129943775 1 1 0.010155490649687748 1 1 1 1 0.010403217302082452 1 1 1 1 1 1 1 1 1 1 1 1 1 1 1 1 1 1 1 1 1 1 1 0.0093017202012461251 1 1 1 1 1 1 1 1 1 1 1 1 1 1 1 1 1 1 1 1 1 1 1 0.0099897037087414674 1 1 1 1 1 0.0099940276155797616 1 1 0.0099794088032847481 1 1 1 1 1 1 1 1 1 1 0.0099481350955624923 1 0.010538788943672345 1 1 1 1 1 1 0.010000288212292761 0.0099194677157599057 1 0.0099597696523837133 1 0.009971888898183439 1 1 1 1 1 1 1 1 1 1 1 0.0099846565662052092 1 1 1 1 1 1 1 1 1 0.010016468813296008 1 0.009351247638688118 1 1 1 1 1 1 1 1 1 1 1 1 1 0.0092145546411211386 1 1 1 1 1 1 1 1 1 1 1 1 1 1 1 0.0091940230607405367 0.0095434007152657048 1 1 1 0.0099635532326700881 1 1 1 1 0.010065651460400418 1 1 1 1 1 1 1 1 0.0098438922715700719 1 1 1 1 1 1 1 1 1 1 1 1 1 1 1 1 1 1 1 1 1 1 1 1 1 1 1 1 1 1 1 1 1 1 1 1 1 1 1 1 1 1 1 1 1 1 1 1 1 1 1 1 0.010338529436945326 1 1 1 0.01023125467770019 1 1 1 1 0.0099969527809222296 1 1 1 0.010034864446212191 1 1 1 1 1 1 1 1 1 1 1 1 0.0097069260053950744 0.0096150487221749129 1 1 1 0.010644698729340572 1 1 1 1 1 1 0.010286053320500482 0.0099361492407062171 1 1 0.009777094380960482 0.010417466528135012 1 1 0.009578176101448203 1 1 1 1 0.0094834633811731531 1 1 1 1 0.010443274485468642 1 1 0.010383329171803138 1 0.0094069575410707651 1 1 0.010063460409773281 1 1 1 1 1 1 1 1 1 1 1 0.0099072422074247286 1 1 0.0099930910386430965 1 1 1 1 1 1 1 1 0.010055182191719501 1 1 1 0.0092677586803677943 1 1 1 1 0.0091439417282390585 1 1 1 1 1 1 1 1 0.0099453407532197717 0.0099693345549861853 1 0.0089478486723885992 0.010183069220604664 1 1 1 0.010084384395144049 1 1 1 1 1 1 1 1 1 1 1 1 1 1 1 1 0.010029658510900473 1 1 1 1 1 1 1 1 1 0.010295648860238132 0.010505334667154783 1 0.010803436182466007 1 1 1 1 1 1 1 1 1 0.009998782582877265 1 1 0.010444197715733718 0.0097939580949252102 1 1 0.010313023654655196 0.010183403773864449 1 1 0.0098436559465201051 0.0098211444376433421 0.0096836559217370975 1 0.010180434552836461 1 1 1 1 0.0092985739549445584 1 1 1 1 0.0098601627891436172 1 1 0.010110185916292667 1 1 0.0097511819995689912 1 0.010200298254281048 1 1 0.009958248726741609 1 0.010013621600766052 1 0.0098161614819955376 1 1 1 1 1 0.0098539238816407887 1 1 0.0096920538079170969 1 0.0098649735933919631 1 0.0099787622506229516 1 1 0.0098914128984375332 0.0099779080099598513 0.010159689810535406 1 0.010017652501599181 1 1 1 1 0.0099410325821267589 1 0.010121101742577814 1 1 1 1 1 1 1 1 1 1 1 1 1 1 1 1 1 1 0.0095519966421189709 0.010025481862379828 0.010003620872525383 1 1 0.010095268445880719 1 1 1 1 1 0.010751351406155627 1 1 1 1 1 0.010140052984987519 0.0099504298952711664 0.0098527771254520394 1 1 1 1 1 1 1 1 0.0099107771775242028 1 1 0.0097381655228851553 1 0.0099077277425582318 1 1 1 1 0.0096969113180352187 1 1 1 0.010130831722238462 1 1 1 1 1 1 1 0.0099982724026082999 1 0.010139661059087132 1 1 0.0099877761030133204 1 0.0099455575009894399 1 1 0.0097190381962445546 1 1 0.0098483838867977208 1 0.0099997192262783023 1 0.0096410044851323266 1 1 0.010012337283930082 1 1 0.0095144448629827082 0.0091881574051787037 1 1 1 0.010006457979880954 1 1 1 0.010051157564760089 0.0098509744289682327 1 1 1 1 1 1 1 1 1 1 1 1 1 0.0088100232561139427 1 1 1 0.0099093298806242729 1 1 1 1 1 0.0089430506362516721 1 1 0.010006417304146441 1 1 1 1 1 1 0.0099598921763314613 1 1 1 1 1 1 1 1 0.010102962977249469 1 1 1 1 1 1 1 1 0.0099147852969355132 1 1 0.0098908747377772291 1 1 0.0095576348562077425 1 1 0.009127280216171681 1 1 0.01047168625683588 0.010302304547953667 1 1 0.0095013100707958785 1 0.010063846157111806 1 1 1 1 0.0097180170943206249 1 1 1 1 1 0.0097788298827255378 1 1 0.0097762372850002215 1 1 1 1 1 1 0.010108726166818965 1 0.0093472903866328103 1 1 1 1 1 1 1 1 1 1 1 1 1 0.0086221990950063523 1 0.0089751556892149857 1 1 1 1 0.0096423916371190452 1 1 1 0.010004845990150286 1 0.0099966122982028238 1 1 0.0093310390512761215 1 1 1 0.0097972220377087783 1 1 1 0.01019114152564584 1 1 1 1 0.0090427521009228493 1 1 1 1 0.011047970909903386 1 0.01000030324615595 1 0.010377578341649533 0.0097858132669592316 1 1 0.010001738067402937 1 1 1 1 1 0.0100288310106435 1 0.010474665828385226 1 1 0.0093037191001777778 1 1 1 0.0094599524916938425 1 1 1 1 0.010123454742227846 1 1 1 0.0099870673206237659 1 1 0.0099950419363766998 1 0.01026697725690376 1 1 1 0.0098178451880906528 1 1 1 0.0098404029237454376 0.0099322551969942934 1 1 1 1 0.0097729442820536187 1 0.010002190039445141 1 1 1 1 1 1 1 0.010050517987329484 1 1 1 1 0.010259442017061752 1 0.0098977696581779434 1 0.0098402159916707397 1 1 1 1 0.0099657769753771549 1 0.010001526500804919 1 1 1 1 1 1 1 1 0.0097878930447388626 1 1 1 0.0093804209453874302 1 1 1 1 0.0083561378611220795 1 1 1 1 1 1 1 1 1 1 1 1 1 1 1 1 0.0084661248956084297 1 1 1 1 1 1 1 1 1 1 1 1 1 1 1 1 1 1 0.0089417878229492986 1 1 1 1 0.0096058567366265023 1 0.009939992975368895 1 1 0.0098142205812812404 1 1 1 1 1 1 1 1 1 1 1 0.0099490000176412317 0.0097433300829837671 1 1 1 1 0.010003544893152473 1 1 1 1 1 1 1 0.0099554242298599861 1 1 1 1 1 1 1 1 1 1 1 1 1 1 0.0099940183836222975 1 0.0099856522517003526 1 1 1 1 1 1 1 1 1 1 0.0093005252840718117 1 0.010118681543391319 1 1 1 1 1 1 1 1 1 1 1 1 1 0.0097529996080843138 1 1 1 1 1 1 1 1 1 1 1 1 0.0097529552844624334 1 1 0.0095059548925467488 1 1 1 1 1 1 1 0.0098866225271935018 1 1 1 1 1 1 1 1 1 1 1 1 1 1 1 1 1 1 1 1 1 1 1 1 1 1 1 1 1 1 1 1 1 1 1 1 1 1 1 1 1 1 1 1 1 1 1 1 1 1 1 1 1 1 1 1 1 0.0099181065197107288 1 1 1 1 1 0.0098047290469042321 1 1 1 1 1 1 1 1 1 1 1 1 1 1 1 1 1 1 0.009931078574645754 1 1 0.0098244684551108963 1 1 1 0.00991229904645188 1 1 1 1 1 1 1 1 0.0099111991157531769 1 1 1 1 1 1 1 1 1 1 1 1 1 1 1 1 1 1 1 1 1 1 1 1 1 1 1 1 1 1 1 1 1 1 1 1 1 1 1 1 1 1 1 0.010114256568743245 1 1 1 1 0.010233681164362272 1 1 1 1 1 1 1 1 1 0.010119424595619023 1 1 1 1 1 1 1 1 1 1 1 1 1 1 1 1 1 1 1 1 1 1 1 1 1 1 1 1 1 1 1 1 1 1 1 1 1 1 1 1 1 1 1 1 1 1 1 0.0097254747741419047 1 1 1 1 1 1 1 0.0098779030195017496 1 1 1 1 1 1 0.010478731827418004 0.010171472459530061 1 1 1 0.0099084818508475368 0.010127379518751044 1 1 1 0.0098950704944396929 1 1 1 0.010042108349974897 0.0099805718009639728 1 1 1 1 1 1 1 1 1 1 1 1 1 1 0.0097829407656328735 1 1 1 1 1 0.010021331850220361 1 1 1 0.0092028731624055077 1 1 1 1 0.0099690866704975258 1 0.0096188023103007895 1 1 1 0.0081798645785481766 1 1 1 0.0099344990027548791 1 1 1 1 1 1 1 0.0098272232735401345 1 1 0.0089801869147785526 1 1 0.010008206956054875 0.0099155983301599301 1 0.010090257474545582 1 1 0.0082987586055296315 1 1 1 1 0.010037547935829907 1 1 1 1 1 1 1 1 1 1 1 1 1 1 1 1 1 1 1 1 1 1 1 1 1 1 0.0080729385854959486 1 1 1 1 1 1 1 1 0.010002147470436283 1 1 0.0079600253919129785 1 1 1 1 0.0091308103189528447 0.0089254502298010512 1 0.010273060746016336 1 1 1 1 1 0.0094159301595874573 0.0095543957461215641 1 1 1 1 1 1 1 1 1 1 1 1 0.009948519794230665 1 1 1 1 1 1 1 1 1 1 1 1 1 1 1 1 1 1 1 1 1 0.009633894603778427 1 1 1 1 1 1 1 0.0097565272556683642 1 1 1 0.0098404559068733834 1 1 1 1 1 1 1 1 1 0.0097263654152756063 1 1 1 1 1 1 1 1 1 1 1 1 1 1 1 1 1 1 1 1 1 1 1 1 0.010086166934505522 1 1 1 1 1 1 1 1 1 1 1 1 1 1 1 1 1 1 1 1 1 0.0093151046542378352 1 1 1 1 1 1 1 0.010001436651063003 1 1 1 1 0.01040561711226151 1 1 1 1 1 1 1 1 1 1 1 1 1 1 1 1 1 1 1 1 1 1 1 1 1 0.0098258871423407296 1 1 1 1 1 1 1 1 0.0099129545464827894 1 1 1 1 1 1 1 1 0.010049361202122431 0.010118876783956555 1 1 1 0.010570256486654817 1 0.010346651589962971 1 1 0.0099997155580370152 1 1 1 1 1 1 0.010005997895697373 0.010140971823684078 0.010119009027717145 1 1 1 1 1 1 0.0098462883066305282 1 1 1 1 1 1 1 1 1 0.010004423799137505 1 1 1 1 1 1 1 1 1 1 1 1 1 1 1 1 1 1 1 1 1 1 1 1 1 1 1 1 1 1 1 1 1 1 1 1 0.010525013459326535 1 1 1 1 1 1 1 1 0.010598238799299506 1 1 1 1 1 1 1 1 1 1 1 0.01041696715456516 0.010071441744415491 1 1 1 1 1 1 1 1 1 1 1 1 1 1 1 1 1 1 1 0.010033158419052153 1 1 0.010586338147291822 1 1 1 1 1 1 1 1 1 1 1 0.010680284383168823 0.0099824149138995517 1 1 1 1 1 1 1 1 1 1 1 1 1 1 1 1 1 1 1 1 1 1 1 1 1 1 1 1 1 1 1 0.010248218421426557 1 1 1 1 0.010123332269025561 0.010039145725797505 1 1 1 0.009987500527216437 0.0091270883820902746 1 1 1 1 0.010164139945780507 1 0.0098510550270116855 1 0.010212668221483057 1 0.0092636252790051291 1 1 1 1 1 1 0.0095061949563934253 1 0.0099634897643699968 1 0.0094108503106935179 1 1 1 1 1 1 0.0093459954316934078 1 0.010000134606502654 1 0.0094970839435110001 1 0.010065347582309377 1 0.0097764433223791816 1 1 1 1 1 1 1 0.0092845777937228362 1 1 1 1 1 1 1 1 1 1 1 1 1 1 1 1 1 1 1 1 0.0085867446714122265 1 1 1 1 1 1 1 1 1 1 1 1 0.0089923485148819416 1 1 0.0096166947459016706 1 1 1 0.0099373581881984797 1 1 0.009802778505110004 1 0.010088228746729542 1 1 1 1 1 0.010089959540061698 1 1 1 0.0083232177310942866 0.010227663859334451 1 1 1 1 1 0.0099957188478483998 1 0.0099286771365207065 1 0.0099287463068473206 1 1 1 0.0099795524321066847 1 1 1 1 1 1 1 0.010065406665600506 0.010021585664913801 1 1 1 1 1 0.0099875783881376301 0.010074716912106969 1 1 1 1 1 0.010078839536170791 1 1 1 1 1 1 0.0099785021223438054 1 1 1 1 0.0099591803515531215 1 0.0099807058815899272 1 1 1 1 1 1 1 1 1 1 1 1 1 1 1 1 0.010065780481941674 1 0.010028785359176059 1 1 1 1 1 1 1 1 1 1 0.0099918875137824832 0.0091368185071541135 1 1 0.010238578318893046 1 0.0093983812553389452 0.0097566880121466963 1 0.010077009084320354 1 1 1 1 1 1 1 1 1 1 1 1 1 1 0.01015092043201723 1 1 1 1 1 1 1 1 1 1 1 1 1 1 1 1 0.0099968258297133284 1 1 1 1 1 1 1 1 1 1 1 1 1 1 1 1 1 1 1 1 1 1 1 1 1 1 1 1 1 1 1 1 1 1 1 1 1 1 1 1 1 1 1 1 1 1 1 1 1 1 1 1 1 1 1 1 1 1 1 1 1 1 1 1 1 1 1 1 1 1 1 1 1 1 0.010005771301510145 1 1 1 1 1 0.010008958724919382 1 1 1 1 1 1 1 1 1 1 1 1 1 1 1 1 1 1 1 1 1 1 1 1 0.010074203899281028 1 1 1 1 1 1 1 1 1 1 1 1 1 1 1 1 1 1 1 1 1 1 1 1 1 1 1 1 1 1 0.01009880444726617 1 1 1 1 1 1 1 1 1 1 1 1 1 1 1 1 1 1 1 1 1 1 1 1 1 1 1 1 1 1 1 1 1 1 1 1 1 1 1 1 1 1 1 1 1 1 1 1 1 1 1 1 1 1 0.010069825895445621 1 1 1 1 1 1 1 1 1 1 1 1 0.01021880482801776 1 1 1 0.010168630342711791 1 1 1 1 1 1 1 1 1 1 1 1 1 1 1 1 1 0.010295521360753962 1 1 1 1 1 1 0.0099206738907638807 1 1 1 1 1 1 1 1 1 0.011202789060470376 1 0.0099528207021513156 1 0.01005139172079483 1 1 1 1 0.010049295261393774 1 1 1 1 1 0.0099405369626438013 1 1 0.0098612108534076801 1 1 1 1 1 1 1 0.010127304646580723 1 1 1 1 1 1 1 1 1 1 1 1 1 1 1 1 1 1 0.010056239244325218 1 1 1 1 0.010161605525260893 1 1 0.010039622329622251 1 1 1 0.0092823820413697865 1 1 1 1 1 1 0.010067741390785036 0.0095859459597917619 1 1 1 1 1 1 1 1 0.0099790289024231926 1 1 1 0.0099683701836957919 1 1 1 0.0095582982155886335 1 1 1 1 0.0092805846770089608 1 1 1 1 0.011093540040395082 1 1 1 1 1 0.0099893412812726012 1 1 1 1 1 0.011016751764071714 1 1 1 1 1 1 1 1 0.010368609046984313 1 1 1 1 1 1 1 1 1 1 1 1 1 1 1 1 1 1 1 1 1 1 1 0.011557749058100015 1 1 0.0094915887843149485 0.009988352353573416 1 1 1 1 1 1 1 1 1 1 1 1 1 1 1 1 1 1 1 1 1 1 1 0.010119594882343666 1 1 1 1 1 1 1 1 1 0.009826117048959606 1 1 1 1 1 1 1 1 1 1 1 1 1 1 1 1 1 1 0.010030749762023167 1 1 1 1 1 1 1 1 1 1 1 1 0.010068444505067822 1 1 1 1 1 1 0.010053699325474138 1 1 1 1 1 1 1 1 1 1 1 1 1 1 1 1 1 1 1 1 1 0.010014745179593686 1 1 1 1 1 1 1 1 0.0099075887505281381 1 1 1 1 1 1 0.010300445081046329 1 0.010012916823409695 1 0.0099201492216322538 1 1 1 0.01038817177669776 1 1 0.010152899145234871 1 1 1 1 1 1 1 1 1 1 1 1 1 1 1 1 1 1 1 1 1 1 1 1 1 1 0.010178855229835769 1 1 0.010467538238231556 1 0.010166567560540265 1 1 1 1 0.0099152878837382059 1 1 1 1 1 1 1 1 1 1 1 0.0099076676030057705 1 1 0.0098089789947553782 1 1 1 1 1 1 0.010065381666834308 1 1 1 1 1 0.010127220846893997 1 1 0.010127480352145845 1 1 1 1 1 1 1 1 1 1 1 1 1 1 1 1 1 1 1 1 1 1 1 1 1 1 1 1 1 0.010187280012776835 1 1 1 1 0.010186897677519706 1 1 1 1 1 1 1 1 1 1 1 1 1 1 1 1 1 1 1 1 1 1 1 1 1 1 1 1 1 1 1 1 0.0099464805116407477 1 1 1 1 1 1 1 1 1 0.01003133156867891 1 1 1 1 1 1 1 0.010031176449476657 1 1 1 1 1 1 1 1 1 1 1 1 1 1 1 1 1 0.010252791892832689 1 1 1 0.010561823873409943 1 1 1 1 1 1 1 1 1 1 1 1 0.0098361806242003511 1 1 1 1 0.0096954909196972951 1 1 1 1 1 0.0098592051973343704 1 1 1 1 1 1 1 0.010816050847753651 1 1 1 1 1 0.010332634134406328 1 1 1 1 1 1 1 1 1 1 1 1 1 1 1 1 1 1 1 1 1 1 1 0.010334159398954514 1 0.0098998390597757578 1 1 1 1 1 1 1 1 0.0094916550735248927 0.010066415310833465 1 1 1 1 1 1 1 1 1 1 0.010309031980577255 1 1 0.0099966228347723538 1 1 0.0098292257411533492 1 1 1 1 1 1 1 1 1 1 1 1 1 1 1 1 1 1 1 1 1 1 1 1 1 1 1 1 0.0099720352794192731 1 1 1 0.010159000380314923 0.010007054089993032 1 1 1 1 1 1 1 1 1 0.0091198772762521758 1 1 1 0.010047903605066962 0.0108277281732385 1 1 1 0.0097278259503575399 1 1 0.010919155791737332 1 1 0.010764696883202259 1 1 0.0096037335976193027 0.0098782528275563122 1 0.010033045300603758 1 0.010715205687442993 0.010241473362776796 0.0097310260577572454 1 1 1 1 0.011189511551107216 1 0.011169152029210707 0.0089234624574626806 1 1 1 0.009978364893769515 1 1 1 1 1 1 1 1 1 1 1 0.0090283545818898078 1 0.010000758116845867 1 1 1 1 1 1 0.0099863707464154881 1 1 1 0.010758511642190927 1 1 1 1 0.0099984439424051774 1 1 1 1 0.0094895099850323024 1 1 1 1 1 0.010723931638327799 0.011269085285970632 1 0.0098026750866335634 1 1 1 1 1 1 1 1 1 1 1 1 0.0099463371284887418 1 1 1 1 1 0.0097639321012203371 1 1 1 1 1 1 1 0.010672884248565493 1 1 1 1 1 1 1 1 1 1 1 1 1 1 1 1 1 0.011698335377813365 0.010308543153417494 1 0.010129240753754501 1 1 1 1 1 1 1 1 1 1 1 1 1 1 1 1 1 1 1 1 1 1 1 1 1 1 1 1 1 1 1 1 1 1 1 1 0.010636659587211425 1 1 1 1 1 0.010639560826618495 1 1 1 1 1 1 0.0099813200338285599 1 0.010160178160632451 1 1 1 1 0.011830122697478398 1 1 1 1 1 1 1 1 1 1 1 1 1 1 1 1 1 1 1 1 1 1 1 1 1 1 1 1 1 1 1 1 1 1 1 1 1 1 0.010102491596021343 1 1 1 1 1 1 0.010237457218879798 1 1 1 1 1 0.010296950176143077 1 1 1 1 1 1 1 1 1 1 0.010098815883290783 1 1 1 1 0.010576614766438286 0.01025187433200774 1 1 1 1 1 1 1 1 1 1 1 0.0099281411448717792 1 1 1 1 1 1 1 1 1 1 1 0.01037940986046779 1 1 1 1 1 1 1 1 1 0.010486197657376828 1 1 1 1 1 1 1 1 1 1 1 1 1 1 1 1 1 1 1 1 1 1 1 1 1 1 1 1 1 1 1 1 1 1 0.01053973950982183 1 1 1 0.010368117504057587 0.010264544452859646 1 1 0.0099677297365490334 1 1 1 1 1 1 1 1 1 1 1 1 1 1 1 1 1 1 1 1 1 1 1 1 1 1 1 1 1 1 0.010052907937303209 0.0099693566939588786 1 0.010321630807484187 1 1 1 1 0.0097756290598078541 1 1 1 1 1 1 1 1 1 1 1 1 1 1 1 1 1 1 1 1 1 1 1 0.010612693504970037 1 1 1 1 0.010800100701586711 1 1 1 1 0.010671336804995598 1 1 1 1 1 1 0.01086011433872526 1 1 1 1 1 1 1 1 1 0.010255996532397525 1 1 1 1 1 0.010206882235240329 1 1 1 1 1 1 0.010519813620769512 1 1 1 1 1 1 0.0097985732950649461 1 1 0.0099600652622015683 1 0.010214222199603657 1 1 0.0099952943417852894 1 1 1 0.010075104348417054 1 1 1 1 1 1 1 0.0097796966340277982 1 1 1 1 1 1 1 1 1 1 1 0.010416550647862028 1 1 1 1 1 1 1 1 1 1 1 1 1 1 0.010086097833784828 1 1 1 0.01030879922043014 1 1 1 1 1 1 1 1 1 1 1 1 1 1 0.0099945383027017758 0.010183381919724503 1 0.0099688664068384031 0.010788172387379511 0.0099998807712445431 1 1 1 0.010114484499662136 1 1 0.010513904682900616 1 0.0086460675473250918 1 0.011003638137010717 1 1 1 1 1 1 0.0090296615126063684 1 1 1 1 1 1 1 1 1 1 1 1 1 1 1 1 1 1 1 1 1 0.010890611875027417 1 1 1 0.010510387664130583 1 1 1 1 1 1 1 1 1 1 1 1 1 1 0.0093514115759341116 1 1 1 1 1 1 1 1 1 0.010241628658925986 1 1 1 1 1 0.010220576074535921 1 1 1 1 1 1 1 1 1 1 1 1 1 1 0.0099900851979860174 1 1 1 1 1 1 1 1 1 1 1 1 1 1 0.01015515027906681 1 1 1 1 1 0.010065502603732334 1 1 1 0.010616137792795903 1 1 0.010238778515749142 1 1 1 1 1 0.010114917357680619 1 0.0095523401125427801 1 0.010050366352889591 1 0.010125024599411791 1 0.010136590927939733 1 1 0.0098699739113276459 1 1 1 1 1 0.0099530743909314948 1 1 1 1 1 1 1 0.010045928661439244 1 1 0.0099576959322696321 1 1 1 1 0.0099989628711860991 1 1 0.011226198862533742 1 1 1 1 1 0.010000992416181815 1 1 1 0.010083123501820876 1 1 1 0.010139521421095614 0.0098591356287836031 1 0.0099646442502792712 0.0099996674240432053 1 0.0099206471271124259 1 1 1 1 1 1 1 0.0098490901149494783 0.010263411239668889 0.010000447140428415 1 1 1 0.010147528505360347 1 1 1 1 1 1 1 1 1 1 1 1 1 0.010850710113181344 1 1 1 1 1 0.0095793164198072975 1 1 1 0.0096495711978245823 1 1 1 1 1 1 1 1 1 1 1 1 1 0.010252634917595232 1 0.010517774836003847 1 1 1 1 0.01022798521647056 0.010302521399760409 1 1 1 1 1 1 1 1 1 1 1 0.0099759473990883758 1 1 1 0.010643670810623769 1 1 1 1 0.0096881222799346436 1 1 0.010339652691921461 1 1 1 1 1 1 1 1 0.010925970169426045 1 1 1 1 1 1 1 0.011667279698621195 1 0.0099319981209973519 1 0.0099642836645239315 1 1 1 1 1 1 0.0099863054755981902 1 1 1 1 1 1 1 1 1 0.0099562706643123548 1 1 1 1 1 0.0095786878218402944 1 1 0.0097562791614595364 1 1 1 1 1 1 1 0.010281669102660235 1 1 0.010737858872522823 1 0.0099501092534191073 1 1 1 0.0099851315610890307 1 1 0.011923840409286591 1 0.012023482637310923 1 0.0099918706566468705 1 1 1 1 0.010231488784521637 1 1 1 1 1 1 1 0.010654559190578568 1 0.0099252297883279869 1 1 1 1 1 1 1 1 1 1 1 0.010054652481214527 1 1 1 1 0.010321537520018445 1 1 1 1 1 1 1 1 1 1 1 1 1 0.010034101263224258 1 1 1 1 0.0099691773495603243 1 1 1 1 1 1 1 1 1 1 1 1 1 1 1 1 1 1 1 1 1 1 1 1 1 0.0097724560369043152 1 1 1 1 1 1 1 1 1 1 1 1 1 1 1 1 1 1 1 1 1 1 1 1 1 1 1 0.0098959762376809365 1 1 1 0.01000646302257413 1 1 1 1 1 0.010078368228416611 1 1 1 1 1 0.0097392296781556829 1 1 1 0.010505546522924104 1 1 1 1 0.010597292937734161 1 1 1 1 1 1 1 1 1 1 1 1 1 1 1 1 1 1 1 1 1 1 1 1 0.010406700791940547 0.0097317220483548079 0.0093728470216632789 1 0.0087945819127620561 0.0099872112044701138 0.0095592045534483461 1 1 1 0.0095337638785179136 1 1 1 1 1 0.010013222529239148 0.010001728478049867 1 1 1 1 1 0.0093426331525433073 0.0093930152151911941 1 1 0.0097630281884197936 1 1 0.010016023836802777 1 1 1 1 1 1 1 0.010038369405542116 1 1 1 1 1 1 1 1 1 1 1 1 0.010022345568739339 1 1 1 1 1 1 1 1 1 1 1 1 1 1 1 1 1 1 1 1 1 1 1 1 1 1 1 1 1 1 1 0.0088214546927644685 1 0.0085934546548232012 1 1 1 1 1 1 1 1 1 1 1 0.0099737937824547155 0.0090759610564075943 1 1 1 1 1 1 1 1 1 1 1 1 1 1 1 0.010011585174975364 0.010059503534377416 1 1 1 1 1 0.01016507495756808 1 1 1 1 1 1 1 0.00992996168555468 0.0087201375331955287 1 1 1 1 0.009153913467695533 1 1 1 1 0.012054787354153924 0.012030717704236357 1 1 1 0.0091891701459772494 1 1 0.0094821256338564544 1 1 1 1 1 1 1 1 1 1 1 1 1 0.0089019549958777779 1 0.010665830505577191 1 1 1 1 0.0097961460360793673 1 1 1 1 0.010628270322031045 1 1 0.010210703985409615 0.0099925748756724796 1 0.0094243767430598792 1 1 1 1 0.0091282021262483887 0.0099005839417367174 1 1 1 1 1 1 1 1 1 1 1 1 1 1 0.0086644108980803228 1 1 1 1 0.0099444817829920165 0.0087876238464350692 1 1 0.011198483688201812 1 1 1 1 1 1 0.011027199207486543 1 0.009327109009783726 1 1 0.011145931825602855 1 1 1 1 1 0.010156787294093373 1 0.010009352184440844 1 1 1 1 1 1 1 1 1 1 1 1 1 1 1 0.0099293270624785032 1 1 0.0099545030520425196 1 1 1 1 1 1 0.012118253375976967 1 1 1 0.012209342163437453 1 1 1 1 1 1 1 0.0098838883798419066 0.010269986102383239 1 0.010632406109780243 1 0.010502990351155383 0.010002433098486445 0.009994719529536622 1 1 1 1 0.011141082247186178 0.0098424585834318845 1 0.0092842508223104359 1 1 1 0.0095272734919698079 1 1 0.010253905515292299 1 1 1 1 1 0.010156441372180112 0.0096054276501028706 0.0093841326766505792 1 1 0.01070252628532329 0.0099882486327374821 1 1 1 0.010001551350503693 1 0.009983647733273579 1 1 1 1 1 1 1 1 1 1 1 1 1 1 1 1 1 1 1 1 1 1 1 1 1 1 0.0091830574778054876 1 1 1 1 1 1 0.0095295174716949135 1 1 1 0.0095154872159871895 0.010016367034257076 1 1 1 0.0099456010895166858 0.0099952745640738937 1 1 1 0.010413981577078998 1 1 0.010055460984869227 1 0.010687892209550071 1 0.0096242318398026393 1 1 1 1 1 0.011182898721342874 1 1 0.0094097405547892907 1 1 0.010430053036058573 1 1 1 1 0.0098498719790542748 1 1 1 1 1 1 1 0.0099992256713957138 1 1 1 1 1 1 1 1 1 1 1 0.0081235860845003515 1 1 1 1 1 1 1 0.0098900285504831022 1 1 0.010083489885385644 0.0097082283811051242 1 1 1 1 0.010772268769090631 1 1 1 0.010570076494119146 1 0.0092458806578214411 1 0.0099810254143400581 1 1 1 1 1 1 0.010196819198113379 1 1 1 1 1 1 1 1 1 1 0.010174849115827268 1 1 1 1 1 1 1 1 1 1 0.0098602129173594195 1 1 1 1 1 1 1 1 1 1 1 1 1 1 1 1 1 1 1 1 1 1 1 1 1 1 1 1 1 1 1 1 1 1 0.010116668551571475 1 1 1 0.012276826296448981 1 1 1 1 1 1 1 1 1 0.010057966755427245 1 1 0.011969834974792763 1 1 1 1 1 1 1 1 1 1 1 1 1 1 0.011684649080726292 1 1 1 0.0099949547415209908 1 1 1 1 1 1 1 1 1 1 1 1 1 1 1 1 1 1 0.0099194671938378845 1 1 1 0.0098271191951622601 1 1 1 1 1 1 1 1 1 1 1 1 1 1 1 1 1 1 1 1 1 1 1 1 1 1 1 1 1 1 1 0.01020452534384403 1 1 1 1 1 1 1 1 1 1 1 1 1 1 1 1 1 1 1 1 1 1 1 1 1 1 1 1 0.010155276144357465 1 1 1 1 1 1 1 1 1 1 1 0.010591750063947619 1 0.0099803856483019777 1 1 1 1 1 1 1 1 1 1 1 1 1 1 1 1 1 0.00968980001439914 0.0099431714271014972 1 1 1 1 0.010011967775089455 1 0.010004889176385787 0.0082997817292988531 1 1 1 1 1 1 1 0.010058701796144234 1 0.010462985670812944 1 
</DataArray>
</CellData>
</Piece>
</UnstructuredGrid>
</VTKFile>
