<?xml version="1.0"?>
<VTKFile type="UnstructuredGrid" version="0.1" byte_order="LittleEndian">
<UnstructuredGrid>
<Piece NumberOfPoints="31898" NumberOfCells="11152">
<Points>
<DataArray type="Float64" NumberOfComponents="3" format="ascii">
-0.5 -0.5 0 -0.47620991077874902 -0.44978878706170539 0 -0.49999999999999473 -0.42132396840504388 0 -0.5 -0.5 0 -0.47160970827802529 -0.4793630013852106 0 -0.47620991077874902 -0.44978878706170539 0 -0.5 -0.5 0 -0.47160970827802529 -0.4793630013852106 0 -0.44860394795025399 -0.5 0 -0.47160970827802529 -0.4793630013852106 0 -0.44860394795025399 -0.5 0 -0.4490820238307246 -0.45820516232899983 0 -0.44860394795025399 -0.5 0 -0.4490820238307246 -0.45820516232899983 0 -0.42881687682924802 -0.47781464288736519 0 -0.4490820238307246 -0.45820516232899983 0 -0.45555437223955858 -0.42914059360647611 0 -0.4490820238307246 -0.45820516232899983 0 -0.45555437223955858 -0.42914059360647611 0 -0.43867285131603428 -0.4271457417558665 0 -0.4490820238307246 -0.45820516232899983 0 -0.43867285131603428 -0.4271457417558665 0 -0.4263356171060747 -0.44269880333887462 0 -0.47160970827802529 -0.4793630013852106 0 -0.4490820238307246 -0.45820516232899983 0 -0.47620991077874902 -0.44978878706170539 0 -0.4490820238307246 -0.45820516232899983 0 -0.47620991077874902 -0.44978878706170539 0 -0.45555437223955858 -0.42914059360647611 0 -0.47620991077874902 -0.44978878706170539 0 -0.48101336032419229 -0.41069999664450008 0 -0.45555437223955858 -0.42914059360647611 0 -0.47620991077874902 -0.44978878706170539 0 -0.49999999999999473 -0.42132396840504388 0 -0.48101336032419229 -0.41069999664450008 0 -0.49999999999999473 -0.42132396840504388 0 -0.48101336032419229 -0.41069999664450008 0 -0.5 -0.393886241813306 0 -0.49999999999999473 -0.42132396840504388 0 -0.48101336032419229 -0.41069999664450008 0 -0.5 -0.393886241813306 0 -0.47854472220918332 -0.38978458738689759 0 -0.48422759779560409 -0.37130120630367158 0 -0.5 -0.393886241813306 0 -0.5 -0.36644851522156802 0 -0.48422759779560409 -0.37130120630367158 0 -0.48101336032419229 -0.41069999664450008 0 -0.5 -0.393886241813306 0 -0.47854472220918332 -0.38978458738689759 0 -0.48101336032419229 -0.41069999664450008 0 -0.47854472220918332 -0.38978458738689759 0 -0.46202672064839212 -0.40007602488395211 0 -0.48101336032419229 -0.41069999664450008 0 -0.46202672064839212 -0.40007602488395211 0 -0.47854472220918332 -0.38978458738689759 0 -0.46725442735267431 -0.37660061361585562 0 -0.46202672064839212 -0.40007602488395211 0 -0.47854472220918332 -0.38978458738689759 0 -0.46725442735267431 -0.37660061361585562 0 -0.48422759779560409 -0.37130120630367158 0 -0.46725442735267431 -0.37660061361585562 0 -0.46202672064839212 -0.40007602488395211 0 -0.46725442735267431 -0.37660061361585562 0 -0.45645674801697989 -0.38644133236760531 0 -0.46202672064839212 -0.40007602488395211 0 -0.46725442735267431 -0.37660061361585562 0 -0.45645674801697989 -0.38644133236760531 0 -0.4540003998136638 -0.37455519391687309 0 -0.45645674801697989 -0.38644133236760531 0 -0.46202672064839212 -0.40007602488395211 0 -0.44257020456291563 -0.38918913383950271 0 -0.46202672064839212 -0.40007602488395211 0 -0.44257020456291563 -0.38918913383950271 0 -0.44727608925983742 -0.41095911152778891 0 -0.46202672064839212 -0.40007602488395211 0 -0.44257020456291563 -0.38918913383950271 0 -0.44257020456291563 -0.38918913383950271 0 -0.44727608925983742 -0.41095911152778891 0 -0.43479358559901082 -0.4041454901736512 0 -0.44257020456291563 -0.38918913383950271 0 -0.4540003998136638 -0.37455519391687309 0 -0.44172858264042247 -0.37082207246888088 0 -0.45645674801697989 -0.38644133236760531 0 -0.44257020456291563 -0.38918913383950271 0 -0.4540003998136638 -0.37455519391687309 0 -0.46202672064839212 -0.40007602488395211 0 -0.45555437223955858 -0.42914059360647611 0 -0.44727608925983742 -0.41095911152778891 0 -0.46202672064839212 -0.40007602488395211 0 -0.45555437223955858 -0.42914059360647611 0 -0.48101336032419229 -0.41069999664450008 0 -0.46202672064839212 -0.40007602488395211 0 -0.45555437223955858 -0.42914059360647611 0 -0.44727608925983742 -0.41095911152778891 0 -0.43867285131603428 -0.4271457417558665 0 -0.43676601469929588 -0.41441201227470881 0 -0.44727608925983742 -0.41095911152778891 0 -0.43676601469929588 -0.41441201227470881 0 -0.43479358559901082 -0.4041454901736512 0 -0.45555437223955858 -0.42914059360647611 0 -0.44727608925983742 -0.41095911152778891 0 -0.43867285131603428 -0.4271457417558665 0 -0.43867285131603428 -0.4271457417558665 0 -0.42681803064840879 -0.42717069814352421 0 -0.4263356171060747 -0.44269880333887462 0 -0.42681803064840879 -0.42717069814352421 0 -0.41531815884496182 -0.42985383783075998 0 -0.4263356171060747 -0.44269880333887462 0 -0.42681803064840879 -0.42717069814352421 0 -0.42624289495594048 -0.42089725947505818 0 -0.42083332353326591 -0.42146747131641099 0 -0.42681803064840879 -0.42717069814352421 0 -0.43096994786351572 -0.41951492446283251 0 -0.42624289495594048 -0.42089725947505818 0 -0.43867285131603428 -0.4271457417558665 0 -0.42681803064840879 -0.42717069814352421 0 -0.43096994786351572 -0.41951492446283251 0 -0.43867285131603428 -0.4271457417558665 0 -0.43676601469929588 -0.41441201227470881 0 -0.43096994786351572 -0.41951492446283251 0 -0.43676601469929588 -0.41441201227470881 0 -0.43096994786351572 -0.41951492446283251 0 -0.42907264086257813 -0.41311715872526122 0 -0.43676601469929588 -0.41441201227470881 0 -0.42907264086257813 -0.41311715872526122 0 -0.43479358559901082 -0.4041454901736512 0 -0.42907264086257813 -0.41311715872526122 0 -0.43479358559901082 -0.4041454901736512 0 -0.42460885511582858 -0.40417321677700252 0 -0.42907264086257813 -0.41311715872526122 0 -0.41997834854398469 -0.41180534796019508 0 -0.42907264086257813 -0.41311715872526122 0 -0.42635027777857132 -0.41543594397746519 0 -0.41997834854398469 -0.41180534796019508 0 -0.42907264086257813 -0.41311715872526122 0 -0.41997834854398469 -0.41180534796019508 0 -0.42460885511582858 -0.40417321677700252 0 -0.42635027777857132 -0.41543594397746519 0 -0.41997834854398469 -0.41180534796019508 0 -0.42635027777857132 -0.41543594397746519 0 -0.42083332353326591 -0.42146747131641099 0 -0.41997834854398469 -0.41180534796019508 0 -0.43096994786351572 -0.41951492446283251 0 -0.42624289495594048 -0.42089725947505818 0 -0.42635027777857132 -0.41543594397746519 0 -0.43096994786351572 -0.41951492446283251 0 -0.42907264086257813 -0.41311715872526122 0 -0.42635027777857132 -0.41543594397746519 0 -0.42624289495594048 -0.42089725947505818 0 -0.42635027777857132 -0.41543594397746519 0 -0.42083332353326591 -0.42146747131641099 0 -0.42083332353326591 -0.42146747131641099 0 -0.41997834854398469 -0.41180534796019508 0 -0.40992282953163789 -0.42011435591993562 0 -0.41997834854398469 -0.41180534796019508 0 -0.39756877647335259 -0.40857286797681719 0 -0.41997834854398469 -0.41180534796019508 0 -0.40992282953163789 -0.42011435591993562 0 -0.39756877647335259 -0.40857286797681719 0 -0.40992282953163789 -0.42011435591993562 0 -0.41531815884496182 -0.42985383783075998 0 -0.39591554026262499 -0.42887225451549271 0 -0.41531815884496182 -0.42985383783075998 0 -0.39591554026262499 -0.42887225451549271 0 -0.41160927495564159 -0.44339431233754628 0 -0.42083332353326591 -0.42146747131641099 0 -0.40992282953163789 -0.42011435591993562 0 -0.41531815884496182 -0.42985383783075998 0 -0.42681803064840879 -0.42717069814352421 0 -0.42083332353326591 -0.42146747131641099 0 -0.41531815884496182 -0.42985383783075998 0 -0.44257020456291563 -0.38918913383950271 0 -0.42311368847744002 -0.37830224279505142 0 -0.42594061475171041 -0.39368797999533162 0 -0.44257020456291563 -0.38918913383950271 0 -0.42311368847744002 -0.37830224279505142 0 -0.44172858264042247 -0.37082207246888088 0 -0.44257020456291563 -0.38918913383950271 0 -0.42311368847744002 -0.37830224279505142 0 -0.42311368847744002 -0.37830224279505142 0 -0.42594061475171041 -0.39368797999533162 0 -0.416587075656149 -0.38785930376960043 0 -0.44257020456291563 -0.38918913383950271 0 -0.42594061475171041 -0.39368797999533162 0 -0.43479358559901082 -0.4041454901736512 0 -0.42594061475171041 -0.39368797999533162 0 -0.43479358559901082 -0.4041454901736512 0 -0.42460885511582858 -0.40417321677700252 0 -0.41997834854398469 -0.41180534796019508 0 -0.41325908582185972 -0.39811010703057192 0 -0.39770572831670092 -0.39911486077581648 0 -0.41997834854398469 -0.41180534796019508 0 -0.39770572831670092 -0.39911486077581648 0 -0.42594061475171041 -0.39368797999533162 0 -0.42460885511582858 -0.40417321677700252 0 -0.41325908582185972 -0.39811010703057192 0 -0.41997834854398469 -0.41180534796019508 0 -0.42460885511582858 -0.40417321677700252 0 -0.41325908582185972 -0.39811010703057192 0 -0.42594061475171041 -0.39368797999533162 0 -0.41325908582185972 -0.39811010703057192 0 -0.416587075656149 -0.38785930376960043 0 -0.41325908582185972 -0.39811010703057192 0 -0.416587075656149 -0.38785930376960043 0 -0.40403491357358612 -0.38133688525744702 0 -0.42311368847744002 -0.37830224279505142 0 -0.40403491357358612 -0.38133688525744702 0 -0.40365717239196519 -0.36741535175059892 0 -0.42311368847744002 -0.37830224279505142 0 -0.416587075656149 -0.38785930376960043 0 -0.40403491357358612 -0.38133688525744702 0 -0.40403491357358612 -0.38133688525744702 0 -0.39190790742475001 -0.38540387676521748 0 -0.39770572831670092 -0.39911486077581648 0 -0.40403491357358612 -0.38133688525744702 0 -0.39190790742475001 -0.38540387676521748 0 -0.3904578797192948 -0.37473938743617019 0 -0.41325908582185972 -0.39811010703057192 0 -0.40403491357358612 -0.38133688525744702 0 -0.39770572831670092 -0.39911486077581648 0 -0.39770572831670092 -0.39911486077581648 0 -0.37543310808941849 -0.38642437359143528 0 -0.39770572831670092 -0.39911486077581648 0 -0.37515920440272033 -0.40534038799344108 0 -0.37543310808941849 -0.38642437359143528 0 -0.39770572831670092 -0.39911486077581648 0 -0.37515920440272033 -0.40534038799344108 0 -0.39756877647335259 -0.40857286797681719 0 -0.37515920440272033 -0.40534038799344108 0 -0.37543310808941849 -0.38642437359143528 0 -0.37543310808941849 -0.38642437359143528 0 -0.3904578797192948 -0.37473938743617019 0 -0.37568304780698558 -0.36916333065311507 0 -0.39190790742475001 -0.38540387676521748 0 -0.37543310808941849 -0.38642437359143528 0 -0.3904578797192948 -0.37473938743617019 0 -0.37543310808941849 -0.38642437359143528 0 -0.37568304780698558 -0.36916333065311507 0 -0.39190790742475001 -0.38540387676521748 0 -0.39770572831670092 -0.39911486077581648 0 -0.37543310808941849 -0.38642437359143528 0 -0.41997834854398469 -0.41180534796019508 0 -0.39770572831670092 -0.39911486077581648 0 -0.39756877647335259 -0.40857286797681719 0 -0.40992282953163789 -0.42011435591993562 0 -0.39591554026262499 -0.42887225451549271 0 -0.39756877647335259 -0.40857286797681719 0 -0.37515920440272033 -0.40534038799344108 0 -0.39591554026262499 -0.42887225451549271 0 -0.39756877647335259 -0.40857286797681719 0 -0.37515920440272033 -0.40534038799344108 0 -0.39756877647335259 -0.40857286797681719 0 -0.37515920440272033 -0.40534038799344108 0 -0.39591554026262499 -0.42887225451549271 0 -0.37472313619600889 -0.43545561783144832 0 -0.39591554026262499 -0.42887225451549271 0 -0.39301703415267508 -0.44654444244683272 0 -0.37472313619600889 -0.43545561783144832 0 -0.39301703415267508 -0.44654444244683272 0 -0.37428706798929601 -0.46557084766945539 0 -0.37472313619600889 -0.43545561783144832 0 -0.39591554026262499 -0.42887225451549271 0 -0.39301703415267508 -0.44654444244683272 0 -0.41160927495564159 -0.44339431233754628 0 -0.39301703415267508 -0.44654444244683272 0 -0.40396056051613372 -0.45751466911048011 0 -0.41160927495564159 -0.44339431233754628 0 -0.40396056051613372 -0.45751466911048011 0 -0.39245383412573559 -0.47875733455523922 0 -0.41207507163844148 -0.46917161410542801 0 -0.40396056051613372 -0.45751466911048011 0 -0.38912381425271458 -0.46154275838996711 0 -0.39245383412573559 -0.47875733455523922 0 -0.40396056051613372 -0.45751466911048011 0 -0.39245383412573559 -0.47875733455523922 0 -0.40396056051613372 -0.45751466911048011 0 -0.40649676728151513 -0.45682610390212369 0 -0.40396056051613372 -0.45751466911048011 0 -0.38912381425271458 -0.46154275838996711 0 -0.39301703415267508 -0.44654444244683272 0 -0.40396056051613372 -0.45751466911048011 0 -0.38912381425271458 -0.46154275838996711 0 -0.39301703415267508 -0.44654444244683272 0 -0.38912381425271458 -0.46154275838996711 0 -0.37428706798929601 -0.46557084766945539 0 -0.38912381425271458 -0.46154275838996711 0 -0.37428706798929601 -0.46557084766945539 0 -0.38912381425271458 -0.46154275838996711 0 -0.38378714202547332 -0.47159002408209011 0 -0.37428706798929601 -0.46557084766945539 0 -0.38378714202547332 -0.47159002408209011 0 -0.39245383412573559 -0.47875733455523922 0 -0.37411677223754131 -0.47733161267270968 0 -0.39245383412573559 -0.47875733455523922 0 -0.37240076261097882 -0.48974555046165519 0 -0.37411677223754131 -0.47733161267270968 0 -0.38378714202547332 -0.47159002408209011 0 -0.37411677223754131 -0.47733161267270968 0 -0.37428706798929601 -0.46557084766945539 0 -0.38912381425271458 -0.46154275838996711 0 -0.38378714202547332 -0.47159002408209011 0 -0.39245383412573559 -0.47875733455523922 0 -0.38094710773533791 -0.49999999999999839 0 -0.39245383412573559 -0.47875733455523922 0 -0.38094710773533791 -0.49999999999999839 0 -0.39245383412573559 -0.47875733455523922 0 -0.37240076261097882 -0.48974555046165519 0 -0.38094710773533791 -0.49999999999999839 0 -0.39245383412573559 -0.47875733455523922 0 -0.40997732063196057 -0.5 0 -0.39245383412573559 -0.47875733455523922 0 -0.41207507163844148 -0.46917161410542801 0 -0.40997732063196057 -0.5 0 -0.41207507163844148 -0.46917161410542801 0 -0.40997732063196057 -0.5 0 -0.42881687682924802 -0.47781464288736519 0 -0.44860394795025399 -0.5 0 -0.40997732063196057 -0.5 0 -0.42881687682924802 -0.47781464288736519 0 -0.41207507163844148 -0.46917161410542801 0 -0.42881687682924802 -0.47781464288736519 0 -0.42627766738448791 -0.46032764904509182 0 -0.4490820238307246 -0.45820516232899983 0 -0.42881687682924802 -0.47781464288736519 0 -0.42627766738448791 -0.46032764904509182 0 -0.4490820238307246 -0.45820516232899983 0 -0.42627766738448791 -0.46032764904509182 0 -0.4263356171060747 -0.44269880333887462 0 -0.42627766738448791 -0.46032764904509182 0 -0.4263356171060747 -0.44269880333887462 0 -0.41655419253802572 -0.45404861160063659 0 -0.4263356171060747 -0.44269880333887462 0 -0.41160927495564159 -0.44339431233754628 0 -0.41655419253802572 -0.45404861160063659 0 -0.41531815884496182 -0.42985383783075998 0 -0.4263356171060747 -0.44269880333887462 0 -0.41160927495564159 -0.44339431233754628 0 -0.40396056051613372 -0.45751466911048011 0 -0.41160927495564159 -0.44339431233754628 0 -0.40649676728151513 -0.45682610390212369 0 -0.41160927495564159 -0.44339431233754628 0 -0.40649676728151513 -0.45682610390212369 0 -0.41655419253802572 -0.45404861160063659 0 -0.40396056051613372 -0.45751466911048011 0 -0.41160927495564159 -0.44339431233754628 0 -0.41207507163844148 -0.46917161410542801 0 -0.40649676728151513 -0.45682610390212369 0 -0.41655419253802572 -0.45404861160063659 0 -0.40396056051613372 -0.45751466911048011 0 -0.41207507163844148 -0.46917161410542801 0 -0.40649676728151513 -0.45682610390212369 0 -0.41207507163844148 -0.46917161410542801 0 -0.42627766738448791 -0.46032764904509182 0 -0.41655419253802572 -0.45404861160063659 0 -0.45662330498375908 -0.25656877445722759 0 -0.43445882011373449 -0.25478651907497341 0 -0.45662330498375908 -0.25656877445722759 0 -0.43445882011373449 -0.25478651907497341 0 -0.45034617445999431 -0.24335722649563979 0 -0.44999384684511368 -0.2755750489792308 0 -0.45662330498375908 -0.25656877445722759 0 -0.43445882011373449 -0.25478651907497341 0 -0.44999384684511368 -0.2755750489792308 0 -0.43077531442077321 -0.27459050524281542 0 -0.43445882011373449 -0.25478651907497341 0 -0.44999384684511368 -0.2755750489792308 0 -0.441361257405879 -0.29303276451920029 0 -0.43077531442077321 -0.27459050524281542 0 -0.44999384684511368 -0.2755750489792308 0 -0.4670541169931961 -0.26846056693166809 0 -0.46910519348062618 -0.28320526693770848 0 -0.44999384684511368 -0.2755750489792308 0 -0.4670541169931961 -0.26846056693166809 0 -0.45662330498375908 -0.25656877445722759 0 -0.45662330498375908 -0.25656877445722759 0 -0.47878778985378329 -0.25835102983948688 0 -0.4670541169931961 -0.26846056693166809 0 -0.45662330498375908 -0.25656877445722759 0 -0.47878778985378329 -0.25835102983948688 0 -0.45662330498375908 -0.25656877445722759 0 -0.47878778985378329 -0.25835102983948688 0 -0.47142395938804471 -0.23802335247430181 0 -0.47878778985378329 -0.25835102983948688 0 -0.5 -0.25669760885461612 0 -0.48361763707807442 -0.27426406281091331 0 -0.47878778985378329 -0.25835102983948688 0 -0.5 -0.25669760885461612 0 -0.4875835208682564 -0.24248539692068891 0 -0.5 -0.25669760885461612 0 -0.48361763707807442 -0.27426406281091331 0 -0.5 -0.28413533544635422 0 -0.4670541169931961 -0.26846056693166809 0 -0.47878778985378329 -0.25835102983948688 0 -0.48361763707807442 -0.27426406281091331 0 -0.4670541169931961 -0.26846056693166809 0 -0.48361763707807442 -0.27426406281091331 0 -0.46910519348062618 -0.28320526693770848 0 -0.46910519348062618 -0.28320526693770848 0 -0.48580896399913942 -0.29193665231809679 0 -0.47164434439118558 -0.29859902487093259 0 -0.48361763707807442 -0.27426406281091331 0 -0.46910519348062618 -0.28320526693770848 0 -0.48580896399913942 -0.29193665231809679 0 -0.5 -0.28413533544635422 0 -0.48580896399913942 -0.29193665231809679 0 -0.5 -0.3115730620380921 0 -0.48361763707807442 -0.27426406281091331 0 -0.5 -0.28413533544635422 0 -0.48580896399913942 -0.29193665231809679 0 -0.48580896399913942 -0.29193665231809679 0 -0.5 -0.3115730620380921 0 -0.48293754746551898 -0.30617437981156609 0 -0.48293754746551898 -0.30617437981156609 0 -0.47164434439118558 -0.29859902487093259 0 -0.47203566342767839 -0.31514771464943409 0 -0.48580896399913942 -0.29193665231809679 0 -0.48293754746551898 -0.30617437981156609 0 -0.47164434439118558 -0.29859902487093259 0 -0.47164434439118558 -0.29859902487093259 0 -0.46096111539772322 -0.3069557537098867 0 -0.47203566342767839 -0.31514771464943409 0 -0.46096111539772322 -0.3069557537098867 0 -0.44739706002137658 -0.30395698434733032 0 -0.45229582611609759 -0.31444164243390338 0 -0.46096111539772322 -0.3069557537098867 0 -0.45682111422556548 -0.29317658806621089 0 -0.44739706002137658 -0.30395698434733032 0 -0.47164434439118558 -0.29859902487093259 0 -0.46096111539772322 -0.3069557537098867 0 -0.45682111422556548 -0.29317658806621089 0 -0.44999384684511368 -0.2755750489792308 0 -0.46910519348062618 -0.28320526693770848 0 -0.45682111422556548 -0.29317658806621089 0 -0.46910519348062618 -0.28320526693770848 0 -0.47164434439118558 -0.29859902487093259 0 -0.45682111422556548 -0.29317658806621089 0 -0.44999384684511368 -0.2755750489792308 0 -0.45682111422556548 -0.29317658806621089 0 -0.441361257405879 -0.29303276451920029 0 -0.45682111422556548 -0.29317658806621089 0 -0.441361257405879 -0.29303276451920029 0 -0.44739706002137658 -0.30395698434733032 0 -0.441361257405879 -0.29303276451920029 0 -0.44739706002137658 -0.30395698434733032 0 -0.43527018611072049 -0.30465000121327751 0 -0.44739706002137658 -0.30395698434733032 0 -0.44024276041750632 -0.31887045497680111 0 -0.43527018611072049 -0.30465000121327751 0 -0.44739706002137658 -0.30395698434733032 0 -0.45229582611609759 -0.31444164243390338 0 -0.44024276041750632 -0.31887045497680111 0 -0.44024276041750632 -0.31887045497680111 0 -0.45653421084860168 -0.32646185290925811 0 -0.44024276041750632 -0.31887045497680111 0 -0.43930980958642257 -0.33554338078202212 0 -0.45653421084860168 -0.32646185290925811 0 -0.45229582611609759 -0.31444164243390338 0 -0.44024276041750632 -0.31887045497680111 0 -0.45653421084860168 -0.32646185290925811 0 -0.43930980958642257 -0.33554338078202212 0 -0.44966367396753332 -0.33841986907325933 0 -0.46855294336124231 -0.32873531729210143 0 -0.43930980958642257 -0.33554338078202212 0 -0.4507851133594416 -0.34910720111649318 0 -0.43930980958642257 -0.33554338078202212 0 -0.44966367396753332 -0.33841986907325933 0 -0.4507851133594416 -0.34910720111649318 0 -0.44966367396753332 -0.33841986907325933 0 -0.46855294336124231 -0.32873531729210143 0 -0.46386644800117471 -0.33586508895417932 0 -0.43930980958642257 -0.33554338078202212 0 -0.46855294336124231 -0.32873531729210143 0 -0.43930980958642257 -0.33554338078202212 0 -0.46855294336124231 -0.32873531729210143 0 -0.45653421084860168 -0.32646185290925811 0 -0.44966367396753332 -0.33841986907325933 0 -0.4586808436472537 -0.3401528003513713 0 -0.45711636988675219 -0.34547487934353349 0 -0.44966367396753332 -0.33841986907325933 0 -0.4586808436472537 -0.3401528003513713 0 -0.46386644800117471 -0.33586508895417932 0 -0.4586808436472537 -0.3401528003513713 0 -0.46472493826860672 -0.34236766697450172 0 -0.45711636988675219 -0.34547487934353349 0 -0.4586808436472537 -0.3401528003513713 0 -0.46472493826860672 -0.34236766697450172 0 -0.46386644800117471 -0.33586508895417932 0 -0.46855294336124231 -0.32873531729210143 0 -0.46207595183026873 -0.31834845619891672 0 -0.47203566342767839 -0.31514771464943409 0 -0.46855294336124231 -0.32873531729210143 0 -0.45653421084860168 -0.32646185290925811 0 -0.46207595183026873 -0.31834845619891672 0 -0.46096111539772322 -0.3069557537098867 0 -0.45229582611609759 -0.31444164243390338 0 -0.46207595183026873 -0.31834845619891672 0 -0.45229582611609759 -0.31444164243390338 0 -0.45653421084860168 -0.32646185290925811 0 -0.46207595183026873 -0.31834845619891672 0 -0.46096111539772322 -0.3069557537098867 0 -0.46207595183026873 -0.31834845619891672 0 -0.47203566342767839 -0.31514771464943409 0 -0.48293754746551898 -0.30617437981156609 0 -0.47203566342767839 -0.31514771464943409 0 -0.47770984076123751 -0.32964979107966252 0 -0.48293754746551898 -0.30617437981156609 0 -0.47770984076123751 -0.32964979107966252 0 -0.48293754746551898 -0.30617437981156609 0 -0.48763303240419292 -0.31981883507337211 0 -0.47770984076123751 -0.32964979107966252 0 -0.46855294336124231 -0.32873531729210143 0 -0.47203566342767839 -0.31514771464943409 0 -0.47770984076123751 -0.32964979107966252 0 -0.5 -0.3115730620380921 0 -0.5 -0.33901078862982997 0 -0.49048543526404831 -0.32960291085151988 0 -0.5 -0.3115730620380921 0 -0.48763303240419292 -0.31981883507337211 0 -0.49048543526404831 -0.32960291085151988 0 -0.5 -0.3115730620380921 0 -0.48293754746551898 -0.30617437981156609 0 -0.48763303240419292 -0.31981883507337211 0 -0.48763303240419292 -0.31981883507337211 0 -0.49048543526404831 -0.32960291085151988 0 -0.47770984076123751 -0.32964979107966252 0 -0.49048543526404831 -0.32960291085151988 0 -0.47770984076123751 -0.32964979107966252 0 -0.48708430315481122 -0.3479620774366432 0 -0.5 -0.33901078862982997 0 -0.49048543526404831 -0.32960291085151988 0 -0.48708430315481122 -0.3479620774366432 0 -0.47770984076123751 -0.32964979107966252 0 -0.47248213405695583 -0.35312520234775913 0 -0.47770984076123751 -0.32964979107966252 0 -0.47248213405695583 -0.35312520234775913 0 -0.48708430315481122 -0.3479620774366432 0 -0.46472493826860672 -0.34236766697450172 0 -0.47770984076123751 -0.32964979107966252 0 -0.47248213405695583 -0.35312520234775913 0 -0.46855294336124231 -0.32873531729210143 0 -0.46386644800117471 -0.33586508895417932 0 -0.47770984076123751 -0.32964979107966252 0 -0.46472493826860672 -0.34236766697450172 0 -0.46386644800117471 -0.33586508895417932 0 -0.47770984076123751 -0.32964979107966252 0 -0.47248213405695583 -0.35312520234775913 0 -0.48708430315481122 -0.3479620774366432 0 -0.48422759779560409 -0.37130120630367158 0 -0.5 -0.33901078862982997 0 -0.48708430315481122 -0.3479620774366432 0 -0.5 -0.36644851522156802 0 -0.48708430315481122 -0.3479620774366432 0 -0.5 -0.36644851522156802 0 -0.48422759779560409 -0.37130120630367158 0 -0.46725442735267431 -0.37660061361585562 0 -0.47248213405695583 -0.35312520234775913 0 -0.48422759779560409 -0.37130120630367158 0 -0.46725442735267431 -0.37660061361585562 0 -0.47248213405695583 -0.35312520234775913 0 -0.46725442735267431 -0.37660061361585562 0 -0.4540003998136638 -0.37455519391687309 0 -0.46226041713245919 -0.36267102145096558 0 -0.46725442735267431 -0.37660061361585562 0 -0.47248213405695583 -0.35312520234775913 0 -0.46226041713245919 -0.36267102145096558 0 -0.4540003998136638 -0.37455519391687309 0 -0.46226041713245919 -0.36267102145096558 0 -0.45167034254705118 -0.36337553476545958 0 -0.47248213405695583 -0.35312520234775913 0 -0.46226041713245919 -0.36267102145096558 0 -0.46130034509645268 -0.35111989715704561 0 -0.46472493826860672 -0.34236766697450172 0 -0.47248213405695583 -0.35312520234775913 0 -0.46130034509645268 -0.35111989715704561 0 -0.46472493826860672 -0.34236766697450172 0 -0.46130034509645268 -0.35111989715704561 0 -0.45711636988675219 -0.34547487934353349 0 -0.46130034509645268 -0.35111989715704561 0 -0.45711636988675219 -0.34547487934353349 0 -0.4507851133594416 -0.34910720111649318 0 -0.46226041713245919 -0.36267102145096558 0 -0.4507851133594416 -0.34910720111649318 0 -0.45167034254705118 -0.36337553476545958 0 -0.46226041713245919 -0.36267102145096558 0 -0.46130034509645268 -0.35111989715704561 0 -0.4507851133594416 -0.34910720111649318 0 -0.46226041713245919 -0.36267102145096558 0 -0.4507851133594416 -0.34910720111649318 0 -0.4507851133594416 -0.34910720111649318 0 -0.44504098357239391 -0.35771747353496869 0 -0.45167034254705118 -0.36337553476545958 0 -0.44966367396753332 -0.33841986907325933 0 -0.45711636988675219 -0.34547487934353349 0 -0.4507851133594416 -0.34910720111649318 0 -0.4507851133594416 -0.34910720111649318 0 -0.44408457896710762 -0.34741130507322732 0 -0.44504098357239391 -0.35771747353496869 0 -0.43930980958642257 -0.33554338078202212 0 -0.4507851133594416 -0.34910720111649318 0 -0.44408457896710762 -0.34741130507322732 0 -0.44408457896710762 -0.34741130507322732 0 -0.43834809566141358 -0.35386966642967582 0 -0.4310745521241639 -0.35060051531725012 0 -0.44408457896710762 -0.34741130507322732 0 -0.43834809566141358 -0.35386966642967582 0 -0.44504098357239391 -0.35771747353496869 0 -0.43834809566141358 -0.35386966642967582 0 -0.44504098357239391 -0.35771747353496869 0 -0.43256408976529492 -0.36260533289695268 0 -0.44504098357239391 -0.35771747353496869 0 -0.44172858264042247 -0.37082207246888088 0 -0.43256408976529492 -0.36260533289695268 0 -0.4540003998136638 -0.37455519391687309 0 -0.44172858264042247 -0.37082207246888088 0 -0.45167034254705118 -0.36337553476545958 0 -0.44504098357239391 -0.35771747353496869 0 -0.44172858264042247 -0.37082207246888088 0 -0.45167034254705118 -0.36337553476545958 0 -0.42311368847744002 -0.37830224279505142 0 -0.44172858264042247 -0.37082207246888088 0 -0.43256408976529492 -0.36260533289695268 0 -0.42311368847744002 -0.37830224279505142 0 -0.43256408976529492 -0.36260533289695268 0 -0.41867380740831611 -0.36398836527224071 0 -0.43256408976529492 -0.36260533289695268 0 -0.42210656065146929 -0.35476551363046099 0 -0.41867380740831611 -0.36398836527224071 0 -0.44408457896710762 -0.34741130507322732 0 -0.4310745521241639 -0.35060051531725012 0 -0.42443636388738298 -0.3390060521705498 0 -0.43834809566141358 -0.35386966642967582 0 -0.43256408976529492 -0.36260533289695268 0 -0.4310745521241639 -0.35060051531725012 0 -0.4310745521241639 -0.35060051531725012 0 -0.42266042161335821 -0.34652378860874011 0 -0.42210656065146929 -0.35476551363046099 0 -0.4310745521241639 -0.35060051531725012 0 -0.42266042161335821 -0.34652378860874011 0 -0.42443636388738298 -0.3390060521705498 0 -0.43256408976529492 -0.36260533289695268 0 -0.4310745521241639 -0.35060051531725012 0 -0.42210656065146929 -0.35476551363046099 0 -0.42210656065146929 -0.35476551363046099 0 -0.41243440171204931 -0.35621682403100541 0 -0.41867380740831611 -0.36398836527224071 0 -0.41243440171204931 -0.35621682403100541 0 -0.40365717239196519 -0.36741535175059892 0 -0.40302160193259851 -0.3439916005776541 0 -0.42210656065146929 -0.35476551363046099 0 -0.41714587076776338 -0.34786779488983011 0 -0.41243440171204931 -0.35621682403100541 0 -0.42266042161335821 -0.34652378860874011 0 -0.42210656065146929 -0.35476551363046099 0 -0.41714587076776338 -0.34786779488983011 0 -0.42266042161335821 -0.34652378860874011 0 -0.41714587076776338 -0.34786779488983011 0 -0.41853876063601031 -0.34037906703560689 0 -0.41714587076776338 -0.34786779488983011 0 -0.41853876063601031 -0.34037906703560689 0 -0.41714587076776338 -0.34786779488983011 0 -0.41243440171204931 -0.35621682403100541 0 -0.40302160193259851 -0.3439916005776541 0 -0.41714587076776338 -0.34786779488983011 0 -0.40302160193259851 -0.3439916005776541 0 -0.41853876063601031 -0.34037906703560689 0 -0.42311368847744002 -0.37830224279505142 0 -0.41867380740831611 -0.36398836527224071 0 -0.40365717239196519 -0.36741535175059892 0 -0.42311368847744002 -0.37830224279505142 0 -0.40365717239196519 -0.36741535175059892 0 -0.41243440171204931 -0.35621682403100541 0 -0.41867380740831611 -0.36398836527224071 0 -0.40365717239196519 -0.36741535175059892 0 -0.40403491357358612 -0.38133688525744702 0 -0.40365717239196519 -0.36741535175059892 0 -0.40403491357358612 -0.38133688525744702 0 -0.40365717239196519 -0.36741535175059892 0 -0.3904578797192948 -0.37473938743617019 0 -0.40365717239196519 -0.36741535175059892 0 -0.38979507995825918 -0.35965881973269581 0 -0.40365717239196519 -0.36741535175059892 0 -0.3904578797192948 -0.37473938743617019 0 -0.38979507995825918 -0.35965881973269581 0 -0.3904578797192948 -0.37473938743617019 0 -0.38979507995825918 -0.35965881973269581 0 -0.37568304780698558 -0.36916333065311507 0 -0.37568304780698558 -0.36916333065311507 0 -0.37593298752455201 -0.35190228771479481 0 -0.38979507995825918 -0.35965881973269581 0 -0.37568304780698558 -0.36916333065311507 0 -0.37593298752455201 -0.35190228771479481 0 -0.38979507995825918 -0.35965881973269581 0 -0.37595629511297179 -0.35029264644438168 0 -0.40302160193259851 -0.3439916005776541 0 -0.37595629511297179 -0.35029264644438168 0 -0.40302160193259851 -0.3439916005776541 0 -0.38842354837557669 -0.33756560667471242 0 -0.37595629511297179 -0.35029264644438168 0 -0.40302160193259851 -0.3439916005776541 0 -0.37595629511297179 -0.35029264644438168 0 -0.37607676276689278 -0.3419730509543204 0 -0.37390838074359528 -0.35076941925389299 0 -0.37595629511297179 -0.35029264644438168 0 -0.37607676276689278 -0.3419730509543204 0 -0.37595629511297179 -0.35029264644438168 0 -0.37593298752455201 -0.35190228771479481 0 -0.37390838074359528 -0.35076941925389299 0 -0.37595629511297179 -0.35029264644438168 0 -0.37593298752455201 -0.35190228771479481 0 -0.38979507995825918 -0.35965881973269581 0 -0.37595629511297179 -0.35029264644438168 0 -0.37593298752455201 -0.35190228771479481 0 -0.38979507995825918 -0.35965881973269581 0 -0.37593298752455201 -0.35190228771479481 0 -0.40365717239196519 -0.36741535175059892 0 -0.40302160193259851 -0.3439916005776541 0 -0.40365717239196519 -0.36741535175059892 0 -0.38979507995825918 -0.35965881973269581 0 -0.40302160193259851 -0.3439916005776541 0 -0.40302160193259851 -0.3439916005776541 0 -0.40263324863316441 -0.32967896077653092 0 -0.40263324863316441 -0.32967896077653092 0 -0.38842354837557669 -0.33756560667471242 0 -0.38442983343225828 -0.32189177462067481 0 -0.40302160193259851 -0.3439916005776541 0 -0.40263324863316441 -0.32967896077653092 0 -0.38842354837557669 -0.33756560667471242 0 -0.37607676276689278 -0.3419730509543204 0 -0.37641717267996733 -0.3184640617331177 0 -0.38842354837557669 -0.33756560667471242 0 -0.37607676276689278 -0.3419730509543204 0 -0.38442983343225828 -0.32189177462067481 0 -0.37607676276689278 -0.3419730509543204 0 -0.38442983343225828 -0.32189177462067481 0 -0.37595629511297179 -0.35029264644438168 0 -0.38842354837557669 -0.33756560667471242 0 -0.37607676276689278 -0.3419730509543204 0 -0.37607676276689278 -0.3419730509543204 0 -0.37641717267996733 -0.3184640617331177 0 -0.38442983343225828 -0.32189177462067481 0 -0.37641717267996733 -0.3184640617331177 0 -0.38442983343225828 -0.32189177462067481 0 -0.3841914044669909 -0.30132118344037401 0 -0.37641717267996733 -0.3184640617331177 0 -0.38442983343225828 -0.32189177462067481 0 -0.40263324863316441 -0.32967896077653092 0 -0.38442983343225828 -0.32189177462067481 0 -0.40185461233875269 -0.30098256284660307 0 -0.40263324863316441 -0.32967896077653092 0 -0.38442983343225828 -0.32189177462067481 0 -0.40263324863316441 -0.32967896077653092 0 -0.40185461233875269 -0.30098256284660307 0 -0.40263324863316441 -0.32967896077653092 0 -0.41242695344044827 -0.31820451366256841 0 -0.40185461233875269 -0.30098256284660307 0 -0.41242695344044827 -0.31820451366256841 0 -0.41920998916455232 -0.33677027649670849 0 -0.42301959421646518 -0.31628833020920039 0 -0.41920998916455232 -0.33677027649670849 0 -0.42301959421646518 -0.31628833020920039 0 -0.41242695344044827 -0.31820451366256841 0 -0.42301959421646518 -0.31628833020920039 0 -0.41541732284930832 -0.30730243798379953 0 -0.40302160193259851 -0.3439916005776541 0 -0.41920998916455232 -0.33677027649670849 0 -0.41853876063601031 -0.34037906703560689 0 -0.40302160193259851 -0.3439916005776541 0 -0.40263324863316441 -0.32967896077653092 0 -0.41920998916455232 -0.33677027649670849 0 -0.40263324863316441 -0.32967896077653092 0 -0.41920998916455232 -0.33677027649670849 0 -0.40263324863316441 -0.32967896077653092 0 -0.41242695344044827 -0.31820451366256841 0 -0.41920998916455232 -0.33677027649670849 0 -0.40302160193259851 -0.3439916005776541 0 -0.41853876063601031 -0.34037906703560689 0 -0.41853876063601031 -0.34037906703560689 0 -0.42443636388738298 -0.3390060521705498 0 -0.41920998916455232 -0.33677027649670849 0 -0.42443636388738298 -0.3390060521705498 0 -0.41920998916455232 -0.33677027649670849 0 -0.41853876063601031 -0.34037906703560689 0 -0.42443636388738298 -0.3390060521705498 0 -0.41920998916455232 -0.33677027649670849 0 -0.41853876063601031 -0.34037906703560689 0 -0.43930980958642257 -0.33554338078202212 0 -0.44408457896710762 -0.34741130507322732 0 -0.42443636388738298 -0.3390060521705498 0 -0.43930980958642257 -0.33554338078202212 0 -0.42443636388738298 -0.3390060521705498 0 -0.42301959421646518 -0.31628833020920039 0 -0.41920998916455232 -0.33677027649670849 0 -0.42443636388738298 -0.3390060521705498 0 -0.42301959421646518 -0.31628833020920039 0 -0.44408457896710762 -0.34741130507322732 0 -0.42443636388738298 -0.3390060521705498 0 -0.42266042161335821 -0.34652378860874011 0 -0.41853876063601031 -0.34037906703560689 0 -0.42443636388738298 -0.3390060521705498 0 -0.43930980958642257 -0.33554338078202212 0 -0.42443636388738298 -0.3390060521705498 0 -0.43930980958642257 -0.33554338078202212 0 -0.42301959421646518 -0.31628833020920039 0 -0.44024276041750632 -0.31887045497680111 0 -0.42395130998641067 -0.31127905704434472 0 -0.44024276041750632 -0.31887045497680111 0 -0.43930980958642257 -0.33554338078202212 0 -0.42301959421646518 -0.31628833020920039 0 -0.44024276041750632 -0.31887045497680111 0 -0.42301959421646518 -0.31628833020920039 0 -0.42395130998641067 -0.31127905704434472 0 -0.42301959421646518 -0.31628833020920039 0 -0.42395130998641067 -0.31127905704434472 0 -0.42395130998641067 -0.31127905704434472 0 -0.42709180872781188 -0.29439449141065738 0 -0.44024276041750632 -0.31887045497680111 0 -0.42395130998641067 -0.31127905704434472 0 -0.43527018611072049 -0.30465000121327751 0 -0.42395130998641067 -0.31127905704434472 0 -0.42709180872781188 -0.29439449141065738 0 -0.41541732284930832 -0.30730243798379953 0 -0.42395130998641067 -0.31127905704434472 0 -0.43527018611072049 -0.30465000121327751 0 -0.42709180872781188 -0.29439449141065738 0 -0.441361257405879 -0.29303276451920029 0 -0.43527018611072049 -0.30465000121327751 0 -0.42709180872781188 -0.29439449141065738 0 -0.42709180872781188 -0.29439449141065738 0 -0.43077531442077321 -0.27459050524281542 0 -0.42709180872781188 -0.29439449141065738 0 -0.41684225135067149 -0.28376244362903152 0 -0.43077531442077321 -0.27459050524281542 0 -0.441361257405879 -0.29303276451920029 0 -0.42709180872781188 -0.29439449141065738 0 -0.441361257405879 -0.29303276451920029 0 -0.42709180872781188 -0.29439449141065738 0 -0.43077531442077321 -0.27459050524281542 0 -0.42709180872781188 -0.29439449141065738 0 -0.41684225135067149 -0.28376244362903152 0 -0.40618483967714292 -0.29638963380315841 0 -0.42709180872781188 -0.29439449141065738 0 -0.40618483967714292 -0.29638963380315841 0 -0.41684225135067149 -0.28376244362903152 0 -0.40690107601488551 -0.28490397733270861 0 -0.40618483967714292 -0.29638963380315841 0 -0.41541732284930832 -0.30730243798379953 0 -0.40185461233875269 -0.30098256284660307 0 -0.40618483967714292 -0.29638963380315841 0 -0.42709180872781188 -0.29439449141065738 0 -0.41541732284930832 -0.30730243798379953 0 -0.40618483967714292 -0.29638963380315841 0 -0.41541732284930832 -0.30730243798379953 0 -0.40618483967714292 -0.29638963380315841 0 -0.41242695344044827 -0.31820451366256841 0 -0.41541732284930832 -0.30730243798379953 0 -0.40185461233875269 -0.30098256284660307 0 -0.41541732284930832 -0.30730243798379953 0 -0.40185461233875269 -0.30098256284660307 0 -0.42301959421646518 -0.31628833020920039 0 -0.41541732284930832 -0.30730243798379953 0 -0.42395130998641067 -0.31127905704434472 0 -0.41541732284930832 -0.30730243798379953 0 -0.42301959421646518 -0.31628833020920039 0 -0.42395130998641067 -0.31127905704434472 0 -0.41541732284930832 -0.30730243798379953 0 -0.38442983343225828 -0.32189177462067481 0 -0.40185461233875269 -0.30098256284660307 0 -0.39448508010510541 -0.297525044214214 0 -0.40185461233875269 -0.30098256284660307 0 -0.40174149504185092 -0.29681366012781812 0 -0.40618483967714292 -0.29638963380315841 0 -0.40185461233875269 -0.30098256284660307 0 -0.40174149504185092 -0.29681366012781812 0 -0.40185461233875269 -0.30098256284660307 0 -0.39448508010510541 -0.297525044214214 0 -0.40174149504185092 -0.29681366012781812 0 -0.40185461233875269 -0.30098256284660307 0 -0.39448508010510541 -0.297525044214214 0 -0.39448508010510541 -0.297525044214214 0 -0.40174149504185092 -0.29681366012781812 0 -0.37641717267996733 -0.3184640617331177 0 -0.37669606201677502 -0.29920373422444158 0 -0.38442983343225828 -0.32189177462067481 0 -0.39448508010510541 -0.297525044214214 0 -0.38442983343225828 -0.32189177462067481 0 -0.39448508010510541 -0.297525044214214 0 -0.3841914044669909 -0.30132118344037401 0 -0.37641717267996733 -0.3184640617331177 0 -0.3841914044669909 -0.30132118344037401 0 -0.37669606201677502 -0.29920373422444158 0 -0.39448508010510541 -0.297525044214214 0 -0.3841914044669909 -0.30132118344037401 0 -0.37928718982873688 -0.29895646409505849 0 -0.39448508010510541 -0.297525044214214 0 -0.37928718982873688 -0.29895646409505849 0 -0.3841914044669909 -0.30132118344037401 0 -0.37928718982873688 -0.29895646409505849 0 -0.3841914044669909 -0.30132118344037401 0 -0.37928718982873688 -0.29895646409505849 0 -0.37669606201677502 -0.29920373422444158 0 -0.37928718982873688 -0.29895646409505849 0 -0.37669606201677502 -0.29920373422444158 0 -0.37671758341694961 -0.29771744858697219 0 -0.37928718982873688 -0.29895646409505849 0 -0.37671758341694961 -0.29771744858697219 0 -0.37928718982873688 -0.29895646409505849 0 -0.37669606201677502 -0.29920373422444158 0 -0.37669606201677502 -0.29920373422444158 0 -0.37671758341694961 -0.29771744858697219 0 -0.37671758341694961 -0.29771744858697219 0 -0.38607699004493318 -0.28757386461908069 0 -0.38483052758877101 -0.28123782127595193 0 -0.37671758341694961 -0.29771744858697219 0 -0.3770412393053626 -0.27536550612006683 0 -0.37671758341694961 -0.29771744858697219 0 -0.38483052758877101 -0.28123782127595193 0 -0.3770412393053626 -0.27536550612006683 0 -0.37928718982873688 -0.29895646409505849 0 -0.37671758341694961 -0.29771744858697219 0 -0.38467000758835601 -0.29297497791584359 0 -0.37671758341694961 -0.29771744858697219 0 -0.38467000758835601 -0.29297497791584359 0 -0.38607699004493318 -0.28757386461908069 0 -0.39448508010510541 -0.297525044214214 0 -0.37928718982873688 -0.29895646409505849 0 -0.38467000758835601 -0.29297497791584359 0 -0.39448508010510541 -0.297525044214214 0 -0.38467000758835601 -0.29297497791584359 0 -0.39448508010510541 -0.297525044214214 0 -0.38467000758835601 -0.29297497791584359 0 -0.39217701296355612 -0.28987936211692023 0 -0.38467000758835601 -0.29297497791584359 0 -0.38607699004493318 -0.28757386461908069 0 -0.39217701296355612 -0.28987936211692023 0 -0.38607699004493318 -0.28757386461908069 0 -0.39049541959166939 -0.28414526237041138 0 -0.39217701296355612 -0.28987936211692023 0 -0.39049541959166939 -0.28414526237041138 0 -0.39420405367365152 -0.27853706101481662 0 -0.38483052758877101 -0.28123782127595193 0 -0.38607699004493318 -0.28757386461908069 0 -0.39049541959166939 -0.28414526237041138 0 -0.38483052758877101 -0.28123782127595193 0 -0.39597078832761667 -0.28551153658085893 0 -0.40174149504185092 -0.29681366012781812 0 -0.40123596036735593 -0.27818233727432817 0 -0.39049541959166939 -0.28414526237041138 0 -0.39597078832761667 -0.28551153658085893 0 -0.39420405367365152 -0.27853706101481662 0 -0.40174149504185092 -0.29681366012781812 0 -0.40123596036735593 -0.27818233727432817 0 -0.40174149504185092 -0.29681366012781812 0 -0.40322207619149192 -0.29288764445213411 0 -0.40123596036735593 -0.27818233727432817 0 -0.39049541959166939 -0.28414526237041138 0 -0.39597078832761667 -0.28551153658085893 0 -0.39217701296355612 -0.28987936211692023 0 -0.39597078832761667 -0.28551153658085893 0 -0.39217701296355612 -0.28987936211692023 0 -0.40174149504185092 -0.29681366012781812 0 -0.39448508010510541 -0.297525044214214 0 -0.39217701296355612 -0.28987936211692023 0 -0.40174149504185092 -0.29681366012781812 0 -0.40690107601488551 -0.28490397733270861 0 -0.40322207619149192 -0.29288764445213411 0 -0.40618483967714292 -0.29638963380315841 0 -0.40174149504185092 -0.29681366012781812 0 -0.40322207619149192 -0.29288764445213411 0 -0.40618483967714292 -0.29638963380315841 0 -0.40174149504185092 -0.29681366012781812 0 -0.40618483967714292 -0.29638963380315841 0 -0.40322207619149192 -0.29288764445213411 0 -0.40618483967714292 -0.29638963380315841 0 -0.40690107601488551 -0.28490397733270861 0 -0.40322207619149192 -0.29288764445213411 0 -0.40123596036735593 -0.27818233727432817 0 -0.39420405367365152 -0.27853706101481662 0 -0.37710287173325818 -0.2711091198417086 0 -0.40073042569286338 -0.25955101442083811 0 -0.40123596036735593 -0.27818233727432817 0 -0.39420405367365152 -0.27853706101481662 0 -0.40073042569286338 -0.25955101442083811 0 -0.40123596036735593 -0.27818233727432817 0 -0.40073042569286338 -0.25955101442083811 0 -0.40123596036735593 -0.27818233727432817 0 -0.40073042569286338 -0.25955101442083811 0 -0.41341650638623911 -0.27076301679274262 0 -0.39597078832761667 -0.28551153658085893 0 -0.40123596036735593 -0.27818233727432817 0 -0.39420405367365152 -0.27853706101481662 0 -0.39420405367365152 -0.27853706101481662 0 -0.37710287173325818 -0.2711091198417086 0 -0.3770412393053626 -0.27536550612006683 0 -0.39420405367365152 -0.27853706101481662 0 -0.3770412393053626 -0.27536550612006683 0 -0.39420405367365152 -0.27853706101481662 0 -0.38483052758877101 -0.28123782127595193 0 -0.3770412393053626 -0.27536550612006683 0 -0.37710287173325818 -0.2711091198417086 0 -0.3770412393053626 -0.27536550612006683 0 -0.37710287173325818 -0.2711091198417086 0 -0.38543722149146659 -0.25821727905458303 0 -0.40073042569286338 -0.25955101442083811 0 -0.37710287173325818 -0.2711091198417086 0 -0.37747963509906429 -0.24508953120583671 0 -0.37710287173325818 -0.2711091198417086 0 -0.40073042569286338 -0.25955101442083811 0 -0.37710287173325818 -0.2711091198417086 0 -0.38543722149146659 -0.25821727905458303 0 -0.37747963509906429 -0.24508953120583671 0 -0.38543722149146659 -0.25821727905458303 0 -0.3938256931015453 -0.25037754026629511 0 -0.37747963509906429 -0.24508953120583671 0 -0.38543722149146659 -0.25821727905458303 0 -0.3938256931015453 -0.25037754026629511 0 -0.40073042569286338 -0.25955101442083811 0 -0.40073042569286338 -0.25955101442083811 0 -0.40282532782868952 -0.25224285689579767 0 -0.40022281387448849 -0.24084313907701979 0 -0.40073042569286338 -0.25955101442083811 0 -0.40022281387448849 -0.24084313907701979 0 -0.3938256931015453 -0.25037754026629511 0 -0.40073042569286338 -0.25955101442083811 0 -0.40022281387448849 -0.24084313907701979 0 -0.40073042569286338 -0.25955101442083811 0 -0.40282532782868952 -0.25224285689579767 0 -0.41385673751816382 -0.25312989710486528 0 -0.40073042569286338 -0.25955101442083811 0 -0.41385673751816382 -0.25312989710486528 0 -0.40073042569286338 -0.25955101442083811 0 -0.41385673751816382 -0.25312989710486528 0 -0.41341650638623911 -0.27076301679274262 0 -0.41385673751816382 -0.25312989710486528 0 -0.41341650638623911 -0.27076301679274262 0 -0.42312684460972783 -0.26331748455384929 0 -0.41385673751816382 -0.25312989710486528 0 -0.41679144862722167 -0.25169429778568547 0 -0.43445882011373449 -0.25478651907497341 0 -0.40282532782868952 -0.25224285689579767 0 -0.41385673751816382 -0.25312989710486528 0 -0.4086566941719203 -0.24778871483445111 0 -0.40282532782868952 -0.25224285689579767 0 -0.41385673751816382 -0.25312989710486528 0 -0.41385673751816382 -0.25312989710486528 0 -0.41679144862722167 -0.25169429778568547 0 -0.41627810448972868 -0.24641300060905449 0 -0.41385673751816382 -0.25312989710486528 0 -0.41679144862722167 -0.25169429778568547 0 -0.41684225135067149 -0.28376244362903152 0 -0.41341650638623911 -0.27076301679274262 0 -0.43077531442077321 -0.27459050524281542 0 -0.40690107601488551 -0.28490397733270861 0 -0.40123596036735593 -0.27818233727432817 0 -0.41341650638623911 -0.27076301679274262 0 -0.41684225135067149 -0.28376244362903152 0 -0.40690107601488551 -0.28490397733270861 0 -0.41341650638623911 -0.27076301679274262 0 -0.41341650638623911 -0.27076301679274262 0 -0.43077531442077321 -0.27459050524281542 0 -0.42312684460972783 -0.26331748455384929 0 -0.43077531442077321 -0.27459050524281542 0 -0.42312684460972783 -0.26331748455384929 0 -0.43445882011373449 -0.25478651907497341 0 -0.41385673751816382 -0.25312989710486528 0 -0.43445882011373449 -0.25478651907497341 0 -0.43077531442077321 -0.27459050524281542 0 -0.43445882011373449 -0.25478651907497341 0 -0.41385673751816382 -0.25312989710486528 0 -0.42312684460972783 -0.26331748455384929 0 -0.43445882011373449 -0.25478651907497341 0 -0.41679144862722167 -0.25169429778568547 0 -0.43445882011373449 -0.25478651907497341 0 -0.42335340856967768 -0.24893549408922019 0 -0.32580796388430833 -0.26195871891040218 0 -0.34139866608006603 -0.2687790352098644 0 -0.31202674084989918 -0.26335133138269068 0 -0.32580796388430833 -0.26195871891040218 0 -0.33345250408021371 -0.25331871279766999 0 -0.32023222063025569 -0.2489608815952247 0 -0.32580796388430833 -0.26195871891040218 0 -0.31664960680882542 -0.25714232151458272 0 -0.32023222063025569 -0.2489608815952247 0 -0.31664960680882542 -0.25714232151458272 0 -0.30853150187083839 -0.25429835417001312 0 -0.32023222063025569 -0.2489608815952247 0 -0.32580796388430833 -0.26195871891040218 0 -0.31664960680882542 -0.25714232151458272 0 -0.31202674084989918 -0.26335133138269068 0 -0.33223611708196649 -0.27626932861073827 0 -0.31972670239926188 -0.28454160199560091 0 -0.31187737399160442 -0.27618124236115132 0 -0.34139866608006603 -0.2687790352098644 0 -0.31202674084989918 -0.26335133138269068 0 -0.33223611708196649 -0.27626932861073827 0 -0.31202674084989918 -0.26335133138269068 0 -0.3062135479255173 -0.26372173898871692 0 -0.33223611708196649 -0.27626932861073827 0 -0.31187737399160442 -0.27618124236115132 0 -0.3062135479255173 -0.26372173898871692 0 -0.33260241140844943 -0.2743168067351805 0 -0.33223611708196649 -0.27626932861073827 0 -0.31202674084989918 -0.26335133138269068 0 -0.33223611708196649 -0.27626932861073827 0 -0.3062135479255173 -0.26372173898871692 0 -0.33260241140844943 -0.2743168067351805 0 -0.34139866608006603 -0.2687790352098644 0 -0.31202674084989918 -0.26335133138269068 0 -0.33223611708196649 -0.27626932861073827 0 -0.34139866608006603 -0.2687790352098644 0 -0.34951875912658742 -0.28460269103381453 0 -0.33223611708196649 -0.27626932861073827 0 -0.34951875912658742 -0.28460269103381453 0 -0.33260241140844943 -0.2743168067351805 0 -0.33223611708196649 -0.27626932861073827 0 -0.34139866608006603 -0.2687790352098644 0 -0.33260241140844943 -0.2743168067351805 0 -0.33223611708196649 -0.27626932861073827 0 -0.34139866608006603 -0.2687790352098644 0 -0.3363084638556994 -0.26041051377605268 0 -0.34457472137820933 -0.25758558818627408 0 -0.32580796388430833 -0.26195871891040218 0 -0.34139866608006603 -0.2687790352098644 0 -0.3363084638556994 -0.26041051377605268 0 -0.32580796388430833 -0.26195871891040218 0 -0.3363084638556994 -0.26041051377605268 0 -0.33345250408021371 -0.25331871279766999 0 -0.3363084638556994 -0.26041051377605268 0 -0.33345250408021371 -0.25331871279766999 0 -0.34457472137820933 -0.25758558818627408 0 -0.33345250408021371 -0.25331871279766999 0 -0.34457472137820933 -0.25758558818627408 0 -0.34395992200845399 -0.24382677409400949 0 -0.34139866608006603 -0.2687790352098644 0 -0.34457472137820933 -0.25758558818627408 0 -0.35733732661955131 -0.26288598862094092 0 -0.34457472137820933 -0.25758558818627408 0 -0.35872453044413888 -0.25078889886649508 0 -0.34395992200845399 -0.24382677409400949 0 -0.34457472137820933 -0.25758558818627408 0 -0.35733732661955131 -0.26288598862094092 0 -0.35872453044413888 -0.25078889886649508 0 -0.37710287173325818 -0.2711091198417086 0 -0.36828299104124951 -0.26081605551440462 0 -0.37747963509906429 -0.24508953120583671 0 -0.35872453044413888 -0.25078889886649508 0 -0.36828299104124951 -0.26081605551440462 0 -0.37747963509906429 -0.24508953120583671 0 -0.35733732661955131 -0.26288598862094092 0 -0.35872453044413888 -0.25078889886649508 0 -0.36828299104124951 -0.26081605551440462 0 -0.37077059131023282 -0.27420673903703829 0 -0.34951875912658742 -0.28460269103381453 0 -0.37710287173325818 -0.2711091198417086 0 -0.3770412393053626 -0.27536550612006683 0 -0.37077059131023282 -0.27420673903703829 0 -0.3770412393053626 -0.27536550612006683 0 -0.37077059131023282 -0.27420673903703829 0 -0.37710287173325818 -0.2711091198417086 0 -0.36828299104124951 -0.26081605551440462 0 -0.37077059131023282 -0.27420673903703829 0 -0.37710287173325818 -0.2711091198417086 0 -0.37077059131023282 -0.27420673903703829 0 -0.35733732661955131 -0.26288598862094092 0 -0.36828299104124951 -0.26081605551440462 0 -0.37077059131023282 -0.27420673903703829 0 -0.34139866608006603 -0.2687790352098644 0 -0.35733732661955131 -0.26288598862094092 0 -0.37077059131023282 -0.27420673903703829 0 -0.34139866608006603 -0.2687790352098644 0 -0.37077059131023282 -0.27420673903703829 0 -0.34951875912658742 -0.28460269103381453 0 -0.34139866608006603 -0.2687790352098644 0 -0.37077059131023282 -0.27420673903703829 0 -0.34951875912658742 -0.28460269103381453 0 -0.3581763596052473 -0.30097106086504849 0 -0.34010739644885768 -0.2892065328944351 0 -0.34951875912658742 -0.28460269103381453 0 -0.34010739644885768 -0.2892065328944351 0 -0.37671758341694961 -0.29771744858697219 0 -0.37077059131023282 -0.27420673903703829 0 -0.34951875912658742 -0.28460269103381453 0 -0.37671758341694961 -0.29771744858697219 0 -0.34951875912658742 -0.28460269103381453 0 -0.37671758341694961 -0.29771744858697219 0 -0.3770412393053626 -0.27536550612006683 0 -0.37077059131023282 -0.27420673903703829 0 -0.37671758341694961 -0.29771744858697219 0 -0.34951875912658742 -0.28460269103381453 0 -0.3581763596052473 -0.30097106086504849 0 -0.37669606201677502 -0.29920373422444158 0 -0.37671758341694961 -0.29771744858697219 0 -0.3581763596052473 -0.30097106086504849 0 -0.37641717267996733 -0.3184640617331177 0 -0.37669606201677502 -0.29920373422444158 0 -0.36799370156123501 -0.30592930732763762 0 -0.37641717267996733 -0.3184640617331177 0 -0.36799370156123501 -0.30592930732763762 0 -0.35803691493684492 -0.31060122461938489 0 -0.37669606201677502 -0.29920373422444158 0 -0.36799370156123501 -0.30592930732763762 0 -0.3581763596052473 -0.30097106086504849 0 -0.37669606201677502 -0.29920373422444158 0 -0.3581763596052473 -0.30097106086504849 0 -0.36799370156123501 -0.30592930732763762 0 -0.35803691493684492 -0.31060122461938489 0 -0.3581763596052473 -0.30097106086504849 0 -0.35803691493684492 -0.31060122461938489 0 -0.33965665719371979 -0.30273838750565862 0 -0.35803691493684492 -0.31060122461938489 0 -0.33965665719371979 -0.30273838750565862 0 -0.34514704515453298 -0.31300544250539297 0 -0.3581763596052473 -0.30097106086504849 0 -0.33965665719371979 -0.30273838750565862 0 -0.34010739644885768 -0.2892065328944351 0 -0.35803691493684492 -0.31060122461938489 0 -0.3581763596052473 -0.30097106086504849 0 -0.33965665719371979 -0.30273838750565862 0 -0.3581763596052473 -0.30097106086504849 0 -0.33965665719371979 -0.30273838750565862 0 -0.33676996251121621 -0.31158184422573892 0 -0.33965665719371979 -0.30273838750565862 0 -0.34514704515453298 -0.31300544250539297 0 -0.33676996251121621 -0.31158184422573892 0 -0.33965665719371979 -0.30273838750565862 0 -0.32704471803945162 -0.30394193902942662 0 -0.33676996251121621 -0.31158184422573892 0 -0.32594772137393307 -0.30978944971135602 0 -0.32704471803945162 -0.30394193902942662 0 -0.33965665719371979 -0.30273838750565862 0 -0.32704471803945162 -0.30394193902942662 0 -0.32819068517220462 -0.29783339261299951 0 -0.33965665719371979 -0.30273838750565862 0 -0.32704471803945162 -0.30394193902942662 0 -0.32819068517220462 -0.29783339261299951 0 -0.33965665719371979 -0.30273838750565862 0 -0.33223611708196649 -0.27626932861073827 0 -0.32819068517220462 -0.29783339261299951 0 -0.33223611708196649 -0.27626932861073827 0 -0.32819068517220462 -0.29783339261299951 0 -0.34010739644885768 -0.2892065328944351 0 -0.33223611708196649 -0.27626932861073827 0 -0.34951875912658742 -0.28460269103381453 0 -0.34010739644885768 -0.2892065328944351 0 -0.32819068517220462 -0.29783339261299951 0 -0.33965665719371979 -0.30273838750565862 0 -0.34010739644885768 -0.2892065328944351 0 -0.32819068517220462 -0.29783339261299951 0 -0.31972670239926188 -0.28454160199560091 0 -0.31332574866090718 -0.291474364566292 0 -0.32819068517220462 -0.29783339261299951 0 -0.31332574866090718 -0.291474364566292 0 -0.33223611708196649 -0.27626932861073827 0 -0.32819068517220462 -0.29783339261299951 0 -0.31972670239926188 -0.28454160199560091 0 -0.31972670239926188 -0.28454160199560091 0 -0.31332574866090718 -0.291474364566292 0 -0.30937392239009109 -0.28339120160471948 0 -0.31972670239926188 -0.28454160199560091 0 -0.30937392239009109 -0.28339120160471948 0 -0.31187737399160442 -0.27618124236115132 0 -0.31992409361072222 -0.30462145692723192 0 -0.32594772137393307 -0.30978944971135602 0 -0.31307430431717392 -0.31869978567557272 0 -0.31992409361072222 -0.30462145692723192 0 -0.32594772137393307 -0.30978944971135602 0 -0.32594772137393307 -0.30978944971135602 0 -0.32704471803945162 -0.30394193902942662 0 -0.31992409361072222 -0.30462145692723192 0 -0.32594772137393307 -0.30978944971135602 0 -0.32704471803945162 -0.30394193902942662 0 -0.32819068517220462 -0.29783339261299951 0 -0.31332574866090718 -0.291474364566292 0 -0.31992409361072222 -0.30462145692723192 0 -0.32819068517220462 -0.29783339261299951 0 -0.32704471803945162 -0.30394193902942662 0 -0.32819068517220462 -0.29783339261299951 0 -0.31992409361072222 -0.30462145692723192 0 -0.32704471803945162 -0.30394193902942662 0 -0.31992409361072222 -0.30462145692723192 0 -0.32704471803945162 -0.30394193902942662 0 -0.32594772137393307 -0.30978944971135602 0 -0.31307430431717392 -0.31869978567557272 0 -0.32184288384298337 -0.33167017375041419 0 -0.32594772137393307 -0.30978944971135602 0 -0.32184288384298337 -0.33167017375041419 0 -0.32184288384298337 -0.33167017375041419 0 -0.31773804631203251 -0.35355089778947202 0 -0.32184288384298337 -0.33167017375041419 0 -0.34475024534571441 -0.34586667392980902 0 -0.31773804631203251 -0.35355089778947202 0 -0.32184288384298337 -0.33167017375041419 0 -0.34612464597635118 -0.32710031367078812 0 -0.34475024534571441 -0.34586667392980902 0 -0.33676996251121621 -0.31158184422573892 0 -0.32594772137393307 -0.30978944971135602 0 -0.34612464597635118 -0.32710031367078812 0 -0.32594772137393307 -0.30978944971135602 0 -0.34612464597635118 -0.32710031367078812 0 -0.32594772137393307 -0.30978944971135602 0 -0.32184288384298337 -0.33167017375041419 0 -0.34612464597635118 -0.32710031367078812 0 -0.33676996251121621 -0.31158184422573892 0 -0.34514704515453298 -0.31300544250539297 0 -0.34612464597635118 -0.32710031367078812 0 -0.35803691493684492 -0.31060122461938489 0 -0.34514704515453298 -0.31300544250539297 0 -0.34612464597635118 -0.32710031367078812 0 -0.35803691493684492 -0.31060122461938489 0 -0.34612464597635118 -0.32710031367078812 0 -0.35600230731325749 -0.33324145173106873 0 -0.37641717267996733 -0.3184640617331177 0 -0.35803691493684492 -0.31060122461938489 0 -0.37641717267996733 -0.3184640617331177 0 -0.35803691493684492 -0.31060122461938489 0 -0.36719759625642318 -0.33008752154143739 0 -0.35803691493684492 -0.31060122461938489 0 -0.36719759625642318 -0.33008752154143739 0 -0.35600230731325749 -0.33324145173106873 0 -0.37607676276689278 -0.3419730509543204 0 -0.37641717267996733 -0.3184640617331177 0 -0.36719759625642318 -0.33008752154143739 0 -0.37607676276689278 -0.3419730509543204 0 -0.3688763256213185 -0.34309961767568647 0 -0.36719759625642318 -0.33008752154143739 0 -0.36719759625642318 -0.33008752154143739 0 -0.36118874601324108 -0.3436521492952741 0 -0.35600230731325749 -0.33324145173106873 0 -0.3688763256213185 -0.34309961767568647 0 -0.36719759625642318 -0.33008752154143739 0 -0.36118874601324108 -0.3436521492952741 0 -0.34612464597635118 -0.32710031367078812 0 -0.35600230731325749 -0.33324145173106873 0 -0.34475024534571441 -0.34586667392980902 0 -0.36118874601324108 -0.3436521492952741 0 -0.35600230731325749 -0.33324145173106873 0 -0.34475024534571441 -0.34586667392980902 0 -0.36118874601324108 -0.3436521492952741 0 -0.34475024534571441 -0.34586667392980902 0 -0.35925477447714671 -0.35134479444962452 0 -0.34475024534571441 -0.34586667392980902 0 -0.35480891830463612 -0.3592101017575729 0 -0.33937201587241012 -0.36587749477948078 0 -0.34475024534571441 -0.34586667392980902 0 -0.35480891830463612 -0.3592101017575729 0 -0.35925477447714671 -0.35134479444962452 0 -0.36118874601324108 -0.3436521492952741 0 -0.37225797237559449 -0.35115364910559932 0 -0.36118874601324108 -0.3436521492952741 0 -0.35925477447714671 -0.35134479444962452 0 -0.36985982957495511 -0.35171195823109852 0 -0.37568304780698558 -0.36916333065311507 0 -0.37593298752455201 -0.35190228771479481 0 -0.37225797237559449 -0.35115364910559932 0 -0.35480891830463612 -0.3592101017575729 0 -0.35925477447714671 -0.35134479444962452 0 -0.36985982957495511 -0.35171195823109852 0 -0.37607676276689278 -0.3419730509543204 0 -0.3688763256213185 -0.34309961767568647 0 -0.37225797237559449 -0.35115364910559932 0 -0.37607676276689278 -0.3419730509543204 0 -0.37225797237559449 -0.35115364910559932 0 -0.37607676276689278 -0.3419730509543204 0 -0.37390838074359528 -0.35076941925389299 0 -0.37225797237559449 -0.35115364910559932 0 -0.37593298752455201 -0.35190228771479481 0 -0.37390838074359528 -0.35076941925389299 0 -0.37225797237559449 -0.35115364910559932 0 -0.3688763256213185 -0.34309961767568647 0 -0.36118874601324108 -0.3436521492952741 0 -0.37225797237559449 -0.35115364910559932 0 -0.37593298752455201 -0.35190228771479481 0 -0.37390838074359528 -0.35076941925389299 0 -0.36118874601324108 -0.3436521492952741 0 -0.36985982957495511 -0.35171195823109852 0 -0.37225797237559449 -0.35115364910559932 0 -0.37595629511297179 -0.35029264644438168 0 -0.37390838074359528 -0.35076941925389299 0 -0.37390838074359528 -0.35076941925389299 0 -0.37225797237559449 -0.35115364910559932 0 -0.36985982957495511 -0.35171195823109852 0 -0.37225797237559449 -0.35115364910559932 0 -0.37568304780698558 -0.36916333065311507 0 -0.37225797237559449 -0.35115364910559932 0 -0.36100598543278789 -0.37820409176948921 0 -0.35480891830463612 -0.3592101017575729 0 -0.36985982957495511 -0.35171195823109852 0 -0.36100598543278789 -0.37820409176948921 0 -0.36985982957495511 -0.35171195823109852 0 -0.37225797237559449 -0.35115364910559932 0 -0.36100598543278789 -0.37820409176948921 0 -0.37225797237559449 -0.35115364910559932 0 -0.36100598543278789 -0.37820409176948921 0 -0.33937201587241012 -0.36587749477948078 0 -0.36100598543278789 -0.37820409176948921 0 -0.35480891830463612 -0.3592101017575729 0 -0.33937201587241012 -0.36587749477948078 0 -0.36100598543278789 -0.37820409176948921 0 -0.33937201587241012 -0.36587749477948078 0 -0.31773804631203251 -0.35355089778947202 0 -0.33937201587241012 -0.36587749477948078 0 -0.31773804631203251 -0.35355089778947202 0 -0.32803705280137402 -0.37447550275240871 0 -0.34475024534571441 -0.34586667392980902 0 -0.33937201587241012 -0.36587749477948078 0 -0.31773804631203251 -0.35355089778947202 0 -0.31773804631203251 -0.35355089778947202 0 -0.31381007312398762 -0.37448885129246268 0 -0.31773804631203251 -0.35355089778947202 0 -0.31381007312398762 -0.37448885129246268 0 -0.32803705280137402 -0.37447550275240871 0 -0.31381007312398762 -0.37448885129246268 0 -0.29871455833571747 -0.36148408621311728 0 -0.29196992941862432 -0.3825632544476108 0 -0.31773804631203251 -0.35355089778947202 0 -0.31381007312398762 -0.37448885129246268 0 -0.29871455833571747 -0.36148408621311728 0 -0.31773804631203251 -0.35355089778947202 0 -0.29871455833571747 -0.36148408621311728 0 -0.29282778547957722 -0.33935753649529382 0 -0.31773804631203251 -0.35355089778947202 0 -0.29282778547957722 -0.33935753649529382 0 -0.29871455833571747 -0.36148408621311728 0 -0.27675503022224163 -0.36681377825091099 0 -0.29282778547957722 -0.33935753649529382 0 -0.29871455833571747 -0.36148408621311728 0 -0.27675503022224163 -0.36681377825091099 0 -0.29196992941862432 -0.3825632544476108 0 -0.27675503022224163 -0.36681377825091099 0 -0.25757508569408222 -0.36424633604315798 0 -0.26546808025963542 -0.34847395767735678 0 -0.27675503022224163 -0.36681377825091099 0 -0.25757508569408222 -0.36424633604315798 0 -0.25812358553267323 -0.37605355791306738 0 -0.25757508569408222 -0.36424633604315798 0 -0.24839247009954951 -0.37292447016044328 0 -0.24532753696728959 -0.36501789644951049 0 -0.25757508569408222 -0.36424633604315798 0 -0.25812358553267323 -0.37605355791306738 0 -0.24839247009954951 -0.37292447016044328 0 -0.25757508569408222 -0.36424633604315798 0 -0.26546808025963542 -0.34847395767735678 0 -0.24650166737573331 -0.3569693529562265 0 -0.26546808025963542 -0.34847395767735678 0 -0.24650166737573331 -0.3569693529562265 0 -0.24881121389389799 -0.33838995723746451 0 -0.27675503022224163 -0.36681377825091099 0 -0.26546808025963542 -0.34847395767735678 0 -0.29282778547957722 -0.33935753649529382 0 -0.26791752464712137 -0.32516417520111718 0 -0.27544300416693679 -0.31995488319631832 0 -0.29282778547957722 -0.33935753649529382 0 -0.26546808025963542 -0.34847395767735678 0 -0.26791752464712137 -0.32516417520111718 0 -0.29282778547957722 -0.33935753649529382 0 -0.26791752464712137 -0.32516417520111718 0 -0.29282778547957722 -0.33935753649529382 0 -0.26791752464712137 -0.32516417520111718 0 -0.24881121389389799 -0.33838995723746451 0 -0.26546808025963542 -0.34847395767735678 0 -0.26791752464712137 -0.32516417520111718 0 -0.24881121389389799 -0.33838995723746451 0 -0.26791752464712137 -0.32516417520111718 0 -0.24881121389389799 -0.33838995723746451 0 -0.2441082332202735 -0.32380704628422963 0 -0.26791752464712137 -0.32516417520111718 0 -0.2444966906846206 -0.31181945912301329 0 -0.26791752464712137 -0.32516417520111718 0 -0.26963915832665503 -0.30942012505775762 0 -0.2444966906846206 -0.31181945912301329 0 -0.26791752464712137 -0.32516417520111718 0 -0.2441082332202735 -0.32380704628422963 0 -0.2444966906846206 -0.31181945912301329 0 -0.26791752464712137 -0.32516417520111718 0 -0.27544300416693679 -0.31995488319631832 0 -0.26963915832665503 -0.30942012505775762 0 -0.26791752464712137 -0.32516417520111718 0 -0.27544300416693679 -0.31995488319631832 0 -0.27544300416693679 -0.31995488319631832 0 -0.29403167998309421 -0.32125824908992018 0 -0.29478162596868879 -0.30702079099249591 0 -0.27544300416693679 -0.31995488319631832 0 -0.29403167998309421 -0.32125824908992018 0 -0.29282778547957722 -0.33935753649529382 0 -0.31307430431717392 -0.31869978567557272 0 -0.32184288384298337 -0.33167017375041419 0 -0.29282778547957722 -0.33935753649529382 0 -0.32184288384298337 -0.33167017375041419 0 -0.31773804631203251 -0.35355089778947202 0 -0.29282778547957722 -0.33935753649529382 0 -0.31307430431717392 -0.31869978567557272 0 -0.29403167998309421 -0.32125824908992018 0 -0.29282778547957722 -0.33935753649529382 0 -0.31307430431717392 -0.31869978567557272 0 -0.29403167998309421 -0.32125824908992018 0 -0.29478162596868879 -0.30702079099249591 0 -0.31992409361072222 -0.30462145692723192 0 -0.29478162596868879 -0.30702079099249591 0 -0.31992409361072222 -0.30462145692723192 0 -0.31307430431717392 -0.31869978567557272 0 -0.29478162596868879 -0.30702079099249591 0 -0.31992409361072222 -0.30462145692723192 0 -0.30687808727867438 -0.29770175581860719 0 -0.29478162596868879 -0.30702079099249591 0 -0.30687808727867438 -0.29770175581860719 0 -0.29813438661480679 -0.29530641477552327 0 -0.29478162596868879 -0.30702079099249591 0 -0.31992409361072222 -0.30462145692723192 0 -0.2984608121496099 -0.28511533651958437 0 -0.31992409361072222 -0.30462145692723192 0 -0.30687808727867438 -0.29770175581860719 0 -0.2984608121496099 -0.28511533651958437 0 -0.31332574866090718 -0.291474364566292 0 -0.31992409361072222 -0.30462145692723192 0 -0.2984608121496099 -0.28511533651958437 0 -0.31332574866090718 -0.291474364566292 0 -0.30937392239009109 -0.28339120160471948 0 -0.2984608121496099 -0.28511533651958437 0 -0.31332574866090718 -0.291474364566292 0 -0.2984608121496099 -0.28511533651958437 0 -0.30937392239009109 -0.28339120160471948 0 -0.2984608121496099 -0.28511533651958437 0 -0.30347897474907187 -0.279643462580969 0 -0.30687808727867438 -0.29770175581860719 0 -0.29951482580247829 -0.29240083595456018 0 -0.29813438661480679 -0.29530641477552327 0 -0.30687808727867438 -0.29770175581860719 0 -0.2984608121496099 -0.28511533651958437 0 -0.29951482580247829 -0.29240083595456018 0 -0.29951482580247829 -0.29240083595456018 0 -0.29813438661480679 -0.29530641477552327 0 -0.29499124589990039 -0.29073588210889412 0 -0.2984608121496099 -0.28511533651958437 0 -0.29951482580247829 -0.29240083595456018 0 -0.29499124589990039 -0.29073588210889412 0 -0.29499124589990039 -0.29073588210889412 0 -0.29148170063899659 -0.29460773718781319 0 -0.28586576089235322 -0.28577101837165192 0 -0.29813438661480679 -0.29530641477552327 0 -0.29499124589990039 -0.29073588210889412 0 -0.29148170063899659 -0.29460773718781319 0 -0.2984608121496099 -0.28511533651958437 0 -0.29499124589990039 -0.29073588210889412 0 -0.28586576089235322 -0.28577101837165192 0 -0.29148170063899659 -0.29460773718781319 0 -0.28586576089235322 -0.28577101837165192 0 -0.2798353156189245 -0.29508903771003908 0 -0.29148170063899659 -0.29460773718781319 0 -0.29478162596868879 -0.30702079099249591 0 -0.2798353156189245 -0.29508903771003908 0 -0.29478162596868879 -0.30702079099249591 0 -0.26963915832665503 -0.30942012505775762 0 -0.2798353156189245 -0.29508903771003908 0 -0.29478162596868879 -0.30702079099249591 0 -0.26963915832665503 -0.30942012505775762 0 -0.29813438661480679 -0.29530641477552327 0 -0.29148170063899659 -0.29460773718781319 0 -0.29478162596868879 -0.30702079099249591 0 -0.27544300416693679 -0.31995488319631832 0 -0.29478162596868879 -0.30702079099249591 0 -0.26963915832665503 -0.30942012505775762 0 -0.26963915832665503 -0.30942012505775762 0 -0.26057201890547982 -0.29344093798311832 0 -0.2798353156189245 -0.29508903771003908 0 -0.26963915832665503 -0.30942012505775762 0 -0.2444966906846206 -0.31181945912301329 0 -0.26963915832665503 -0.30942012505775762 0 -0.26057201890547982 -0.29344093798311832 0 -0.2444966906846206 -0.31181945912301329 0 -0.26057201890547982 -0.29344093798311832 0 -0.27108878797196961 -0.28331686931735522 0 -0.25298377122075039 -0.27518622721876451 0 -0.26057201890547982 -0.29344093798311832 0 -0.25298377122075039 -0.27518622721876451 0 -0.2435111179254994 -0.29490773243705071 0 -0.26057201890547982 -0.29344093798311832 0 -0.27108878797196961 -0.28331686931735522 0 -0.2798353156189245 -0.29508903771003908 0 -0.28586576089235322 -0.28577101837165192 0 -0.27108878797196961 -0.28331686931735522 0 -0.2798353156189245 -0.29508903771003908 0 -0.27108878797196961 -0.28331686931735522 0 -0.27618707322233982 -0.26709712530320262 0 -0.25298377122075039 -0.27518622721876451 0 -0.28586576089235322 -0.28577101837165192 0 -0.27108878797196961 -0.28331686931735522 0 -0.27618707322233982 -0.26709712530320262 0 -0.27618707322233982 -0.26709712530320262 0 -0.25431856302814809 -0.24833495949118861 0 -0.27618707322233982 -0.26709712530320262 0 -0.25298377122075039 -0.27518622721876451 0 -0.25431856302814809 -0.24833495949118861 0 -0.27618707322233982 -0.26709712530320262 0 -0.27309361240676189 -0.24179026653703889 0 -0.25431856302814809 -0.24833495949118861 0 -0.27618707322233982 -0.26709712530320262 0 -0.2907170577323625 -0.25177677077710309 0 -0.27309361240676189 -0.24179026653703889 0 -0.27618707322233982 -0.26709712530320262 0 -0.2907170577323625 -0.25177677077710309 0 -0.29477899871119112 -0.26293378760569941 0 -0.2984608121496099 -0.28511533651958437 0 -0.28586576089235322 -0.28577101837165192 0 -0.27618707322233982 -0.26709712530320262 0 -0.2984608121496099 -0.28511533651958437 0 -0.27618707322233982 -0.26709712530320262 0 -0.27618707322233982 -0.26709712530320262 0 -0.29477899871119112 -0.26293378760569941 0 -0.29948479845841441 -0.27338487519771032 0 -0.2984608121496099 -0.28511533651958437 0 -0.27618707322233982 -0.26709712530320262 0 -0.29948479845841441 -0.27338487519771032 0 -0.29477899871119112 -0.26293378760569941 0 -0.29948479845841441 -0.27338487519771032 0 -0.30156079933714469 -0.26765617134954151 0 -0.30156079933714469 -0.26765617134954151 0 -0.30403476516136241 -0.27459464834518948 0 -0.30588444940973558 -0.27063474712059482 0 -0.29948479845841441 -0.27338487519771032 0 -0.30156079933714469 -0.26765617134954151 0 -0.30403476516136241 -0.27459464834518948 0 -0.30156079933714469 -0.26765617134954151 0 -0.30588444940973558 -0.27063474712059482 0 -0.3062135479255173 -0.26372173898871692 0 -0.2984608121496099 -0.28511533651958437 0 -0.29948479845841441 -0.27338487519771032 0 -0.30347897474907187 -0.279643462580969 0 -0.29948479845841441 -0.27338487519771032 0 -0.30403476516136241 -0.27459464834518948 0 -0.30347897474907187 -0.279643462580969 0 -0.30937392239009109 -0.28339120160471948 0 -0.30347897474907187 -0.279643462580969 0 -0.31187737399160442 -0.27618124236115132 0 -0.30403476516136241 -0.27459464834518948 0 -0.30347897474907187 -0.279643462580969 0 -0.31187737399160442 -0.27618124236115132 0 -0.30403476516136241 -0.27459464834518948 0 -0.31187737399160442 -0.27618124236115132 0 -0.30588444940973558 -0.27063474712059482 0 -0.31187737399160442 -0.27618124236115132 0 -0.30588444940973558 -0.27063474712059482 0 -0.3062135479255173 -0.26372173898871692 0 -0.31664960680882542 -0.25714232151458272 0 -0.31202674084989918 -0.26335133138269068 0 -0.30853150187083839 -0.25429835417001312 0 -0.2907170577323625 -0.25177677077710309 0 -0.29477899871119112 -0.26293378760569941 0 -0.30853150187083839 -0.25429835417001312 0 -0.31202674084989918 -0.26335133138269068 0 -0.3062135479255173 -0.26372173898871692 0 -0.30853150187083839 -0.25429835417001312 0 -0.29477899871119112 -0.26293378760569941 0 -0.30156079933714469 -0.26765617134954151 0 -0.3062135479255173 -0.26372173898871692 0 -0.29477899871119112 -0.26293378760569941 0 -0.3062135479255173 -0.26372173898871692 0 -0.30853150187083839 -0.25429835417001312 0 -0.33709504481289931 -0.46474263175187808 0 -0.33075086723682939 -0.45093918684289991 0 -0.35302422329502631 -0.44785824460859458 0 -0.33709504481289931 -0.46474263175187808 0 -0.33075086723682939 -0.45093918684289991 0 -0.32054712240525829 -0.47546959342145068 0 -0.33075086723682939 -0.45093918684289991 0 -0.34095461206840061 -0.42640878026434909 0 -0.33075086723682939 -0.45093918684289991 0 -0.35302422329502631 -0.44785824460859458 0 -0.34095461206840061 -0.42640878026434909 0 -0.33075086723682939 -0.45093918684289991 0 -0.32054706720266329 -0.44859283512714471 0 -0.3206124180200437 -0.43193612962395289 0 -0.33075086723682939 -0.45093918684289991 0 -0.32054706720266329 -0.44859283512714471 0 -0.31571728338184601 -0.45752087103574601 0 -0.32054706720266329 -0.44859283512714471 0 -0.31571728338184601 -0.45752087103574601 0 -0.30706080135445341 -0.45057148265483188 0 -0.33075086723682939 -0.45093918684289991 0 -0.32054712240525829 -0.47546959342145068 0 -0.33075086723682939 -0.45093918684289991 0 -0.31571728338184601 -0.45752087103574601 0 -0.32054712240525829 -0.47546959342145068 0 -0.32054712240525829 -0.47546959342145068 0 -0.32750579650535672 -0.48798687004089669 0 -0.32933965142182292 -0.47777380670114528 0 -0.32054712240525829 -0.47546959342145068 0 -0.31034337757368669 -0.50000000000000133 0 -0.32750579650535672 -0.48798687004089669 0 -0.33387795429423722 -0.5 0 -0.31034337757368669 -0.50000000000000133 0 -0.32054712240525829 -0.47546959342145068 0 -0.32750579650535672 -0.48798687004089669 0 -0.31034337757368669 -0.50000000000000133 0 -0.32750579650535672 -0.48798687004089669 0 -0.34342087683177741 -0.48669095008188618 0 -0.33387795429423722 -0.5 0 -0.33709504481289931 -0.46474263175187808 0 -0.32933965142182292 -0.47777380670114528 0 -0.35181335970555933 -0.47167232718529989 0 -0.34342087683177741 -0.48669095008188618 0 -0.32933965142182292 -0.47777380670114528 0 -0.35181335970555933 -0.47167232718529989 0 -0.32750579650535672 -0.48798687004089669 0 -0.34342087683177741 -0.48669095008188618 0 -0.32933965142182292 -0.47777380670114528 0 -0.33709504481289931 -0.46474263175187808 0 -0.32054712240525829 -0.47546959342145068 0 -0.32933965142182292 -0.47777380670114528 0 -0.32933965142182292 -0.47777380670114528 0 -0.35181335970555933 -0.47167232718529989 0 -0.34342087683177741 -0.48669095008188618 0 -0.35181335970555933 -0.47167232718529989 0 -0.35979455825166368 -0.48519290092039941 0 -0.34342087683177741 -0.48669095008188618 0 -0.35741253101478748 -0.5 0 -0.35979455825166368 -0.48519290092039941 0 -0.34342087683177741 -0.48669095008188618 0 -0.33387795429423722 -0.5 0 -0.35741253101478748 -0.5 0 -0.38094710773533791 -0.49999999999999839 0 -0.35741253101478748 -0.5 0 -0.37240076261097882 -0.48974555046165519 0 -0.35741253101478748 -0.5 0 -0.35979455825166368 -0.48519290092039941 0 -0.37240076261097882 -0.48974555046165519 0 -0.35181335970555933 -0.47167232718529989 0 -0.35979455825166368 -0.48519290092039941 0 -0.37411677223754131 -0.47733161267270968 0 -0.35181335970555933 -0.47167232718529989 0 -0.37411677223754131 -0.47733161267270968 0 -0.37428706798929601 -0.46557084766945539 0 -0.35979455825166368 -0.48519290092039941 0 -0.37240076261097882 -0.48974555046165519 0 -0.37411677223754131 -0.47733161267270968 0 -0.37411677223754131 -0.47733161267270968 0 -0.37428706798929601 -0.46557084766945539 0 -0.35181335970555933 -0.47167232718529989 0 -0.37428706798929601 -0.46557084766945539 0 -0.35302422329502631 -0.44785824460859458 0 -0.35181335970555933 -0.47167232718529989 0 -0.37428706798929601 -0.46557084766945539 0 -0.33709504481289931 -0.46474263175187808 0 -0.35181335970555933 -0.47167232718529989 0 -0.35302422329502631 -0.44785824460859458 0 -0.37428706798929601 -0.46557084766945539 0 -0.35302422329502631 -0.44785824460859458 0 -0.37472313619600889 -0.43545561783144832 0 -0.37428706798929601 -0.46557084766945539 0 -0.37472313619600889 -0.43545561783144832 0 -0.35302422329502631 -0.44785824460859458 0 -0.37472313619600889 -0.43545561783144832 0 -0.36076670325611282 -0.42019275678090617 0 -0.37515920440272033 -0.40534038799344108 0 -0.37472313619600889 -0.43545561783144832 0 -0.36076670325611282 -0.42019275678090617 0 -0.37515920440272033 -0.40534038799344108 0 -0.36076670325611282 -0.42019275678090617 0 -0.35115835689997099 -0.40187837368579798 0 -0.37515920440272033 -0.40534038799344108 0 -0.37472313619600889 -0.43545561783144832 0 -0.36076670325611282 -0.42019275678090617 0 -0.35115835689997099 -0.40187837368579798 0 -0.34095461206840061 -0.42640878026434909 0 -0.34815033243380111 -0.40144447968524521 0 -0.35115835689997099 -0.40187837368579798 0 -0.34095461206840061 -0.42640878026434909 0 -0.35115835689997099 -0.40187837368579798 0 -0.34095461206840061 -0.42640878026434909 0 -0.35302422329502631 -0.44785824460859458 0 -0.36076670325611282 -0.42019275678090617 0 -0.34095461206840061 -0.42640878026434909 0 -0.37543310808941849 -0.38642437359143528 0 -0.36100598543278789 -0.37820409176948921 0 -0.35115835689997099 -0.40187837368579798 0 -0.37543310808941849 -0.38642437359143528 0 -0.37568304780698558 -0.36916333065311507 0 -0.36100598543278789 -0.37820409176948921 0 -0.37543310808941849 -0.38642437359143528 0 -0.36100598543278789 -0.37820409176948921 0 -0.37515920440272033 -0.40534038799344108 0 -0.37543310808941849 -0.38642437359143528 0 -0.35115835689997099 -0.40187837368579798 0 -0.37515920440272033 -0.40534038799344108 0 -0.35115835689997099 -0.40187837368579798 0 -0.35115835689997099 -0.40187837368579798 0 -0.34646966066369161 -0.38533898881774881 0 -0.34316085436749 -0.39382471367395527 0 -0.34815033243380111 -0.40144447968524521 0 -0.35115835689997099 -0.40187837368579798 0 -0.34316085436749 -0.39382471367395527 0 -0.34815033243380111 -0.40144447968524521 0 -0.35115835689997099 -0.40187837368579798 0 -0.33937201587241012 -0.36587749477948078 0 -0.36100598543278789 -0.37820409176948921 0 -0.34646966066369161 -0.38533898881774881 0 -0.36100598543278789 -0.37820409176948921 0 -0.35115835689997099 -0.40187837368579798 0 -0.36100598543278789 -0.37820409176948921 0 -0.35115835689997099 -0.40187837368579798 0 -0.34646966066369161 -0.38533898881774881 0 -0.33937201587241012 -0.36587749477948078 0 -0.32803705280137402 -0.37447550275240871 0 -0.34646966066369161 -0.38533898881774881 0 -0.32803705280137402 -0.37447550275240871 0 -0.34646966066369161 -0.38533898881774881 0 -0.32931529664348408 -0.38869437358142001 0 -0.34646966066369161 -0.38533898881774881 0 -0.32931529664348408 -0.38869437358142001 0 -0.34316085436749 -0.39382471367395527 0 -0.34815033243380111 -0.40144447968524521 0 -0.33486919938690762 -0.39884665705885908 0 -0.32944617452305069 -0.41182817437998842 0 -0.32931529664348408 -0.38869437358142001 0 -0.34316085436749 -0.39382471367395527 0 -0.33486919938690762 -0.39884665705885908 0 -0.32931529664348408 -0.38869437358142001 0 -0.33486919938690762 -0.39884665705885908 0 -0.32365381597648563 -0.39942827076698811 0 -0.34815033243380111 -0.40144447968524521 0 -0.34316085436749 -0.39382471367395527 0 -0.33486919938690762 -0.39884665705885908 0 -0.33486919938690762 -0.39884665705885908 0 -0.32365381597648563 -0.39942827076698811 0 -0.32944617452305069 -0.41182817437998842 0 -0.32931529664348408 -0.38869437358142001 0 -0.32365381597648563 -0.39942827076698811 0 -0.30988209993594379 -0.39542680479545339 0 -0.32365381597648563 -0.39942827076698811 0 -0.30595412674790001 -0.41636475829844438 0 -0.30988209993594379 -0.39542680479545339 0 -0.31381007312398762 -0.37448885129246268 0 -0.32931529664348408 -0.38869437358142001 0 -0.30988209993594379 -0.39542680479545339 0 -0.31381007312398762 -0.37448885129246268 0 -0.32803705280137402 -0.37447550275240871 0 -0.32931529664348408 -0.38869437358142001 0 -0.34095461206840061 -0.42640878026434909 0 -0.32944617452305069 -0.41182817437998842 0 -0.3206124180200437 -0.43193612962395289 0 -0.33075086723682939 -0.45093918684289991 0 -0.34095461206840061 -0.42640878026434909 0 -0.3206124180200437 -0.43193612962395289 0 -0.34815033243380111 -0.40144447968524521 0 -0.34095461206840061 -0.42640878026434909 0 -0.32944617452305069 -0.41182817437998842 0 -0.32944617452305069 -0.41182817437998842 0 -0.3206124180200437 -0.43193612962395289 0 -0.30595412674790001 -0.41636475829844438 0 -0.32365381597648563 -0.39942827076698811 0 -0.32944617452305069 -0.41182817437998842 0 -0.30595412674790001 -0.41636475829844438 0 -0.3206124180200437 -0.43193612962395289 0 -0.30595412674790001 -0.41636475829844438 0 -0.29602166034141808 -0.43748304283089118 0 -0.30595412674790001 -0.41636475829844438 0 -0.28680587137917263 -0.41476105187328532 0 -0.29502227998321778 -0.40112933436643161 0 -0.30595412674790001 -0.41636475829844438 0 -0.28680587137917263 -0.41476105187328532 0 -0.29602166034141808 -0.43748304283089118 0 -0.28680587137917263 -0.41476105187328532 0 -0.29602166034141808 -0.43748304283089118 0 -0.27149625348017281 -0.42637325053463759 0 -0.29602166034141808 -0.43748304283089118 0 -0.27149625348017281 -0.42637325053463759 0 -0.29602166034141808 -0.43748304283089118 0 -0.27149625348017281 -0.42637325053463759 0 -0.27906578537949278 -0.44687665772048962 0 -0.31381007312398762 -0.37448885129246268 0 -0.30988209993594379 -0.39542680479545339 0 -0.31381007312398762 -0.37448885129246268 0 -0.30988209993594379 -0.39542680479545339 0 -0.29196992941862432 -0.3825632544476108 0 -0.30595412674790001 -0.41636475829844438 0 -0.30988209993594379 -0.39542680479545339 0 -0.30595412674790001 -0.41636475829844438 0 -0.30988209993594379 -0.39542680479545339 0 -0.29502227998321778 -0.40112933436643161 0 -0.30988209993594379 -0.39542680479545339 0 -0.29502227998321778 -0.40112933436643161 0 -0.29196992941862432 -0.3825632544476108 0 -0.28680587137917263 -0.41476105187328532 0 -0.29502227998321778 -0.40112933436643161 0 -0.2806661672136338 -0.39648987600255969 0 -0.29502227998321778 -0.40112933436643161 0 -0.29196992941862432 -0.3825632544476108 0 -0.2806661672136338 -0.39648987600255969 0 -0.27675503022224163 -0.36681377825091099 0 -0.29196992941862432 -0.3825632544476108 0 -0.26924588117792803 -0.38334910629271668 0 -0.29196992941862432 -0.3825632544476108 0 -0.26924588117792803 -0.38334910629271668 0 -0.2806661672136338 -0.39648987600255969 0 -0.27675503022224163 -0.36681377825091099 0 -0.26924588117792803 -0.38334910629271668 0 -0.25812358553267323 -0.37605355791306738 0 -0.28680587137917263 -0.41476105187328532 0 -0.2806661672136338 -0.39648987600255969 0 -0.26326431180229581 -0.40282557300305732 0 -0.26924588117792803 -0.38334910629271668 0 -0.2806661672136338 -0.39648987600255969 0 -0.26326431180229581 -0.40282557300305732 0 -0.26326431180229581 -0.40282557300305732 0 -0.2504897110532438 -0.38524934403489181 0 -0.24394706363899241 -0.39877073912243299 0 -0.26326431180229581 -0.40282557300305732 0 -0.24697084661892749 -0.41526345823838401 0 -0.24394706363899241 -0.39877073912243299 0 -0.26924588117792803 -0.38334910629271668 0 -0.26326431180229581 -0.40282557300305732 0 -0.2504897110532438 -0.38524934403489181 0 -0.26924588117792803 -0.38334910629271668 0 -0.2504897110532438 -0.38524934403489181 0 -0.25812358553267323 -0.37605355791306738 0 -0.2504897110532438 -0.38524934403489181 0 -0.25812358553267323 -0.37605355791306738 0 -0.24839247009954951 -0.37292447016044328 0 -0.28680587137917263 -0.41476105187328532 0 -0.26326431180229581 -0.40282557300305732 0 -0.27149625348017281 -0.42637325053463759 0 -0.27149625348017281 -0.42637325053463759 0 -0.24697084661892749 -0.41526345823838401 0 -0.26326431180229581 -0.40282557300305732 0 -0.27149625348017281 -0.42637325053463759 0 -0.24697084661892749 -0.41526345823838401 0 -0.27149625348017281 -0.42637325053463759 0 -0.25687425522332558 -0.44642006451091643 0 -0.24697084661892749 -0.41526345823838401 0 -0.25687425522332558 -0.44642006451091643 0 -0.27607931301277078 -0.46657199895299017 0 -0.25409384940020791 -0.47271975939701871 0 -0.25687425522332558 -0.44642006451091643 0 -0.27607931301277078 -0.46657199895299017 0 -0.27906578537949278 -0.44687665772048962 0 -0.27149625348017281 -0.42637325053463759 0 -0.25687425522332558 -0.44642006451091643 0 -0.27906578537949278 -0.44687665772048962 0 -0.29602166034141808 -0.43748304283089118 0 -0.27906578537949278 -0.44687665772048962 0 -0.29968055871002541 -0.46203125713240301 0 -0.27607931301277078 -0.46657199895299017 0 -0.27906578537949278 -0.44687665772048962 0 -0.29968055871002541 -0.46203125713240301 0 -0.31571728338184601 -0.45752087103574601 0 -0.29968055871002541 -0.46203125713240301 0 -0.30706080135445341 -0.45057148265483188 0 -0.31571728338184601 -0.45752087103574601 0 -0.32054712240525829 -0.47546959342145068 0 -0.29968055871002541 -0.46203125713240301 0 -0.32054706720266329 -0.44859283512714471 0 -0.29602166034141808 -0.43748304283089118 0 -0.32054706720266329 -0.44859283512714471 0 -0.3206124180200437 -0.43193612962395289 0 -0.29602166034141808 -0.43748304283089118 0 -0.32054706720266329 -0.44859283512714471 0 -0.29602166034141808 -0.43748304283089118 0 -0.30706080135445341 -0.45057148265483188 0 -0.29602166034141808 -0.43748304283089118 0 -0.29968055871002541 -0.46203125713240301 0 -0.30706080135445341 -0.45057148265483188 0 -0.32054712240525829 -0.47546959342145068 0 -0.31034337757368669 -0.50000000000000133 0 -0.2941570887960146 -0.48201569375099518 0 -0.32054712240525829 -0.47546959342145068 0 -0.29968055871002541 -0.46203125713240301 0 -0.2941570887960146 -0.48201569375099518 0 -0.27607931301277078 -0.46657199895299017 0 -0.29968055871002541 -0.46203125713240301 0 -0.2941570887960146 -0.48201569375099518 0 -0.2941570887960146 -0.48201569375099518 0 -0.28248249767631262 -0.5 0 -0.27039562620846602 -0.48462576079096858 0 -0.31034337757368669 -0.50000000000000133 0 -0.2941570887960146 -0.48201569375099518 0 -0.28248249767631262 -0.5 0 -0.28248249767631262 -0.5 0 -0.27039562620846602 -0.48462576079096858 0 -0.25462161777893849 -0.5 0 -0.27607931301277078 -0.46657199895299017 0 -0.2941570887960146 -0.48201569375099518 0 -0.27039562620846602 -0.48462576079096858 0 -0.27607931301277078 -0.46657199895299017 0 -0.27039562620846602 -0.48462576079096858 0 -0.25409384940020791 -0.47271975939701871 0 -0.27039562620846602 -0.48462576079096858 0 -0.25409384940020791 -0.47271975939701871 0 -0.25462161777893849 -0.5 0 -0.25462161777893849 -0.5 0 -0.23155232774708009 -0.47932355884050398 0 -0.22676073788156451 -0.5 0 -0.25409384940020791 -0.47271975939701871 0 -0.25462161777893849 -0.5 0 -0.23155232774708009 -0.47932355884050398 0 -0.25409384940020791 -0.47271975939701871 0 -0.23155232774708009 -0.47932355884050398 0 -0.2350399564306665 -0.45937717328673289 0 -0.23155232774708009 -0.47932355884050398 0 -0.2350399564306665 -0.45937717328673289 0 -0.2080224731694312 -0.47403962225972662 0 -0.23155232774708009 -0.47932355884050398 0 -0.22676073788156451 -0.5 0 -0.2080224731694312 -0.47403962225972662 0 -0.25687425522332558 -0.44642006451091643 0 -0.2350399564306665 -0.45937717328673289 0 -0.23180750449586429 -0.4343742486430574 0 -0.25687425522332558 -0.44642006451091643 0 -0.25409384940020791 -0.47271975939701871 0 -0.2350399564306665 -0.45937717328673289 0 -0.2350399564306665 -0.45937717328673289 0 -0.21590660946663959 -0.44883644739355771 0 -0.2080224731694312 -0.47403962225972662 0 -0.2350399564306665 -0.45937717328673289 0 -0.21590660946663959 -0.44883644739355771 0 -0.23180750449586429 -0.4343742486430574 0 -0.21590660946663959 -0.44883644739355771 0 -0.1943898331460783 -0.4473597119794826 0 -0.20910912931781811 -0.42543372189632289 0 -0.21590660946663959 -0.44883644739355771 0 -0.1943898331460783 -0.4473597119794826 0 -0.2080224731694312 -0.47403962225972662 0 -0.1943898331460783 -0.4473597119794826 0 -0.2080224731694312 -0.47403962225972662 0 -0.17967053697433849 -0.46928570206264231 0 -0.22676073788156451 -0.5 0 -0.2080224731694312 -0.47403962225972662 0 -0.19889985798419041 -0.5 0 -0.2080224731694312 -0.47403962225972662 0 -0.1821948971586228 -0.48648437486529872 0 -0.17967053697433849 -0.46928570206264231 0 -0.2080224731694312 -0.47403962225972662 0 -0.19889985798419041 -0.5 0 -0.1821948971586228 -0.48648437486529872 0 -0.19889985798419041 -0.5 0 -0.1821948971586228 -0.48648437486529872 0 -0.17103897808681609 -0.49999999999999778 0 -0.1821948971586228 -0.48648437486529872 0 -0.17103897808681609 -0.49999999999999778 0 -0.16495124080259491 -0.49121169214579941 0 -0.17103897808681609 -0.49999999999999778 0 -0.16495124080259491 -0.49121169214579941 0 -0.17103897808681609 -0.49999999999999778 0 -0.16495124080259491 -0.49121169214579941 0 -0.15905149781887321 -0.49999999999999961 0 -0.16495124080259491 -0.49121169214579941 0 -0.15905149781887321 -0.49999999999999961 0 -0.1545750311736096 -0.49062041690426861 0 -0.16495124080259491 -0.49121169214579941 0 -0.15905149781887321 -0.49999999999999961 0 -0.16495124080259491 -0.49121169214579941 0 -0.16530166315622061 -0.47155300009798301 0 -0.17967053697433849 -0.46928570206264231 0 -0.16495124080259491 -0.49121169214579941 0 -0.16530166315622061 -0.47155300009798301 0 -0.15083103946930049 -0.47082765280793248 0 -0.16495124080259491 -0.49121169214579941 0 -0.1545750311736096 -0.49062041690426861 0 -0.15083103946930049 -0.47082765280793248 0 -0.16495124080259491 -0.49121169214579941 0 -0.15083103946930049 -0.47082765280793248 0 -0.16495124080259491 -0.49121169214579941 0 -0.17967053697433849 -0.46928570206264231 0 -0.1821948971586228 -0.48648437486529872 0 -0.16495124080259491 -0.49121169214579941 0 -0.17967053697433849 -0.46928570206264231 0 -0.1943898331460783 -0.4473597119794826 0 -0.17967053697433849 -0.46928570206264231 0 -0.1943898331460783 -0.4473597119794826 0 -0.17967053697433849 -0.46928570206264231 0 -0.1657538353786501 -0.45488695337555668 0 -0.1943898331460783 -0.4473597119794826 0 -0.1657538353786501 -0.45488695337555668 0 -0.1755027511393909 -0.43471579892562301 0 -0.1657538353786501 -0.45488695337555668 0 -0.15761868306950341 -0.43586407366366631 0 -0.1755027511393909 -0.43471579892562301 0 -0.16530166315622061 -0.47155300009798301 0 -0.1657538353786501 -0.45488695337555668 0 -0.15083103946930049 -0.47082765280793248 0 -0.16530166315622061 -0.47155300009798301 0 -0.17967053697433849 -0.46928570206264231 0 -0.1657538353786501 -0.45488695337555668 0 -0.13671083813600751 -0.45044361347006462 0 -0.15083103946930049 -0.47082765280793248 0 -0.13671083813600751 -0.45044361347006462 0 -0.13441782301728619 -0.47175980973682791 0 -0.15083103946930049 -0.47082765280793248 0 -0.1657538353786501 -0.45488695337555668 0 -0.13671083813600751 -0.45044361347006462 0 -0.15083103946930049 -0.47082765280793248 0 -0.13671083813600751 -0.45044361347006462 0 -0.13816776916695811 -0.432543871779144 0 -0.15761868306950341 -0.43586407366366631 0 -0.1657538353786501 -0.45488695337555668 0 -0.13671083813600751 -0.45044361347006462 0 -0.15761868306950341 -0.43586407366366631 0 -0.13671083813600751 -0.45044361347006462 0 -0.13816776916695811 -0.432543871779144 0 -0.1225906368027144 -0.43005957413219659 0 -0.13671083813600751 -0.45044361347006462 0 -0.1225906368027144 -0.43005957413219659 0 -0.13671083813600751 -0.45044361347006462 0 -0.13441782301728619 -0.47175980973682791 0 -0.1201929706126502 -0.46127799294672761 0 -0.13441782301728619 -0.47175980973682791 0 -0.12605423818426559 -0.48707922202292669 0 -0.14429533434837091 -0.48908967660720287 0 -0.13441782301728619 -0.47175980973682791 0 -0.12605423818426559 -0.48707922202292669 0 -0.1201929706126502 -0.46127799294672761 0 -0.1295391708778694 -0.5 0 -0.12605423818426559 -0.48707922202292669 0 -0.14429533434837091 -0.48908967660720287 0 -0.15905149781887321 -0.49999999999999961 0 -0.1295391708778694 -0.5 0 -0.14429533434837091 -0.48908967660720287 0 -0.15905149781887321 -0.49999999999999961 0 -0.14429533434837091 -0.48908967660720287 0 -0.1545750311736096 -0.49062041690426861 0 -0.14429533434837091 -0.48908967660720287 0 -0.1545750311736096 -0.49062041690426861 0 -0.15083103946930049 -0.47082765280793248 0 -0.13441782301728619 -0.47175980973682791 0 -0.14429533434837091 -0.48908967660720287 0 -0.15083103946930049 -0.47082765280793248 0 -0.15345949684661231 -0.4053237642064671 0 -0.15136585988972451 -0.39002590355483568 0 -0.13982663417143551 -0.39933000433158738 0 -0.15136585988972451 -0.39002590355483568 0 -0.1368738238800834 -0.3880397179408614 0 -0.13982663417143551 -0.39933000433158738 0 -0.15345949684661231 -0.4053237642064671 0 -0.13982663417143551 -0.39933000433158738 0 -0.1398029654186671 -0.41064466143528439 0 -0.15136585988972451 -0.39002590355483568 0 -0.1368738238800834 -0.3880397179408614 0 -0.13959568407155781 -0.37291875636350952 0 -0.15136585988972451 -0.39002590355483568 0 -0.15951650330528561 -0.37856285477961621 0 -0.13959568407155781 -0.37291875636350952 0 -0.1368738238800834 -0.3880397179408614 0 -0.12625141541498519 -0.38197991289387551 0 -0.13959568407155781 -0.37291875636350952 0 -0.1368738238800834 -0.3880397179408614 0 -0.12625141541498519 -0.38197991289387551 0 -0.1273295258527142 -0.39594401256049883 0 -0.1368738238800834 -0.3880397179408614 0 -0.1273295258527142 -0.39594401256049883 0 -0.13982663417143551 -0.39933000433158738 0 -0.13982663417143551 -0.39933000433158738 0 -0.1295768038857959 -0.40463739140698729 0 -0.1398029654186671 -0.41064466143528439 0 -0.1273295258527142 -0.39594401256049883 0 -0.13982663417143551 -0.39933000433158738 0 -0.1295768038857959 -0.40463739140698729 0 -0.1273295258527142 -0.39594401256049883 0 -0.1295768038857959 -0.40463739140698729 0 -0.1219584454402414 -0.40406961642135292 0 -0.1295768038857959 -0.40463739140698729 0 -0.1296119374269841 -0.41417592727859581 0 -0.1225700411049412 -0.40994677461386392 0 -0.1296119374269841 -0.41417592727859581 0 -0.12315425937001 -0.41747458531602638 0 -0.1225700411049412 -0.40994677461386392 0 -0.1296119374269841 -0.41417592727859581 0 -0.13713184062407599 -0.42036644340313623 0 -0.12908399078123631 -0.42243277819987513 0 -0.1296119374269841 -0.41417592727859581 0 -0.12908399078123631 -0.42243277819987513 0 -0.12315425937001 -0.41747458531602638 0 -0.1296119374269841 -0.41417592727859581 0 -0.13713184062407599 -0.42036644340313623 0 -0.1398029654186671 -0.41064466143528439 0 -0.1295768038857959 -0.40463739140698729 0 -0.1296119374269841 -0.41417592727859581 0 -0.1398029654186671 -0.41064466143528439 0 -0.12908399078123631 -0.42243277819987513 0 -0.13816776916695811 -0.432543871779144 0 -0.1225906368027144 -0.43005957413219659 0 -0.13713184062407599 -0.42036644340313623 0 -0.12908399078123631 -0.42243277819987513 0 -0.13816776916695811 -0.432543871779144 0 -0.13816776916695811 -0.432543871779144 0 -0.14921107955709881 -0.42003443798493328 0 -0.15761868306950341 -0.43586407366366631 0 -0.13713184062407599 -0.42036644340313623 0 -0.13816776916695811 -0.432543871779144 0 -0.14921107955709881 -0.42003443798493328 0 -0.15345949684661231 -0.4053237642064671 0 -0.1398029654186671 -0.41064466143528439 0 -0.14921107955709881 -0.42003443798493328 0 -0.13713184062407599 -0.42036644340313623 0 -0.1398029654186671 -0.41064466143528439 0 -0.14921107955709881 -0.42003443798493328 0 -0.15345949684661231 -0.4053237642064671 0 -0.14921107955709881 -0.42003443798493328 0 -0.17009787391258249 -0.41611158199907422 0 -0.14921107955709881 -0.42003443798493328 0 -0.17009787391258249 -0.41611158199907422 0 -0.15761868306950341 -0.43586407366366631 0 -0.17009787391258249 -0.41611158199907422 0 -0.15761868306950341 -0.43586407366366631 0 -0.1755027511393909 -0.43471579892562301 0 -0.1943898331460783 -0.4473597119794826 0 -0.1755027511393909 -0.43471579892562301 0 -0.18951413900105801 -0.42212105940109063 0 -0.17009787391258249 -0.41611158199907422 0 -0.1755027511393909 -0.43471579892562301 0 -0.18951413900105801 -0.42212105940109063 0 -0.17009787391258249 -0.41611158199907422 0 -0.18562609472684241 -0.40161550393767448 0 -0.18951413900105801 -0.42212105940109063 0 -0.18562609472684241 -0.40161550393767448 0 -0.16863204450281991 -0.39380366607865908 0 -0.18254917963999329 -0.38971973427100182 0 -0.17009787391258249 -0.41611158199907422 0 -0.18562609472684241 -0.40161550393767448 0 -0.16863204450281991 -0.39380366607865908 0 -0.18562609472684241 -0.40161550393767448 0 -0.18254917963999329 -0.38971973427100182 0 -0.19364364155811911 -0.391297223908462 0 -0.15345949684661231 -0.4053237642064671 0 -0.17009787391258249 -0.41611158199907422 0 -0.16863204450281991 -0.39380366607865908 0 -0.15345949684661231 -0.4053237642064671 0 -0.15136585988972451 -0.39002590355483568 0 -0.16863204450281991 -0.39380366607865908 0 -0.15951650330528561 -0.37856285477961621 0 -0.17625218554490921 -0.38180729220612769 0 -0.1663610822414904 -0.3702523776444529 0 -0.16863204450281991 -0.39380366607865908 0 -0.15951650330528561 -0.37856285477961621 0 -0.17625218554490921 -0.38180729220612769 0 -0.15136585988972451 -0.39002590355483568 0 -0.16863204450281991 -0.39380366607865908 0 -0.15951650330528561 -0.37856285477961621 0 -0.17625218554490921 -0.38180729220612769 0 -0.1663610822414904 -0.3702523776444529 0 -0.18579747934449059 -0.37379744869579251 0 -0.16863204450281991 -0.39380366607865908 0 -0.17625218554490921 -0.38180729220612769 0 -0.18254917963999329 -0.38971973427100182 0 -0.17625218554490921 -0.38180729220612769 0 -0.18254917963999329 -0.38971973427100182 0 -0.18859193186727599 -0.38007498522408562 0 -0.17625218554490921 -0.38180729220612769 0 -0.18859193186727599 -0.38007498522408562 0 -0.18579747934449059 -0.37379744869579251 0 -0.18859193186727599 -0.38007498522408562 0 -0.2014200033848125 -0.37119512976538899 0 -0.18859193186727599 -0.38007498522408562 0 -0.2014200033848125 -0.37119512976538899 0 -0.18579747934449059 -0.37379744869579251 0 -0.18859193186727599 -0.38007498522408562 0 -0.1989719328316337 -0.38216032023399737 0 -0.2014200033848125 -0.37119512976538899 0 -0.1989719328316337 -0.38216032023399737 0 -0.20694960464083431 -0.38128159833907621 0 -0.2014200033848125 -0.37119512976538899 0 -0.1989719328316337 -0.38216032023399737 0 -0.19364364155811911 -0.391297223908462 0 -0.20620014074293039 -0.39180645285032889 0 -0.18859193186727599 -0.38007498522408562 0 -0.1989719328316337 -0.38216032023399737 0 -0.19364364155811911 -0.391297223908462 0 -0.18254917963999329 -0.38971973427100182 0 -0.18859193186727599 -0.38007498522408562 0 -0.19364364155811911 -0.391297223908462 0 -0.18562609472684241 -0.40161550393767448 0 -0.19364364155811911 -0.391297223908462 0 -0.20208872018367391 -0.4070926974887904 0 -0.19364364155811911 -0.391297223908462 0 -0.20620014074293039 -0.39180645285032889 0 -0.20208872018367391 -0.4070926974887904 0 -0.20620014074293039 -0.39180645285032889 0 -0.21479853281951461 -0.38638530273916921 0 -0.22382842548955789 -0.4035077318131633 0 -0.20620014074293039 -0.39180645285032889 0 -0.20208872018367391 -0.4070926974887904 0 -0.22382842548955789 -0.4035077318131633 0 -0.21479853281951461 -0.38638530273916921 0 -0.20694960464083431 -0.38128159833907621 0 -0.21335741342528061 -0.3748607861064962 0 -0.21479853281951461 -0.38638530273916921 0 -0.22412886374227589 -0.38235217247817599 0 -0.21335741342528061 -0.3748607861064962 0 -0.20694960464083431 -0.38128159833907621 0 -0.2014200033848125 -0.37119512976538899 0 -0.21335741342528061 -0.3748607861064962 0 -0.20620014074293039 -0.39180645285032889 0 -0.21479853281951461 -0.38638530273916921 0 -0.20694960464083431 -0.38128159833907621 0 -0.1989719328316337 -0.38216032023399737 0 -0.20620014074293039 -0.39180645285032889 0 -0.20694960464083431 -0.38128159833907621 0 -0.1943898331460783 -0.4473597119794826 0 -0.20910912931781811 -0.42543372189632289 0 -0.1943898331460783 -0.4473597119794826 0 -0.18951413900105801 -0.42212105940109063 0 -0.20910912931781811 -0.42543372189632289 0 -0.18951413900105801 -0.42212105940109063 0 -0.20208872018367391 -0.4070926974887904 0 -0.20910912931781811 -0.42543372189632289 0 -0.18562609472684241 -0.40161550393767448 0 -0.18951413900105801 -0.42212105940109063 0 -0.20208872018367391 -0.4070926974887904 0 -0.20208872018367391 -0.4070926974887904 0 -0.20910912931781811 -0.42543372189632289 0 -0.22382842548955789 -0.4035077318131633 0 -0.20910912931781811 -0.42543372189632289 0 -0.22382842548955789 -0.4035077318131633 0 -0.21590660946663959 -0.44883644739355771 0 -0.20910912931781811 -0.42543372189632289 0 -0.23180750449586429 -0.4343742486430574 0 -0.20910912931781811 -0.42543372189632289 0 -0.23180750449586429 -0.4343742486430574 0 -0.22382842548955789 -0.4035077318131633 0 -0.23180750449586429 -0.4343742486430574 0 -0.24697084661892749 -0.41526345823838401 0 -0.22382842548955789 -0.4035077318131633 0 -0.25687425522332558 -0.44642006451091643 0 -0.23180750449586429 -0.4343742486430574 0 -0.24697084661892749 -0.41526345823838401 0 -0.22412886374227589 -0.38235217247817599 0 -0.2351820232309369 -0.38700758852266848 0 -0.22952037500089251 -0.37311519752493849 0 -0.22412886374227589 -0.38235217247817599 0 -0.22186900287429051 -0.37074082218821958 0 -0.21335741342528061 -0.3748607861064962 0 -0.22412886374227589 -0.38235217247817599 0 -0.22952037500089251 -0.37311519752493849 0 -0.22186900287429051 -0.37074082218821958 0 -0.22382842548955789 -0.4035077318131633 0 -0.24394706363899241 -0.39877073912243299 0 -0.2351820232309369 -0.38700758852266848 0 -0.21479853281951461 -0.38638530273916921 0 -0.22412886374227589 -0.38235217247817599 0 -0.22382842548955789 -0.4035077318131633 0 -0.22412886374227589 -0.38235217247817599 0 -0.22382842548955789 -0.4035077318131633 0 -0.2351820232309369 -0.38700758852266848 0 -0.24697084661892749 -0.41526345823838401 0 -0.22382842548955789 -0.4035077318131633 0 -0.24394706363899241 -0.39877073912243299 0 -0.2504897110532438 -0.38524934403489181 0 -0.24394706363899241 -0.39877073912243299 0 -0.2351820232309369 -0.38700758852266848 0 -0.2504897110532438 -0.38524934403489181 0 -0.2351820232309369 -0.38700758852266848 0 -0.24036284435674521 -0.37772398595485779 0 -0.2351820232309369 -0.38700758852266848 0 -0.24036284435674521 -0.37772398595485779 0 -0.22952037500089251 -0.37311519752493849 0 -0.2504897110532438 -0.38524934403489181 0 -0.24036284435674521 -0.37772398595485779 0 -0.24839247009954951 -0.37292447016044328 0 -0.24839247009954951 -0.37292447016044328 0 -0.24532753696728959 -0.36501789644951049 0 -0.23861636880082099 -0.36955921174380651 0 -0.24036284435674521 -0.37772398595485779 0 -0.24839247009954951 -0.37292447016044328 0 -0.23861636880082099 -0.36955921174380651 0 -0.25757508569408222 -0.36424633604315798 0 -0.24532753696728959 -0.36501789644951049 0 -0.24650166737573331 -0.3569693529562265 0 -0.24532753696728959 -0.36501789644951049 0 -0.24234943749700691 -0.36154613291017651 0 -0.24650166737573331 -0.3569693529562265 0 -0.24532753696728959 -0.36501789644951049 0 -0.24234943749700691 -0.36154613291017651 0 -0.23928568589256061 -0.36455139619594779 0 -0.24234943749700691 -0.36154613291017651 0 -0.23928568589256061 -0.36455139619594779 0 -0.23696933381926599 -0.3585493042599866 0 -0.24532753696728959 -0.36501789644951049 0 -0.23928568589256061 -0.36455139619594779 0 -0.23861636880082099 -0.36955921174380651 0 -0.23928568589256061 -0.36455139619594779 0 -0.23861636880082099 -0.36955921174380651 0 -0.23345080570298909 -0.36409891217005902 0 -0.23928568589256061 -0.36455139619594779 0 -0.23345080570298909 -0.36409891217005902 0 -0.23696933381926599 -0.3585493042599866 0 -0.24036284435674521 -0.37772398595485779 0 -0.23861636880082099 -0.36955921174380651 0 -0.22952037500089251 -0.37311519752493849 0 -0.23345080570298909 -0.36409891217005902 0 -0.22186900287429051 -0.37074082218821958 0 -0.21424807490234879 -0.36231527430669241 0 -0.22952037500089251 -0.37311519752493849 0 -0.23345080570298909 -0.36409891217005902 0 -0.22186900287429051 -0.37074082218821958 0 -0.23696933381926599 -0.3585493042599866 0 -0.21424807490234879 -0.36231527430669241 0 -0.23861636880082099 -0.36955921174380651 0 -0.22952037500089251 -0.37311519752493849 0 -0.23345080570298909 -0.36409891217005902 0 -0.23345080570298909 -0.36409891217005902 0 -0.23696933381926599 -0.3585493042599866 0 -0.21424807490234879 -0.36231527430669241 0 -0.22913587473404851 -0.35200963246311751 0 -0.2097464541822805 -0.33582260124732738 0 -0.22913587473404851 -0.35200963246311751 0 -0.23696933381926599 -0.3585493042599866 0 -0.21424807490234879 -0.36231527430669241 0 -0.22913587473404851 -0.35200963246311751 0 -0.21998707993494029 -0.33959044394559312 0 -0.22913587473404851 -0.35200963246311751 0 -0.21424807490234879 -0.36231527430669241 0 -0.22913587473404851 -0.35200963246311751 0 -0.23696933381926599 -0.3585493042599866 0 -0.22913587473404851 -0.35200963246311751 0 -0.24881121389389799 -0.33838995723746451 0 -0.22913587473404851 -0.35200963246311751 0 -0.23696933381926599 -0.3585493042599866 0 -0.24650166737573331 -0.3569693529562265 0 -0.22913587473404851 -0.35200963246311751 0 -0.24650166737573331 -0.3569693529562265 0 -0.24881121389389799 -0.33838995723746451 0 -0.23696933381926599 -0.3585493042599866 0 -0.24650166737573331 -0.3569693529562265 0 -0.24234943749700691 -0.36154613291017651 0 -0.23696933381926599 -0.3585493042599866 0 -0.24650166737573331 -0.3569693529562265 0 -0.22913587473404851 -0.35200963246311751 0 -0.24881121389389799 -0.33838995723746451 0 -0.2325545649384867 -0.33453283978227571 0 -0.24881121389389799 -0.33838995723746451 0 -0.2441082332202735 -0.32380704628422963 0 -0.2325545649384867 -0.33453283978227571 0 -0.23613058105125781 -0.31890710479075163 0 -0.2279063026952847 -0.3135077128279592 0 -0.2444966906846206 -0.31181945912301329 0 -0.2441082332202735 -0.32380704628422963 0 -0.23498207165859719 -0.32537142019391418 0 -0.23613058105125781 -0.31890710479075163 0 -0.2441082332202735 -0.32380704628422963 0 -0.23498207165859719 -0.32537142019391418 0 -0.2325545649384867 -0.33453283978227571 0 -0.2441082332202735 -0.32380704628422963 0 -0.23613058105125781 -0.31890710479075163 0 -0.2444966906846206 -0.31181945912301329 0 -0.2279063026952847 -0.3135077128279592 0 -0.2193464910840433 -0.31976030368968739 0 -0.21134622408423179 -0.310554889255794 0 -0.23613058105125781 -0.31890710479075163 0 -0.2279063026952847 -0.3135077128279592 0 -0.22829430606921119 -0.32293804105388452 0 -0.23498207165859719 -0.32537142019391418 0 -0.22829430606921119 -0.32293804105388452 0 -0.2325545649384867 -0.33453283978227571 0 -0.23498207165859719 -0.32537142019391418 0 -0.23613058105125781 -0.31890710479075163 0 -0.22829430606921119 -0.32293804105388452 0 -0.22829430606921119 -0.32293804105388452 0 -0.2193464910840433 -0.31976030368968739 0 -0.22209033975117781 -0.32887735541776358 0 -0.2279063026952847 -0.3135077128279592 0 -0.22829430606921119 -0.32293804105388452 0 -0.2193464910840433 -0.31976030368968739 0 -0.22913587473404851 -0.35200963246311751 0 -0.2325545649384867 -0.33453283978227571 0 -0.21998707993494029 -0.33959044394559312 0 -0.22913587473404851 -0.35200963246311751 0 -0.21998707993494029 -0.33959044394559312 0 -0.2097464541822805 -0.33582260124732738 0 -0.22829430606921119 -0.32293804105388452 0 -0.2325545649384867 -0.33453283978227571 0 -0.22209033975117781 -0.32887735541776358 0 -0.2325545649384867 -0.33453283978227571 0 -0.22209033975117781 -0.32887735541776358 0 -0.21998707993494029 -0.33959044394559312 0 -0.21998707993494029 -0.33959044394559312 0 -0.21026925672920721 -0.32756514861737779 0 -0.22209033975117781 -0.32887735541776358 0 -0.21998707993494029 -0.33959044394559312 0 -0.21026925672920721 -0.32756514861737779 0 -0.21998707993494029 -0.33959044394559312 0 -0.2097464541822805 -0.33582260124732738 0 -0.21026925672920721 -0.32756514861737779 0 -0.2097464541822805 -0.33582260124732738 0 -0.21026925672920721 -0.32756514861737779 0 -0.21026925672920721 -0.32756514861737779 0 -0.21134622408423179 -0.310554889255794 0 -0.19267178705524021 -0.30578920503631912 0 -0.21026925672920721 -0.32756514861737779 0 -0.21134622408423179 -0.310554889255794 0 -0.2097464541822805 -0.33582260124732738 0 -0.21026925672920721 -0.32756514861737779 0 -0.19254159852174429 -0.31996122112867409 0 -0.2193464910840433 -0.31976030368968739 0 -0.21026925672920721 -0.32756514861737779 0 -0.21134622408423179 -0.310554889255794 0 -0.2193464910840433 -0.31976030368968739 0 -0.22209033975117781 -0.32887735541776358 0 -0.21026925672920721 -0.32756514861737779 0 -0.2097464541822805 -0.33582260124732738 0 -0.1943588054861482 -0.32297640251143073 0 -0.19254159852174429 -0.31996122112867409 0 -0.21026925672920721 -0.32756514861737779 0 -0.19267178705524021 -0.30578920503631912 0 -0.21026925672920721 -0.32756514861737779 0 -0.19254159852174429 -0.31996122112867409 0 -0.19267178705524021 -0.30578920503631912 0 -0.2097464541822805 -0.33582260124732738 0 -0.19254159852174429 -0.31996122112867409 0 -0.1943588054861482 -0.32297640251143073 0 -0.18737083868624629 -0.33075534874643497 0 -0.18479650728396149 -0.32227615663527998 0 -0.1943588054861482 -0.32297640251143073 0 -0.19254159852174429 -0.31996122112867409 0 -0.1789711567900161 -0.3101302037755338 0 -0.2097464541822805 -0.33582260124732738 0 -0.19466829689393059 -0.33824472710720138 0 -0.19565175395430129 -0.3512554891803924 0 -0.2097464541822805 -0.33582260124732738 0 -0.1943588054861482 -0.32297640251143073 0 -0.19466829689393059 -0.33824472710720138 0 -0.2097464541822805 -0.33582260124732738 0 -0.1943588054861482 -0.32297640251143073 0 -0.1943588054861482 -0.32297640251143073 0 -0.19466829689393059 -0.33824472710720138 0 -0.18737083868624629 -0.33075534874643497 0 -0.19466829689393059 -0.33824472710720138 0 -0.18164424501215659 -0.34621916084723381 0 -0.18737083868624629 -0.33075534874643497 0 -0.19466829689393059 -0.33824472710720138 0 -0.19565175395430129 -0.3512554891803924 0 -0.18164424501215659 -0.34621916084723381 0 -0.20800359978069241 -0.36335027445133922 0 -0.18480326185087809 -0.36719565018674682 0 -0.19565175395430129 -0.3512554891803924 0 -0.20800359978069241 -0.36335027445133922 0 -0.18480326185087809 -0.36719565018674682 0 -0.2014200033848125 -0.37119512976538899 0 -0.18480326185087809 -0.36719565018674682 0 -0.18579747934449059 -0.37379744869579251 0 -0.2014200033848125 -0.37119512976538899 0 -0.20800359978069241 -0.36335027445133922 0 -0.18480326185087809 -0.36719565018674682 0 -0.2014200033848125 -0.37119512976538899 0 -0.20800359978069241 -0.36335027445133922 0 -0.20803809997708481 -0.36661394692190907 0 -0.20800359978069241 -0.36335027445133922 0 -0.20803809997708481 -0.36661394692190907 0 -0.21424807490234879 -0.36231527430669241 0 -0.20800359978069241 -0.36335027445133922 0 -0.20803809997708481 -0.36661394692190907 0 -0.2014200033848125 -0.37119512976538899 0 -0.20803809997708481 -0.36661394692190907 0 -0.21335741342528061 -0.3748607861064962 0 -0.2014200033848125 -0.37119512976538899 0 -0.20803809997708481 -0.36661394692190907 0 -0.20803809997708481 -0.36661394692190907 0 -0.21335741342528061 -0.3748607861064962 0 -0.21424807490234879 -0.36231527430669241 0 -0.22186900287429051 -0.37074082218821958 0 -0.21335741342528061 -0.3748607861064962 0 -0.21424807490234879 -0.36231527430669241 0 -0.20800359978069241 -0.36335027445133922 0 -0.21424807490234879 -0.36231527430669241 0 -0.20803809997708481 -0.36661394692190907 0 -0.21424807490234879 -0.36231527430669241 0 -0.2097464541822805 -0.33582260124732738 0 -0.19565175395430129 -0.3512554891803924 0 -0.20800359978069241 -0.36335027445133922 0 -0.2097464541822805 -0.33582260124732738 0 -0.20800359978069241 -0.36335027445133922 0 -0.2097464541822805 -0.33582260124732738 0 -0.20800359978069241 -0.36335027445133922 0 -0.21424807490234879 -0.36231527430669241 0 -0.22913587473404851 -0.35200963246311751 0 -0.2097464541822805 -0.33582260124732738 0 -0.21424807490234879 -0.36231527430669241 0 -0.2335542019388327 -0.26090262277066528 0 -0.21472073189145299 -0.25725591714607071 0 -0.22837296648480071 -0.23789375384220129 0 -0.2335542019388327 -0.26090262277066528 0 -0.21357196166535461 -0.27540027352014051 0 -0.21472073189145299 -0.25725591714607071 0 -0.25298377122075039 -0.27518622721876451 0 -0.2335542019388327 -0.26090262277066528 0 -0.25431856302814809 -0.24833495949118861 0 -0.25298377122075039 -0.27518622721876451 0 -0.2335542019388327 -0.26090262277066528 0 -0.23093648268818689 -0.28342115129973 0 -0.2335542019388327 -0.26090262277066528 0 -0.23093648268818689 -0.28342115129973 0 -0.21357196166535461 -0.27540027352014051 0 -0.23093648268818689 -0.28342115129973 0 -0.21242319143925911 -0.29354462989421048 0 -0.21357196166535461 -0.27540027352014051 0 -0.23093648268818689 -0.28342115129973 0 -0.2435111179254994 -0.29490773243705071 0 -0.2284599410619414 -0.30268204450860919 0 -0.23093648268818689 -0.28342115129973 0 -0.2284599410619414 -0.30268204450860919 0 -0.21242319143925911 -0.29354462989421048 0 -0.25298377122075039 -0.27518622721876451 0 -0.23093648268818689 -0.28342115129973 0 -0.2435111179254994 -0.29490773243705071 0 -0.2444966906846206 -0.31181945912301329 0 -0.2284599410619414 -0.30268204450860919 0 -0.2435111179254994 -0.29490773243705071 0 -0.2444966906846206 -0.31181945912301329 0 -0.2284599410619414 -0.30268204450860919 0 -0.26057201890547982 -0.29344093798311832 0 -0.2435111179254994 -0.29490773243705071 0 -0.2444966906846206 -0.31181945912301329 0 -0.2279063026952847 -0.3135077128279592 0 -0.2444966906846206 -0.31181945912301329 0 -0.2284599410619414 -0.30268204450860919 0 -0.2284599410619414 -0.30268204450860919 0 -0.21242319143925911 -0.29354462989421048 0 -0.2279063026952847 -0.3135077128279592 0 -0.2284599410619414 -0.30268204450860919 0 -0.21134622408423179 -0.310554889255794 0 -0.2284599410619414 -0.30268204450860919 0 -0.21134622408423179 -0.310554889255794 0 -0.21242319143925911 -0.29354462989421048 0 -0.21134622408423179 -0.310554889255794 0 -0.19267178705524021 -0.30578920503631912 0 -0.21242319143925911 -0.29354462989421048 0 -0.21134622408423179 -0.310554889255794 0 -0.21242319143925911 -0.29354462989421048 0 -0.19267178705524021 -0.30578920503631912 0 -0.19410774352861071 -0.2831088592208712 0 -0.21242319143925911 -0.29354462989421048 0 -0.19410774352861071 -0.2831088592208712 0 -0.21242319143925911 -0.29354462989421048 0 -0.21357196166535461 -0.27540027352014051 0 -0.19410774352861071 -0.2831088592208712 0 -0.21242319143925911 -0.29354462989421048 0 -0.21242319143925911 -0.29354462989421048 0 -0.21357196166535461 -0.27540027352014051 0 -0.21357196166535461 -0.27540027352014051 0 -0.21472073189145299 -0.25725591714607071 0 -0.19410774352861071 -0.2831088592208712 0 -0.21357196166535461 -0.27540027352014051 0 -0.1965391795889786 -0.26204425282134669 0 -0.19410774352861071 -0.2831088592208712 0 -0.1965391795889786 -0.26204425282134669 0 -0.17579229561796161 -0.27267308854753308 0 -0.1965391795889786 -0.26204425282134669 0 -0.20565562739327201 -0.24334207984173631 0 -0.18863044441395099 -0.24733650333174401 0 -0.1965391795889786 -0.26204425282134669 0 -0.18340152769721799 -0.25642831405215172 0 -0.18863044441395099 -0.24733650333174401 0 -0.1965391795889786 -0.26204425282134669 0 -0.21472073189145299 -0.25725591714607071 0 -0.20565562739327201 -0.24334207984173631 0 -0.21357196166535461 -0.27540027352014051 0 -0.1965391795889786 -0.26204425282134669 0 -0.21472073189145299 -0.25725591714607071 0 -0.15747684770731041 -0.26223731787419863 0 -0.16344648285301799 -0.25937253054906129 0 -0.17579229561796161 -0.27267308854753308 0 -0.1593809120407062 -0.25278805690175971 0 -0.16344648285301799 -0.25937253054906129 0 -0.1534429259631987 -0.25724555178864622 0 -0.1593809120407062 -0.25278805690175971 0 -0.16344648285301799 -0.25937253054906129 0 -0.16709258238786229 -0.25188408856254202 0 -0.1593809120407062 -0.25278805690175971 0 -0.16709258238786229 -0.25188408856254202 0 -0.1601832428566283 -0.24550858739866141 0 -0.15747684770731041 -0.26223731787419863 0 -0.16344648285301799 -0.25937253054906129 0 -0.1534429259631987 -0.25724555178864622 0 -0.16344648285301799 -0.25937253054906129 0 -0.1534429259631987 -0.25724555178864622 0 -0.16344648285301799 -0.25937253054906129 0 -0.17379217291466831 -0.25992581321180469 0 -0.17579229561796161 -0.27267308854753308 0 -0.16344648285301799 -0.25937253054906129 0 -0.16709258238786229 -0.25188408856254202 0 -0.17379217291466831 -0.25992581321180469 0 -0.16709258238786229 -0.25188408856254202 0 -0.17679077873490559 -0.25046109420941731 0 -0.17379217291466831 -0.25992581321180469 0 -0.1965391795889786 -0.26204425282134669 0 -0.18340152769721799 -0.25642831405215172 0 -0.17579229561796161 -0.27267308854753308 0 -0.17679077873490559 -0.25046109420941731 0 -0.18340152769721799 -0.25642831405215172 0 -0.17379217291466831 -0.25992581321180469 0 -0.18340152769721799 -0.25642831405215172 0 -0.17379217291466831 -0.25992581321180469 0 -0.17579229561796161 -0.27267308854753308 0 -0.17679077873490559 -0.25046109420941731 0 -0.18340152769721799 -0.25642831405215172 0 -0.18863044441395099 -0.24733650333174401 0 -0.19410774352861071 -0.2831088592208712 0 -0.17579229561796161 -0.27267308854753308 0 -0.17507431738127369 -0.28401326145526029 0 -0.19410774352861071 -0.2831088592208712 0 -0.17579229561796161 -0.27267308854753308 0 -0.15747684770731041 -0.26223731787419863 0 -0.17507431738127369 -0.28401326145526029 0 -0.15747684770731041 -0.26223731787419863 0 -0.17579229561796161 -0.27267308854753308 0 -0.15747684770731041 -0.26223731787419863 0 -0.17579229561796161 -0.27267308854753308 0 -0.17507431738127369 -0.28401326145526029 0 -0.15747684770731041 -0.26223731787419863 0 -0.1596399504195592 -0.27820623095404468 0 -0.17507431738127369 -0.28401326145526029 0 -0.1596399504195592 -0.27820623095404468 0 -0.1624028041075358 -0.29248408411088062 0 -0.1494793968803598 -0.28070198605355251 0 -0.1624028041075358 -0.29248408411088062 0 -0.15973767967650701 -0.30493196891575292 0 -0.15108397830665751 -0.29236825921418419 0 -0.1624028041075358 -0.29248408411088062 0 -0.17507431738127369 -0.28401326145526029 0 -0.17391538329452061 -0.29489800819007239 0 -0.1596399504195592 -0.27820623095404468 0 -0.1624028041075358 -0.29248408411088062 0 -0.17507431738127369 -0.28401326145526029 0 -0.19267178705524021 -0.30578920503631912 0 -0.19410774352861071 -0.2831088592208712 0 -0.17507431738127369 -0.28401326145526029 0 -0.19267178705524021 -0.30578920503631912 0 -0.17507431738127369 -0.28401326145526029 0 -0.17391538329452061 -0.29489800819007239 0 -0.19267178705524021 -0.30578920503631912 0 -0.17507431738127369 -0.28401326145526029 0 -0.17391538329452061 -0.29489800819007239 0 -0.17532621133471249 -0.30426618216820789 0 -0.19254159852174429 -0.31996122112867409 0 -0.19267178705524021 -0.30578920503631912 0 -0.17532621133471249 -0.30426618216820789 0 -0.19267178705524021 -0.30578920503631912 0 -0.17391538329452061 -0.29489800819007239 0 -0.17532621133471249 -0.30426618216820789 0 -0.19254159852174429 -0.31996122112867409 0 -0.17532621133471249 -0.30426618216820789 0 -0.1789711567900161 -0.3101302037755338 0 -0.19254159852174429 -0.31996122112867409 0 -0.17532621133471249 -0.30426618216820789 0 -0.17532621133471249 -0.30426618216820789 0 -0.15973767967650701 -0.30493196891575292 0 -0.16582550601247259 -0.31644195918285489 0 -0.1624028041075358 -0.29248408411088062 0 -0.17532621133471249 -0.30426618216820789 0 -0.15973767967650701 -0.30493196891575292 0 -0.1624028041075358 -0.29248408411088062 0 -0.17532621133471249 -0.30426618216820789 0 -0.1624028041075358 -0.29248408411088062 0 -0.17391538329452061 -0.29489800819007239 0 -0.17532621133471249 -0.30426618216820789 0 -0.144593184228827 -0.30237793828586917 0 -0.15261731536399281 -0.31699983390472031 0 -0.1327552185807534 -0.31482398186879779 0 -0.15973767967650701 -0.30493196891575292 0 -0.144593184228827 -0.30237793828586917 0 -0.15261731536399281 -0.31699983390472031 0 -0.15973767967650701 -0.30493196891575292 0 -0.144593184228827 -0.30237793828586917 0 -0.15108397830665751 -0.29236825921418419 0 -0.144593184228827 -0.30237793828586917 0 -0.1304175251842298 -0.30012492429455973 0 -0.1327552185807534 -0.31482398186879779 0 -0.1304175251842298 -0.30012492429455973 0 -0.1327552185807534 -0.31482398186879779 0 -0.11567190875339491 -0.3081878681979589 0 -0.1304175251842298 -0.30012492429455973 0 -0.13697378053928061 -0.28594316463020741 0 -0.11725087491461519 -0.29108504565108578 0 -0.144593184228827 -0.30237793828586917 0 -0.1304175251842298 -0.30012492429455973 0 -0.13697378053928061 -0.28594316463020741 0 -0.13697378053928061 -0.28594316463020741 0 -0.15108397830665751 -0.29236825921418419 0 -0.1494793968803598 -0.28070198605355251 0 -0.144593184228827 -0.30237793828586917 0 -0.13697378053928061 -0.28594316463020741 0 -0.15108397830665751 -0.29236825921418419 0 -0.1624028041075358 -0.29248408411088062 0 -0.15108397830665751 -0.29236825921418419 0 -0.1494793968803598 -0.28070198605355251 0 -0.1624028041075358 -0.29248408411088062 0 -0.1494793968803598 -0.28070198605355251 0 -0.15747684770731041 -0.26223731787419863 0 -0.1596399504195592 -0.27820623095404468 0 -0.1503927610565664 -0.27179087804580171 0 -0.1596399504195592 -0.27820623095404468 0 -0.1494793968803598 -0.28070198605355251 0 -0.1503927610565664 -0.27179087804580171 0 -0.15747684770731041 -0.26223731787419863 0 -0.1503927610565664 -0.27179087804580171 0 -0.1469785187108 -0.2635474229235048 0 -0.1503927610565664 -0.27179087804580171 0 -0.13966748117377659 -0.26847157538705668 0 -0.1469785187108 -0.2635474229235048 0 -0.1503927610565664 -0.27179087804580171 0 -0.14153524490660671 -0.2763029116229278 0 -0.13966748117377659 -0.26847157538705668 0 -0.1494793968803598 -0.28070198605355251 0 -0.1503927610565664 -0.27179087804580171 0 -0.14153524490660671 -0.2763029116229278 0 -0.13697378053928061 -0.28594316463020741 0 -0.1494793968803598 -0.28070198605355251 0 -0.14153524490660671 -0.2763029116229278 0 -0.13697378053928061 -0.28594316463020741 0 -0.14153524490660671 -0.2763029116229278 0 -0.13219795163187159 -0.27110871778552531 0 -0.13697378053928061 -0.28594316463020741 0 -0.1173011125765811 -0.2721428964285707 0 -0.13697378053928061 -0.28594316463020741 0 -0.13219795163187159 -0.27110871778552531 0 -0.1173011125765811 -0.2721428964285707 0 -0.13219795163187159 -0.27110871778552531 0 -0.1333337708168415 -0.26377523499205202 0 -0.12600056203783161 -0.26301541000095829 0 -0.13219795163187159 -0.27110871778552531 0 -0.12600056203783161 -0.26301541000095829 0 -0.1173011125765811 -0.2721428964285707 0 -0.13219795163187159 -0.27110871778552531 0 -0.13966748117377659 -0.26847157538705668 0 -0.1333337708168415 -0.26377523499205202 0 -0.14153524490660671 -0.2763029116229278 0 -0.13219795163187159 -0.27110871778552531 0 -0.13966748117377659 -0.26847157538705668 0 -0.13966748117377659 -0.26847157538705668 0 -0.13807993829988649 -0.25979154560904222 0 -0.1333337708168415 -0.26377523499205202 0 -0.13807993829988649 -0.25979154560904222 0 -0.1333337708168415 -0.26377523499205202 0 -0.13072292094084129 -0.25648892617767749 0 -0.12600056203783161 -0.26301541000095829 0 -0.13072292094084129 -0.25648892617767749 0 -0.1187556211832122 -0.25814451816493872 0 -0.1333337708168415 -0.26377523499205202 0 -0.12600056203783161 -0.26301541000095829 0 -0.13072292094084129 -0.25648892617767749 0 -0.13072292094084129 -0.25648892617767749 0 -0.13218950310710981 -0.25272660122947088 0 -0.1187556211832122 -0.25814451816493872 0 -0.13072292094084129 -0.25648892617767749 0 -0.13218950310710981 -0.25272660122947088 0 -0.13218950310710981 -0.25272660122947088 0 -0.1459019403517107 -0.25564217047089421 0 -0.13375162957080131 -0.24871916986845621 0 -0.13218950310710981 -0.25272660122947088 0 -0.1459019403517107 -0.25564217047089421 0 -0.13218950310710981 -0.25272660122947088 0 -0.13375162957080131 -0.24871916986845621 0 -0.1459019403517107 -0.25564217047089421 0 -0.13375162957080131 -0.24871916986845621 0 -0.13807993829988649 -0.25979154560904222 0 -0.13218950310710981 -0.25272660122947088 0 -0.1459019403517107 -0.25564217047089421 0 -0.13807993829988649 -0.25979154560904222 0 -0.13072292094084129 -0.25648892617767749 0 -0.13218950310710981 -0.25272660122947088 0 -0.1459019403517107 -0.25564217047089421 0 -0.1534429259631987 -0.25724555178864622 0 -0.1378886282313006 -0.2381062402767252 0 -0.13966748117377659 -0.26847157538705668 0 -0.13807993829988649 -0.25979154560904222 0 -0.1469785187108 -0.2635474229235048 0 -0.13807993829988649 -0.25979154560904222 0 -0.1459019403517107 -0.25564217047089421 0 -0.1469785187108 -0.2635474229235048 0 -0.15747684770731041 -0.26223731787419863 0 -0.1459019403517107 -0.25564217047089421 0 -0.1534429259631987 -0.25724555178864622 0 -0.15747684770731041 -0.26223731787419863 0 -0.1459019403517107 -0.25564217047089421 0 -0.1469785187108 -0.2635474229235048 0 -0.15747684770731041 -0.26223731787419863 0 -0.1459019403517107 -0.25564217047089421 0 -0.15747684770731041 -0.26223731787419863 0 -0.1534429259631987 -0.25724555178864622 0 -0.1593809120407062 -0.25278805690175971 0 -0.1534429259631987 -0.25724555178864622 0 -0.15289321433053751 -0.246830478479277 0 -0.1459019403517107 -0.25564217047089421 0 -0.1534429259631987 -0.25724555178864622 0 -0.17143624801538501 -0.35840063883308271 0 -0.1580141783998408 -0.34710035810185619 0 -0.15489216358121211 -0.36256913283011211 0 -0.17143624801538501 -0.35840063883308271 0 -0.1580141783998408 -0.34710035810185619 0 -0.18164424501215659 -0.34621916084723381 0 -0.17143624801538501 -0.35840063883308271 0 -0.1663610822414904 -0.3702523776444529 0 -0.15489216358121211 -0.36256913283011211 0 -0.15951650330528561 -0.37856285477961621 0 -0.1663610822414904 -0.3702523776444529 0 -0.15489216358121211 -0.36256913283011211 0 -0.17143624801538501 -0.35840063883308271 0 -0.1663610822414904 -0.3702523776444529 0 -0.18480326185087809 -0.36719565018674682 0 -0.1663610822414904 -0.3702523776444529 0 -0.18480326185087809 -0.36719565018674682 0 -0.1663610822414904 -0.3702523776444529 0 -0.18480326185087809 -0.36719565018674682 0 -0.18579747934449059 -0.37379744869579251 0 -0.18480326185087809 -0.36719565018674682 0 -0.18579747934449059 -0.37379744869579251 0 -0.18480326185087809 -0.36719565018674682 0 -0.18164424501215659 -0.34621916084723381 0 -0.19565175395430129 -0.3512554891803924 0 -0.18480326185087809 -0.36719565018674682 0 -0.18164424501215659 -0.34621916084723381 0 -0.17143624801538501 -0.35840063883308271 0 -0.18480326185087809 -0.36719565018674682 0 -0.18164424501215659 -0.34621916084723381 0 -0.18164424501215659 -0.34621916084723381 0 -0.17848522817343529 -0.32524267150772068 0 -0.1629610955137164 -0.33076913941787212 0 -0.18164424501215659 -0.34621916084723381 0 -0.17848522817343529 -0.32524267150772068 0 -0.18164424501215659 -0.34621916084723381 0 -0.18737083868624629 -0.33075534874643497 0 -0.17848522817343529 -0.32524267150772068 0 -0.17532621133471249 -0.30426618216820789 0 -0.17848522817343529 -0.32524267150772068 0 -0.17532621133471249 -0.30426618216820789 0 -0.1789711567900161 -0.3101302037755338 0 -0.17848522817343529 -0.32524267150772068 0 -0.17532621133471249 -0.30426618216820789 0 -0.17848522817343529 -0.32524267150772068 0 -0.16582550601247259 -0.31644195918285489 0 -0.1943588054861482 -0.32297640251143073 0 -0.1789711567900161 -0.3101302037755338 0 -0.18479650728396149 -0.32227615663527998 0 -0.1789711567900161 -0.3101302037755338 0 -0.18479650728396149 -0.32227615663527998 0 -0.17848522817343529 -0.32524267150772068 0 -0.1943588054861482 -0.32297640251143073 0 -0.1789711567900161 -0.3101302037755338 0 -0.18737083868624629 -0.33075534874643497 0 -0.18479650728396149 -0.32227615663527998 0 -0.17848522817343529 -0.32524267150772068 0 -0.17848522817343529 -0.32524267150772068 0 -0.16582550601247259 -0.31644195918285489 0 -0.1629610955137164 -0.33076913941787212 0 -0.16582550601247259 -0.31644195918285489 0 -0.1629610955137164 -0.33076913941787212 0 -0.15261731536399281 -0.31699983390472031 0 -0.15973767967650701 -0.30493196891575292 0 -0.16582550601247259 -0.31644195918285489 0 -0.15261731536399281 -0.31699983390472031 0 -0.1580141783998408 -0.34710035810185619 0 -0.18164424501215659 -0.34621916084723381 0 -0.1629610955137164 -0.33076913941787212 0 -0.1580141783998408 -0.34710035810185619 0 -0.1629610955137164 -0.33076913941787212 0 -0.14559484309128301 -0.3331209990743299 0 -0.14559484309128301 -0.3331209990743299 0 -0.15261731536399281 -0.31699983390472031 0 -0.1327552185807534 -0.31482398186879779 0 -0.1629610955137164 -0.33076913941787212 0 -0.14559484309128301 -0.3331209990743299 0 -0.15261731536399281 -0.31699983390472031 0 -0.14559484309128301 -0.3331209990743299 0 -0.1327552185807534 -0.31482398186879779 0 -0.12678352480283511 -0.3369129194106073 0 -0.14559484309128301 -0.3331209990743299 0 -0.12678352480283511 -0.3369129194106073 0 -0.14043772588655989 -0.35211976174212622 0 -0.12678352480283511 -0.3369129194106073 0 -0.14043772588655989 -0.35211976174212622 0 -0.1203130985899742 -0.35955571918490481 0 -0.1580141783998408 -0.34710035810185619 0 -0.14043772588655989 -0.35211976174212622 0 -0.15489216358121211 -0.36256913283011211 0 -0.1580141783998408 -0.34710035810185619 0 -0.14559484309128301 -0.3331209990743299 0 -0.14043772588655989 -0.35211976174212622 0 -0.14043772588655989 -0.35211976174212622 0 -0.15489216358121211 -0.36256913283011211 0 -0.13959568407155781 -0.37291875636350952 0 -0.15951650330528561 -0.37856285477961621 0 -0.15489216358121211 -0.36256913283011211 0 -0.13959568407155781 -0.37291875636350952 0 -0.12625141541498519 -0.38197991289387551 0 -0.13959568407155781 -0.37291875636350952 0 -0.1203130985899742 -0.35955571918490481 0 -0.14043772588655989 -0.35211976174212622 0 -0.13959568407155781 -0.37291875636350952 0 -0.1203130985899742 -0.35955571918490481 0 -0.1203130985899742 -0.35955571918490481 0 -0.11384267237711319 -0.38219851895920232 0 -0.1203130985899742 -0.35955571918490481 0 -0.10849363524981311 -0.36442991456039969 0 -0.11384267237711319 -0.38219851895920232 0 -0.12625141541498519 -0.38197991289387551 0 -0.1203130985899742 -0.35955571918490481 0 -0.11384267237711319 -0.38219851895920232 0 -0.10849363524981311 -0.36442991456039969 0 -0.096157591159299352 -0.35547454281719221 0 -0.10176491866177829 -0.38015793077534599 0 -0.096157591159299352 -0.35547454281719221 0 -0.10176491866177829 -0.38015793077534599 0 -0.096157591159299352 -0.35547454281719221 0 -0.10176491866177829 -0.38015793077534599 0 -0.085276019388031976 -0.37619188405436782 0 -0.096157591159299352 -0.35547454281719221 0 -0.10964553082547281 -0.34513317088572909 0 -0.090550263656820479 -0.33079115485903843 0 -0.10849363524981311 -0.36442991456039969 0 -0.096157591159299352 -0.35547454281719221 0 -0.10964553082547281 -0.34513317088572909 0 -0.1203130985899742 -0.35955571918490481 0 -0.10849363524981311 -0.36442991456039969 0 -0.10964553082547281 -0.34513317088572909 0 -0.12678352480283511 -0.3369129194106073 0 -0.1203130985899742 -0.35955571918490481 0 -0.10964553082547281 -0.34513317088572909 0 -0.12678352480283511 -0.3369129194106073 0 -0.1203130985899742 -0.35955571918490481 0 -0.12678352480283511 -0.3369129194106073 0 -0.10964553082547281 -0.34513317088572909 0 -0.1112875311940303 -0.32576775904759792 0 -0.1327552185807534 -0.31482398186879779 0 -0.12678352480283511 -0.3369129194106073 0 -0.1112875311940303 -0.32576775904759792 0 -0.1327552185807534 -0.31482398186879779 0 -0.1112875311940303 -0.32576775904759792 0 -0.11567190875339491 -0.3081878681979589 0 -0.1112875311940303 -0.32576775904759792 0 -0.1011365257202933 -0.31403431577096802 0 -0.11567190875339491 -0.3081878681979589 0 -0.1112875311940303 -0.32576775904759792 0 -0.1011365257202933 -0.31403431577096802 0 -0.090550263656820479 -0.33079115485903843 0 -0.10964553082547281 -0.34513317088572909 0 -0.1112875311940303 -0.32576775904759792 0 -0.090550263656820479 -0.33079115485903843 0 -0.096157591159299352 -0.35547454281719221 0 -0.090550263656820479 -0.33079115485903843 0 -0.096157591159299352 -0.35547454281719221 0 -0.090550263656820479 -0.33079115485903843 0 -0.073144777225565616 -0.33606175945158517 0 -0.090550263656820479 -0.33079115485903843 0 -0.084942936154341619 -0.30610776690088481 0 -0.090550263656820479 -0.33079115485903843 0 -0.073144777225565616 -0.33606175945158517 0 -0.084942936154341619 -0.30610776690088481 0 -0.1011365257202933 -0.31403431577096802 0 -0.090550263656820479 -0.33079115485903843 0 -0.084942936154341619 -0.30610776690088481 0 -0.073144777225565616 -0.33606175945158517 0 -0.084942936154341619 -0.30610776690088481 0 -0.060613113796085999 -0.32288269869712272 0 -0.073144777225565616 -0.33606175945158517 0 -0.076755031766953086 -0.35884624094615858 0 -0.063306301319701316 -0.35299520754669739 0 -0.076755031766953086 -0.35884624094615858 0 -0.063306301319701316 -0.35299520754669739 0 -0.065890469742167113 -0.37350781086095058 0 -0.076755031766953086 -0.35884624094615858 0 -0.065890469742167113 -0.37350781086095058 0 -0.085276019388031976 -0.37619188405436782 0 -0.096157591159299352 -0.35547454281719221 0 -0.076755031766953086 -0.35884624094615858 0 -0.085276019388031976 -0.37619188405436782 0 -0.096157591159299352 -0.35547454281719221 0 -0.073144777225565616 -0.33606175945158517 0 -0.076755031766953086 -0.35884624094615858 0 -0.097628444613881649 -0.25834262822693399 0 -0.1173011125765811 -0.2721428964285707 0 -0.097628444613881649 -0.25834262822693399 0 -0.1187556211832122 -0.25814451816493872 0 -0.1098930818979398 -0.24798588601512411 0 -0.13218950310710981 -0.25272660122947088 0 -0.1187556211832122 -0.25814451816493872 0 -0.1098930818979398 -0.24798588601512411 0 -0.097628444613881649 -0.25834262822693399 0 -0.1187556211832122 -0.25814451816493872 0 -0.1173011125765811 -0.2721428964285707 0 -0.13218950310710981 -0.25272660122947088 0 -0.1098930818979398 -0.24798588601512411 0 -0.12600056203783161 -0.26301541000095829 0 -0.1187556211832122 -0.25814451816493872 0 -0.1173011125765811 -0.2721428964285707 0 -0.097628444613881649 -0.25834262822693399 0 -0.1173011125765811 -0.2721428964285707 0 -0.090762408808148426 -0.27102181932101072 0 -0.1173011125765811 -0.2721428964285707 0 -0.096655829275762523 -0.28444542957314378 0 -0.090762408808148426 -0.27102181932101072 0 -0.096655829275762523 -0.28444542957314378 0 -0.10322998884287909 -0.29931702984935987 0 -0.084942936154341619 -0.30610776690088481 0 -0.096655829275762523 -0.28444542957314378 0 -0.11725087491461519 -0.29108504565108578 0 -0.10322998884287909 -0.29931702984935987 0 -0.13697378053928061 -0.28594316463020741 0 -0.1173011125765811 -0.2721428964285707 0 -0.11725087491461519 -0.29108504565108578 0 -0.1173011125765811 -0.2721428964285707 0 -0.096655829275762523 -0.28444542957314378 0 -0.11725087491461519 -0.29108504565108578 0 -0.11725087491461519 -0.29108504565108578 0 -0.11567190875339491 -0.3081878681979589 0 -0.10322998884287909 -0.29931702984935987 0 -0.1304175251842298 -0.30012492429455973 0 -0.11725087491461519 -0.29108504565108578 0 -0.11567190875339491 -0.3081878681979589 0 -0.1011365257202933 -0.31403431577096802 0 -0.10322998884287909 -0.29931702984935987 0 -0.084942936154341619 -0.30610776690088481 0 -0.1011365257202933 -0.31403431577096802 0 -0.11567190875339491 -0.3081878681979589 0 -0.10322998884287909 -0.29931702984935987 0 -0.084942936154341619 -0.30610776690088481 0 -0.066237696895848033 -0.30175990202967712 0 -0.078368201618682937 -0.28822753231137022 0 -0.084942936154341619 -0.30610776690088481 0 -0.066237696895848033 -0.30175990202967712 0 -0.060613113796085999 -0.32288269869712272 0 -0.066237696895848033 -0.30175990202967712 0 -0.078368201618682937 -0.28822753231137022 0 -0.057136779716869042 -0.28712205926022771 0 -0.078368201618682937 -0.28822753231137022 0 -0.072744725061100565 -0.27289296274949931 0 -0.057136779716869042 -0.28712205926022771 0 -0.096655829275762523 -0.28444542957314378 0 -0.084942936154341619 -0.30610776690088481 0 -0.078368201618682937 -0.28822753231137022 0 -0.096655829275762523 -0.28444542957314378 0 -0.078368201618682937 -0.28822753231137022 0 -0.090762408808148426 -0.27102181932101072 0 -0.078368201618682937 -0.28822753231137022 0 -0.090762408808148426 -0.27102181932101072 0 -0.072744725061100565 -0.27289296274949931 0 -0.090762408808148426 -0.27102181932101072 0 -0.072744725061100565 -0.27289296274949931 0 -0.081281336266817772 -0.26097832242812891 0 -0.072744725061100565 -0.27289296274949931 0 -0.067161912638977472 -0.25903173736147111 0 -0.055745381016590281 -0.2682223094504298 0 -0.072744725061100565 -0.27289296274949931 0 -0.067161912638977472 -0.25903173736147111 0 -0.081281336266817772 -0.26097832242812891 0 -0.067161912638977472 -0.25903173736147111 0 -0.081281336266817772 -0.26097832242812891 0 -0.077955776651182085 -0.24454236002529731 0 -0.067161912638977472 -0.25903173736147111 0 -0.056939497423126581 -0.24878681181634871 0 -0.077955776651182085 -0.24454236002529731 0 -0.097628444613881649 -0.25834262822693399 0 -0.081281336266817772 -0.26097832242812891 0 -0.077955776651182085 -0.24454236002529731 0 -0.097628444613881649 -0.25834262822693399 0 -0.090762408808148426 -0.27102181932101072 0 -0.081281336266817772 -0.26097832242812891 0 -0.097628444613881649 -0.25834262822693399 0 -0.077955776651182085 -0.24454236002529731 0 -0.025857267464119819 -0.25506418495113531 0 -0.050191684441297867 -0.2485850187836515 0 -0.034199021844566052 -0.25740496373097072 0 -0.056939497423126581 -0.24878681181634871 0 -0.034199021844566052 -0.25740496373097072 0 -0.041398382443623198 -0.25192549838374201 0 -0.056939497423126581 -0.24878681181634871 0 -0.041398382443623198 -0.25192549838374201 0 -0.025857267464119819 -0.25506418495113531 0 -0.050191684441297867 -0.2485850187836515 0 -0.034199021844566052 -0.25740496373097072 0 -0.048255079716108998 -0.25800015923011232 0 -0.056939497423126581 -0.24878681181634871 0 -0.034199021844566052 -0.25740496373097072 0 -0.041398382443623198 -0.25192549838374201 0 -0.025857267464119819 -0.25506418495113531 0 -0.041398382443623198 -0.25192549838374201 0 -0.025857267464119819 -0.25506418495113531 0 -0.034199021844566052 -0.25740496373097072 0 -0.037307574571523318 -0.26201401924185519 0 -0.024854767991187229 -0.26705994663832661 0 -0.037307574571523318 -0.26201401924185519 0 -0.048255079716108998 -0.25800015923011232 0 -0.046606779304586107 -0.26584835010199509 0 -0.034199021844566052 -0.25740496373097072 0 -0.037307574571523318 -0.26201401924185519 0 -0.048255079716108998 -0.25800015923011232 0 -0.05702546769870083 -0.25851025446459042 0 -0.048255079716108998 -0.25800015923011232 0 -0.056939497423126581 -0.24878681181634871 0 -0.041398382443623198 -0.25192549838374201 0 -0.056939497423126581 -0.24878681181634871 0 -0.067161912638977472 -0.25903173736147111 0 -0.05702546769870083 -0.25851025446459042 0 -0.056939497423126581 -0.24878681181634871 0 -0.067161912638977472 -0.25903173736147111 0 -0.05702546769870083 -0.25851025446459042 0 -0.055745381016590281 -0.2682223094504298 0 -0.05702546769870083 -0.25851025446459042 0 -0.048255079716108998 -0.25800015923011232 0 -0.055745381016590281 -0.2682223094504298 0 -0.048255079716108998 -0.25800015923011232 0 -0.055745381016590281 -0.2682223094504298 0 -0.046606779304586107 -0.26584835010199509 0 -0.055745381016590281 -0.2682223094504298 0 -0.045119081914121867 -0.27515691248558288 0 -0.046606779304586107 -0.26584835010199509 0 -0.055745381016590281 -0.2682223094504298 0 -0.045119081914121867 -0.27515691248558288 0 -0.057136779716869042 -0.28712205926022771 0 -0.072744725061100565 -0.27289296274949931 0 -0.055745381016590281 -0.2682223094504298 0 -0.057136779716869042 -0.28712205926022771 0 -0.037307574571523318 -0.26201401924185519 0 -0.034478529498429812 -0.28951379058442123 0 -0.037307574571523318 -0.26201401924185519 0 -0.034478529498429812 -0.28951379058442123 0 -0.024854767991187229 -0.26705994663832661 0 -0.037307574571523318 -0.26201401924185519 0 -0.045119081914121867 -0.27515691248558288 0 -0.034478529498429812 -0.28951379058442123 0 -0.037307574571523318 -0.26201401924185519 0 -0.045119081914121867 -0.27515691248558288 0 -0.046606779304586107 -0.26584835010199509 0 -0.045119081914121867 -0.27515691248558288 0 -0.034478529498429812 -0.28951379058442123 0 -0.057136779716869042 -0.28712205926022771 0 -0.034478529498429812 -0.28951379058442123 0 -0.057136779716869042 -0.28712205926022771 0 -0.05012745319326059 -0.30445945297878008 0 -0.066237696895848033 -0.30175990202967712 0 -0.05012745319326059 -0.30445945297878008 0 -0.060613113796085999 -0.32288269869712272 0 -0.066237696895848033 -0.30175990202967712 0 -0.057136779716869042 -0.28712205926022771 0 -0.05012745319326059 -0.30445945297878008 0 -0.034478529498429812 -0.28951379058442123 0 -0.05012745319326059 -0.30445945297878008 0 -0.031649484425336299 -0.31701356192698721 0 -0.034478529498429812 -0.28951379058442123 0 -0.031649484425336299 -0.31701356192698721 0 -0.034478529498429812 -0.28951379058442123 0 -0.020284114256294641 -0.29759304008048471 0 -0.031649484425336299 -0.31701356192698721 0 -0.020284114256294641 -0.29759304008048471 0 -0.01007927323019326 -0.3103345258507364 0 -0.031649484425336299 -0.31701356192698721 0 -0.020284114256294641 -0.29759304008048471 0 -0.01007927323019326 -0.3103345258507364 0 -0.0080748459131490501 -0.2914060437848453 0 -0.01007927323019326 -0.3103345258507364 0 -0.0080748459131490501 -0.2914060437848453 0 0.0017563221397047381 -0.2997067901486577 0 -0.020284114256294641 -0.29759304008048471 0 -0.0080748459131490501 -0.2914060437848453 0 -0.017138438214364771 -0.27969727825543328 0 -0.0080748459131490501 -0.2914060437848453 0 -0.002848760243290064 -0.27761611820401882 0 0.0066437179820165657 -0.2861171845936395 0 -0.0080748459131490501 -0.2914060437848453 0 -0.017138438214364771 -0.27969727825543328 0 -0.002848760243290064 -0.27761611820401882 0 -0.034478529498429812 -0.28951379058442123 0 -0.020284114256294641 -0.29759304008048471 0 -0.017138438214364771 -0.27969727825543328 0 -0.034478529498429812 -0.28951379058442123 0 -0.024854767991187229 -0.26705994663832661 0 -0.017138438214364771 -0.27969727825543328 0 -0.024854767991187229 -0.26705994663832661 0 -0.01588915841142927 -0.27169793716392882 0 -0.01145854626600548 -0.26602311564559261 0 -0.024854767991187229 -0.26705994663832661 0 -0.01588915841142927 -0.27169793716392882 0 -0.017138438214364771 -0.27969727825543328 0 -0.017138438214364771 -0.27969727825543328 0 -0.011833725783772399 -0.27375861231724341 0 -0.002848760243290064 -0.27761611820401882 0 -0.01145854626600548 -0.26602311564559261 0 0.01128192931255503 -0.27464126756021451 0 -0.002848760243290064 -0.27761611820401882 0 -0.01145854626600548 -0.26602311564559261 0 0.01128192931255503 -0.27464126756021451 0 -0.01588915841142927 -0.27169793716392882 0 -0.017138438214364771 -0.27969727825543328 0 -0.011833725783772399 -0.27375861231724341 0 -0.011833725783772399 -0.27375861231724341 0 -0.002848760243290064 -0.27761611820401882 0 -0.01145854626600548 -0.26602311564559261 0 -0.01588915841142927 -0.27169793716392882 0 -0.011833725783772399 -0.27375861231724341 0 -0.01145854626600548 -0.26602311564559261 0 -0.01269776775011346 -0.25850600500130039 0 -0.0051360078472848583 -0.25701396995817721 0 0.0057158633005241696 -0.26337829885565528 0 -0.01145854626600548 -0.26602311564559261 0 -0.01269776775011346 -0.25850600500130039 0 0.0057158633005241696 -0.26337829885565528 0 -0.01269776775011346 -0.25850600500130039 0 0.0057158633005241696 -0.26337829885565528 0 -0.0009620894167222515 -0.25496392916579452 0 -0.0051360078472848583 -0.25701396995817721 0 0.0057158633005241696 -0.26337829885565528 0 -0.0071971320314794382 -0.2528457057960789 0 -0.01082738352359053 -0.24876902592697839 0 -0.0029313858115674811 -0.24854412401401971 0 -0.0009620894167222515 -0.25496392916579452 0 -0.0071971320314794382 -0.2528457057960789 0 -0.0029313858115674811 -0.24854412401401971 0 -0.0009620894167222515 -0.25496392916579452 0 -0.0051360078472848583 -0.25701396995817721 0 -0.0071971320314794382 -0.2528457057960789 0 -0.0051360078472848583 -0.25701396995817721 0 -0.0071971320314794382 -0.2528457057960789 0 -0.0094143843739788544 -0.25459574361389747 0 -0.0071971320314794382 -0.2528457057960789 0 -0.0094143843739788544 -0.25459574361389747 0 -0.01082738352359053 -0.24876902592697839 0 -0.01269776775011346 -0.25850600500130039 0 -0.0094143843739788544 -0.25459574361389747 0 -0.01082738352359053 -0.24876902592697839 0 -0.01269776775011346 -0.25850600500130039 0 -0.0051360078472848583 -0.25701396995817721 0 -0.0094143843739788544 -0.25459574361389747 0 -0.01269776775011346 -0.25850600500130039 0 -0.025857267464119819 -0.25506418495113531 0 -0.034199021844566052 -0.25740496373097072 0 -0.01145854626600548 -0.26602311564559261 0 -0.025857267464119819 -0.25506418495113531 0 -0.01269776775011346 -0.25850600500130039 0 -0.025857267464119819 -0.25506418495113531 0 -0.02368513365757598 -0.23851275990414511 0 -0.034199021844566052 -0.25740496373097072 0 -0.024854767991187229 -0.26705994663832661 0 -0.01145854626600548 -0.26602311564559261 0 -0.034199021844566052 -0.25740496373097072 0 -0.01145854626600548 -0.26602311564559261 0 -0.01145854626600548 -0.26602311564559261 0 -0.01269776775011346 -0.25850600500130039 0 -0.025857267464119819 -0.25506418495113531 0 -0.046940286889098168 -0.35955036210978841 0 -0.050269733973634309 -0.3392354021108881 0 -0.02882043935224279 -0.34451333326955308 0 -0.046940286889098168 -0.35955036210978841 0 -0.02882043935224279 -0.34451333326955308 0 -0.026419717968229769 -0.36867473508972981 0 -0.046940286889098168 -0.35955036210978841 0 -0.026419717968229769 -0.36867473508972981 0 -0.046935058978613817 -0.3783756837809118 0 -0.065890469742167113 -0.37350781086095058 0 -0.046940286889098168 -0.35955036210978841 0 -0.046935058978613817 -0.3783756837809118 0 -0.063306301319701316 -0.35299520754669739 0 -0.065890469742167113 -0.37350781086095058 0 -0.046940286889098168 -0.35955036210978841 0 -0.063306301319701316 -0.35299520754669739 0 -0.046940286889098168 -0.35955036210978841 0 -0.050269733973634309 -0.3392354021108881 0 -0.073144777225565616 -0.33606175945158517 0 -0.063306301319701316 -0.35299520754669739 0 -0.050269733973634309 -0.3392354021108881 0 -0.073144777225565616 -0.33606175945158517 0 -0.050269733973634309 -0.3392354021108881 0 -0.060613113796085999 -0.32288269869712272 0 -0.050269733973634309 -0.3392354021108881 0 -0.060613113796085999 -0.32288269869712272 0 -0.031649484425336299 -0.31701356192698721 0 -0.05012745319326059 -0.30445945297878008 0 -0.060613113796085999 -0.32288269869712272 0 -0.031649484425336299 -0.31701356192698721 0 -0.050269733973634309 -0.3392354021108881 0 -0.031649484425336299 -0.31701356192698721 0 -0.02882043935224279 -0.34451333326955308 0 -0.031649484425336299 -0.31701356192698721 0 -0.02882043935224279 -0.34451333326955308 0 -0.031649484425336299 -0.31701356192698721 0 -0.0038616663111063101 -0.33241552487502413 0 -0.02882043935224279 -0.34451333326955308 0 -0.01007927323019326 -0.3103345258507364 0 -0.031649484425336299 -0.31701356192698721 0 -0.0038616663111063101 -0.33241552487502413 0 -0.01007927323019326 -0.3103345258507364 0 -0.0038616663111063101 -0.33241552487502413 0 0.0094652366165251054 -0.31053241408104548 0 -0.0038616663111063101 -0.33241552487502413 0 -0.0043130761299947744 -0.35643483176966217 0 -0.02882043935224279 -0.34451333326955308 0 -0.0043130761299947744 -0.35643483176966217 0 -0.02882043935224279 -0.34451333326955308 0 -0.026419717968229769 -0.36867473508972981 0 -0.0043130761299947744 -0.35643483176966217 0 -0.026419717968229769 -0.36867473508972981 0 -0.0064694903547723136 -0.38059021958606692 0 -0.0064694903547723136 -0.38059021958606692 0 -0.0080625817845775948 -0.40608726553411861 0 -0.026496984295852101 -0.39226102623928111 0 -0.0064694903547723136 -0.38059021958606692 0 -0.0080625817845775948 -0.40608726553411861 0 0.009690974369139977 -0.39295199195252922 0 -0.0080625817845775948 -0.40608726553411861 0 -0.026496984295852101 -0.39226102623928111 0 -0.029852467816379728 -0.41236872525256307 0 -0.026419717968229769 -0.36867473508972981 0 -0.0064694903547723136 -0.38059021958606692 0 -0.026496984295852101 -0.39226102623928111 0 -0.026496984295852101 -0.39226102623928111 0 -0.048213792324517578 -0.39768762776665978 0 -0.046935058978613817 -0.3783756837809118 0 -0.026419717968229769 -0.36867473508972981 0 -0.026496984295852101 -0.39226102623928111 0 -0.046935058978613817 -0.3783756837809118 0 -0.026496984295852101 -0.39226102623928111 0 -0.048213792324517578 -0.39768762776665978 0 -0.029852467816379728 -0.41236872525256307 0 -0.048213792324517578 -0.39768762776665978 0 -0.065379196062645584 -0.39052657147488062 0 -0.06528413140028641 -0.40548789039177052 0 -0.048213792324517578 -0.39768762776665978 0 -0.046935058978613817 -0.3783756837809118 0 -0.065379196062645584 -0.39052657147488062 0 -0.065890469742167113 -0.37350781086095058 0 -0.046935058978613817 -0.3783756837809118 0 -0.065379196062645584 -0.39052657147488062 0 -0.052630130657334448 -0.42871109396582502 0 -0.036803499053157718 -0.43392585985635063 0 -0.055908543568221357 -0.44353945242809251 0 -0.052630130657334448 -0.42871109396582502 0 -0.048282499091199083 -0.41684649723306111 0 -0.065713266975248902 -0.42040157794015642 0 -0.052630130657334448 -0.42871109396582502 0 -0.055908543568221357 -0.44353945242809251 0 -0.077753046024815156 -0.43509142098737241 0 -0.048282499091199083 -0.41684649723306111 0 -0.06528413140028641 -0.40548789039177052 0 -0.065713266975248902 -0.42040157794015642 0 -0.048213792324517578 -0.39768762776665978 0 -0.048282499091199083 -0.41684649723306111 0 -0.06528413140028641 -0.40548789039177052 0 -0.048213792324517578 -0.39768762776665978 0 -0.048282499091199083 -0.41684649723306111 0 -0.029852467816379728 -0.41236872525256307 0 -0.048282499091199083 -0.41684649723306111 0 -0.036803499053157718 -0.43392585985635063 0 -0.029852467816379728 -0.41236872525256307 0 -0.052630130657334448 -0.42871109396582502 0 -0.048282499091199083 -0.41684649723306111 0 -0.036803499053157718 -0.43392585985635063 0 -0.036803499053157718 -0.43392585985635063 0 -0.01686747062211669 -0.42668809062348251 0 -0.022482277956740859 -0.44034230556013138 0 -0.036803499053157718 -0.43392585985635063 0 -0.01686747062211669 -0.42668809062348251 0 -0.029852467816379728 -0.41236872525256307 0 -0.0080625817845775948 -0.40608726553411861 0 -0.01686747062211669 -0.42668809062348251 0 -0.029852467816379728 -0.41236872525256307 0 -0.0080625817845775948 -0.40608726553411861 0 -0.01686747062211669 -0.42668809062348251 0 0.01224976062295041 -0.42183763890738629 0 -0.01686747062211669 -0.42668809062348251 0 -0.008216644178786571 -0.4466179140804285 0 0.01224976062295041 -0.42183763890738629 0 -0.008216644178786571 -0.4466179140804285 0 -0.0021957942935651631 -0.46571035637089769 0 -0.016151777162071251 -0.46269316979172348 0 -0.0021957942935651631 -0.46571035637089769 0 -0.016151777162071251 -0.46269316979172348 0 -0.01292321871024151 -0.47600360382280887 0 -0.008216644178786571 -0.4466179140804285 0 -0.016151777162071251 -0.46269316979172348 0 -0.028753682251359231 -0.45370767630375852 0 -0.016151777162071251 -0.46269316979172348 0 -0.030722049445265721 -0.46513815794063051 0 -0.025757536927686689 -0.47561542944709773 0 -0.016151777162071251 -0.46269316979172348 0 -0.030722049445265721 -0.46513815794063051 0 -0.028753682251359231 -0.45370767630375852 0 -0.036803499053157718 -0.43392585985635063 0 -0.028753682251359231 -0.45370767630375852 0 -0.022482277956740859 -0.44034230556013138 0 -0.01686747062211669 -0.42668809062348251 0 -0.008216644178786571 -0.4466179140804285 0 -0.022482277956740859 -0.44034230556013138 0 -0.008216644178786571 -0.4466179140804285 0 -0.028753682251359231 -0.45370767630375852 0 -0.022482277956740859 -0.44034230556013138 0 -0.011489863113854141 -0.5 0 -0.010144146689038991 -0.48941639725935437 0 0.012735562036971701 -0.48508522326900949 0 -0.010144146689038991 -0.48941639725935437 0 -0.00065605929082254884 -0.47874224407546379 0 -0.01292321871024151 -0.47600360382280887 0 -0.010144146689038991 -0.48941639725935437 0 -0.01292321871024151 -0.47600360382280887 0 -0.022633997898264431 -0.48384402599231691 0 -0.0021957942935651631 -0.46571035637089769 0 -0.00065605929082254884 -0.47874224407546379 0 -0.01292321871024151 -0.47600360382280887 0 -0.016151777162071251 -0.46269316979172348 0 -0.01292321871024151 -0.47600360382280887 0 -0.025757536927686689 -0.47561542944709773 0 -0.025757536927686689 -0.47561542944709773 0 -0.022633997898264431 -0.48384402599231691 0 -0.032724513000240443 -0.48384135401243772 0 -0.01292321871024151 -0.47600360382280887 0 -0.025757536927686689 -0.47561542944709773 0 -0.022633997898264431 -0.48384402599231691 0 -0.011489863113854141 -0.5 0 -0.010144146689038991 -0.48941639725935437 0 -0.033023855415049652 -0.49374757124969931 0 -0.010144146689038991 -0.48941639725935437 0 -0.022633997898264431 -0.48384402599231691 0 -0.033023855415049652 -0.49374757124969931 0 -0.011489863113854141 -0.5 0 -0.041002190054857779 -0.5 0 -0.033023855415049652 -0.49374757124969931 0 -0.010144146689038991 -0.48941639725935437 0 -0.033023855415049652 -0.49374757124969931 0 -0.022633997898264431 -0.48384402599231691 0 -0.033023855415049652 -0.49374757124969931 0 -0.032724513000240443 -0.48384135401243772 0 -0.041002190054857779 -0.5 0 -0.040644419244316249 -0.48874723383863622 0 -0.055758353525359711 -0.48944453406372251 0 -0.041002190054857779 -0.5 0 -0.033023855415049652 -0.49374757124969931 0 -0.040644419244316249 -0.48874723383863622 0 -0.033023855415049652 -0.49374757124969931 0 -0.040644419244316249 -0.48874723383863622 0 -0.032724513000240443 -0.48384135401243772 0 -0.040644419244316249 -0.48874723383863622 0 -0.040713184226073652 -0.47670270986732172 0 -0.055758353525359711 -0.48944453406372251 0 -0.040644419244316249 -0.48874723383863622 0 -0.040713184226073652 -0.47670270986732172 0 -0.032724513000240443 -0.48384135401243772 0 -0.025757536927686689 -0.47561542944709773 0 -0.040713184226073652 -0.47670270986732172 0 -0.032724513000240443 -0.48384135401243772 0 -0.030722049445265721 -0.46513815794063051 0 -0.025757536927686689 -0.47561542944709773 0 -0.040713184226073652 -0.47670270986732172 0 -0.040713184226073652 -0.47670270986732172 0 -0.05604151524233808 -0.47085547185542692 0 -0.042137987481662489 -0.46199998676314519 0 -0.040713184226073652 -0.47670270986732172 0 -0.05604151524233808 -0.47085547185542692 0 -0.055758353525359711 -0.48944453406372251 0 -0.05604151524233808 -0.47085547185542692 0 -0.055758353525359711 -0.48944453406372251 0 -0.068357021366280857 -0.47830767763467641 0 -0.041002190054857779 -0.5 0 -0.055758353525359711 -0.48944453406372251 0 -0.070514516995861642 -0.5 0 -0.036803499053157718 -0.43392585985635063 0 -0.028753682251359231 -0.45370767630375852 0 -0.042591220718736618 -0.44931976272637059 0 -0.036803499053157718 -0.43392585985635063 0 -0.042591220718736618 -0.44931976272637059 0 -0.055908543568221357 -0.44353945242809251 0 -0.028753682251359231 -0.45370767630375852 0 -0.042591220718736618 -0.44931976272637059 0 -0.042137987481662489 -0.46199998676314519 0 -0.030722049445265721 -0.46513815794063051 0 -0.028753682251359231 -0.45370767630375852 0 -0.042137987481662489 -0.46199998676314519 0 -0.030722049445265721 -0.46513815794063051 0 -0.040713184226073652 -0.47670270986732172 0 -0.042137987481662489 -0.46199998676314519 0 -0.042591220718736618 -0.44931976272637059 0 -0.042137987481662489 -0.46199998676314519 0 -0.054601469153056192 -0.45704509188174619 0 -0.05604151524233808 -0.47085547185542692 0 -0.054601469153056192 -0.45704509188174619 0 -0.071896784036839162 -0.45711427830285839 0 -0.05604151524233808 -0.47085547185542692 0 -0.042137987481662489 -0.46199998676314519 0 -0.054601469153056192 -0.45704509188174619 0 -0.054601469153056192 -0.45704509188174619 0 -0.055908543568221357 -0.44353945242809251 0 -0.071896784036839162 -0.45711427830285839 0 -0.042591220718736618 -0.44931976272637059 0 -0.054601469153056192 -0.45704509188174619 0 -0.055908543568221357 -0.44353945242809251 0 -0.055908543568221357 -0.44353945242809251 0 -0.071896784036839162 -0.45711427830285839 0 -0.077753046024815156 -0.43509142098737241 0 -0.071896784036839162 -0.45711427830285839 0 -0.087573937031005744 -0.47412410395137422 0 -0.093954286744555499 -0.45179652052777369 0 -0.087573937031005744 -0.47412410395137422 0 -0.093954286744555499 -0.45179652052777369 0 -0.071896784036839162 -0.45711427830285839 0 -0.093954286744555499 -0.45179652052777369 0 -0.077753046024815156 -0.43509142098737241 0 -0.093954286744555499 -0.45179652052777369 0 -0.10033463645810529 -0.42946893710417328 0 -0.077753046024815156 -0.43509142098737241 0 -0.055758353525359711 -0.48944453406372251 0 -0.070514516995861642 -0.5 0 -0.068357021366280857 -0.47830767763467641 0 -0.05604151524233808 -0.47085547185542692 0 -0.071896784036839162 -0.45711427830285839 0 -0.068357021366280857 -0.47830767763467641 0 -0.071896784036839162 -0.45711427830285839 0 -0.068357021366280857 -0.47830767763467641 0 -0.087573937031005744 -0.47412410395137422 0 -0.070514516995861642 -0.5 0 -0.068357021366280857 -0.47830767763467641 0 -0.087573937031005744 -0.47412410395137422 0 -0.070514516995861642 -0.5 0 -0.087573937031005744 -0.47412410395137422 0 -0.10002684393686551 -0.5 0 -0.087573937031005744 -0.47412410395137422 0 -0.10002684393686551 -0.5 0 -0.10780494223314389 -0.47765854937150709 0 -0.087573937031005744 -0.47412410395137422 0 -0.10780494223314389 -0.47765854937150709 0 -0.1029954147344513 -0.46359439800738522 0 -0.12605423818426559 -0.48707922202292669 0 -0.10780494223314389 -0.47765854937150709 0 -0.1201929706126502 -0.46127799294672761 0 -0.12605423818426559 -0.48707922202292669 0 -0.1201929706126502 -0.46127799294672761 0 -0.12605423818426559 -0.48707922202292669 0 -0.10002684393686551 -0.5 0 -0.10780494223314389 -0.47765854937150709 0 -0.1295391708778694 -0.5 0 -0.12605423818426559 -0.48707922202292669 0 -0.10002684393686551 -0.5 0 -0.093954286744555499 -0.45179652052777369 0 -0.10033463645810529 -0.42946893710417328 0 -0.10636180231815941 -0.44832292249131772 0 -0.11433170304103479 -0.43547676387052858 0 -0.10033463645810529 -0.42946893710417328 0 -0.10636180231815941 -0.44832292249131772 0 -0.093954286744555499 -0.45179652052777369 0 -0.10033463645810529 -0.42946893710417328 0 -0.087573937031005744 -0.47412410395137422 0 -0.093954286744555499 -0.45179652052777369 0 -0.1029954147344513 -0.46359439800738522 0 -0.10636180231815941 -0.44832292249131772 0 -0.093954286744555499 -0.45179652052777369 0 -0.1029954147344513 -0.46359439800738522 0 -0.10780494223314389 -0.47765854937150709 0 -0.1029954147344513 -0.46359439800738522 0 -0.1201929706126502 -0.46127799294672761 0 -0.10636180231815941 -0.44832292249131772 0 -0.1029954147344513 -0.46359439800738522 0 -0.1201929706126502 -0.46127799294672761 0 -0.13671083813600751 -0.45044361347006462 0 -0.1201929706126502 -0.46127799294672761 0 -0.11433170304103479 -0.43547676387052858 0 -0.10636180231815941 -0.44832292249131772 0 -0.1201929706126502 -0.46127799294672761 0 -0.11433170304103479 -0.43547676387052858 0 -0.13671083813600751 -0.45044361347006462 0 -0.1225906368027144 -0.43005957413219659 0 -0.11433170304103479 -0.43547676387052858 0 -0.1201929706126502 -0.46127799294672761 0 -0.11433170304103479 -0.43547676387052858 0 -0.1225906368027144 -0.43005957413219659 0 -0.11433170304103479 -0.43547676387052858 0 -0.10847043546942051 -0.40967553479432928 0 -0.11433170304103479 -0.43547676387052858 0 -0.10847043546942051 -0.40967553479432928 0 -0.12908399078123631 -0.42243277819987513 0 -0.1225906368027144 -0.43005957413219659 0 -0.12315425937001 -0.41747458531602638 0 -0.11433170304103479 -0.43547676387052858 0 -0.10033463645810529 -0.42946893710417328 0 -0.10847043546942051 -0.40967553479432928 0 -0.10033463645810529 -0.42946893710417328 0 -0.094107383989168333 -0.41562629379671062 0 -0.1067149861716557 -0.40714135368057303 0 -0.10033463645810529 -0.42946893710417328 0 -0.1067149861716557 -0.40714135368057303 0 -0.10847043546942051 -0.40967553479432928 0 -0.10033463645810529 -0.42946893710417328 0 -0.1067149861716557 -0.40714135368057303 0 -0.094107383989168333 -0.41562629379671062 0 -0.1067149861716557 -0.40714135368057303 0 -0.093615658715422545 -0.40476526464288082 0 -0.10847043546942051 -0.40967553479432928 0 -0.1105756132387118 -0.40676785322215941 0 -0.1073722461642546 -0.40484131873350049 0 -0.10847043546942051 -0.40967553479432928 0 -0.1073722461642546 -0.40484131873350049 0 -0.1067149861716557 -0.40714135368057303 0 -0.10847043546942051 -0.40967553479432928 0 -0.1073722461642546 -0.40484131873350049 0 -0.1067149861716557 -0.40714135368057303 0 -0.10847043546942051 -0.40967553479432928 0 -0.1225906368027144 -0.43005957413219659 0 -0.1163272184937543 -0.41351727508190028 0 -0.12315425937001 -0.41747458531602638 0 -0.10847043546942051 -0.40967553479432928 0 -0.1125412123036873 -0.40894162881917728 0 -0.1163272184937543 -0.41351727508190028 0 -0.1125412123036873 -0.40894162881917728 0 -0.1105756132387118 -0.40676785322215941 0 -0.1147915820128618 -0.40580585217832088 0 -0.1225906368027144 -0.43005957413219659 0 -0.10847043546942051 -0.40967553479432928 0 -0.1163272184937543 -0.41351727508190028 0 -0.10847043546942051 -0.40967553479432928 0 -0.1125412123036873 -0.40894162881917728 0 -0.1105756132387118 -0.40676785322215941 0 -0.1225906368027144 -0.43005957413219659 0 -0.10847043546942051 -0.40967553479432928 0 -0.1125412123036873 -0.40894162881917728 0 -0.1163272184937543 -0.41351727508190028 0 -0.1147915820128618 -0.40580585217832088 0 -0.1225700411049412 -0.40994677461386392 0 -0.1219584454402414 -0.40406961642135292 0 -0.1147915820128618 -0.40580585217832088 0 -0.1163272184937543 -0.41351727508190028 0 -0.1225700411049412 -0.40994677461386392 0 -0.1147915820128618 -0.40580585217832088 0 -0.1163272184937543 -0.41351727508190028 0 -0.12315425937001 -0.41747458531602638 0 -0.1225700411049412 -0.40994677461386392 0 -0.1273295258527142 -0.39594401256049883 0 -0.1219584454402414 -0.40406961642135292 0 -0.1190781430676657 -0.39944145851713192 0 -0.11305295545189779 -0.39895005080087959 0 -0.11384267237711319 -0.38219851895920232 0 -0.1073722461642546 -0.40484131873350049 0 -0.1295768038857959 -0.40463739140698729 0 -0.1225700411049412 -0.40994677461386392 0 -0.1219584454402414 -0.40406961642135292 0 -0.1182582065806136 -0.392437760624607 0 -0.11305295545189779 -0.39895005080087959 0 -0.11384267237711319 -0.38219851895920232 0 -0.11384267237711319 -0.38219851895920232 0 -0.1073722461642546 -0.40484131873350049 0 -0.1219584454402414 -0.40406961642135292 0 -0.1190781430676657 -0.39944145851713192 0 -0.1147915820128618 -0.40580585217832088 0 -0.1273295258527142 -0.39594401256049883 0 -0.1190781430676657 -0.39944145851713192 0 -0.1182582065806136 -0.392437760624607 0 -0.1190781430676657 -0.39944145851713192 0 -0.1182582065806136 -0.392437760624607 0 -0.11305295545189779 -0.39895005080087959 0 -0.1105756132387118 -0.40676785322215941 0 -0.1114480992169309 -0.40409126873371493 0 -0.1073722461642546 -0.40484131873350049 0 -0.1105756132387118 -0.40676785322215941 0 -0.1114480992169309 -0.40409126873371493 0 -0.1147915820128618 -0.40580585217832088 0 -0.11305295545189779 -0.39895005080087959 0 -0.1114480992169309 -0.40409126873371493 0 -0.1147915820128618 -0.40580585217832088 0 -0.11305295545189779 -0.39895005080087959 0 -0.1114480992169309 -0.40409126873371493 0 -0.1073722461642546 -0.40484131873350049 0 -0.1190781430676657 -0.39944145851713192 0 -0.11305295545189779 -0.39895005080087959 0 -0.1147915820128618 -0.40580585217832088 0 -0.12625141541498519 -0.38197991289387551 0 -0.1182582065806136 -0.392437760624607 0 -0.11384267237711319 -0.38219851895920232 0 -0.12625141541498519 -0.38197991289387551 0 -0.1273295258527142 -0.39594401256049883 0 -0.1182582065806136 -0.392437760624607 0 -0.11384267237711319 -0.38219851895920232 0 -0.10176491866177829 -0.38015793077534599 0 -0.1073722461642546 -0.40484131873350049 0 -0.10176491866177829 -0.38015793077534599 0 -0.095995502779844255 -0.39166661886747001 0 -0.085276019388031976 -0.37619188405436782 0 -0.10849363524981311 -0.36442991456039969 0 -0.11384267237711319 -0.38219851895920232 0 -0.10176491866177829 -0.38015793077534599 0 -0.10176491866177829 -0.38015793077534599 0 -0.1073722461642546 -0.40484131873350049 0 -0.095995502779844255 -0.39166661886747001 0 -0.10176491866177829 -0.38015793077534599 0 -0.1073722461642546 -0.40484131873350049 0 -0.1067149861716557 -0.40714135368057303 0 -0.1073722461642546 -0.40484131873350049 0 -0.095995502779844255 -0.39166661886747001 0 -0.1067149861716557 -0.40714135368057303 0 -0.1073722461642546 -0.40484131873350049 0 -0.1067149861716557 -0.40714135368057303 0 -0.095995502779844255 -0.39166661886747001 0 -0.1067149861716557 -0.40714135368057303 0 -0.095995502779844255 -0.39166661886747001 0 -0.093615658715422545 -0.40476526464288082 0 -0.093615658715422545 -0.40476526464288082 0 -0.081664681120336771 -0.39582842074610342 0 -0.082451352827770552 -0.41163664718976212 0 -0.095995502779844255 -0.39166661886747001 0 -0.093615658715422545 -0.40476526464288082 0 -0.081664681120336771 -0.39582842074610342 0 -0.095995502779844255 -0.39166661886747001 0 -0.081664681120336771 -0.39582842074610342 0 -0.085276019388031976 -0.37619188405436782 0 -0.081664681120336771 -0.39582842074610342 0 -0.085276019388031976 -0.37619188405436782 0 -0.074552591578295357 -0.38401367178407558 0 -0.095995502779844255 -0.39166661886747001 0 -0.085276019388031976 -0.37619188405436782 0 -0.081664681120336771 -0.39582842074610342 0 -0.065379196062645584 -0.39052657147488062 0 -0.074552591578295357 -0.38401367178407558 0 -0.065890469742167113 -0.37350781086095058 0 -0.085276019388031976 -0.37619188405436782 0 -0.074552591578295357 -0.38401367178407558 0 -0.065890469742167113 -0.37350781086095058 0 -0.065379196062645584 -0.39052657147488062 0 -0.074552591578295357 -0.38401367178407558 0 -0.081664681120336771 -0.39582842074610342 0 -0.06528413140028641 -0.40548789039177052 0 -0.082451352827770552 -0.41163664718976212 0 -0.081664681120336771 -0.39582842074610342 0 -0.065379196062645584 -0.39052657147488062 0 -0.06528413140028641 -0.40548789039177052 0 -0.065713266975248902 -0.42040157794015642 0 -0.085028608260126398 -0.42320905853578622 0 -0.082451352827770552 -0.41163664718976212 0 -0.06528413140028641 -0.40548789039177052 0 -0.065713266975248902 -0.42040157794015642 0 -0.082451352827770552 -0.41163664718976212 0 -0.065713266975248902 -0.42040157794015642 0 -0.077753046024815156 -0.43509142098737241 0 -0.085028608260126398 -0.42320905853578622 0 -0.052630130657334448 -0.42871109396582502 0 -0.065713266975248902 -0.42040157794015642 0 -0.077753046024815156 -0.43509142098737241 0 -0.10033463645810529 -0.42946893710417328 0 -0.077753046024815156 -0.43509142098737241 0 -0.085028608260126398 -0.42320905853578622 0 -0.10033463645810529 -0.42946893710417328 0 -0.094107383989168333 -0.41562629379671062 0 -0.085028608260126398 -0.42320905853578622 0 -0.094107383989168333 -0.41562629379671062 0 -0.085028608260126398 -0.42320905853578622 0 -0.082451352827770552 -0.41163664718976212 0 -0.094107383989168333 -0.41562629379671062 0 -0.093615658715422545 -0.40476526464288082 0 -0.082451352827770552 -0.41163664718976212 0 -0.080832567710134945 -0.085265223789800185 0 -0.09573268077664969 -0.090624673380050064 0 -0.094924188455715333 -0.074372309221374736 0 -0.080832567710134945 -0.085265223789800185 0 -0.0944050220014645 -0.1050702242089397 0 -0.09573268077664969 -0.090624673380050064 0 -0.094924188455715333 -0.074372309221374736 0 -0.077079431972146645 -0.050953682142663811 0 -0.080832567710134945 -0.085265223789800185 0 -0.077460787511610923 -0.070469280456870842 0 -0.094924188455715333 -0.074372309221374736 0 -0.077460787511610923 -0.070469280456870842 0 -0.094924188455715333 -0.074372309221374736 0 -0.078535685693175539 -0.061573663464548622 0 -0.080832567710134945 -0.085265223789800185 0 -0.072736864716213656 -0.076885636419884412 0 -0.077460787511610923 -0.070469280456870842 0 -0.072736864716213656 -0.076885636419884412 0 -0.077460787511610923 -0.070469280456870842 0 -0.067174029152377468 -0.071022972744677337 0 -0.077460787511610923 -0.070469280456870842 0 -0.067174029152377468 -0.071022972744677337 0 -0.070308423821052124 -0.061023041189074957 0 -0.077460787511610923 -0.070469280456870842 0 -0.078535685693175539 -0.061573663464548622 0 -0.070308423821052124 -0.061023041189074957 0 -0.067174029152377468 -0.071022972744677337 0 -0.070308423821052124 -0.061023041189074957 0 -0.060830035872249492 -0.064558057335980773 0 -0.072736864716213656 -0.076885636419884412 0 -0.067174029152377468 -0.071022972744677337 0 -0.063732237529271596 -0.080733089011810297 0 -0.067174029152377468 -0.071022972744677337 0 -0.063732237529271596 -0.080733089011810297 0 -0.058000192015007383 -0.073011667883306972 0 -0.080832567710134945 -0.085265223789800185 0 -0.063732237529271596 -0.080733089011810297 0 -0.066023591375222151 -0.09957098179305135 0 -0.080832567710134945 -0.085265223789800185 0 -0.072736864716213656 -0.076885636419884412 0 -0.063732237529271596 -0.080733089011810297 0 -0.066023591375222151 -0.09957098179305135 0 -0.069466171350113709 -0.1135628440840601 0 -0.0944050220014645 -0.1050702242089397 0 -0.066023591375222151 -0.09957098179305135 0 -0.069466171350113709 -0.1135628440840601 0 -0.054384952187449757 -0.110609208962567 0 -0.077516787342341589 -0.1242022911324857 0 -0.069466171350113709 -0.1135628440840601 0 -0.059238207921678762 -0.13024384051707169 0 -0.077516787342341589 -0.1242022911324857 0 -0.093262550211769629 -0.1231040070079162 0 -0.0944050220014645 -0.1050702242089397 0 -0.077516787342341589 -0.1242022911324857 0 -0.069466171350113709 -0.1135628440840601 0 -0.0944050220014645 -0.1050702242089397 0 -0.066023591375222151 -0.09957098179305135 0 -0.0944050220014645 -0.1050702242089397 0 -0.080832567710134945 -0.085265223789800185 0 -0.066023591375222151 -0.09957098179305135 0 -0.0944050220014645 -0.1050702242089397 0 -0.0944050220014645 -0.1050702242089397 0 -0.1071147179002416 -0.1244919901550422 0 -0.11276894493928399 -0.097790936300085646 0 -0.0944050220014645 -0.1050702242089397 0 -0.11276894493928399 -0.097790936300085646 0 -0.09573268077664969 -0.090624673380050064 0 -0.093262550211769629 -0.1231040070079162 0 -0.0944050220014645 -0.1050702242089397 0 -0.1071147179002416 -0.1244919901550422 0 -0.1071147179002416 -0.1244919901550422 0 -0.11276894493928399 -0.097790936300085646 0 -0.1306137014228527 -0.1212095633787966 0 -0.11276894493928399 -0.097790936300085646 0 -0.1306137014228527 -0.1212095633787966 0 -0.112702195828283 -0.076339248342475546 0 -0.13438499311011279 -0.096174695905308166 0 -0.11276894493928399 -0.097790936300085646 0 -0.112702195828283 -0.076339248342475546 0 -0.13438499311011279 -0.096174695905308166 0 -0.11276894493928399 -0.097790936300085646 0 -0.094924188455715333 -0.074372309221374736 0 -0.112702195828283 -0.076339248342475546 0 -0.11276894493928399 -0.097790936300085646 0 -0.094924188455715333 -0.074372309221374736 0 -0.11276894493928399 -0.097790936300085646 0 -0.09573268077664969 -0.090624673380050064 0 -0.094924188455715333 -0.074372309221374736 0 -0.094924188455715333 -0.074372309221374736 0 -0.1026030192468113 -0.064894788769428779 0 -0.112702195828283 -0.076339248342475546 0 -0.094924188455715333 -0.074372309221374736 0 -0.1026030192468113 -0.064894788769428779 0 -0.090333769324138391 -0.059362086744932152 0 -0.1026030192468113 -0.064894788769428779 0 -0.112702195828283 -0.076339248342475546 0 -0.1158705629695205 -0.060236298698018297 0 -0.112702195828283 -0.076339248342475546 0 -0.1158705629695205 -0.060236298698018297 0 -0.13497135686491851 -0.078315161523928284 0 -0.1158705629695205 -0.060236298698018297 0 -0.1150956899200111 -0.045830426672337207 0 -0.1070798181065768 -0.041876824406217303 0 -0.1158705629695205 -0.060236298698018297 0 -0.1150956899200111 -0.045830426672337207 0 -0.12809376798702951 -0.047905065599393698 0 -0.1163329610324388 -0.034474533447810513 0 -0.12530131535501859 -0.034952786400489197 0 -0.12809376798702951 -0.047905065599393698 0 -0.11023593420079281 -0.033339602888773932 0 -0.1150956899200111 -0.045830426672337207 0 -0.12809376798702951 -0.047905065599393698 0 -0.11023593420079281 -0.033339602888773932 0 -0.1163329610324388 -0.034474533447810513 0 -0.12809376798702951 -0.047905065599393698 0 -0.11023593420079281 -0.033339602888773932 0 -0.12809376798702951 -0.047905065599393698 0 -0.1163329610324388 -0.034474533447810513 0 -0.1221370268088495 -0.025998648103035 0 -0.12530131535501859 -0.034952786400489197 0 -0.11023593420079281 -0.033339602888773932 0 -0.1150956899200111 -0.045830426672337207 0 -0.1070798181065768 -0.041876824406217303 0 -0.11023593420079281 -0.033339602888773932 0 -0.1163329610324388 -0.034474533447810513 0 -0.097427134368436918 -0.027820357899848831 0 -0.11023593420079281 -0.033339602888773932 0 -0.1070798181065768 -0.041876824406217303 0 -0.097427134368436918 -0.027820357899848831 0 -0.1070798181065768 -0.041876824406217303 0 -0.096769769074122519 -0.04215743587210824 0 -0.097427134368436918 -0.027820357899848831 0 -0.1158705629695205 -0.060236298698018297 0 -0.1070798181065768 -0.041876824406217303 0 -0.096769769074122519 -0.04215743587210824 0 -0.1026030192468113 -0.064894788769428779 0 -0.1158705629695205 -0.060236298698018297 0 -0.099264754381345577 -0.055060356505970513 0 -0.1158705629695205 -0.060236298698018297 0 -0.096769769074122519 -0.04215743587210824 0 -0.099264754381345577 -0.055060356505970513 0 -0.096769769074122519 -0.04215743587210824 0 -0.099264754381345577 -0.055060356505970513 0 -0.090746651292135133 -0.048651172445365112 0 -0.1158705629695205 -0.060236298698018297 0 -0.096769769074122519 -0.04215743587210824 0 -0.1026030192468113 -0.064894788769428779 0 -0.099264754381345577 -0.055060356505970513 0 -0.090333769324138391 -0.059362086744932152 0 -0.1029392013539359 -0.0085751277431150782 0 -0.12735709500343681 0.004015926865657337 0 -0.1236693299605585 -0.0137973575501921 0 -0.1110604598185659 -0.0207882196779367 0 -0.1029392013539359 -0.0085751277431150782 0 -0.1236693299605585 -0.0137973575501921 0 -0.1029392013539359 -0.0085751277431150782 0 -0.12735709500343681 0.004015926865657337 0 -0.1236693299605585 -0.0137973575501921 0 -0.1110604598185659 -0.0207882196779367 0 -0.1221370268088495 -0.025998648103035 0 -0.1163329610324388 -0.034474533447810513 0 -0.1221370268088495 -0.025998648103035 0 -0.11173939550707281 -0.027270439782157759 0 -0.1110604598185659 -0.0207882196779367 0 -0.1221370268088495 -0.025998648103035 0 -0.11173939550707281 -0.027270439782157759 0 -0.1163329610324388 -0.034474533447810513 0 -0.097427134368436918 -0.027820357899848831 0 -0.1110604598185659 -0.0207882196779367 0 -0.097427134368436918 -0.027820357899848831 0 -0.1029392013539359 -0.0085751277431150782 0 -0.1163329610324388 -0.034474533447810513 0 -0.11173939550707281 -0.027270439782157759 0 -0.097427134368436918 -0.027820357899848831 0 -0.1110604598185659 -0.0207882196779367 0 -0.11173939550707281 -0.027270439782157759 0 -0.097427134368436918 -0.027820357899848831 0 -0.1029392013539359 -0.0085751277431150782 0 -0.086097875964997059 -0.0058870606910941042 0 -0.078521307704434995 -0.021166182351887271 0 -0.1029392013539359 -0.0085751277431150782 0 -0.078521307704434995 -0.021166182351887271 0 -0.1029392013539359 -0.0085751277431150782 0 -0.086097875964997059 -0.0058870606910941042 0 -0.091682611010439896 0.0063963380850077774 0 -0.086097875964997059 -0.0058870606910941042 0 -0.073830544796709738 -0.0078542708917730738 0 -0.078933949510919491 0.00072378658541613432 0 -0.086097875964997059 -0.0058870606910941042 0 -0.078521307704434995 -0.021166182351887271 0 -0.073830544796709738 -0.0078542708917730738 0 -0.097427134368436918 -0.027820357899848831 0 -0.078521307704434995 -0.021166182351887271 0 -0.097427134368436918 -0.027820357899848831 0 -0.078521307704434995 -0.021166182351887271 0 -0.077668975178724509 -0.024078573046198169 0 -0.097427134368436918 -0.027820357899848831 0 -0.1029392013539359 -0.0085751277431150782 0 -0.078521307704434995 -0.021166182351887271 0 -0.078521307704434995 -0.021166182351887271 0 -0.055132092173872667 -0.033226800447327051 0 -0.05822397002114936 -0.01402224463886402 0 -0.078521307704434995 -0.021166182351887271 0 -0.055132092173872667 -0.033226800447327051 0 -0.077668975178724509 -0.024078573046198169 0 -0.075465350998538308 -0.032772608828030472 0 -0.055132092173872667 -0.033226800447327051 0 -0.078521307704434995 -0.021166182351887271 0 -0.077668975178724509 -0.024078573046198169 0 -0.055132092173872667 -0.033226800447327051 0 -0.078521307704434995 -0.021166182351887271 0 -0.05822397002114936 -0.01402224463886402 0 -0.078521307704434995 -0.021166182351887271 0 -0.073830544796709738 -0.0078542708917730738 0 -0.05822397002114936 -0.01402224463886402 0 -0.073830544796709738 -0.0078542708917730738 0 -0.05822397002114936 -0.01402224463886402 0 -0.068462160169621672 0.0025537029525893409 0 -0.073830544796709738 -0.0078542708917730738 0 -0.078933949510919491 0.00072378658541613432 0 -0.068462160169621672 0.0025537029525893409 0 -0.094924188455715333 -0.074372309221374736 0 -0.090333769324138391 -0.059362086744932152 0 -0.077079431972146645 -0.050953682142663811 0 -0.094924188455715333 -0.074372309221374736 0 -0.078535685693175539 -0.061573663464548622 0 -0.077079431972146645 -0.050953682142663811 0 -0.084868245962835154 -0.053326759561897898 0 -0.090333769324138391 -0.059362086744932152 0 -0.077079431972146645 -0.050953682142663811 0 -0.084868245962835154 -0.053326759561897898 0 -0.080876314157704687 -0.04955372347343575 0 -0.082849096915408454 -0.045583035938281863 0 -0.080876314157704687 -0.04955372347343575 0 -0.078708481780428496 -0.048351416250899462 0 -0.082849096915408454 -0.045583035938281863 0 -0.080876314157704687 -0.04955372347343575 0 -0.078708481780428496 -0.048351416250899462 0 -0.077079431972146645 -0.050953682142663811 0 -0.084868245962835154 -0.053326759561897898 0 -0.080876314157704687 -0.04955372347343575 0 -0.077079431972146645 -0.050953682142663811 0 -0.084868245962835154 -0.053326759561897898 0 -0.090746651292135133 -0.048651172445365112 0 -0.082849096915408454 -0.045583035938281863 0 -0.084868245962835154 -0.053326759561897898 0 -0.090333769324138391 -0.059362086744932152 0 -0.090746651292135133 -0.048651172445365112 0 -0.099264754381345577 -0.055060356505970513 0 -0.090333769324138391 -0.059362086744932152 0 -0.090746651292135133 -0.048651172445365112 0 -0.096769769074122519 -0.04215743587210824 0 -0.088481073739883592 -0.043344290748051233 0 -0.083558777677868248 -0.036985518736449702 0 -0.096769769074122519 -0.04215743587210824 0 -0.097427134368436918 -0.027820357899848831 0 -0.077668975178724509 -0.024078573046198169 0 -0.096769769074122519 -0.04215743587210824 0 -0.077668975178724509 -0.024078573046198169 0 -0.083558777677868248 -0.036985518736449702 0 -0.096769769074122519 -0.04215743587210824 0 -0.077668975178724509 -0.024078573046198169 0 -0.090746651292135133 -0.048651172445365112 0 -0.088481073739883592 -0.043344290748051233 0 -0.082849096915408454 -0.045583035938281863 0 -0.096769769074122519 -0.04215743587210824 0 -0.090746651292135133 -0.048651172445365112 0 -0.088481073739883592 -0.043344290748051233 0 -0.077668975178724509 -0.024078573046198169 0 -0.083558777677868248 -0.036985518736449702 0 -0.075465350998538308 -0.032772608828030472 0 -0.083558777677868248 -0.036985518736449702 0 -0.082849096915408454 -0.045583035938281863 0 -0.075062618692292638 -0.040325846155841297 0 -0.088481073739883592 -0.043344290748051233 0 -0.083558777677868248 -0.036985518736449702 0 -0.082849096915408454 -0.045583035938281863 0 -0.082849096915408454 -0.045583035938281863 0 -0.078067002861142085 -0.04575568247049161 0 -0.075062618692292638 -0.040325846155841297 0 -0.078708481780428496 -0.048351416250899462 0 -0.082849096915408454 -0.045583035938281863 0 -0.078067002861142085 -0.04575568247049161 0 -0.075647814056438792 -0.048762431536943832 0 -0.055132092173872667 -0.033226800447327051 0 -0.078067002861142085 -0.04575568247049161 0 -0.075062618692292638 -0.040325846155841297 0 -0.075647814056438792 -0.048762431536943832 0 -0.075062618692292638 -0.040325846155841297 0 -0.075465350998538308 -0.032772608828030472 0 -0.055132092173872667 -0.033226800447327051 0 -0.075647814056438792 -0.048762431536943832 0 -0.061428605263776047 -0.046553119166432878 0 -0.055132092173872667 -0.033226800447327051 0 -0.075062618692292638 -0.040325846155841297 0 -0.075647814056438792 -0.048762431536943832 0 -0.055132092173872667 -0.033226800447327051 0 -0.083558777677868248 -0.036985518736449702 0 -0.075062618692292638 -0.040325846155841297 0 -0.075465350998538308 -0.032772608828030472 0 -0.065722760200719738 -0.052253177456942877 0 -0.075647814056438792 -0.048762431536943832 0 -0.061428605263776047 -0.046553119166432878 0 -0.065722760200719738 -0.052253177456942877 0 -0.07269306068786438 -0.052406879740114577 0 -0.069833853901725543 -0.055329661047837618 0 -0.065722760200719738 -0.052253177456942877 0 -0.07269306068786438 -0.052406879740114577 0 -0.075647814056438792 -0.048762431536943832 0 -0.07269306068786438 -0.052406879740114577 0 -0.073703714626092445 -0.056102563442451223 0 -0.069833853901725543 -0.055329661047837618 0 -0.07269306068786438 -0.052406879740114577 0 -0.077079431972146645 -0.050953682142663811 0 -0.073703714626092445 -0.056102563442451223 0 -0.078708481780428496 -0.048351416250899462 0 -0.077079431972146645 -0.050953682142663811 0 -0.075647814056438792 -0.048762431536943832 0 -0.07269306068786438 -0.052406879740114577 0 -0.077079431972146645 -0.050953682142663811 0 -0.075647814056438792 -0.048762431536943832 0 -0.078708481780428496 -0.048351416250899462 0 -0.078067002861142085 -0.04575568247049161 0 -0.075647814056438792 -0.048762431536943832 0 -0.078535685693175539 -0.061573663464548622 0 -0.073703714626092445 -0.056102563442451223 0 -0.070308423821052124 -0.061023041189074957 0 -0.078535685693175539 -0.061573663464548622 0 -0.077079431972146645 -0.050953682142663811 0 -0.073703714626092445 -0.056102563442451223 0 -0.073703714626092445 -0.056102563442451223 0 -0.070308423821052124 -0.061023041189074957 0 -0.069833853901725543 -0.055329661047837618 0 -0.070308423821052124 -0.061023041189074957 0 -0.064391701294429504 -0.057679717025484439 0 -0.060830035872249492 -0.064558057335980773 0 -0.070308423821052124 -0.061023041189074957 0 -0.069833853901725543 -0.055329661047837618 0 -0.064391701294429504 -0.057679717025484439 0 -0.065722760200719738 -0.052253177456942877 0 -0.069833853901725543 -0.055329661047837618 0 -0.064391701294429504 -0.057679717025484439 0 -0.064391701294429504 -0.057679717025484439 0 -0.055978059279945473 -0.056388284161067823 0 -0.060830035872249492 -0.064558057335980773 0 -0.065722760200719738 -0.052253177456942877 0 -0.064391701294429504 -0.057679717025484439 0 -0.055978059279945473 -0.056388284161067823 0 -0.055978059279945473 -0.056388284161067823 0 -0.041230103293456458 -0.058058117591144771 0 -0.049479852383656611 -0.067543566470139038 0 -0.055978059279945473 -0.056388284161067823 0 -0.049741921456861897 -0.048697412542500033 0 -0.041230103293456458 -0.058058117591144771 0 -0.055978059279945473 -0.056388284161067823 0 -0.049741921456861897 -0.048697412542500033 0 -0.061428605263776047 -0.046553119166432878 0 -0.065722760200719738 -0.052253177456942877 0 -0.055978059279945473 -0.056388284161067823 0 -0.061428605263776047 -0.046553119166432878 0 -0.049741921456861897 -0.048697412542500033 0 -0.061428605263776047 -0.046553119166432878 0 -0.055132092173872667 -0.033226800447327051 0 -0.049741921456861897 -0.048697412542500033 0 -0.055132092173872667 -0.033226800447327051 0 -0.032367863380537598 -0.044965144957206583 0 -0.055132092173872667 -0.033226800447327051 0 -0.032367863380537598 -0.044965144957206583 0 -0.055132092173872667 -0.033226800447327051 0 -0.032367863380537598 -0.044965144957206583 0 -0.031233838643279398 -0.031193199633022049 0 -0.049741921456861897 -0.048697412542500033 0 -0.032367863380537598 -0.044965144957206583 0 -0.041230103293456458 -0.058058117591144771 0 -0.032367863380537598 -0.044965144957206583 0 -0.041230103293456458 -0.058058117591144771 0 -0.026902341230915561 -0.060374551747501753 0 -0.05822397002114936 -0.01402224463886402 0 -0.057836245250817257 0.0062936453779614283 0 -0.044352522143416888 0.0050416822031405977 0 -0.05822397002114936 -0.01402224463886402 0 -0.037926632337863607 -0.0068783069258408786 0 -0.05822397002114936 -0.01402224463886402 0 -0.068462160169621672 0.0025537029525893409 0 -0.057836245250817257 0.0062936453779614283 0 -0.055132092173872667 -0.033226800447327051 0 -0.05822397002114936 -0.01402224463886402 0 -0.036243114184870161 -0.018923029155399909 0 -0.055132092173872667 -0.033226800447327051 0 -0.036243114184870161 -0.018923029155399909 0 -0.031233838643279398 -0.031193199633022049 0 -0.055132092173872667 -0.033226800447327051 0 -0.036243114184870161 -0.018923029155399909 0 -0.05822397002114936 -0.01402224463886402 0 -0.036243114184870161 -0.018923029155399909 0 -0.037926632337863607 -0.0068783069258408786 0 -0.05822397002114936 -0.01402224463886402 0 -0.037926632337863607 -0.0068783069258408786 0 -0.044352522143416888 0.0050416822031405977 0 -0.036243114184870161 -0.018923029155399909 0 -0.037926632337863607 -0.0068783069258408786 0 -0.029121832422534862 -0.0067169982391169078 0 -0.037926632337863607 -0.0068783069258408786 0 -0.029539197120254941 -0.00051038393964639519 0 -0.029121832422534862 -0.0067169982391169078 0 -0.037926632337863607 -0.0068783069258408786 0 -0.029539197120254941 -0.00051038393964639519 0 -0.03614709390981162 0.0015378833132510439 0 -0.037926632337863607 -0.0068783069258408786 0 -0.03614709390981162 0.0015378833132510439 0 -0.044352522143416888 0.0050416822031405977 0 -0.036243114184870161 -0.018923029155399909 0 -0.017354136195868258 -0.0046192578634720229 0 -0.01819617019275287 -0.0061732580868559192 0 -0.036243114184870161 -0.018923029155399909 0 -0.017354136195868258 -0.0046192578634720229 0 -0.029121832422534862 -0.0067169982391169078 0 -0.036243114184870161 -0.018923029155399909 0 -0.01819617019275287 -0.0061732580868559192 0 -0.019637671972121611 -0.02148729346067638 0 -0.036243114184870161 -0.018923029155399909 0 -0.017354136195868258 -0.0046192578634720229 0 -0.017354136195868258 -0.0046192578634720229 0 -0.01819617019275287 -0.0061732580868559192 0 -0.013500839782477779 -0.0058155532537883976 0 -0.017354136195868258 -0.0046192578634720229 0 -0.01819617019275287 -0.0061732580868559192 0 -0.017354136195868258 -0.0046192578634720229 0 -0.024546082273817361 -0.00265401331122534 0 -0.02112675760807068 0.0030512678310729521 0 -0.024546082273817361 -0.00265401331122534 0 -0.029539197120254941 -0.00051038393964639519 0 -0.02112675760807068 0.0030512678310729521 0 -0.017354136195868258 -0.0046192578634720229 0 -0.024546082273817361 -0.00265401331122534 0 -0.029121832422534862 -0.0067169982391169078 0 -0.024546082273817361 -0.00265401331122534 0 -0.029539197120254941 -0.00051038393964639519 0 -0.029121832422534862 -0.0067169982391169078 0 -0.01819617019275287 -0.0061732580868559192 0 -0.019637671972121611 -0.02148729346067638 0 -0.011008321991883009 -0.01057962122923565 0 -0.036243114184870161 -0.018923029155399909 0 -0.019637671972121611 -0.02148729346067638 0 -0.031233838643279398 -0.031193199633022049 0 -0.019637671972121611 -0.02148729346067638 0 -0.031233838643279398 -0.031193199633022049 0 -0.016064986363794779 -0.036441041599790329 0 -0.0077215053668332834 -0.022860670268973711 0 -0.00118246574067416 -0.01324232368796026 0 0.0015263381015913891 -0.033415212413580753 0 -0.0077215053668332834 -0.022860670268973711 0 -0.016064986363794779 -0.036441041599790329 0 0.0015263381015913891 -0.033415212413580753 0 -0.019637671972121611 -0.02148729346067638 0 -0.0077215053668332834 -0.022860670268973711 0 -0.016064986363794779 -0.036441041599790329 0 -0.019637671972121611 -0.02148729346067638 0 -0.0077215053668332834 -0.022860670268973711 0 -0.011008321991883009 -0.01057962122923565 0 -0.011008321991883009 -0.01057962122923565 0 -0.00118246574067416 -0.01324232368796026 0 -0.0072764121498596901 -0.0036325873431357339 0 -0.0077215053668332834 -0.022860670268973711 0 -0.011008321991883009 -0.01057962122923565 0 -0.00118246574067416 -0.01324232368796026 0 -0.00118246574067416 -0.01324232368796026 0 -0.0072764121498596901 -0.0036325873431357339 0 0.0012074066645448821 -0.00065723147797176382 0 -0.0072764121498596901 -0.0036325873431357339 0 -0.013500839782477779 -0.0058155532537883976 0 -0.013607688627124061 -0.00178224205395049 0 -0.011008321991883009 -0.01057962122923565 0 -0.0072764121498596901 -0.0036325873431357339 0 -0.013500839782477779 -0.0058155532537883976 0 -0.01819617019275287 -0.0061732580868559192 0 -0.011008321991883009 -0.01057962122923565 0 -0.013500839782477779 -0.0058155532537883976 0 -0.017354136195868258 -0.0046192578634720229 0 -0.013500839782477779 -0.0058155532537883976 0 -0.013607688627124061 -0.00178224205395049 0 -0.017354136195868258 -0.0046192578634720229 0 -0.013607688627124061 -0.00178224205395049 0 -0.032367863380537598 -0.044965144957206583 0 -0.0096036345872028556 -0.056703489467087059 0 -0.032367863380537598 -0.044965144957206583 0 -0.026902341230915561 -0.060374551747501753 0 -0.0096036345872028556 -0.056703489467087059 0 -0.032367863380537598 -0.044965144957206583 0 -0.031233838643279398 -0.031193199633022049 0 -0.016064986363794779 -0.036441041599790329 0 -0.032367863380537598 -0.044965144957206583 0 -0.016064986363794779 -0.036441041599790329 0 -0.0096036345872028556 -0.056703489467087059 0 -0.0096036345872028556 -0.056703489467087059 0 0.0015263381015913891 -0.033415212413580753 0 -0.016064986363794779 -0.036441041599790329 0 -0.0096036345872028556 -0.056703489467087059 0 0.0015263381015913891 -0.033415212413580753 0 -0.0096036345872028556 -0.056703489467087059 0 0.0015263381015913891 -0.033415212413580753 0 0.007298405735321048 -0.051477207310420908 0 -0.0096036345872028556 -0.056703489467087059 0 0.0052181775422467033 -0.064346337314722044 0 -0.0096036345872028556 -0.056703489467087059 0 -0.0043762627118289626 -0.071729097412358583 0 0.0052181775422467033 -0.064346337314722044 0 -0.0043762627118289626 -0.071729097412358583 0 -0.0092607301227374331 -0.088572496961274561 0 -0.01646375475339092 -0.071057556949349329 0 -0.0096036345872028556 -0.056703489467087059 0 -0.01646375475339092 -0.071057556949349329 0 -0.0096036345872028556 -0.056703489467087059 0 -0.0043762627118289626 -0.071729097412358583 0 -0.01646375475339092 -0.071057556949349329 0 -0.0092607301227374331 -0.088572496961274561 0 -0.00044729776891663488 -0.1011528385718463 0 0.0042106568376920582 -0.081118225430045127 0 -0.0043762627118289626 -0.071729097412358583 0 -0.0092607301227374331 -0.088572496961274561 0 0.0042106568376920582 -0.081118225430045127 0 -0.0092607301227374331 -0.088572496961274561 0 -0.037642160748979789 -0.094071739377162955 0 -0.0092607301227374331 -0.088572496961274561 0 -0.023323874919582349 -0.085411624431610003 0 -0.01646375475339092 -0.071057556949349329 0 -0.0092607301227374331 -0.088572496961274561 0 -0.023323874919582349 -0.085411624431610003 0 -0.037642160748979789 -0.094071739377162955 0 -0.023323874919582349 -0.085411624431610003 0 -0.01646375475339092 -0.071057556949349329 0 -0.023323874919582349 -0.085411624431610003 0 -0.01646375475339092 -0.071057556949349329 0 -0.034846350139989962 -0.07108844977272101 0 -0.026902341230915561 -0.060374551747501753 0 -0.01646375475339092 -0.071057556949349329 0 -0.034846350139989962 -0.07108844977272101 0 -0.026902341230915561 -0.060374551747501753 0 -0.0096036345872028556 -0.056703489467087059 0 -0.01646375475339092 -0.071057556949349329 0 -0.041230103293456458 -0.058058117591144771 0 -0.026902341230915561 -0.060374551747501753 0 -0.034846350139989962 -0.07108844977272101 0 -0.041230103293456458 -0.058058117591144771 0 -0.034846350139989962 -0.07108844977272101 0 -0.049479852383656611 -0.067543566470139038 0 -0.034846350139989962 -0.07108844977272101 0 -0.048784805137481749 -0.081200653853927454 0 -0.049479852383656611 -0.067543566470139038 0 -0.023323874919582349 -0.085411624431610003 0 -0.034846350139989962 -0.07108844977272101 0 -0.036149297736508462 -0.082943116858855345 0 -0.023323874919582349 -0.085411624431610003 0 -0.036149297736508462 -0.082943116858855345 0 -0.037642160748979789 -0.094071739377162955 0 -0.036149297736508462 -0.082943116858855345 0 -0.048784805137481749 -0.081200653853927454 0 -0.037642160748979789 -0.094071739377162955 0 -0.034846350139989962 -0.07108844977272101 0 -0.036149297736508462 -0.082943116858855345 0 -0.048784805137481749 -0.081200653853927454 0 -0.063732237529271596 -0.080733089011810297 0 -0.066023591375222151 -0.09957098179305135 0 -0.048784805137481749 -0.081200653853927454 0 -0.066023591375222151 -0.09957098179305135 0 -0.048784805137481749 -0.081200653853927454 0 -0.037642160748979789 -0.094071739377162955 0 -0.063732237529271596 -0.080733089011810297 0 -0.048784805137481749 -0.081200653853927454 0 -0.058000192015007383 -0.073011667883306972 0 -0.055978059279945473 -0.056388284161067823 0 -0.060830035872249492 -0.064558057335980773 0 -0.049479852383656611 -0.067543566470139038 0 -0.058000192015007383 -0.073011667883306972 0 -0.060830035872249492 -0.064558057335980773 0 -0.049479852383656611 -0.067543566470139038 0 -0.067174029152377468 -0.071022972744677337 0 -0.058000192015007383 -0.073011667883306972 0 -0.060830035872249492 -0.064558057335980773 0 -0.048784805137481749 -0.081200653853927454 0 -0.058000192015007383 -0.073011667883306972 0 -0.049479852383656611 -0.067543566470139038 0 -0.069466171350113709 -0.1135628440840601 0 -0.054384952187449757 -0.110609208962567 0 -0.059238207921678762 -0.13024384051707169 0 -0.054384952187449757 -0.110609208962567 0 -0.059238207921678762 -0.13024384051707169 0 -0.032945469352336033 -0.1293562392835419 0 -0.066023591375222151 -0.09957098179305135 0 -0.054384952187449757 -0.110609208962567 0 -0.037642160748979789 -0.094071739377162955 0 -0.066023591375222151 -0.09957098179305135 0 -0.037642160748979789 -0.094071739377162955 0 -0.054384952187449757 -0.110609208962567 0 -0.037642160748979789 -0.094071739377162955 0 -0.035661083064217503 -0.11124856921529409 0 -0.054384952187449757 -0.110609208962567 0 -0.032945469352336033 -0.1293562392835419 0 -0.054384952187449757 -0.110609208962567 0 -0.035661083064217503 -0.11124856921529409 0 -0.032945469352336033 -0.1293562392835419 0 -0.01767174996810443 -0.1109570892379047 0 -0.012892303975098539 -0.12786221844410239 0 -0.032945469352336033 -0.1293562392835419 0 -0.035661083064217503 -0.11124856921529409 0 -0.01767174996810443 -0.1109570892379047 0 -0.032945469352336033 -0.1293562392835419 0 -0.0092607301227374331 -0.088572496961274561 0 -0.037642160748979789 -0.094071739377162955 0 -0.01767174996810443 -0.1109570892379047 0 -0.037642160748979789 -0.094071739377162955 0 -0.035661083064217503 -0.11124856921529409 0 -0.01767174996810443 -0.1109570892379047 0 -0.01767174996810443 -0.1109570892379047 0 -0.00044729776891663488 -0.1011528385718463 0 0.005085065621477718 -0.1151057880332567 0 -0.0092607301227374331 -0.088572496961274561 0 -0.01767174996810443 -0.1109570892379047 0 -0.00044729776891663488 -0.1011528385718463 0 -0.01767174996810443 -0.1109570892379047 0 -0.012892303975098539 -0.12786221844410239 0 0.005085065621477718 -0.1151057880332567 0 -0.012892303975098539 -0.12786221844410239 0 0.0027021066240326768 -0.1317064378292063 0 0.005085065621477718 -0.1151057880332567 0 -0.011505986517222349 -0.14810326960451681 0 -0.033736789854580403 -0.16402697950055581 0 -0.032945469352336033 -0.1293562392835419 0 -0.012892303975098539 -0.12786221844410239 0 -0.011505986517222349 -0.14810326960451681 0 0.0027021066240326768 -0.1317064378292063 0 -0.011505986517222349 -0.14810326960451681 0 -0.032945469352336033 -0.1293562392835419 0 -0.012892303975098539 -0.12786221844410239 0 -0.011505986517222349 -0.14810326960451681 0 -0.032945469352336033 -0.1293562392835419 0 -0.011505986517222349 -0.14810326960451681 0 0.009933496317892726 -0.16685029992549011 0 -0.011505986517222349 -0.14810326960451681 0 -0.0085976242789068957 -0.177408956520272 0 0.009933496317892726 -0.16685029992549011 0 -0.0085976242789068957 -0.177408956520272 0 -0.003739977245034012 -0.19168309442994089 0 -0.02712874487570623 -0.18796761311505439 0 -0.0085976242789068957 -0.177408956520272 0 -0.003739977245034012 -0.19168309442994089 0 0.0034571977838801569 -0.17702496179755631 0 -0.0085976242789068957 -0.177408956520272 0 -0.02712874487570623 -0.18796761311505439 0 -0.0085976242789068957 -0.177408956520272 0 -0.033736789854580403 -0.16402697950055581 0 -0.02712874487570623 -0.18796761311505439 0 -0.011505986517222349 -0.14810326960451681 0 -0.0085976242789068957 -0.177408956520272 0 -0.033736789854580403 -0.16402697950055581 0 -0.033736789854580403 -0.16402697950055581 0 -0.041678182321736049 -0.18065303021324261 0 -0.02712874487570623 -0.18796761311505439 0 -0.033736789854580403 -0.16402697950055581 0 -0.041678182321736049 -0.18065303021324261 0 -0.060187329084152079 -0.17209125852752319 0 -0.041678182321736049 -0.18065303021324261 0 -0.060187329084152079 -0.17209125852752319 0 -0.045659865472505487 -0.198526269709837 0 -0.060187329084152079 -0.17209125852752319 0 -0.045659865472505487 -0.198526269709837 0 -0.033736789854580403 -0.16402697950055581 0 -0.060187329084152079 -0.17209125852752319 0 -0.051699405537506939 -0.14899167338562519 0 -0.060187329084152079 -0.17209125852752319 0 -0.051699405537506939 -0.14899167338562519 0 -0.072389231474787458 -0.1492400490994332 0 -0.051699405537506939 -0.14899167338562519 0 -0.059238207921678762 -0.13024384051707169 0 -0.072389231474787458 -0.1492400490994332 0 -0.033736789854580403 -0.16402697950055581 0 -0.051699405537506939 -0.14899167338562519 0 -0.032945469352336033 -0.1293562392835419 0 -0.051699405537506939 -0.14899167338562519 0 -0.059238207921678762 -0.13024384051707169 0 -0.032945469352336033 -0.1293562392835419 0 -0.025857267464119819 -0.25506418495113531 0 -0.02368513365757598 -0.23851275990414511 0 -0.036167443228362108 -0.24337299090061551 0 -0.01269776775011346 -0.25850600500130039 0 -0.02368513365757598 -0.23851275990414511 0 -0.01269776775011346 -0.25850600500130039 0 -0.02368513365757598 -0.23851275990414511 0 -0.01082738352359053 -0.24876902592697839 0 -0.02368513365757598 -0.23851275990414511 0 -0.0067432183097289999 -0.239968376336817 0 -0.0090267388034834407 -0.23007068799598671 0 -0.02368513365757598 -0.23851275990414511 0 -0.01082738352359053 -0.24876902592697839 0 -0.0067432183097289999 -0.239968376336817 0 -0.01082738352359053 -0.24876902592697839 0 -0.0029313858115674811 -0.24854412401401971 0 -0.0067432183097289999 -0.239968376336817 0 -0.0029313858115674811 -0.24854412401401971 0 -0.0067432183097289999 -0.239968376336817 0 0.0026199421412959989 -0.2430643023623929 0 -0.0067432183097289999 -0.239968376336817 0 0.0026199421412959989 -0.2430643023623929 0 0.0017465435191736189 -0.23378549097037141 0 -0.0067432183097289999 -0.239968376336817 0 -0.0090267388034834407 -0.23007068799598671 0 0.0017465435191736189 -0.23378549097037141 0 -0.0090267388034834407 -0.23007068799598671 0 -0.00080535468136348092 -0.21995366459000901 0 -0.01839049427805331 -0.2195873775130934 0 -0.0090267388034834407 -0.23007068799598671 0 -0.00080535468136348092 -0.21995366459000901 0 0.0017465435191736189 -0.23378549097037141 0 -0.02368513365757598 -0.23851275990414511 0 -0.0090267388034834407 -0.23007068799598671 0 -0.01839049427805331 -0.2195873775130934 0 -0.02368513365757598 -0.23851275990414511 0 -0.01839049427805331 -0.2195873775130934 0 -0.034672499565036527 -0.2185195148069887 0 -0.02368513365757598 -0.23851275990414511 0 -0.034672499565036527 -0.2185195148069887 0 -0.01839049427805331 -0.2195873775130934 0 -0.027127261386640289 -0.20489204062456881 0 -0.034672499565036527 -0.2185195148069887 0 -0.01839049427805331 -0.2195873775130934 0 -0.027127261386640289 -0.20489204062456881 0 -0.01084996336714465 -0.20584666152463099 0 -0.00080535468136348092 -0.21995366459000901 0 -0.01839049427805331 -0.2195873775130934 0 -0.01084996336714465 -0.20584666152463099 0 -0.00080535468136348092 -0.21995366459000901 0 -0.01084996336714465 -0.20584666152463099 0 0.01016515501406726 -0.20926501301563591 0 -0.01084996336714465 -0.20584666152463099 0 -0.003739977245034012 -0.19168309442994089 0 0.01016515501406726 -0.20926501301563591 0 -0.01084996336714465 -0.20584666152463099 0 -0.003739977245034012 -0.19168309442994089 0 -0.02712874487570623 -0.18796761311505439 0 -0.027127261386640289 -0.20489204062456881 0 -0.01084996336714465 -0.20584666152463099 0 -0.02712874487570623 -0.18796761311505439 0 -0.041678182321736049 -0.18065303021324261 0 -0.02712874487570623 -0.18796761311505439 0 -0.045659865472505487 -0.198526269709837 0 -0.02712874487570623 -0.18796761311505439 0 -0.045659865472505487 -0.198526269709837 0 -0.027127261386640289 -0.20489204062456881 0 -0.02712874487570623 -0.18796761311505439 0 -0.045659865472505487 -0.198526269709837 0 -0.045659865472505487 -0.198526269709837 0 -0.067682806497079445 -0.21107449474949169 0 -0.062708331551170268 -0.19442045911658551 0 -0.060187329084152079 -0.17209125852752319 0 -0.045659865472505487 -0.198526269709837 0 -0.062708331551170268 -0.19442045911658551 0 -0.045659865472505487 -0.198526269709837 0 -0.067682806497079445 -0.21107449474949169 0 -0.045659865472505487 -0.198526269709837 0 -0.054546183461555722 -0.22015285450131489 0 -0.067682806497079445 -0.21107449474949169 0 -0.045659865472505487 -0.198526269709837 0 -0.034672499565036527 -0.2185195148069887 0 -0.054546183461555722 -0.22015285450131489 0 -0.045659865472505487 -0.198526269709837 0 -0.034672499565036527 -0.2185195148069887 0 -0.027127261386640289 -0.20489204062456881 0 -0.045659865472505487 -0.198526269709837 0 -0.034672499565036527 -0.2185195148069887 0 -0.034672499565036527 -0.2185195148069887 0 -0.044145410485190079 -0.23242073182379891 0 -0.054546183461555722 -0.22015285450131489 0 -0.02368513365757598 -0.23851275990414511 0 -0.034672499565036527 -0.2185195148069887 0 -0.044145410485190079 -0.23242073182379891 0 -0.044145410485190079 -0.23242073182379891 0 -0.054546183461555722 -0.22015285450131489 0 -0.061280333386656921 -0.23284462843810469 0 -0.061280333386656921 -0.23284462843810469 0 -0.050191684441297867 -0.2485850187836515 0 -0.071591358857016049 -0.2429226102204386 0 -0.050191684441297867 -0.2485850187836515 0 -0.071591358857016049 -0.2429226102204386 0 -0.056939497423126581 -0.24878681181634871 0 -0.050191684441297867 -0.2485850187836515 0 -0.071591358857016049 -0.2429226102204386 0 -0.044145410485190079 -0.23242073182379891 0 -0.061280333386656921 -0.23284462843810469 0 -0.050191684441297867 -0.2485850187836515 0 -0.041398382443623198 -0.25192549838374201 0 -0.056939497423126581 -0.24878681181634871 0 -0.050191684441297867 -0.2485850187836515 0 -0.044145410485190079 -0.23242073182379891 0 -0.050191684441297867 -0.2485850187836515 0 -0.036167443228362108 -0.24337299090061551 0 -0.02368513365757598 -0.23851275990414511 0 -0.044145410485190079 -0.23242073182379891 0 -0.036167443228362108 -0.24337299090061551 0 -0.025857267464119819 -0.25506418495113531 0 -0.050191684441297867 -0.2485850187836515 0 -0.036167443228362108 -0.24337299090061551 0 -0.097628444613881649 -0.25834262822693399 0 -0.087470553331264578 -0.24262075389877999 0 -0.077955776651182085 -0.24454236002529731 0 -0.087470553331264578 -0.24262075389877999 0 -0.087928467376508473 -0.23859976953689591 0 -0.1005617376665941 -0.23997685579502359 0 -0.087928467376508473 -0.23859976953689591 0 -0.07453604668454375 -0.2421434382925548 0 -0.07383618536286593 -0.22753148747966839 0 -0.087928467376508473 -0.23859976953689591 0 -0.07453604668454375 -0.2421434382925548 0 -0.087928467376508473 -0.23859976953689591 0 -0.077955776651182085 -0.24454236002529731 0 -0.07453604668454375 -0.2421434382925548 0 -0.087470553331264578 -0.24262075389877999 0 -0.087928467376508473 -0.23859976953689591 0 -0.077955776651182085 -0.24454236002529731 0 -0.087470553331264578 -0.24262075389877999 0 -0.077955776651182085 -0.24454236002529731 0 -0.056939497423126581 -0.24878681181634871 0 -0.077955776651182085 -0.24454236002529731 0 -0.071591358857016049 -0.2429226102204386 0 -0.056939497423126581 -0.24878681181634871 0 -0.077955776651182085 -0.24454236002529731 0 -0.077955776651182085 -0.24454236002529731 0 -0.071591358857016049 -0.2429226102204386 0 -0.07453604668454375 -0.2421434382925548 0 -0.077955776651182085 -0.24454236002529731 0 -0.07453604668454375 -0.2421434382925548 0 -0.071591358857016049 -0.2429226102204386 0 -0.07453604668454375 -0.2421434382925548 0 -0.056939497423126581 -0.24878681181634871 0 -0.071591358857016049 -0.2429226102204386 0 -0.061280333386656921 -0.23284462843810469 0 -0.071591358857016049 -0.2429226102204386 0 -0.07453604668454375 -0.2421434382925548 0 -0.061280333386656921 -0.23284462843810469 0 -0.07453604668454375 -0.2421434382925548 0 -0.07383618536286593 -0.22753148747966839 0 -0.089705747521653334 -0.22362271978914661 0 -0.067682806497079445 -0.21107449474949169 0 -0.054546183461555722 -0.22015285450131489 0 -0.061280333386656921 -0.23284462843810469 0 -0.07383618536286593 -0.22753148747966839 0 -0.054546183461555722 -0.22015285450131489 0 -0.07383618536286593 -0.22753148747966839 0 -0.067682806497079445 -0.21107449474949169 0 -0.061280333386656921 -0.23284462843810469 0 -0.07453604668454375 -0.2421434382925548 0 -0.07383618536286593 -0.22753148747966839 0 -0.087928467376508473 -0.23859976953689591 0 -0.07383618536286593 -0.22753148747966839 0 -0.089705747521653334 -0.22362271978914661 0 -0.087928467376508473 -0.23859976953689591 0 -0.089705747521653334 -0.22362271978914661 0 -0.1005617376665941 -0.23997685579502359 0 -0.089705747521653334 -0.22362271978914661 0 -0.067682806497079445 -0.21107449474949169 0 -0.089705747521653334 -0.22362271978914661 0 -0.084027466008495671 -0.20735524824550181 0 -0.09921486728828334 -0.20109800384388701 0 -0.089705747521653334 -0.22362271978914661 0 -0.084027466008495671 -0.20735524824550181 0 -0.067682806497079445 -0.21107449474949169 0 -0.084027466008495671 -0.20735524824550181 0 -0.067682806497079445 -0.21107449474949169 0 -0.079506442726966622 -0.19362577459948219 0 -0.067682806497079445 -0.21107449474949169 0 -0.062708331551170268 -0.19442045911658551 0 -0.079506442726966622 -0.19362577459948219 0 -0.079506442726966622 -0.19362577459948219 0 -0.09921486728828334 -0.20109800384388701 0 -0.089369030920126963 -0.1732707743578942 0 -0.084027466008495671 -0.20735524824550181 0 -0.079506442726966622 -0.19362577459948219 0 -0.09921486728828334 -0.20109800384388701 0 -0.09921486728828334 -0.20109800384388701 0 -0.1156293974943295 -0.1822747327150937 0 -0.1210853022939376 -0.205467400633562 0 -0.1156293974943295 -0.1822747327150937 0 -0.13505851963374399 -0.18906788910329131 0 -0.09921486728828334 -0.20109800384388701 0 -0.1210853022939376 -0.205467400633562 0 -0.1156293974943295 -0.1822747327150937 0 -0.1210853022939376 -0.205467400633562 0 -0.10755849924533691 -0.2178899443088799 0 -0.11989889803527461 -0.22145143588075511 0 -0.1210853022939376 -0.205467400633562 0 -0.11989889803527461 -0.22145143588075511 0 -0.13086176299679239 -0.21746526838305219 0 -0.089705747521653334 -0.22362271978914661 0 -0.09921486728828334 -0.20109800384388701 0 -0.10755849924533691 -0.2178899443088799 0 -0.09921486728828334 -0.20109800384388701 0 -0.1210853022939376 -0.205467400633562 0 -0.10755849924533691 -0.2178899443088799 0 -0.089705747521653334 -0.22362271978914661 0 -0.11172868854622731 -0.23617094482880149 0 -0.1005617376665941 -0.23997685579502359 0 -0.089705747521653334 -0.22362271978914661 0 -0.11172868854622731 -0.23617094482880149 0 -0.089705747521653334 -0.22362271978914661 0 -0.10755849924533691 -0.2178899443088799 0 -0.11172868854622731 -0.23617094482880149 0 -0.11989889803527461 -0.22145143588075511 0 -0.11172868854622731 -0.23617094482880149 0 -0.127825895831608 -0.22987551408160201 0 -0.10755849924533691 -0.2178899443088799 0 -0.11989889803527461 -0.22145143588075511 0 -0.11172868854622731 -0.23617094482880149 0 -0.13218950310710981 -0.25272660122947088 0 -0.1218823470606431 -0.24640061544388489 0 -0.1098930818979398 -0.24798588601512411 0 -0.11172868854622731 -0.23617094482880149 0 -0.13375162957080131 -0.24871916986845621 0 -0.11172868854622731 -0.23617094482880149 0 -0.1218823470606431 -0.24640061544388489 0 -0.13375162957080131 -0.24871916986845621 0 -0.11172868854622731 -0.23617094482880149 0 -0.13375162957080131 -0.24871916986845621 0 -0.127825895831608 -0.22987551408160201 0 -0.11172868854622731 -0.23617094482880149 0 -0.1218823470606431 -0.24640061544388489 0 -0.1098930818979398 -0.24798588601512411 0 -0.097628444613881649 -0.25834262822693399 0 -0.087470553331264578 -0.24262075389877999 0 -0.1098930818979398 -0.24798588601512411 0 -0.087470553331264578 -0.24262075389877999 0 -0.1098930818979398 -0.24798588601512411 0 -0.1005617376665941 -0.23997685579502359 0 -0.087470553331264578 -0.24262075389877999 0 -0.1098930818979398 -0.24798588601512411 0 -0.11172868854622731 -0.23617094482880149 0 -0.1098930818979398 -0.24798588601512411 0 -0.1005617376665941 -0.23997685579502359 0 -0.087470553331264578 -0.24262075389877999 0 -0.1005617376665941 -0.23997685579502359 0 -0.072389231474787458 -0.1492400490994332 0 -0.089369030920126963 -0.1732707743578942 0 -0.096011965921864201 -0.14265464397282879 0 -0.077516787342341589 -0.1242022911324857 0 -0.093262550211769629 -0.1231040070079162 0 -0.096011965921864201 -0.14265464397282879 0 -0.077516787342341589 -0.1242022911324857 0 -0.072389231474787458 -0.1492400490994332 0 -0.096011965921864201 -0.14265464397282879 0 -0.077516787342341589 -0.1242022911324857 0 -0.059238207921678762 -0.13024384051707169 0 -0.072389231474787458 -0.1492400490994332 0 -0.060187329084152079 -0.17209125852752319 0 -0.072389231474787458 -0.1492400490994332 0 -0.089369030920126963 -0.1732707743578942 0 -0.060187329084152079 -0.17209125852752319 0 -0.079506442726966622 -0.19362577459948219 0 -0.089369030920126963 -0.1732707743578942 0 -0.060187329084152079 -0.17209125852752319 0 -0.062708331551170268 -0.19442045911658551 0 -0.079506442726966622 -0.19362577459948219 0 -0.089369030920126963 -0.1732707743578942 0 -0.1107512355661594 -0.16096683979900789 0 -0.096011965921864201 -0.14265464397282879 0 -0.09921486728828334 -0.20109800384388701 0 -0.089369030920126963 -0.1732707743578942 0 -0.1156293974943295 -0.1822747327150937 0 -0.089369030920126963 -0.1732707743578942 0 -0.1156293974943295 -0.1822747327150937 0 -0.1107512355661594 -0.16096683979900789 0 -0.1156293974943295 -0.1822747327150937 0 -0.13204392770037571 -0.1634514615863005 0 -0.1156293974943295 -0.1822747327150937 0 -0.1107512355661594 -0.16096683979900789 0 -0.13204392770037571 -0.1634514615863005 0 -0.1107512355661594 -0.16096683979900789 0 -0.12070185579410091 -0.1431825863629223 0 -0.13204392770037571 -0.1634514615863005 0 -0.1107512355661594 -0.16096683979900789 0 -0.12070185579410091 -0.1431825863629223 0 -0.096011965921864201 -0.14265464397282879 0 -0.1071147179002416 -0.1244919901550422 0 -0.12070185579410091 -0.1431825863629223 0 -0.096011965921864201 -0.14265464397282879 0 -0.093262550211769629 -0.1231040070079162 0 -0.1071147179002416 -0.1244919901550422 0 -0.096011965921864201 -0.14265464397282879 0 -0.1071147179002416 -0.1244919901550422 0 -0.12070185579410091 -0.1431825863629223 0 -0.1306137014228527 -0.1212095633787966 0 -0.12070185579410091 -0.1431825863629223 0 -0.14845845790642179 -0.14462819045750719 0 -0.1306137014228527 -0.1212095633787966 0 -0.14845845790642179 -0.14462819045750719 0 -0.1306137014228527 -0.1212095633787966 0 -0.15036797716661271 -0.14243845987679379 0 -0.14845845790642179 -0.14462819045750719 0 -0.1306137014228527 -0.1212095633787966 0 -0.15406265534163929 -0.1294064941378926 0 -0.15036797716661271 -0.14243845987679379 0 -0.1306137014228527 -0.1212095633787966 0 -0.15406265534163929 -0.1294064941378926 0 -0.15036797716661271 -0.14243845987679379 0 -0.1564494690737798 -0.13971242061594299 0 -0.1543278084257422 -0.1453912472931165 0 -0.14845845790642179 -0.14462819045750719 0 -0.15894149653025619 -0.15184230729274609 0 -0.15519343748037609 -0.14309809199123349 0 -0.15036797716661271 -0.14243845987679379 0 -0.1564494690737798 -0.13971242061594299 0 -0.1543278084257422 -0.1453912472931165 0 -0.15519343748037609 -0.14309809199123349 0 -0.15036797716661271 -0.14243845987679379 0 -0.1543278084257422 -0.1453912472931165 0 -0.15036797716661271 -0.14243845987679379 0 -0.14845845790642179 -0.14462819045750719 0 -0.15036797716661271 -0.14243845987679379 0 -0.14845845790642179 -0.14462819045750719 0 -0.12070185579410091 -0.1431825863629223 0 -0.14845845790642179 -0.14462819045750719 0 -0.13204392770037571 -0.1634514615863005 0 -0.14845845790642179 -0.14462819045750719 0 -0.13204392770037571 -0.1634514615863005 0 -0.13204392770037571 -0.1634514615863005 0 -0.1475860696211248 -0.17640031700015249 0 -0.13505851963374399 -0.18906788910329131 0 -0.1156293974943295 -0.1822747327150937 0 -0.13204392770037571 -0.1634514615863005 0 -0.13505851963374399 -0.18906788910329131 0 -0.1475860696211248 -0.17640031700015249 0 -0.1655722477793394 -0.1670875310098065 0 -0.15496537504316019 -0.19429807729602311 0 -0.1475860696211248 -0.17640031700015249 0 -0.13505851963374399 -0.18906788910329131 0 -0.15496537504316019 -0.19429807729602311 0 -0.1475860696211248 -0.17640031700015249 0 -0.14862352044039201 -0.16347018067920821 0 -0.1655722477793394 -0.1670875310098065 0 -0.14845845790642179 -0.14462819045750719 0 -0.13204392770037571 -0.1634514615863005 0 -0.14862352044039201 -0.16347018067920821 0 -0.14845845790642179 -0.14462819045750719 0 -0.14862352044039201 -0.16347018067920821 0 -0.1655722477793394 -0.1670875310098065 0 -0.13204392770037571 -0.1634514615863005 0 -0.1475860696211248 -0.17640031700015249 0 -0.14862352044039201 -0.16347018067920821 0 -0.1655722477793394 -0.1670875310098065 0 -0.1716614177265566 -0.15146656102038991 0 -0.1655722477793394 -0.1670875310098065 0 -0.15894149653025619 -0.15184230729274609 0 -0.1716614177265566 -0.15146656102038991 0 -0.1655722477793394 -0.1670875310098065 0 -0.17557921295501691 -0.18022020591375351 0 -0.1689483943248192 -0.19264195369377959 0 -0.1655722477793394 -0.1670875310098065 0 -0.15496537504316019 -0.19429807729602311 0 -0.1689483943248192 -0.19264195369377959 0 -0.1655722477793394 -0.1670875310098065 0 -0.15496537504316019 -0.19429807729602311 0 -0.1655722477793394 -0.1670875310098065 0 -0.17557921295501691 -0.18022020591375351 0 -0.17557921295501691 -0.18022020591375351 0 -0.18239484980351819 -0.16464781923938721 0 -0.1907059301477185 -0.18468107337543721 0 -0.1655722477793394 -0.1670875310098065 0 -0.17557921295501691 -0.18022020591375351 0 -0.18239484980351819 -0.16464781923938721 0 -0.1655722477793394 -0.1670875310098065 0 -0.18239484980351819 -0.16464781923938721 0 -0.1716614177265566 -0.15146656102038991 0 -0.18239484980351819 -0.16464781923938721 0 -0.1716614177265566 -0.15146656102038991 0 -0.1894311146879058 -0.1465309504005988 0 -0.17775058767377289 -0.13584559103097291 0 -0.1716614177265566 -0.15146656102038991 0 -0.1894311146879058 -0.1465309504005988 0 -0.17775058767377289 -0.13584559103097291 0 -0.1716614177265566 -0.15146656102038991 0 -0.17775058767377289 -0.13584559103097291 0 -0.1894311146879058 -0.1465309504005988 0 -0.17775058767377289 -0.13584559103097291 0 -0.19823449762692411 -0.13229999761030051 0 -0.18534812722118199 -0.1163550958908785 0 -0.17775058767377289 -0.13584559103097291 0 -0.18534812722118199 -0.1163550958908785 0 -0.15406265534163929 -0.1294064941378926 0 -0.16394560233522651 -0.1386698702264933 0 -0.15606779039194271 -0.1160101434681408 0 -0.17775058767377289 -0.13584559103097291 0 -0.16394560233522651 -0.1386698702264933 0 -0.15606779039194271 -0.1160101434681408 0 -0.17775058767377289 -0.13584559103097291 0 -0.15606779039194271 -0.1160101434681408 0 -0.15406265534163929 -0.1294064941378926 0 -0.16394560233522651 -0.1386698702264933 0 -0.1564494690737798 -0.13971242061594299 0 -0.16394560233522651 -0.1386698702264933 0 -0.1564494690737798 -0.13971242061594299 0 -0.15962849525536979 -0.1448502401790808 0 -0.14845845790642179 -0.14462819045750719 0 -0.1655722477793394 -0.1670875310098065 0 -0.14845845790642179 -0.14462819045750719 0 -0.1655722477793394 -0.1670875310098065 0 -0.15894149653025619 -0.15184230729274609 0 -0.15519343748037609 -0.14309809199123349 0 -0.1564494690737798 -0.13971242061594299 0 -0.15962849525536979 -0.1448502401790808 0 -0.1543278084257422 -0.1453912472931165 0 -0.15519343748037609 -0.14309809199123349 0 -0.15962849525536979 -0.1448502401790808 0 -0.1543278084257422 -0.1453912472931165 0 -0.15962849525536979 -0.1448502401790808 0 -0.15894149653025619 -0.15184230729274609 0 -0.15962849525536979 -0.1448502401790808 0 -0.15894149653025619 -0.15184230729274609 0 -0.1716614177265566 -0.15146656102038991 0 -0.17775058767377289 -0.13584559103097291 0 -0.16394560233522651 -0.1386698702264933 0 -0.1716614177265566 -0.15146656102038991 0 -0.16394560233522651 -0.1386698702264933 0 -0.15962849525536979 -0.1448502401790808 0 -0.1716614177265566 -0.15146656102038991 0 -0.1534429259631987 -0.25724555178864622 0 -0.15289321433053751 -0.246830478479277 0 -0.1378886282313006 -0.2381062402767252 0 -0.1534429259631987 -0.25724555178864622 0 -0.1378886282313006 -0.2381062402767252 0 -0.15348527020851541 -0.23913552791147211 0 -0.1378886282313006 -0.2381062402767252 0 -0.15430752157141919 -0.22794821467022949 0 -0.15289321433053751 -0.246830478479277 0 -0.15348527020851541 -0.23913552791147211 0 -0.1601832428566283 -0.24550858739866141 0 -0.15289321433053751 -0.246830478479277 0 -0.15348527020851541 -0.23913552791147211 0 -0.1378886282313006 -0.2381062402767252 0 -0.1459019403517107 -0.25564217047089421 0 -0.13375162957080131 -0.24871916986845621 0 -0.1378886282313006 -0.2381062402767252 0 -0.13375162957080131 -0.24871916986845621 0 -0.1378886282313006 -0.2381062402767252 0 -0.127825895831608 -0.22987551408160201 0 -0.13375162957080131 -0.24871916986845621 0 -0.1378886282313006 -0.2381062402767252 0 -0.13218950310710981 -0.25272660122947088 0 -0.1218823470606431 -0.24640061544388489 0 -0.13375162957080131 -0.24871916986845621 0 -0.127825895831608 -0.22987551408160201 0 -0.14435850230698141 -0.22150862358223991 0 -0.13086176299679239 -0.21746526838305219 0 -0.1378886282313006 -0.2381062402767252 0 -0.127825895831608 -0.22987551408160201 0 -0.14435850230698141 -0.22150862358223991 0 -0.11989889803527461 -0.22145143588075511 0 -0.127825895831608 -0.22987551408160201 0 -0.13086176299679239 -0.21746526838305219 0 -0.1378886282313006 -0.2381062402767252 0 -0.14435850230698141 -0.22150862358223991 0 -0.14435850230698141 -0.22150862358223991 0 -0.15430752157141919 -0.22794821467022949 0 -0.16410544360365359 -0.21493654602220469 0 -0.1378886282313006 -0.2381062402767252 0 -0.14435850230698141 -0.22150862358223991 0 -0.15430752157141919 -0.22794821467022949 0 -0.14435850230698141 -0.22150862358223991 0 -0.15496537504316019 -0.19429807729602311 0 -0.14435850230698141 -0.22150862358223991 0 -0.1373527607074172 -0.20563907323320921 0 -0.15496537504316019 -0.19429807729602311 0 -0.14435850230698141 -0.22150862358223991 0 -0.15496537504316019 -0.19429807729602311 0 -0.16410544360365359 -0.21493654602220469 0 -0.14435850230698141 -0.22150862358223991 0 -0.1373527607074172 -0.20563907323320921 0 -0.13086176299679239 -0.21746526838305219 0 -0.1210853022939376 -0.205467400633562 0 -0.1373527607074172 -0.20563907323320921 0 -0.13086176299679239 -0.21746526838305219 0 -0.1210853022939376 -0.205467400633562 0 -0.1373527607074172 -0.20563907323320921 0 -0.13505851963374399 -0.18906788910329131 0 -0.1373527607074172 -0.20563907323320921 0 -0.13505851963374399 -0.18906788910329131 0 -0.15496537504316019 -0.19429807729602311 0 -0.1689483943248192 -0.19264195369377959 0 -0.17994482166635981 -0.2014366202218163 0 -0.16410544360365359 -0.21493654602220469 0 -0.15496537504316019 -0.19429807729602311 0 -0.1689483943248192 -0.19264195369377959 0 -0.16410544360365359 -0.21493654602220469 0 -0.17557921295501691 -0.18022020591375351 0 -0.1689483943248192 -0.19264195369377959 0 -0.17994482166635981 -0.2014366202218163 0 -0.17557921295501691 -0.18022020591375351 0 -0.17994482166635981 -0.2014366202218163 0 -0.1907059301477185 -0.18468107337543721 0 -0.17994482166635981 -0.2014366202218163 0 -0.1784102433228649 -0.21681777692650089 0 -0.16410544360365359 -0.21493654602220469 0 -0.17994482166635981 -0.2014366202218163 0 -0.18904495760185211 -0.20873870471059999 0 -0.19252771524915421 -0.19930647688205899 0 -0.17994482166635981 -0.2014366202218163 0 -0.1784102433228649 -0.21681777692650089 0 -0.18904495760185211 -0.20873870471059999 0 -0.1784102433228649 -0.21681777692650089 0 -0.19175951728552271 -0.21959172261586679 0 -0.18904495760185211 -0.20873870471059999 0 -0.15430752157141919 -0.22794821467022949 0 -0.16410544360365359 -0.21493654602220469 0 -0.16877954452522659 -0.2255120540677526 0 -0.15430752157141919 -0.22794821467022949 0 -0.16877954452522659 -0.2255120540677526 0 -0.16324537569009509 -0.2357306359809743 0 -0.15348527020851541 -0.23913552791147211 0 -0.15430752157141919 -0.22794821467022949 0 -0.16324537569009509 -0.2357306359809743 0 -0.16877954452522659 -0.2255120540677526 0 -0.17781387366555559 -0.23090770197000129 0 -0.16324537569009509 -0.2357306359809743 0 -0.1784102433228649 -0.21681777692650089 0 -0.16410544360365359 -0.21493654602220469 0 -0.16877954452522659 -0.2255120540677526 0 -0.1784102433228649 -0.21681777692650089 0 -0.16877954452522659 -0.2255120540677526 0 -0.17781387366555559 -0.23090770197000129 0 -0.1784102433228649 -0.21681777692650089 0 -0.17781387366555559 -0.23090770197000129 0 -0.19175951728552271 -0.21959172261586679 0 -0.17781387366555559 -0.23090770197000129 0 -0.1805311654956796 -0.2411950136452527 0 -0.19410287643929239 -0.23312434657521411 0 -0.17781387366555559 -0.23090770197000129 0 -0.1805311654956796 -0.2411950136452527 0 -0.16955513552828311 -0.24305067226283769 0 -0.17679077873490559 -0.25046109420941731 0 -0.1805311654956796 -0.2411950136452527 0 -0.18863044441395099 -0.24733650333174401 0 -0.17679077873490559 -0.25046109420941731 0 -0.1805311654956796 -0.2411950136452527 0 -0.16955513552828311 -0.24305067226283769 0 -0.16709258238786229 -0.25188408856254202 0 -0.17679077873490559 -0.25046109420941731 0 -0.16955513552828311 -0.24305067226283769 0 -0.16709258238786229 -0.25188408856254202 0 -0.16955513552828311 -0.24305067226283769 0 -0.1601832428566283 -0.24550858739866141 0 -0.17781387366555559 -0.23090770197000129 0 -0.16955513552828311 -0.24305067226283769 0 -0.16324537569009509 -0.2357306359809743 0 -0.16955513552828311 -0.24305067226283769 0 -0.16324537569009509 -0.2357306359809743 0 -0.1601832428566283 -0.24550858739866141 0 -0.15348527020851541 -0.23913552791147211 0 -0.16324537569009509 -0.2357306359809743 0 -0.1601832428566283 -0.24550858739866141 0 -0.1593809120407062 -0.25278805690175971 0 -0.15289321433053751 -0.246830478479277 0 -0.1601832428566283 -0.24550858739866141 0 -0.20565562739327201 -0.24334207984173631 0 -0.19410287643929239 -0.23312434657521411 0 -0.21201774175915139 -0.2290986139018284 0 -0.21472073189145299 -0.25725591714607071 0 -0.20565562739327201 -0.24334207984173631 0 -0.22837296648480071 -0.23789375384220129 0 -0.20565562739327201 -0.24334207984173631 0 -0.21201774175915139 -0.2290986139018284 0 -0.22837296648480071 -0.23789375384220129 0 -0.20565562739327201 -0.24334207984173631 0 -0.18863044441395099 -0.24733650333174401 0 -0.19410287643929239 -0.23312434657521411 0 -0.1805311654956796 -0.2411950136452527 0 -0.18863044441395099 -0.24733650333174401 0 -0.19410287643929239 -0.23312434657521411 0 -0.17781387366555559 -0.23090770197000129 0 -0.19410287643929239 -0.23312434657521411 0 -0.19175951728552271 -0.21959172261586679 0 -0.19410287643929239 -0.23312434657521411 0 -0.19175951728552271 -0.21959172261586679 0 -0.20443040571370949 -0.21985141578154491 0 -0.21201774175915139 -0.2290986139018284 0 -0.20443040571370949 -0.21985141578154491 0 -0.22630383013383959 -0.21240708539258099 0 -0.19410287643929239 -0.23312434657521411 0 -0.21201774175915139 -0.2290986139018284 0 -0.20443040571370949 -0.21985141578154491 0 -0.20157622681128409 -0.2075672839719423 0 -0.21557055542943429 -0.1904257004922347 0 -0.22630383013383959 -0.21240708539258099 0 -0.20157622681128409 -0.2075672839719423 0 -0.22630383013383959 -0.21240708539258099 0 -0.20443040571370949 -0.21985141578154491 0 -0.20157622681128409 -0.2075672839719423 0 -0.22630383013383959 -0.21240708539258099 0 -0.19175951728552271 -0.21959172261586679 0 -0.20443040571370949 -0.21985141578154491 0 -0.20157622681128409 -0.2075672839719423 0 -0.19175951728552271 -0.21959172261586679 0 -0.20157622681128409 -0.2075672839719423 0 -0.19175951728552271 -0.21959172261586679 0 -0.18904495760185211 -0.20873870471059999 0 -0.20157622681128409 -0.2075672839719423 0 -0.18904495760185211 -0.20873870471059999 0 -0.20157622681128409 -0.2075672839719423 0 -0.19252771524915421 -0.19930647688205899 0 -0.17994482166635981 -0.2014366202218163 0 -0.19252771524915421 -0.19930647688205899 0 -0.1907059301477185 -0.18468107337543721 0 -0.20157622681128409 -0.2075672839719423 0 -0.19252771524915421 -0.19930647688205899 0 -0.20187756758401409 -0.19506767240709361 0 -0.19252771524915421 -0.19930647688205899 0 -0.20187756758401409 -0.19506767240709361 0 -0.1907059301477185 -0.18468107337543721 0 -0.20157622681128409 -0.2075672839719423 0 -0.21557055542943429 -0.1904257004922347 0 -0.20187756758401409 -0.19506767240709361 0 -0.21557055542943429 -0.1904257004922347 0 -0.2038146335316797 -0.1820121315948606 0 -0.20157622681128409 -0.2075672839719423 0 -0.20187756758401409 -0.19506767240709361 0 -0.21557055542943429 -0.1904257004922347 0 -0.21557055542943429 -0.1904257004922347 0 -0.23533053747689989 -0.1962925907305976 0 -0.22630383013383959 -0.21240708539258099 0 -0.23533053747689989 -0.1962925907305976 0 -0.25103143345639523 -0.21724688681321891 0 -0.25418198431724581 -0.18809916394242601 0 -0.22630383013383959 -0.21240708539258099 0 -0.25103143345639523 -0.21724688681321891 0 -0.23533053747689989 -0.1962925907305976 0 -0.22630383013383959 -0.21240708539258099 0 -0.25103143345639523 -0.21724688681321891 0 -0.21201774175915139 -0.2290986139018284 0 -0.22630383013383959 -0.21240708539258099 0 -0.22837296648480071 -0.23789375384220129 0 -0.22630383013383959 -0.21240708539258099 0 -0.22837296648480071 -0.23789375384220129 0 -0.25103143345639523 -0.21724688681321891 0 -0.22837296648480071 -0.23789375384220129 0 -0.25431856302814809 -0.24833495949118861 0 -0.25103143345639523 -0.21724688681321891 0 -0.2335542019388327 -0.26090262277066528 0 -0.22837296648480071 -0.23789375384220129 0 -0.25431856302814809 -0.24833495949118861 0 -0.20708483324238849 -0.15128624944667929 0 -0.22647357207813959 -0.15205360930679629 0 -0.2195633859389316 -0.1340578990397249 0 -0.20708483324238849 -0.15128624944667929 0 -0.19823449762692411 -0.13229999761030051 0 -0.2195633859389316 -0.1340578990397249 0 -0.19823449762692411 -0.13229999761030051 0 -0.2195633859389316 -0.1340578990397249 0 -0.21022893699736381 -0.1097241998529486 0 -0.17775058767377289 -0.13584559103097291 0 -0.19823449762692411 -0.13229999761030051 0 -0.1894311146879058 -0.1465309504005988 0 -0.20708483324238849 -0.15128624944667929 0 -0.1894311146879058 -0.1465309504005988 0 -0.19351686899232889 -0.15854259719770419 0 -0.20708483324238849 -0.15128624944667929 0 -0.19823449762692411 -0.13229999761030051 0 -0.1894311146879058 -0.1465309504005988 0 -0.20708483324238849 -0.15128624944667929 0 -0.19351686899232889 -0.15854259719770419 0 -0.19880271024428661 -0.17007658736909009 0 -0.18239484980351819 -0.16464781923938721 0 -0.1894311146879058 -0.1465309504005988 0 -0.19351686899232889 -0.15854259719770419 0 -0.18239484980351819 -0.16464781923938721 0 -0.19351686899232889 -0.15854259719770419 0 -0.19880271024428661 -0.17007658736909009 0 -0.18239484980351819 -0.16464781923938721 0 -0.19880271024428661 -0.17007658736909009 0 -0.1907059301477185 -0.18468107337543721 0 -0.19880271024428661 -0.17007658736909009 0 -0.1907059301477185 -0.18468107337543721 0 -0.2038146335316797 -0.1820121315948606 0 -0.20187756758401409 -0.19506767240709361 0 -0.1907059301477185 -0.18468107337543721 0 -0.2038146335316797 -0.1820121315948606 0 -0.21557055542943429 -0.1904257004922347 0 -0.2038146335316797 -0.1820121315948606 0 -0.21355186476225221 -0.16985639920369799 0 -0.19880271024428661 -0.17007658736909009 0 -0.2038146335316797 -0.1820121315948606 0 -0.21355186476225221 -0.16985639920369799 0 -0.20708483324238849 -0.15128624944667929 0 -0.21355186476225221 -0.16985639920369799 0 -0.22647357207813959 -0.15205360930679629 0 -0.20708483324238849 -0.15128624944667929 0 -0.19880271024428661 -0.17007658736909009 0 -0.21355186476225221 -0.16985639920369799 0 -0.22956488404758479 -0.1732841170125273 0 -0.2435592126657353 -0.1561425335328199 0 -0.22647357207813959 -0.15205360930679629 0 -0.21355186476225221 -0.16985639920369799 0 -0.22956488404758479 -0.1732841170125273 0 -0.22647357207813959 -0.15205360930679629 0 -0.21557055542943429 -0.1904257004922347 0 -0.21355186476225221 -0.16985639920369799 0 -0.22956488404758479 -0.1732841170125273 0 -0.21557055542943429 -0.1904257004922347 0 -0.22956488404758479 -0.1732841170125273 0 -0.21557055542943429 -0.1904257004922347 0 -0.23533053747689989 -0.1962925907305976 0 -0.22956488404758479 -0.1732841170125273 0 -0.23533053747689989 -0.1962925907305976 0 -0.22956488404758479 -0.1732841170125273 0 -0.25418198431724581 -0.18809916394242601 0 -0.22956488404758479 -0.1732841170125273 0 -0.25418198431724581 -0.18809916394242601 0 -0.2565438833259911 -0.1687602707777138 0 -0.22956488404758479 -0.1732841170125273 0 -0.2435592126657353 -0.1561425335328199 0 -0.22956488404758479 -0.1732841170125273 0 -0.2435592126657353 -0.1561425335328199 0 -0.2565438833259911 -0.1687602707777138 0 -0.2435592126657353 -0.1561425335328199 0 -0.22647357207813959 -0.15205360930679629 0 -0.2432602079730701 -0.13485583854350039 0 -0.22647357207813959 -0.15205360930679629 0 -0.2195633859389316 -0.1340578990397249 0 -0.2432602079730701 -0.13485583854350039 0 -0.2195633859389316 -0.1340578990397249 0 -0.2432602079730701 -0.13485583854350039 0 -0.23065476516460279 -0.11957242830579699 0 -0.2432602079730701 -0.13485583854350039 0 -0.2499653418643101 -0.1102460646797562 0 -0.23065476516460279 -0.11957242830579699 0 -0.2499653418643101 -0.1102460646797562 0 -0.2308399038819596 -0.1034577205422559 0 -0.23065476516460279 -0.11957242830579699 0 -0.2308399038819596 -0.1034577205422559 0 -0.25308440776240432 -0.086371671251396109 0 -0.2499653418643101 -0.1102460646797562 0 -0.2308399038819596 -0.1034577205422559 0 -0.25308440776240432 -0.086371671251396109 0 -0.2308399038819596 -0.1034577205422559 0 -0.21022893699736381 -0.1097241998529486 0 -0.21520721362926831 -0.098298511723915558 0 -0.2308399038819596 -0.1034577205422559 0 -0.22013457808717909 -0.089221868029860679 0 -0.21520721362926831 -0.098298511723915558 0 -0.2308399038819596 -0.1034577205422559 0 -0.23065476516460279 -0.11957242830579699 0 -0.21022893699736381 -0.1097241998529486 0 -0.2195633859389316 -0.1340578990397249 0 -0.23065476516460279 -0.11957242830579699 0 -0.21022893699736381 -0.1097241998529486 0 -0.2335598957907816 -0.079883889973887123 0 -0.24475965461883589 -0.059498385283178377 0 -0.2582325144520296 -0.070050845257802419 0 -0.2335598957907816 -0.079883889973887123 0 -0.2582325144520296 -0.070050845257802419 0 -0.25308440776240432 -0.086371671251396109 0 -0.2308399038819596 -0.1034577205422559 0 -0.2335598957907816 -0.079883889973887123 0 -0.25308440776240432 -0.086371671251396109 0 -0.2308399038819596 -0.1034577205422559 0 -0.22013457808717909 -0.089221868029860679 0 -0.2335598957907816 -0.079883889973887123 0 -0.22013457808717909 -0.089221868029860679 0 -0.2335598957907816 -0.079883889973887123 0 -0.21963876375789801 -0.077814354495200549 0 -0.2335598957907816 -0.079883889973887123 0 -0.21595644614104051 -0.065738508165203102 0 -0.24475965461883589 -0.059498385283178377 0 -0.21595644614104051 -0.065738508165203102 0 -0.24475965461883589 -0.059498385283178377 0 -0.2335598957907816 -0.079883889973887123 0 -0.21963876375789801 -0.077814354495200549 0 -0.21595644614104051 -0.065738508165203102 0 -0.20438945881064449 -0.068244458930106389 0 -0.21100771399754009 -0.086966924160961745 0 -0.21595644614104051 -0.065738508165203102 0 -0.21100771399754009 -0.086966924160961745 0 -0.20438945881064449 -0.068244458930106389 0 -0.21595644614104051 -0.065738508165203102 0 -0.21100771399754009 -0.086966924160961745 0 -0.21963876375789801 -0.077814354495200549 0 -0.21595644614104051 -0.065738508165203102 0 -0.21100771399754009 -0.086966924160961745 0 -0.20438945881064449 -0.068244458930106389 0 -0.21595644614104051 -0.065738508165203102 0 -0.20438945881064449 -0.068244458930106389 0 -0.21595644614104051 -0.065738508165203102 0 -0.20711132549122371 -0.057203435059411119 0 -0.20438945881064449 -0.068244458930106389 0 -0.21100771399754009 -0.086966924160961745 0 -0.19851231957361129 -0.085310821531315487 0 -0.22013457808717909 -0.089221868029860679 0 -0.21963876375789801 -0.077814354495200549 0 -0.21100771399754009 -0.086966924160961745 0 -0.22013457808717909 -0.089221868029860679 0 -0.21100771399754009 -0.086966924160961745 0 -0.21520721362926831 -0.098298511723915558 0 -0.21100771399754009 -0.086966924160961745 0 -0.19851231957361129 -0.085310821531315487 0 -0.20550431009004061 -0.095676697317907802 0 -0.21100771399754009 -0.086966924160961745 0 -0.21520721362926831 -0.098298511723915558 0 -0.20550431009004061 -0.095676697317907802 0 -0.19851231957361129 -0.085310821531315487 0 -0.18118326058104209 -0.08825419183970401 0 -0.18409944718507371 -0.07264022497537044 0 -0.19851231957361129 -0.085310821531315487 0 -0.19294566676858971 -0.096864600750783431 0 -0.18118326058104209 -0.08825419183970401 0 -0.19851231957361129 -0.085310821531315487 0 -0.20550431009004061 -0.095676697317907802 0 -0.19294566676858971 -0.096864600750783431 0 -0.20438945881064449 -0.068244458930106389 0 -0.19851231957361129 -0.085310821531315487 0 -0.18409944718507371 -0.07264022497537044 0 -0.20438945881064449 -0.068244458930106389 0 -0.18409944718507371 -0.07264022497537044 0 -0.18769526278089041 -0.057829612445021099 0 -0.20438945881064449 -0.068244458930106389 0 -0.18409944718507371 -0.07264022497537044 0 -0.21022893699736381 -0.1097241998529486 0 -0.21520721362926831 -0.098298511723915558 0 -0.20550431009004061 -0.095676697317907802 0 -0.21022893699736381 -0.1097241998529486 0 -0.20550431009004061 -0.095676697317907802 0 -0.19294566676858971 -0.096864600750783431 0 -0.19294566676858971 -0.096864600750783431 0 -0.18534812722118199 -0.1163550958908785 0 -0.21022893699736381 -0.1097241998529486 0 -0.19294566676858971 -0.096864600750783431 0 -0.18534812722118199 -0.1163550958908785 0 -0.19823449762692411 -0.13229999761030051 0 -0.21022893699736381 -0.1097241998529486 0 -0.18534812722118199 -0.1163550958908785 0 -0.18534812722118199 -0.1163550958908785 0 -0.17423934197139679 -0.1017815859784342 0 -0.15606779039194271 -0.1160101434681408 0 -0.17775058767377289 -0.13584559103097291 0 -0.18534812722118199 -0.1163550958908785 0 -0.15606779039194271 -0.1160101434681408 0 -0.16057304666404501 -0.10079887419961479 0 -0.17423934197139679 -0.1017815859784342 0 -0.15606779039194271 -0.1160101434681408 0 -0.16057304666404501 -0.10079887419961479 0 -0.16746185343044401 -0.091445336260546128 0 -0.1570966781871318 -0.090327755750333361 0 -0.16057304666404501 -0.10079887419961479 0 -0.17423934197139679 -0.1017815859784342 0 -0.16746185343044401 -0.091445336260546128 0 -0.17423934197139679 -0.1017815859784342 0 -0.18118326058104209 -0.08825419183970401 0 -0.16746185343044401 -0.091445336260546128 0 -0.19294566676858971 -0.096864600750783431 0 -0.18534812722118199 -0.1163550958908785 0 -0.17423934197139679 -0.1017815859784342 0 -0.19294566676858971 -0.096864600750783431 0 -0.17423934197139679 -0.1017815859784342 0 -0.18118326058104209 -0.08825419183970401 0 -0.18118326058104209 -0.08825419183970401 0 -0.18409944718507371 -0.07264022497537044 0 -0.16915717098214109 -0.081397787743409861 0 -0.18118326058104209 -0.08825419183970401 0 -0.16746185343044401 -0.091445336260546128 0 -0.16915717098214109 -0.081397787743409861 0 -0.18409944718507371 -0.07264022497537044 0 -0.1702117591297739 -0.06777753321031553 0 -0.16380943555950259 -0.077035991020633382 0 -0.18409944718507371 -0.07264022497537044 0 -0.16380943555950259 -0.077035991020633382 0 -0.16915717098214109 -0.081397787743409861 0 -0.18409944718507371 -0.07264022497537044 0 -0.17187825396406881 -0.057945450019426657 0 -0.18769526278089041 -0.057829612445021099 0 -0.18409944718507371 -0.07264022497537044 0 -0.16380943555950259 -0.077035991020633382 0 -0.18409944718507371 -0.07264022497537044 0 -0.1702117591297739 -0.06777753321031553 0 -0.17187825396406881 -0.057945450019426657 0 -0.16380943555950259 -0.077035991020633382 0 -0.16105989981045041 -0.063488466825831633 0 -0.14595160177326619 -0.062470528310013429 0 -0.1702117591297739 -0.06777753321031553 0 -0.16105989981045041 -0.063488466825831633 0 -0.17187825396406881 -0.057945450019426657 0 -0.1702117591297739 -0.06777753321031553 0 -0.16380943555950259 -0.077035991020633382 0 -0.16105989981045041 -0.063488466825831633 0 -0.16380943555950259 -0.077035991020633382 0 -0.16109871639751261 -0.084134952385501949 0 -0.14796844382834351 -0.080467891152587012 0 -0.16746185343044401 -0.091445336260546128 0 -0.16915717098214109 -0.081397787743409861 0 -0.16109871639751261 -0.084134952385501949 0 -0.16380943555950259 -0.077035991020633382 0 -0.16915717098214109 -0.081397787743409861 0 -0.16109871639751261 -0.084134952385501949 0 -0.16380943555950259 -0.077035991020633382 0 -0.16915717098214109 -0.081397787743409861 0 -0.16746185343044401 -0.091445336260546128 0 -0.16109871639751261 -0.084134952385501949 0 -0.1570966781871318 -0.090327755750333361 0 -0.16380943555950259 -0.077035991020633382 0 -0.14796844382834351 -0.080467891152587012 0 -0.14796844382834351 -0.080467891152587012 0 -0.13497135686491851 -0.078315161523928284 0 -0.1484932433812913 -0.094043062253026791 0 -0.1570966781871318 -0.090327755750333361 0 -0.14796844382834351 -0.080467891152587012 0 -0.1484932433812913 -0.094043062253026791 0 -0.16109871639751261 -0.084134952385501949 0 -0.1570966781871318 -0.090327755750333361 0 -0.14796844382834351 -0.080467891152587012 0 -0.16380943555950259 -0.077035991020633382 0 -0.14796844382834351 -0.080467891152587012 0 -0.14595160177326619 -0.062470528310013429 0 -0.16380943555950259 -0.077035991020633382 0 -0.14595160177326619 -0.062470528310013429 0 -0.14796844382834351 -0.080467891152587012 0 -0.13497135686491851 -0.078315161523928284 0 -0.14595160177326619 -0.062470528310013429 0 -0.1158705629695205 -0.060236298698018297 0 -0.13497135686491851 -0.078315161523928284 0 -0.1158705629695205 -0.060236298698018297 0 -0.13497135686491851 -0.078315161523928284 0 -0.13122182239868371 -0.062231763532838429 0 -0.13497135686491851 -0.078315161523928284 0 -0.13122182239868371 -0.062231763532838429 0 -0.14595160177326619 -0.062470528310013429 0 -0.112702195828283 -0.076339248342475546 0 -0.13497135686491851 -0.078315161523928284 0 -0.13438499311011279 -0.096174695905308166 0 -0.13497135686491851 -0.078315161523928284 0 -0.13438499311011279 -0.096174695905308166 0 -0.1484932433812913 -0.094043062253026791 0 -0.11276894493928399 -0.097790936300085646 0 -0.13438499311011279 -0.096174695905308166 0 -0.1306137014228527 -0.1212095633787966 0 -0.13438499311011279 -0.096174695905308166 0 -0.1306137014228527 -0.1212095633787966 0 -0.15606779039194271 -0.1160101434681408 0 -0.15406265534163929 -0.1294064941378926 0 -0.1306137014228527 -0.1212095633787966 0 -0.15606779039194271 -0.1160101434681408 0 -0.13438499311011279 -0.096174695905308166 0 -0.15606779039194271 -0.1160101434681408 0 -0.1484932433812913 -0.094043062253026791 0 -0.16057304666404501 -0.10079887419961479 0 -0.15606779039194271 -0.1160101434681408 0 -0.1484932433812913 -0.094043062253026791 0 -0.13438499311011279 -0.096174695905308166 0 -0.15606779039194271 -0.1160101434681408 0 -0.16057304666404501 -0.10079887419961479 0 -0.1570966781871318 -0.090327755750333361 0 -0.1484932433812913 -0.094043062253026791 0 -0.14513665439653431 -0.02122229521611602 0 -0.15148395360685291 -0.031475856168514699 0 -0.16129500549156001 -0.024264335985147129 0 -0.14513665439653431 -0.02122229521611602 0 -0.1346415055917565 -0.031432898451717602 0 -0.15148395360685291 -0.031475856168514699 0 -0.14513665439653431 -0.02122229521611602 0 -0.15327979458335059 -0.01391829646419882 0 -0.16129500549156001 -0.024264335985147129 0 -0.1412848112475209 -0.008091449167619497 0 -0.15773416148281841 -0.0035868741371463562 0 -0.14801408494475049 0.0031182785745780331 0 -0.15327979458335059 -0.01391829646419882 0 -0.1412848112475209 -0.008091449167619497 0 -0.15773416148281841 -0.0035868741371463562 0 -0.14513665439653431 -0.02122229521611602 0 -0.15327979458335059 -0.01391829646419882 0 -0.1412848112475209 -0.008091449167619497 0 -0.1236693299605585 -0.0137973575501921 0 -0.1412848112475209 -0.008091449167619497 0 -0.12735709500343681 0.004015926865657337 0 -0.1412848112475209 -0.008091449167619497 0 -0.12735709500343681 0.004015926865657337 0 -0.14801408494475049 0.0031182785745780331 0 -0.1236693299605585 -0.0137973575501921 0 -0.1412848112475209 -0.008091449167619497 0 -0.13426109495296229 -0.02049569832685658 0 -0.1236693299605585 -0.0137973575501921 0 -0.1221370268088495 -0.025998648103035 0 -0.13426109495296229 -0.02049569832685658 0 -0.14513665439653431 -0.02122229521611602 0 -0.1412848112475209 -0.008091449167619497 0 -0.13426109495296229 -0.02049569832685658 0 -0.14513665439653431 -0.02122229521611602 0 -0.13426109495296229 -0.02049569832685658 0 -0.1346415055917565 -0.031432898451717602 0 -0.1221370268088495 -0.025998648103035 0 -0.12530131535501859 -0.034952786400489197 0 -0.1346415055917565 -0.031432898451717602 0 -0.1221370268088495 -0.025998648103035 0 -0.13426109495296229 -0.02049569832685658 0 -0.1346415055917565 -0.031432898451717602 0 -0.12530131535501859 -0.034952786400489197 0 -0.1346415055917565 -0.031432898451717602 0 -0.12809376798702951 -0.047905065599393698 0 -0.1346415055917565 -0.031432898451717602 0 -0.12809376798702951 -0.047905065599393698 0 -0.14629371500633531 -0.042796653234188263 0 -0.12809376798702951 -0.047905065599393698 0 -0.14595160177326619 -0.062470528310013429 0 -0.12809376798702951 -0.047905065599393698 0 -0.14595160177326619 -0.062470528310013429 0 -0.14629371500633531 -0.042796653234188263 0 -0.13122182239868371 -0.062231763532838429 0 -0.12809376798702951 -0.047905065599393698 0 -0.14595160177326619 -0.062470528310013429 0 -0.1158705629695205 -0.060236298698018297 0 -0.13122182239868371 -0.062231763532838429 0 -0.12809376798702951 -0.047905065599393698 0 -0.14595160177326619 -0.062470528310013429 0 -0.14629371500633531 -0.042796653234188263 0 -0.15696853651444401 -0.052603520026387289 0 -0.16105989981045041 -0.063488466825831633 0 -0.14595160177326619 -0.062470528310013429 0 -0.15696853651444401 -0.052603520026387289 0 -0.15148395360685291 -0.031475856168514699 0 -0.14629371500633531 -0.042796653234188263 0 -0.16402488563849801 -0.041062174760887443 0 -0.1346415055917565 -0.031432898451717602 0 -0.15148395360685291 -0.031475856168514699 0 -0.14629371500633531 -0.042796653234188263 0 -0.14629371500633531 -0.042796653234188263 0 -0.16402488563849801 -0.041062174760887443 0 -0.15696853651444401 -0.052603520026387289 0 -0.15148395360685291 -0.031475856168514699 0 -0.16402488563849801 -0.041062174760887443 0 -0.16129500549156001 -0.024264335985147129 0 -0.16402488563849801 -0.041062174760887443 0 -0.17409393016306191 -0.030370879776367592 0 -0.16129500549156001 -0.024264335985147129 0 -0.16402488563849801 -0.041062174760887443 0 -0.15696853651444401 -0.052603520026387289 0 -0.17187825396406881 -0.057945450019426657 0 -0.16105989981045041 -0.063488466825831633 0 -0.15696853651444401 -0.052603520026387289 0 -0.17187825396406881 -0.057945450019426657 0 -0.16402488563849801 -0.041062174760887443 0 -0.17187825396406881 -0.057945450019426657 0 -0.18133558272394029 -0.043618149437272283 0 -0.17187825396406881 -0.057945450019426657 0 -0.18133558272394029 -0.043618149437272283 0 -0.18769526278089041 -0.057829612445021099 0 -0.18133558272394029 -0.043618149437272283 0 -0.17409393016306191 -0.030370879776367592 0 -0.18915768363079971 -0.025155098795753519 0 -0.16402488563849801 -0.041062174760887443 0 -0.18133558272394029 -0.043618149437272283 0 -0.17409393016306191 -0.030370879776367592 0 -0.17409393016306191 -0.030370879776367592 0 -0.17549551533112251 -0.014893414490097231 0 -0.18915768363079971 -0.025155098795753519 0 -0.16129500549156001 -0.024264335985147129 0 -0.16350931143073591 -0.01273440345064396 0 -0.17549551533112251 -0.014893414490097231 0 -0.17409393016306191 -0.030370879776367592 0 -0.16129500549156001 -0.024264335985147129 0 -0.17549551533112251 -0.014893414490097231 0 -0.15327979458335059 -0.01391829646419882 0 -0.16129500549156001 -0.024264335985147129 0 -0.16350931143073591 -0.01273440345064396 0 -0.15773416148281841 -0.0035868741371463562 0 -0.16716832075785379 -0.0032078365625175 0 -0.1619193683370386 0.0066468078375689294 0 -0.15773416148281841 -0.0035868741371463562 0 -0.16350931143073591 -0.01273440345064396 0 -0.16716832075785379 -0.0032078365625175 0 -0.15327979458335059 -0.01391829646419882 0 -0.15773416148281841 -0.0035868741371463562 0 -0.16350931143073591 -0.01273440345064396 0 -0.16350931143073591 -0.01273440345064396 0 -0.16716832075785379 -0.0032078365625175 0 -0.17549551533112251 -0.014893414490097231 0 -0.17549551533112251 -0.014893414490097231 0 -0.18154179604087481 -0.0036104187285780349 0 -0.18915768363079971 -0.025155098795753519 0 -0.18154179604087481 -0.0036104187285780349 0 -0.18915768363079971 -0.025155098795753519 0 -0.17549551533112251 -0.014893414490097231 0 -0.17584419881677341 0.0071523107965592754 0 -0.17549551533112251 -0.014893414490097231 0 -0.18154179604087481 -0.0036104187285780349 0 -0.17584419881677341 0.0071523107965592754 0 -0.16716832075785379 -0.0032078365625175 0 -0.17549551533112251 -0.014893414490097231 0 -0.17584419881677341 0.0071523107965592754 0 -0.18154179604087481 -0.0036104187285780349 0 -0.19066530249761049 -0.0041303576494283751 0 -0.18915768363079971 -0.025155098795753519 0 -0.18154179604087481 -0.0036104187285780349 0 -0.19066530249761049 -0.0041303576494283751 0 -0.18717715497560061 0.0062623078557712403 0 -0.19066530249761049 -0.0041303576494283751 0 -0.1989264366345522 -0.0080023544535597537 0 -0.18915768363079971 -0.025155098795753519 0 -0.19066530249761049 -0.0041303576494283751 0 -0.1989264366345522 -0.0080023544535597537 0 -0.1965234412062255 0.0098537758749781944 0 -0.1989264366345522 -0.0080023544535597537 0 -0.2007918169376324 -0.0191738513677071 0 -0.20680177871376751 -0.0119671669755851 0 -0.18915768363079971 -0.025155098795753519 0 -0.2007918169376324 -0.0191738513677071 0 -0.21013076049929519 -0.028334228638799381 0 -0.1989264366345522 -0.0080023544535597537 0 -0.18915768363079971 -0.025155098795753519 0 -0.2007918169376324 -0.0191738513677071 0 -0.2007918169376324 -0.0191738513677071 0 -0.21013076049929519 -0.028334228638799381 0 -0.20680177871376751 -0.0119671669755851 0 -0.21013076049929519 -0.028334228638799381 0 -0.21702438745170211 -0.0043907958627755336 0 -0.21921501925093501 -0.017985606360015789 0 -0.21013076049929519 -0.028334228638799381 0 -0.21702438745170211 -0.0043907958627755336 0 -0.21013076049929519 -0.028334228638799381 0 -0.22271521407306469 -0.037269361340154371 0 -0.21921501925093501 -0.017985606360015789 0 -0.21013076049929519 -0.028334228638799381 0 -0.21702438745170211 -0.0043907958627755336 0 -0.20680177871376751 -0.0119671669755851 0 -0.1989264366345522 -0.0080023544535597537 0 -0.20680177871376751 -0.0119671669755851 0 -0.20713549204565579 6.5395444916274768e-05 0 -0.21702438745170211 -0.0043907958627755336 0 -0.20680177871376751 -0.0119671669755851 0 -0.20713549204565579 6.5395444916274768e-05 0 -0.20438945881064449 -0.068244458930106389 0 -0.1967735712207245 -0.046699778862929052 0 -0.20438945881064449 -0.068244458930106389 0 -0.18769526278089041 -0.057829612445021099 0 -0.1967735712207245 -0.046699778862929052 0 -0.20438945881064449 -0.068244458930106389 0 -0.1967735712207245 -0.046699778862929052 0 -0.20711132549122371 -0.057203435059411119 0 -0.18133558272394029 -0.043618149437272283 0 -0.18769526278089041 -0.057829612445021099 0 -0.1967735712207245 -0.046699778862929052 0 -0.18133558272394029 -0.043618149437272283 0 -0.18915768363079971 -0.025155098795753519 0 -0.1967735712207245 -0.046699778862929052 0 -0.18915768363079971 -0.025155098795753519 0 -0.1967735712207245 -0.046699778862929052 0 -0.18915768363079971 -0.025155098795753519 0 -0.21013076049929519 -0.028334228638799381 0 -0.1967735712207245 -0.046699778862929052 0 -0.21013076049929519 -0.028334228638799381 0 -0.21132582579248671 -0.048130994279405613 0 -0.22271521407306469 -0.037269361340154371 0 -0.21013076049929519 -0.028334228638799381 0 -0.1967735712207245 -0.046699778862929052 0 -0.21132582579248671 -0.048130994279405613 0 -0.21595644614104051 -0.065738508165203102 0 -0.21132582579248671 -0.048130994279405613 0 -0.22271521407306469 -0.037269361340154371 0 -0.21595644614104051 -0.065738508165203102 0 -0.21132582579248671 -0.048130994279405613 0 -0.20711132549122371 -0.057203435059411119 0 -0.1967735712207245 -0.046699778862929052 0 -0.21132582579248671 -0.048130994279405613 0 -0.20711132549122371 -0.057203435059411119 0 -0.21595644614104051 -0.065738508165203102 0 -0.2284172135094342 -0.053659916570315727 0 -0.24475965461883589 -0.059498385283178377 0 -0.21595644614104051 -0.065738508165203102 0 -0.2284172135094342 -0.053659916570315727 0 -0.22271521407306469 -0.037269361340154371 0 -0.21595644614104051 -0.065738508165203102 0 -0.22271521407306469 -0.037269361340154371 0 -0.2284172135094342 -0.053659916570315727 0 -0.22271521407306469 -0.037269361340154371 0 -0.23903543051913109 -0.043198085603962481 0 -0.22271521407306469 -0.037269361340154371 0 -0.23903543051913109 -0.043198085603962481 0 -0.24161885061771041 -0.026720350447010301 0 -0.23903543051913109 -0.043198085603962481 0 -0.24161885061771041 -0.026720350447010301 0 -0.25766621977661042 -0.038842414379153638 0 -0.23903543051913109 -0.043198085603962481 0 -0.24475965461883589 -0.059498385283178377 0 -0.25766621977661042 -0.038842414379153638 0 -0.2284172135094342 -0.053659916570315727 0 -0.23903543051913109 -0.043198085603962481 0 -0.24475965461883589 -0.059498385283178377 0 -0.22947398200509031 -0.0088002145151058891 0 -0.22867745033346079 0.0038692188645070222 0 -0.2401015516947359 0.00075261550232862703 0 -0.21702438745170211 -0.0043907958627755336 0 -0.22947398200509031 -0.0088002145151058891 0 -0.22867745033346079 0.0038692188645070222 0 -0.21702438745170211 -0.0043907958627755336 0 -0.22947398200509031 -0.0088002145151058891 0 -0.21921501925093501 -0.017985606360015789 0 -0.22271521407306469 -0.037269361340154371 0 -0.22947398200509031 -0.0088002145151058891 0 -0.21921501925093501 -0.017985606360015789 0 -0.22271521407306469 -0.037269361340154371 0 -0.22947398200509031 -0.0088002145151058891 0 -0.22271521407306469 -0.037269361340154371 0 -0.22947398200509031 -0.0088002145151058891 0 -0.24161885061771041 -0.026720350447010301 0 -0.22947398200509031 -0.0088002145151058891 0 -0.24161885061771041 -0.026720350447010301 0 -0.2437457614006571 -0.011962382738850049 0 -0.24161885061771041 -0.026720350447010301 0 -0.2437457614006571 -0.011962382738850049 0 -0.2598032925822476 -0.0188915667982569 0 -0.22947398200509031 -0.0088002145151058891 0 -0.2437457614006571 -0.011962382738850049 0 -0.2401015516947359 0.00075261550232862703 0 -0.2437457614006571 -0.011962382738850049 0 -0.25267499080189931 -0.0034516002120552492 0 -0.2401015516947359 0.00075261550232862703 0 -0.25267499080189931 -0.0034516002120552492 0 -0.2598032925822476 -0.0188915667982569 0 -0.26909988492935111 -0.0018655285383734981 0 -0.2437457614006571 -0.011962382738850049 0 -0.25267499080189931 -0.0034516002120552492 0 -0.2598032925822476 -0.0188915667982569 0 -0.2598032925822476 -0.0188915667982569 0 -0.27267419604841259 -0.026924212746328481 0 -0.25766621977661042 -0.038842414379153638 0 -0.24161885061771041 -0.026720350447010301 0 -0.2598032925822476 -0.0188915667982569 0 -0.25766621977661042 -0.038842414379153638 0 -0.2598032925822476 -0.0188915667982569 0 -0.27267419604841259 -0.026924212746328481 0 -0.27804425228895369 -0.016131696666228459 0 -0.27267419604841259 -0.026924212746328481 0 -0.27804425228895369 -0.016131696666228459 0 -0.28378415359151371 -0.031280105512012511 0 -0.27804425228895369 -0.016131696666228459 0 -0.26909988492935111 -0.0018655285383734981 0 -0.2917254884257266 -0.0017566381736345419 0 -0.2598032925822476 -0.0188915667982569 0 -0.27804425228895369 -0.016131696666228459 0 -0.26909988492935111 -0.0018655285383734981 0 -0.27804425228895369 -0.016131696666228459 0 -0.2917254884257266 -0.0017566381736345419 0 -0.2928870998243559 -0.020527937726781 0 -0.27804425228895369 -0.016131696666228459 0 -0.2928870998243559 -0.020527937726781 0 -0.28378415359151371 -0.031280105512012511 0 -0.2928870998243559 -0.020527937726781 0 -0.29943422057661201 -0.032203920876667472 0 -0.28378415359151371 -0.031280105512012511 0 -0.2928870998243559 -0.020527937726781 0 -0.31144738423897378 -0.02126732740536201 0 -0.29943422057661201 -0.032203920876667472 0 -0.31144738423897378 -0.02126732740536201 0 -0.31110423911055801 -0.035316851109560482 0 -0.29943422057661201 -0.032203920876667472 0 -0.2917254884257266 -0.0017566381736345419 0 -0.31144738423897378 -0.02126732740536201 0 -0.31177688145040278 0.0050359958776742568 0 -0.2917254884257266 -0.0017566381736345419 0 -0.2928870998243559 -0.020527937726781 0 -0.31144738423897378 -0.02126732740536201 0 -0.2917254884257266 -0.0017566381736345419 0 -0.31144738423897378 -0.02126732740536201 0 -0.30323190850646392 -0.052883144282766713 0 -0.3023660715744253 -0.047018139519123002 0 -0.29757341552329353 -0.05219957266967655 0 -0.29931176789370939 -0.061629941742321552 0 -0.30659897303184058 -0.057135789817405573 0 -0.30728911182784302 -0.064893595009923935 0 -0.30323190850646392 -0.052883144282766713 0 -0.29931176789370939 -0.061629941742321552 0 -0.30659897303184058 -0.057135789817405573 0 -0.30323190850646392 -0.052883144282766713 0 -0.29757341552329353 -0.05219957266967655 0 -0.29931176789370939 -0.061629941742321552 0 -0.30659897303184058 -0.057135789817405573 0 -0.30728911182784302 -0.064893595009923935 0 -0.31405483352543062 -0.056831087900065053 0 -0.30323190850646392 -0.052883144282766713 0 -0.3023660715744253 -0.047018139519123002 0 -0.31025625293594222 -0.050033124508212908 0 -0.30659897303184058 -0.057135789817405573 0 -0.31025625293594222 -0.050033124508212908 0 -0.31405483352543062 -0.056831087900065053 0 -0.30323190850646392 -0.052883144282766713 0 -0.30659897303184058 -0.057135789817405573 0 -0.31025625293594222 -0.050033124508212908 0 -0.3023660715744253 -0.047018139519123002 0 -0.31110423911055801 -0.035316851109560482 0 -0.29943422057661201 -0.032203920876667472 0 -0.3023660715744253 -0.047018139519123002 0 -0.29943422057661201 -0.032203920876667472 0 -0.29166722635019171 -0.038853801873014321 0 -0.29943422057661201 -0.032203920876667472 0 -0.29166722635019171 -0.038853801873014321 0 -0.28378415359151371 -0.031280105512012511 0 -0.3023660715744253 -0.047018139519123002 0 -0.29166722635019171 -0.038853801873014321 0 -0.28390051605192418 -0.042754285685484159 0 -0.29166722635019171 -0.038853801873014321 0 -0.28378415359151371 -0.031280105512012511 0 -0.28390051605192418 -0.042754285685484159 0 -0.3023660715744253 -0.047018139519123002 0 -0.28390051605192418 -0.042754285685484159 0 -0.27356286309663053 -0.053258262401150697 0 -0.3023660715744253 -0.047018139519123002 0 -0.27356286309663053 -0.053258262401150697 0 -0.29757341552329353 -0.05219957266967655 0 -0.27356286309663053 -0.053258262401150697 0 -0.27532891164284878 -0.069285621960536392 0 -0.29757341552329353 -0.05219957266967655 0 -0.27532891164284878 -0.069285621960536392 0 -0.3023660715744253 -0.047018139519123002 0 -0.29757341552329353 -0.05219957266967655 0 -0.27356286309663053 -0.053258262401150697 0 -0.29757341552329353 -0.05219957266967655 0 -0.29931176789370939 -0.061629941742321552 0 -0.27532891164284878 -0.069285621960536392 0 -0.27267419604841259 -0.026924212746328481 0 -0.27375437843427658 -0.039043607324579933 0 -0.25766621977661042 -0.038842414379153638 0 -0.27356286309663053 -0.053258262401150697 0 -0.27375437843427658 -0.039043607324579933 0 -0.25766621977661042 -0.038842414379153638 0 -0.28378415359151371 -0.031280105512012511 0 -0.28390051605192418 -0.042754285685484159 0 -0.27375437843427658 -0.039043607324579933 0 -0.27267419604841259 -0.026924212746328481 0 -0.28378415359151371 -0.031280105512012511 0 -0.27375437843427658 -0.039043607324579933 0 -0.28390051605192418 -0.042754285685484159 0 -0.27356286309663053 -0.053258262401150697 0 -0.27375437843427658 -0.039043607324579933 0 -0.24475965461883589 -0.059498385283178377 0 -0.27356286309663053 -0.053258262401150697 0 -0.2582325144520296 -0.070050845257802419 0 -0.24475965461883589 -0.059498385283178377 0 -0.27356286309663053 -0.053258262401150697 0 -0.24475965461883589 -0.059498385283178377 0 -0.27356286309663053 -0.053258262401150697 0 -0.25766621977661042 -0.038842414379153638 0 -0.2582325144520296 -0.070050845257802419 0 -0.25308440776240432 -0.086371671251396109 0 -0.27532891164284878 -0.069285621960536392 0 -0.25308440776240432 -0.086371671251396109 0 -0.27532891164284878 -0.069285621960536392 0 -0.25308440776240432 -0.086371671251396109 0 -0.27361062541114611 -0.085405998149086934 0 -0.26907394573302829 -0.10103393024372311 0 -0.27361062541114611 -0.085405998149086934 0 -0.26907394573302829 -0.10103393024372311 0 -0.28494676303449051 -0.09097811142482605 0 -0.25308440776240432 -0.086371671251396109 0 -0.27361062541114611 -0.085405998149086934 0 -0.27532891164284878 -0.069285621960536392 0 -0.27356286309663053 -0.053258262401150697 0 -0.2582325144520296 -0.070050845257802419 0 -0.27532891164284878 -0.069285621960536392 0 -0.27361062541114611 -0.085405998149086934 0 -0.27532891164284878 -0.069285621960536392 0 -0.28561909888295839 -0.079360655864953042 0 -0.2432602079730701 -0.13485583854350039 0 -0.2499653418643101 -0.1102460646797562 0 -0.26490928006600228 -0.12397715003998409 0 -0.2499653418643101 -0.1102460646797562 0 -0.26490928006600228 -0.12397715003998409 0 -0.26907394573302829 -0.10103393024372311 0 -0.2499653418643101 -0.1102460646797562 0 -0.25308440776240432 -0.086371671251396109 0 -0.26907394573302829 -0.10103393024372311 0 -0.26907394573302829 -0.10103393024372311 0 -0.28789548083438649 -0.11161882002010511 0 -0.28494676303449051 -0.09097811142482605 0 -0.26490928006600228 -0.12397715003998409 0 -0.28789548083438649 -0.11161882002010511 0 -0.28428672055728371 -0.13281235115180859 0 -0.26490928006600228 -0.12397715003998409 0 -0.26907394573302829 -0.10103393024372311 0 -0.28789548083438649 -0.11161882002010511 0 -0.28789548083438649 -0.11161882002010511 0 -0.28428672055728371 -0.13281235115180859 0 -0.30877835781368662 -0.12931532841693749 0 -0.28789548083438649 -0.11161882002010511 0 -0.29765529442092259 -0.094840601490837839 0 -0.28494676303449051 -0.09097811142482605 0 -0.30761934067920371 -0.1042503242997595 0 -0.29765529442092259 -0.094840601490837839 0 -0.30832877355579341 -0.086934752854072747 0 -0.30761934067920371 -0.1042503242997595 0 -0.30832877355579341 -0.086934752854072747 0 -0.31968159473222052 -0.091584555267719248 0 -0.28789548083438649 -0.11161882002010511 0 -0.30761934067920371 -0.1042503242997595 0 -0.29765529442092259 -0.094840601490837839 0 -0.28789548083438649 -0.11161882002010511 0 -0.30761934067920371 -0.1042503242997595 0 -0.30877835781368662 -0.12931532841693749 0 -0.29931176789370939 -0.061629941742321552 0 -0.27532891164284878 -0.069285621960536392 0 -0.29568251685582603 -0.071589435967753134 0 -0.27532891164284878 -0.069285621960536392 0 -0.29568251685582603 -0.071589435967753134 0 -0.28561909888295839 -0.079360655864953042 0 -0.29568251685582603 -0.071589435967753134 0 -0.28561909888295839 -0.079360655864953042 0 -0.29849490204505058 -0.081938345925378783 0 -0.27361062541114611 -0.085405998149086934 0 -0.28561909888295839 -0.079360655864953042 0 -0.28494676303449051 -0.09097811142482605 0 -0.29765529442092259 -0.094840601490837839 0 -0.28494676303449051 -0.09097811142482605 0 -0.29849490204505058 -0.081938345925378783 0 -0.28561909888295839 -0.079360655864953042 0 -0.28494676303449051 -0.09097811142482605 0 -0.29849490204505058 -0.081938345925378783 0 -0.29849490204505058 -0.081938345925378783 0 -0.30832877355579341 -0.086934752854072747 0 -0.3066986514807607 -0.074546990101646726 0 -0.29765529442092259 -0.094840601490837839 0 -0.29849490204505058 -0.081938345925378783 0 -0.30832877355579341 -0.086934752854072747 0 -0.30832877355579341 -0.086934752854072747 0 -0.3066986514807607 -0.074546990101646726 0 -0.31636087034116728 -0.076704125898778439 0 -0.3066986514807607 -0.074546990101646726 0 -0.31411021802290889 -0.069356746280106005 0 -0.31636087034116728 -0.076704125898778439 0 -0.29568251685582603 -0.071589435967753134 0 -0.29849490204505058 -0.081938345925378783 0 -0.3066986514807607 -0.074546990101646726 0 -0.29568251685582603 -0.071589435967753134 0 -0.3066986514807607 -0.074546990101646726 0 -0.30728911182784302 -0.064893595009923935 0 -0.29931176789370939 -0.061629941742321552 0 -0.29568251685582603 -0.071589435967753134 0 -0.30728911182784302 -0.064893595009923935 0 -0.3066986514807607 -0.074546990101646726 0 -0.30728911182784302 -0.064893595009923935 0 -0.31411021802290889 -0.069356746280106005 0 -0.30728911182784302 -0.064893595009923935 0 -0.31630436981946819 -0.062936971351065629 0 -0.31411021802290889 -0.069356746280106005 0 -0.31630436981946819 -0.062936971351065629 0 -0.31411021802290889 -0.069356746280106005 0 -0.32389808664530562 -0.067702049039115322 0 -0.31630436981946819 -0.062936971351065629 0 -0.32389808664530562 -0.067702049039115322 0 -0.32481687078849097 -0.058022226865728103 0 -0.32389808664530562 -0.067702049039115322 0 -0.3259684841043719 -0.075020057435826168 0 -0.31636087034116728 -0.076704125898778439 0 -0.31411021802290889 -0.069356746280106005 0 -0.32389808664530562 -0.067702049039115322 0 -0.31636087034116728 -0.076704125898778439 0 -0.30832877355579341 -0.086934752854072747 0 -0.32608803180755441 -0.084321365842938284 0 -0.30832877355579341 -0.086934752854072747 0 -0.31968159473222052 -0.091584555267719248 0 -0.32608803180755441 -0.084321365842938284 0 -0.30832877355579341 -0.086934752854072747 0 -0.31636087034116728 -0.076704125898778439 0 -0.32608803180755441 -0.084321365842938284 0 -0.31968159473222052 -0.091584555267719248 0 -0.32608803180755441 -0.084321365842938284 0 -0.3259684841043719 -0.075020057435826168 0 -0.31636087034116728 -0.076704125898778439 0 -0.32608803180755441 -0.084321365842938284 0 -0.31968159473222052 -0.091584555267719248 0 -0.32608803180755441 -0.084321365842938284 0 -0.34030971713070318 -0.087052614945596102 0 -0.32608803180755441 -0.084321365842938284 0 -0.34030971713070318 -0.087052614945596102 0 -0.34745734249292459 -0.081176736816750444 0 -0.32608803180755441 -0.084321365842938284 0 -0.33752694762346008 -0.07135268896247253 0 -0.34745734249292459 -0.081176736816750444 0 -0.32608803180755441 -0.084321365842938284 0 -0.34745734249292459 -0.081176736816750444 0 -0.33752694762346008 -0.07135268896247253 0 -0.3489658634393657 -0.058384012082006782 0 -0.33645864726091979 -0.05858208772264157 0 -0.33752694762346008 -0.07135268896247253 0 -0.3489658634393657 -0.058384012082006782 0 -0.32389808664530562 -0.067702049039115322 0 -0.33752694762346008 -0.07135268896247253 0 -0.33645864726091979 -0.05858208772264157 0 -0.3259684841043719 -0.075020057435826168 0 -0.32608803180755441 -0.084321365842938284 0 -0.33752694762346008 -0.07135268896247253 0 -0.32608803180755441 -0.084321365842938284 0 -0.33752694762346008 -0.07135268896247253 0 -0.32389808664530562 -0.067702049039115322 0 -0.3259684841043719 -0.075020057435826168 0 -0.33752694762346008 -0.07135268896247253 0 -0.32454403747219479 -0.1081839716812668 0 -0.30877835781368662 -0.12931532841693749 0 -0.30761934067920371 -0.1042503242997595 0 -0.32454403747219479 -0.1081839716812668 0 -0.30877835781368662 -0.12931532841693749 0 -0.32454403747219479 -0.1081839716812668 0 -0.33570809008837621 -0.11845594114356341 0 -0.30877835781368662 -0.12931532841693749 0 -0.30761934067920371 -0.1042503242997595 0 -0.31968159473222052 -0.091584555267719248 0 -0.32454403747219479 -0.1081839716812668 0 -0.34030971713070318 -0.087052614945596102 0 -0.32454403747219479 -0.1081839716812668 0 -0.34278855512837281 -0.1049294584887832 0 -0.31968159473222052 -0.091584555267719248 0 -0.34030971713070318 -0.087052614945596102 0 -0.32454403747219479 -0.1081839716812668 0 -0.34030971713070318 -0.087052614945596102 0 -0.32454403747219479 -0.1081839716812668 0 -0.32454403747219479 -0.1081839716812668 0 -0.34278855512837281 -0.1049294584887832 0 -0.33570809008837621 -0.11845594114356341 0 -0.33570809008837621 -0.11845594114356341 0 -0.35404294059136687 -0.1217835462641018 0 -0.33688620478323589 -0.13358080389391511 0 -0.34278855512837281 -0.1049294584887832 0 -0.35404294059136687 -0.1217835462641018 0 -0.35932798989652742 -0.1047455147758234 0 -0.34278855512837281 -0.1049294584887832 0 -0.33570809008837621 -0.11845594114356341 0 -0.35404294059136687 -0.1217835462641018 0 -0.34278855512837281 -0.1049294584887832 0 -0.35932798989652742 -0.1047455147758234 0 -0.35079718399447979 -0.093651592615473511 0 -0.34030971713070318 -0.087052614945596102 0 -0.34278855512837281 -0.1049294584887832 0 -0.35079718399447979 -0.093651592615473511 0 -0.35932798989652742 -0.1047455147758234 0 -0.35079718399447979 -0.093651592615473511 0 -0.36132419909701757 -0.091459041133748031 0 -0.35932798989652742 -0.1047455147758234 0 -0.37367929427193591 -0.1014825750548952 0 -0.37212838853434238 -0.11808059788504249 0 -0.35932798989652742 -0.1047455147758234 0 -0.37367929427193591 -0.1014825750548952 0 -0.36132419909701757 -0.091459041133748031 0 -0.35404294059136687 -0.1217835462641018 0 -0.37212838853434238 -0.11808059788504249 0 -0.37028068739271691 -0.13083580994494901 0 -0.35404294059136687 -0.1217835462641018 0 -0.35932798989652742 -0.1047455147758234 0 -0.37212838853434238 -0.11808059788504249 0 -0.35069420168351129 -0.07223638641294812 0 -0.34745734249292459 -0.081176736816750444 0 -0.36882665317829499 -0.078032107790563188 0 -0.36882665317829499 -0.078032107790563188 0 -0.3489658634393657 -0.058384012082006782 0 -0.35069420168351129 -0.07223638641294812 0 -0.36882665317829499 -0.078032107790563188 0 -0.3489658634393657 -0.058384012082006782 0 -0.33752694762346008 -0.07135268896247253 0 -0.35069420168351129 -0.07223638641294812 0 -0.3489658634393657 -0.058384012082006782 0 -0.33752694762346008 -0.07135268896247253 0 -0.35069420168351129 -0.07223638641294812 0 -0.34745734249292459 -0.081176736816750444 0 -0.34745734249292459 -0.081176736816750444 0 -0.36882665317829499 -0.078032107790563188 0 -0.34745734249292459 -0.081176736816750444 0 -0.36132419909701757 -0.091459041133748031 0 -0.36882665317829499 -0.078032107790563188 0 -0.34030971713070318 -0.087052614945596102 0 -0.34745734249292459 -0.081176736816750444 0 -0.35079718399447979 -0.093651592615473511 0 -0.34745734249292459 -0.081176736816750444 0 -0.35079718399447979 -0.093651592615473511 0 -0.36132419909701757 -0.091459041133748031 0 -0.37367929427193591 -0.1014825750548952 0 -0.36132419909701757 -0.091459041133748031 0 -0.36882665317829499 -0.078032107790563188 0 -0.36882665317829499 -0.078032107790563188 0 -0.36862349457690058 -0.057461967220355487 0 -0.3489658634393657 -0.058384012082006782 0 -0.36882665317829499 -0.078032107790563188 0 -0.36862349457690058 -0.057461967220355487 0 -0.37947166312044489 -0.067272628224985004 0 -0.36862349457690058 -0.057461967220355487 0 -0.3489658634393657 -0.058384012082006782 0 -0.36066681755822472 -0.045118253717945672 0 -0.36862349457690058 -0.057461967220355487 0 -0.37355784227175309 -0.045246792894939887 0 -0.3815482533063424 -0.052412606119804542 0 -0.36862349457690058 -0.057461967220355487 0 -0.36066681755822472 -0.045118253717945672 0 -0.37355784227175309 -0.045246792894939887 0 -0.3489658634393657 -0.058384012082006782 0 -0.36066681755822472 -0.045118253717945672 0 -0.3489658634393657 -0.058384012082006782 0 -0.34511111307690212 -0.046137334811030092 0 -0.36066681755822472 -0.045118253717945672 0 -0.35304062521722218 -0.036039659744318157 0 -0.3553139768507978 -0.023567241021099371 0 -0.33371347875736079 -0.040226824134751989 0 -0.34511111307690212 -0.046137334811030092 0 -0.35304062521722218 -0.036039659744318157 0 -0.33371347875736079 -0.040226824134751989 0 -0.34511111307690212 -0.046137334811030092 0 -0.35304062521722218 -0.036039659744318157 0 -0.36066681755822472 -0.045118253717945672 0 -0.36066681755822472 -0.045118253717945672 0 -0.37236777167708351 -0.031852495353884333 0 -0.35304062521722218 -0.036039659744318157 0 -0.37236777167708351 -0.031852495353884333 0 -0.35304062521722218 -0.036039659744318157 0 -0.36066681755822472 -0.045118253717945672 0 -0.37236777167708351 -0.031852495353884333 0 -0.36066681755822472 -0.045118253717945672 0 -0.37355784227175309 -0.045246792894939887 0 -0.37236777167708351 -0.031852495353884333 0 -0.37236777167708351 -0.031852495353884333 0 -0.3739022591900184 -0.02415390189740213 0 -0.36770044175442279 -0.02036669541201027 0 -0.37236777167708351 -0.031852495353884333 0 -0.36770044175442279 -0.02036669541201027 0 -0.3553139768507978 -0.023567241021099371 0 -0.36770044175442279 -0.02036669541201027 0 -0.35847393927256738 -0.010652033510738681 0 -0.38297625517291389 -0.017448943304264108 0 -0.35304062521722218 -0.036039659744318157 0 -0.37236777167708351 -0.031852495353884333 0 -0.3553139768507978 -0.023567241021099371 0 -0.3739022591900184 -0.02415390189740213 0 -0.36770044175442279 -0.02036669541201027 0 -0.38297625517291389 -0.017448943304264108 0 -0.36770044175442279 -0.02036669541201027 0 -0.35847393927256738 -0.010652033510738681 0 -0.3553139768507978 -0.023567241021099371 0 -0.35847393927256738 -0.010652033510738681 0 -0.38297625517291389 -0.017448943304264108 0 -0.37278444596104371 -0.0079457960458173115 0 -0.35847393927256738 -0.010652033510738681 0 -0.38297625517291389 -0.017448943304264108 0 -0.37474494217865062 -0.0022388935110706832 0 -0.37278444596104371 -0.0079457960458173115 0 -0.36307869926690151 -0.00068504054922277494 0 -0.37278444596104371 -0.0079457960458173115 0 -0.36307869926690151 -0.00068504054922277494 0 -0.35847393927256738 -0.010652033510738681 0 -0.36307869926690151 -0.00068504054922277494 0 -0.34718119132474479 -0.01384164818341615 0 -0.36064890389212972 0.0125435277679194 0 -0.36307869926690151 -0.00068504054922277494 0 -0.35847393927256738 -0.010652033510738681 0 -0.34718119132474479 -0.01384164818341615 0 -0.34718119132474479 -0.01384164818341615 0 -0.36064890389212972 0.0125435277679194 0 -0.34718119132474479 -0.01384164818341615 0 -0.3553139768507978 -0.023567241021099371 0 -0.33371347875736079 -0.040226824134751989 0 -0.35847393927256738 -0.010652033510738681 0 -0.34718119132474479 -0.01384164818341615 0 -0.3553139768507978 -0.023567241021099371 0 -0.34718119132474479 -0.01384164818341615 0 -0.33035884889608558 -0.02420969997450095 0 -0.33371347875736079 -0.040226824134751989 0 -0.34718119132474479 -0.01384164818341615 0 -0.33371347875736079 -0.040226824134751989 0 -0.34718119132474479 -0.01384164818341615 0 -0.32828291010712762 -0.0049346835118845543 0 -0.34055428987364128 0.0059527955302196532 0 -0.34718119132474479 -0.01384164818341615 0 -0.33035884889608558 -0.02420969997450095 0 -0.32828291010712762 -0.0049346835118845543 0 -0.31144738423897378 -0.02126732740536201 0 -0.32828291010712762 -0.0049346835118845543 0 -0.31177688145040278 0.0050359958776742568 0 -0.31144738423897378 -0.02126732740536201 0 -0.33116928005221918 -0.040778016637091109 0 -0.31144738423897378 -0.02126732740536201 0 -0.33035884889608558 -0.02420969997450095 0 -0.32828291010712762 -0.0049346835118845543 0 -0.31144738423897378 -0.02126732740536201 0 -0.33035884889608558 -0.02420969997450095 0 -0.33116928005221918 -0.040778016637091109 0 -0.3023660715744253 -0.047018139519123002 0 -0.31110423911055801 -0.035316851109560482 0 -0.33116928005221918 -0.040778016637091109 0 -0.3023660715744253 -0.047018139519123002 0 -0.31025625293594222 -0.050033124508212908 0 -0.33116928005221918 -0.040778016637091109 0 -0.3023660715744253 -0.047018139519123002 0 -0.33116928005221918 -0.040778016637091109 0 -0.31144738423897378 -0.02126732740536201 0 -0.31110423911055801 -0.035316851109560482 0 -0.33116928005221918 -0.040778016637091109 0 -0.31025625293594222 -0.050033124508212908 0 -0.31770057673851387 -0.05020147555903863 0 -0.33116928005221918 -0.040778016637091109 0 -0.31025625293594222 -0.050033124508212908 0 -0.31770057673851387 -0.05020147555903863 0 -0.31405483352543062 -0.056831087900065053 0 -0.31770057673851387 -0.05020147555903863 0 -0.31405483352543062 -0.056831087900065053 0 -0.31936567051967829 -0.054711673150449433 0 -0.31630436981946819 -0.062936971351065629 0 -0.31936567051967829 -0.054711673150449433 0 -0.32481687078849097 -0.058022226865728103 0 -0.30728911182784302 -0.064893595009923935 0 -0.31630436981946819 -0.062936971351065629 0 -0.31405483352543062 -0.056831087900065053 0 -0.31630436981946819 -0.062936971351065629 0 -0.31405483352543062 -0.056831087900065053 0 -0.31936567051967829 -0.054711673150449433 0 -0.31770057673851387 -0.05020147555903863 0 -0.32448711316898249 -0.050622394842538963 0 -0.33116928005221918 -0.040778016637091109 0 -0.31936567051967829 -0.054711673150449433 0 -0.32481687078849097 -0.058022226865728103 0 -0.32448711316898249 -0.050622394842538963 0 -0.31770057673851387 -0.05020147555903863 0 -0.31936567051967829 -0.054711673150449433 0 -0.32448711316898249 -0.050622394842538963 0 -0.32481687078849097 -0.058022226865728103 0 -0.32770904195502032 -0.053173566283506987 0 -0.32448711316898249 -0.050622394842538963 0 -0.32770904195502032 -0.053173566283506987 0 -0.32448711316898249 -0.050622394842538963 0 -0.32972533979495861 -0.048040159006195682 0 -0.3489658634393657 -0.058384012082006782 0 -0.34511111307690212 -0.046137334811030092 0 -0.3326728772282519 -0.042265511425067279 0 -0.32972533979495861 -0.048040159006195682 0 -0.33645864726091979 -0.05858208772264157 0 -0.3326728772282519 -0.042265511425067279 0 -0.3489658634393657 -0.058384012082006782 0 -0.3326728772282519 -0.042265511425067279 0 -0.32770904195502032 -0.053173566283506987 0 -0.32972533979495861 -0.048040159006195682 0 -0.33645864726091979 -0.05858208772264157 0 -0.3489658634393657 -0.058384012082006782 0 -0.33645864726091979 -0.05858208772264157 0 -0.3326728772282519 -0.042265511425067279 0 -0.32389808664530562 -0.067702049039115322 0 -0.32481687078849097 -0.058022226865728103 0 -0.33645864726091979 -0.05858208772264157 0 -0.32481687078849097 -0.058022226865728103 0 -0.32770904195502032 -0.053173566283506987 0 -0.33645864726091979 -0.05858208772264157 0 -0.34511111307690212 -0.046137334811030092 0 -0.33371347875736079 -0.040226824134751989 0 -0.3326728772282519 -0.042265511425067279 0 -0.33035884889608558 -0.02420969997450095 0 -0.33116928005221918 -0.040778016637091109 0 -0.33371347875736079 -0.040226824134751989 0 -0.35304062521722218 -0.036039659744318157 0 -0.33371347875736079 -0.040226824134751989 0 -0.32448711316898249 -0.050622394842538963 0 -0.32972533979495861 -0.048040159006195682 0 -0.33116928005221918 -0.040778016637091109 0 -0.33116928005221918 -0.040778016637091109 0 -0.3326728772282519 -0.042265511425067279 0 -0.32972533979495861 -0.048040159006195682 0 -0.3326728772282519 -0.042265511425067279 0 -0.32972533979495861 -0.048040159006195682 0 -0.33116928005221918 -0.040778016637091109 0 -0.3326728772282519 -0.042265511425067279 0 -0.33116928005221918 -0.040778016637091109 0 -0.33371347875736079 -0.040226824134751989 0 -0.33116928005221918 -0.040778016637091109 0 -0.33371347875736079 -0.040226824134751989 0 -0.3326728772282519 -0.042265511425067279 0 -0.33371347875736079 -0.040226824134751989 0 -0.3326728772282519 -0.042265511425067279 0 -0.2907170577323625 -0.25177677077710309 0 -0.30853150187083839 -0.25429835417001312 0 -0.30748271917561598 -0.2431056607245809 0 -0.30748271917561598 -0.2431056607245809 0 -0.3004866401015065 -0.2269264896544945 0 -0.32066485276457768 -0.2334308190911655 0 -0.2907170577323625 -0.25177677077710309 0 -0.30748271917561598 -0.2431056607245809 0 -0.3004866401015065 -0.2269264896544945 0 -0.30853150187083839 -0.25429835417001312 0 -0.30748271917561598 -0.2431056607245809 0 -0.32023222063025569 -0.2489608815952247 0 -0.3004866401015065 -0.2269264896544945 0 -0.27575903677895092 -0.22208668823385669 0 -0.3004866401015065 -0.2269264896544945 0 -0.27309361240676189 -0.24179026653703889 0 -0.27575903677895092 -0.22208668823385669 0 -0.3004866401015065 -0.2269264896544945 0 -0.27575903677895092 -0.22208668823385669 0 -0.29482007196541532 -0.2089319155152673 0 -0.2907170577323625 -0.25177677077710309 0 -0.3004866401015065 -0.2269264896544945 0 -0.27309361240676189 -0.24179026653703889 0 -0.27309361240676189 -0.24179026653703889 0 -0.25431856302814809 -0.24833495949118861 0 -0.25103143345639523 -0.21724688681321891 0 -0.27575903677895092 -0.22208668823385669 0 -0.25103143345639523 -0.21724688681321891 0 -0.27309361240676189 -0.24179026653703889 0 -0.27575903677895092 -0.22208668823385669 0 -0.25103143345639523 -0.21724688681321891 0 -0.27575903677895092 -0.22208668823385669 0 -0.25103143345639523 -0.21724688681321891 0 -0.27708552823660842 -0.19790031786117671 0 -0.25103143345639523 -0.21724688681321891 0 -0.25418198431724581 -0.18809916394242601 0 -0.27708552823660842 -0.19790031786117671 0 -0.27708552823660842 -0.19790031786117671 0 -0.29482007196541532 -0.2089319155152673 0 -0.30195969341908391 -0.19078830755985379 0 -0.29482007196541532 -0.2089319155152673 0 -0.30195969341908391 -0.19078830755985379 0 -0.32674672588845421 -0.2120308859258328 0 -0.3004866401015065 -0.2269264896544945 0 -0.29482007196541532 -0.2089319155152673 0 -0.32674672588845421 -0.2120308859258328 0 -0.27575903677895092 -0.22208668823385669 0 -0.27708552823660842 -0.19790031786117671 0 -0.29482007196541532 -0.2089319155152673 0 -0.30195969341908391 -0.19078830755985379 0 -0.30674796742087651 -0.1684647150882764 0 -0.32123008678095788 -0.18729232698745699 0 -0.30674796742087651 -0.1684647150882764 0 -0.2930126781551784 -0.15044668515260809 0 -0.3206808779707625 -0.15110047818677941 0 -0.27724699849667023 -0.17157804188827869 0 -0.2930126781551784 -0.15044668515260809 0 -0.30674796742087651 -0.1684647150882764 0 -0.27724699849667023 -0.17157804188827869 0 -0.2930126781551784 -0.15044668515260809 0 -0.27708552823660842 -0.19790031786117671 0 -0.30195969341908391 -0.19078830755985379 0 -0.27724699849667023 -0.17157804188827869 0 -0.30195969341908391 -0.19078830755985379 0 -0.30674796742087651 -0.1684647150882764 0 -0.27724699849667023 -0.17157804188827869 0 -0.25418198431724581 -0.18809916394242601 0 -0.27708552823660842 -0.19790031786117671 0 -0.27724699849667023 -0.17157804188827869 0 -0.25418198431724581 -0.18809916394242601 0 -0.2565438833259911 -0.1687602707777138 0 -0.27724699849667023 -0.17157804188827869 0 -0.2435592126657353 -0.1561425335328199 0 -0.2565438833259911 -0.1687602707777138 0 -0.26683780591716472 -0.14870377212940841 0 -0.27724699849667023 -0.17157804188827869 0 -0.26683780591716472 -0.14870377212940841 0 -0.2930126781551784 -0.15044668515260809 0 -0.2565438833259911 -0.1687602707777138 0 -0.27724699849667023 -0.17157804188827869 0 -0.26683780591716472 -0.14870377212940841 0 -0.2435592126657353 -0.1561425335328199 0 -0.2432602079730701 -0.13485583854350039 0 -0.26683780591716472 -0.14870377212940841 0 -0.2432602079730701 -0.13485583854350039 0 -0.26490928006600228 -0.12397715003998409 0 -0.26683780591716472 -0.14870377212940841 0 -0.26490928006600228 -0.12397715003998409 0 -0.26683780591716472 -0.14870377212940841 0 -0.28428672055728371 -0.13281235115180859 0 -0.28428672055728371 -0.13281235115180859 0 -0.2930126781551784 -0.15044668515260809 0 -0.30877835781368662 -0.12931532841693749 0 -0.26683780591716472 -0.14870377212940841 0 -0.28428672055728371 -0.13281235115180859 0 -0.2930126781551784 -0.15044668515260809 0 -0.2930126781551784 -0.15044668515260809 0 -0.30877835781368662 -0.12931532841693749 0 -0.3206808779707625 -0.15110047818677941 0 -0.2930126781551784 -0.15044668515260809 0 -0.30877835781368662 -0.12931532841693749 0 -0.33570809008837621 -0.11845594114356341 0 -0.30877835781368662 -0.12931532841693749 0 -0.33688620478323589 -0.13358080389391511 0 -0.30877835781368662 -0.12931532841693749 0 -0.3206808779707625 -0.15110047818677941 0 -0.33688620478323589 -0.13358080389391511 0 -0.3206808779707625 -0.15110047818677941 0 -0.33688620478323589 -0.13358080389391511 0 -0.34399943231138669 -0.15408109000358611 0 -0.33688620478323589 -0.13358080389391511 0 -0.35929992868189681 -0.1386942596847188 0 -0.35404294059136687 -0.1217835462641018 0 -0.33688620478323589 -0.13358080389391511 0 -0.35929992868189681 -0.1386942596847188 0 -0.35404294059136687 -0.1217835462641018 0 -0.35929992868189681 -0.1386942596847188 0 -0.37028068739271691 -0.13083580994494901 0 -0.35929992868189681 -0.1386942596847188 0 -0.37028068739271691 -0.13083580994494901 0 -0.3804539816512269 -0.14482329966991631 0 -0.35929992868189681 -0.1386942596847188 0 -0.3804539816512269 -0.14482329966991631 0 -0.35929992868189681 -0.1386942596847188 0 -0.3655172116091886 -0.15688196674787641 0 -0.3804539816512269 -0.14482329966991631 0 -0.3655172116091886 -0.15688196674787641 0 -0.3804539816512269 -0.14482329966991631 0 -0.3655172116091886 -0.15688196674787641 0 -0.37839901512320262 -0.15996290040625341 0 -0.3804539816512269 -0.14482329966991631 0 -0.33688620478323589 -0.13358080389391511 0 -0.35929992868189681 -0.1386942596847188 0 -0.34399943231138669 -0.15408109000358611 0 -0.35929992868189681 -0.1386942596847188 0 -0.34399943231138669 -0.15408109000358611 0 -0.3655172116091886 -0.15688196674787641 0 -0.34399943231138669 -0.15408109000358611 0 -0.35323542112630057 -0.1671812377988513 0 -0.3655172116091886 -0.15688196674787641 0 -0.3655172116091886 -0.15688196674787641 0 -0.37378547386561772 -0.17392500984250869 0 -0.37839901512320262 -0.15996290040625341 0 -0.35323542112630057 -0.1671812377988513 0 -0.3655172116091886 -0.15688196674787641 0 -0.37378547386561772 -0.17392500984250869 0 -0.37378547386561772 -0.17392500984250869 0 -0.35240556330307887 -0.18479875362473361 0 -0.36895563931783232 -0.19259611207654981 0 -0.35323542112630057 -0.1671812377988513 0 -0.37378547386561772 -0.17392500984250869 0 -0.35240556330307887 -0.18479875362473361 0 -0.35323542112630057 -0.1671812377988513 0 -0.35240556330307887 -0.18479875362473361 0 -0.33400288196205857 -0.17193246321376471 0 -0.35240556330307887 -0.18479875362473361 0 -0.33400288196205857 -0.17193246321376471 0 -0.33669316521431608 -0.19324526314955739 0 -0.33400288196205857 -0.17193246321376471 0 -0.32123008678095788 -0.18729232698745699 0 -0.33669316521431608 -0.19324526314955739 0 -0.3206808779707625 -0.15110047818677941 0 -0.34399943231138669 -0.15408109000358611 0 -0.33400288196205857 -0.17193246321376471 0 -0.34399943231138669 -0.15408109000358611 0 -0.35323542112630057 -0.1671812377988513 0 -0.33400288196205857 -0.17193246321376471 0 -0.30674796742087651 -0.1684647150882764 0 -0.3206808779707625 -0.15110047818677941 0 -0.33400288196205857 -0.17193246321376471 0 -0.30674796742087651 -0.1684647150882764 0 -0.33400288196205857 -0.17193246321376471 0 -0.32123008678095788 -0.18729232698745699 0 -0.30195969341908391 -0.19078830755985379 0 -0.32123008678095788 -0.18729232698745699 0 -0.32674672588845421 -0.2120308859258328 0 -0.32674672588845421 -0.2120308859258328 0 -0.35024140450074381 -0.20994798342056251 0 -0.32674672588845421 -0.2120308859258328 0 -0.33669316521431608 -0.19324526314955739 0 -0.35024140450074381 -0.20994798342056251 0 -0.32674672588845421 -0.2120308859258328 0 -0.35024140450074381 -0.20994798342056251 0 -0.3377174746324717 -0.2284461722996495 0 -0.32123008678095788 -0.18729232698745699 0 -0.32674672588845421 -0.2120308859258328 0 -0.33669316521431608 -0.19324526314955739 0 -0.35240556330307887 -0.18479875362473361 0 -0.36895563931783232 -0.19259611207654981 0 -0.35024140450074381 -0.20994798342056251 0 -0.35240556330307887 -0.18479875362473361 0 -0.33669316521431608 -0.19324526314955739 0 -0.35024140450074381 -0.20994798342056251 0 -0.36895563931783232 -0.19259611207654981 0 -0.37373608311303341 -0.20786508091529229 0 -0.35024140450074381 -0.20994798342056251 0 -0.37373608311303341 -0.20786508091529229 0 -0.35024140450074381 -0.20994798342056251 0 -0.37373608311303341 -0.20786508091529229 0 -0.35024140450074381 -0.20994798342056251 0 -0.36602803805366552 -0.21914337572849349 0 -0.37373608311303341 -0.20786508091529229 0 -0.36602803805366552 -0.21914337572849349 0 -0.37785639846487218 -0.21906994256996459 0 -0.35024140450074381 -0.20994798342056251 0 -0.357966965356528 -0.23170644806675769 0 -0.3377174746324717 -0.2284461722996495 0 -0.35024140450074381 -0.20994798342056251 0 -0.357966965356528 -0.23170644806675769 0 -0.36602803805366552 -0.21914337572849349 0 -0.357966965356528 -0.23170644806675769 0 -0.36602803805366552 -0.21914337572849349 0 -0.36983275924353248 -0.22875232439276311 0 -0.36602803805366552 -0.21914337572849349 0 -0.36983275924353248 -0.22875232439276311 0 -0.37785639846487218 -0.21906994256996459 0 -0.357966965356528 -0.23170644806675769 0 -0.36983275924353248 -0.22875232439276311 0 -0.37747963509906429 -0.24508953120583671 0 -0.35872453044413888 -0.25078889886649508 0 -0.357966965356528 -0.23170644806675769 0 -0.37747963509906429 -0.24508953120583671 0 -0.357966965356528 -0.23170644806675769 0 -0.34395992200845399 -0.24382677409400949 0 -0.3377174746324717 -0.2284461722996495 0 -0.35872453044413888 -0.25078889886649508 0 -0.357966965356528 -0.23170644806675769 0 -0.34395992200845399 -0.24382677409400949 0 -0.33345250408021371 -0.25331871279766999 0 -0.34395992200845399 -0.24382677409400949 0 -0.33132333615916232 -0.2411148243472106 0 -0.33345250408021371 -0.25331871279766999 0 -0.33132333615916232 -0.2411148243472106 0 -0.32023222063025569 -0.2489608815952247 0 -0.34395992200845399 -0.24382677409400949 0 -0.33132333615916232 -0.2411148243472106 0 -0.3377174746324717 -0.2284461722996495 0 -0.32674672588845421 -0.2120308859258328 0 -0.3377174746324717 -0.2284461722996495 0 -0.32066485276457768 -0.2334308190911655 0 -0.33132333615916232 -0.2411148243472106 0 -0.3377174746324717 -0.2284461722996495 0 -0.32066485276457768 -0.2334308190911655 0 -0.3004866401015065 -0.2269264896544945 0 -0.32674672588845421 -0.2120308859258328 0 -0.32066485276457768 -0.2334308190911655 0 -0.30748271917561598 -0.2431056607245809 0 -0.32066485276457768 -0.2334308190911655 0 -0.32023222063025569 -0.2489608815952247 0 -0.33132333615916232 -0.2411148243472106 0 -0.32066485276457768 -0.2334308190911655 0 -0.32023222063025569 -0.2489608815952247 0 -0.43445882011373449 -0.25478651907497341 0 -0.43806130733353449 -0.23541812032183559 0 -0.43445882011373449 -0.25478651907497341 0 -0.4258852610480256 -0.24284815888716721 0 -0.43806130733353449 -0.23541812032183559 0 -0.4258852610480256 -0.24284815888716721 0 -0.42538833238501789 -0.2333934851751748 0 -0.41698539980062188 -0.23875950084572559 0 -0.43445882011373449 -0.25478651907497341 0 -0.4258852610480256 -0.24284815888716721 0 -0.42335340856967768 -0.24893549408922019 0 -0.4258852610480256 -0.24284815888716721 0 -0.42538833238501789 -0.2333934851751748 0 -0.43806130733353449 -0.23541812032183559 0 -0.43091611572645672 -0.22699763907763329 0 -0.42538833238501789 -0.2333934851751748 0 -0.43806130733353449 -0.23541812032183559 0 -0.43091611572645672 -0.22699763907763329 0 -0.44166379455333399 -0.21604972156869759 0 -0.43806130733353449 -0.23541812032183559 0 -0.43091611572645672 -0.22699763907763329 0 -0.43133498143110582 -0.21921018883561361 0 -0.44166379455333399 -0.21604972156869759 0 -0.43133498143110582 -0.21921018883561361 0 -0.4232485836513401 -0.22477446532261011 0 -0.4232102070061276 -0.21869015764887889 0 -0.43091611572645672 -0.22699763907763329 0 -0.43133498143110582 -0.21921018883561361 0 -0.4232485836513401 -0.22477446532261011 0 -0.43091611572645672 -0.22699763907763329 0 -0.4232485836513401 -0.22477446532261011 0 -0.42538833238501789 -0.2333934851751748 0 -0.4232485836513401 -0.22477446532261011 0 -0.42538833238501789 -0.2333934851751748 0 -0.41731365953457839 -0.2310953018814938 0 -0.4232485836513401 -0.22477446532261011 0 -0.41731365953457839 -0.2310953018814938 0 -0.4121948509493269 -0.2247325638453028 0 -0.41731365953457839 -0.2310953018814938 0 -0.4080561583250083 -0.23272886934204159 0 -0.41698539980062188 -0.23875950084572559 0 -0.4232485836513401 -0.22477446532261011 0 -0.4121948509493269 -0.2247325638453028 0 -0.41685681033243982 -0.21746512418924929 0 -0.4232485836513401 -0.22477446532261011 0 -0.41685681033243982 -0.21746512418924929 0 -0.4232102070061276 -0.21869015764887889 0 -0.4121948509493269 -0.2247325638453028 0 -0.4080561583250083 -0.23272886934204159 0 -0.39971520205611372 -0.2221352637332015 0 -0.4121948509493269 -0.2247325638453028 0 -0.40807454407470489 -0.21592977391801271 0 -0.41685681033243982 -0.21746512418924929 0 -0.4121948509493269 -0.2247325638453028 0 -0.39971520205611372 -0.2221352637332015 0 -0.40807454407470489 -0.21592977391801271 0 -0.41731365953457839 -0.2310953018814938 0 -0.4121948509493269 -0.2247325638453028 0 -0.4080561583250083 -0.23272886934204159 0 -0.4080561583250083 -0.23272886934204159 0 -0.40983148527785651 -0.24118391776602099 0 -0.41698539980062188 -0.23875950084572559 0 -0.42538833238501789 -0.2333934851751748 0 -0.41731365953457839 -0.2310953018814938 0 -0.41698539980062188 -0.23875950084572559 0 -0.40983148527785651 -0.24118391776602099 0 -0.41698539980062188 -0.23875950084572559 0 -0.41627810448972868 -0.24641300060905449 0 -0.4258852610480256 -0.24284815888716721 0 -0.42335340856967768 -0.24893549408922019 0 -0.41627810448972868 -0.24641300060905449 0 -0.4258852610480256 -0.24284815888716721 0 -0.41698539980062188 -0.23875950084572559 0 -0.41627810448972868 -0.24641300060905449 0 -0.41679144862722167 -0.25169429778568547 0 -0.42335340856967768 -0.24893549408922019 0 -0.41627810448972868 -0.24641300060905449 0 -0.41385673751816382 -0.25312989710486528 0 -0.41627810448972868 -0.24641300060905449 0 -0.4086566941719203 -0.24778871483445111 0 -0.40983148527785651 -0.24118391776602099 0 -0.41627810448972868 -0.24641300060905449 0 -0.4086566941719203 -0.24778871483445111 0 -0.40282532782868952 -0.25224285689579767 0 -0.4086566941719203 -0.24778871483445111 0 -0.40022281387448849 -0.24084313907701979 0 -0.40983148527785651 -0.24118391776602099 0 -0.4086566941719203 -0.24778871483445111 0 -0.40022281387448849 -0.24084313907701979 0 -0.4080561583250083 -0.23272886934204159 0 -0.40983148527785651 -0.24118391776602099 0 -0.40022281387448849 -0.24084313907701979 0 -0.40022281387448849 -0.24084313907701979 0 -0.3903832871219331 -0.2411545733314838 0 -0.38772777019650018 -0.2315142496456449 0 -0.3938256931015453 -0.25037754026629511 0 -0.40022281387448849 -0.24084313907701979 0 -0.3903832871219331 -0.2411545733314838 0 -0.3938256931015453 -0.25037754026629511 0 -0.3903832871219331 -0.2411545733314838 0 -0.37747963509906429 -0.24508953120583671 0 -0.3903832871219331 -0.2411545733314838 0 -0.37747963509906429 -0.24508953120583671 0 -0.38772777019650018 -0.2315142496456449 0 -0.37747963509906429 -0.24508953120583671 0 -0.37785639846487218 -0.21906994256996459 0 -0.37747963509906429 -0.24508953120583671 0 -0.37785639846487218 -0.21906994256996459 0 -0.38772777019650018 -0.2315142496456449 0 -0.36983275924353248 -0.22875232439276311 0 -0.37747963509906429 -0.24508953120583671 0 -0.37785639846487218 -0.21906994256996459 0 -0.37785639846487218 -0.21906994256996459 0 -0.38772777019650018 -0.2315142496456449 0 -0.38790285805175961 -0.2167146319195192 0 -0.4080561583250083 -0.23272886934204159 0 -0.40022281387448849 -0.24084313907701979 0 -0.39971520205611372 -0.2221352637332015 0 -0.40022281387448849 -0.24084313907701979 0 -0.39971520205611372 -0.2221352637332015 0 -0.38772777019650018 -0.2315142496456449 0 -0.39971520205611372 -0.2221352637332015 0 -0.38790285805175961 -0.2167146319195192 0 -0.40022281387448849 -0.24084313907701979 0 -0.38772777019650018 -0.2315142496456449 0 -0.39971520205611372 -0.2221352637332015 0 -0.39971520205611372 -0.2221352637332015 0 -0.39723076172532301 -0.205782178410022 0 -0.40807454407470489 -0.21592977391801271 0 -0.39971520205611372 -0.2221352637332015 0 -0.39723076172532301 -0.205782178410022 0 -0.38790285805175961 -0.2167146319195192 0 -0.39723076172532301 -0.205782178410022 0 -0.41303892827123678 -0.21093405469715851 0 -0.40807454407470489 -0.21592977391801271 0 -0.37373608311303341 -0.20786508091529229 0 -0.39723076172532301 -0.205782178410022 0 -0.38370630256805799 -0.1971119561512929 0 -0.37373608311303341 -0.20786508091529229 0 -0.39723076172532301 -0.205782178410022 0 -0.38790285805175961 -0.2167146319195192 0 -0.37373608311303341 -0.20786508091529229 0 -0.39723076172532301 -0.205782178410022 0 -0.37373608311303341 -0.20786508091529229 0 -0.37785639846487218 -0.21906994256996459 0 -0.38790285805175961 -0.2167146319195192 0 -0.36895563931783232 -0.19259611207654981 0 -0.38370630256805799 -0.1971119561512929 0 -0.3831693110633177 -0.1873742460103984 0 -0.36895563931783232 -0.19259611207654981 0 -0.37373608311303341 -0.20786508091529229 0 -0.38370630256805799 -0.1971119561512929 0 -0.38370630256805799 -0.1971119561512929 0 -0.39543971762078378 -0.19194216334420211 0 -0.3831693110633177 -0.1873742460103984 0 -0.39723076172532301 -0.205782178410022 0 -0.38370630256805799 -0.1971119561512929 0 -0.39543971762078378 -0.19194216334420211 0 -0.39723076172532301 -0.205782178410022 0 -0.39543971762078378 -0.19194216334420211 0 -0.40534117689708921 -0.19634387975323889 0 -0.39543971762078378 -0.19194216334420211 0 -0.40534117689708921 -0.19634387975323889 0 -0.40730162077548249 -0.18407395049314179 0 -0.39723076172532301 -0.205782178410022 0 -0.40534117689708921 -0.19634387975323889 0 -0.42072544033761272 -0.20369927590475301 0 -0.42032122747045741 -0.1927313373696285 0 -0.42072544033761272 -0.20369927590475301 0 -0.40730162077548249 -0.18407395049314179 0 -0.42072544033761272 -0.20369927590475301 0 -0.40730162077548249 -0.18407395049314179 0 -0.40534117689708921 -0.19634387975323889 0 -0.42072544033761272 -0.20369927590475301 0 -0.40730162077548249 -0.18407395049314179 0 -0.39723076172532301 -0.205782178410022 0 -0.41303892827123678 -0.21093405469715851 0 -0.42072544033761272 -0.20369927590475301 0 -0.39723076172532301 -0.205782178410022 0 -0.42072544033761272 -0.20369927590475301 0 -0.41303892827123678 -0.21093405469715851 0 -0.40807454407470489 -0.21592977391801271 0 -0.41685681033243982 -0.21746512418924929 0 -0.41303892827123678 -0.21093405469715851 0 -0.41685681033243982 -0.21746512418924929 0 -0.42140045260962489 -0.21331085224804261 0 -0.41685681033243982 -0.21746512418924929 0 -0.42140045260962489 -0.21331085224804261 0 -0.4232102070061276 -0.21869015764887889 0 -0.41303892827123678 -0.21093405469715851 0 -0.42140045260962489 -0.21331085224804261 0 -0.42072544033761272 -0.20369927590475301 0 -0.42512182626149492 -0.2033095177213731 0 -0.43378961613155448 -0.20908682079381441 0 -0.44184138868315109 -0.20247798044170351 0 -0.42072544033761272 -0.20369927590475301 0 -0.42512182626149492 -0.2033095177213731 0 -0.43133498143110582 -0.21921018883561361 0 -0.42072544033761272 -0.20369927590475301 0 -0.42512182626149492 -0.2033095177213731 0 -0.43133498143110582 -0.21921018883561361 0 -0.42512182626149492 -0.2033095177213731 0 -0.43378961613155448 -0.20908682079381441 0 -0.43133498143110582 -0.21921018883561361 0 -0.42140045260962489 -0.21331085224804261 0 -0.4232102070061276 -0.21869015764887889 0 -0.43133498143110582 -0.21921018883561361 0 -0.42072544033761272 -0.20369927590475301 0 -0.43133498143110582 -0.21921018883561361 0 -0.42140045260962489 -0.21331085224804261 0 -0.42072544033761272 -0.20369927590475301 0 -0.43133498143110582 -0.21921018883561361 0 -0.43378961613155448 -0.20908682079381441 0 -0.44166379455333399 -0.21604972156869759 0 -0.42032122747045741 -0.1927313373696285 0 -0.44184138868315109 -0.20247798044170351 0 -0.42032122747045741 -0.1927313373696285 0 -0.43099962817645188 -0.18319011649723049 0 -0.43833565968517207 -0.19112957676178299 0 -0.42032122747045741 -0.1927313373696285 0 -0.42512182626149492 -0.2033095177213731 0 -0.44184138868315109 -0.20247798044170351 0 -0.42032122747045741 -0.1927313373696285 0 -0.43833565968517207 -0.19112957676178299 0 -0.44184138868315109 -0.20247798044170351 0 -0.42032122747045741 -0.1927313373696285 0 -0.42072544033761272 -0.20369927590475301 0 -0.42512182626149492 -0.2033095177213731 0 -0.42549584187692119 -0.17333418479170171 0 -0.43099962817645188 -0.18319011649723049 0 -0.41834400919125792 -0.18158621355319651 0 -0.42032122747045741 -0.1927313373696285 0 -0.43099962817645188 -0.18319011649723049 0 -0.41834400919125792 -0.18158621355319651 0 -0.43099962817645188 -0.18319011649723049 0 -0.43495901877196291 -0.17485617288990979 0 -0.44455133712372419 -0.18300714728765441 0 -0.42549584187692119 -0.17333418479170171 0 -0.43099962817645188 -0.18319011649723049 0 -0.43495901877196291 -0.17485617288990979 0 -0.42549584187692119 -0.17333418479170171 0 -0.43495901877196291 -0.17485617288990979 0 -0.43155613508544272 -0.1669321437644439 0 -0.43495901877196291 -0.17485617288990979 0 -0.43155613508544272 -0.1669321437644439 0 -0.44219215159727421 -0.16781727210851849 0 -0.43155613508544272 -0.1669321437644439 0 -0.43166640735559808 -0.1552039120346444 0 -0.44219215159727421 -0.16781727210851849 0 -0.43155613508544272 -0.1669321437644439 0 -0.4214232379976206 -0.16216052115063159 0 -0.43166640735559808 -0.1552039120346444 0 -0.42549584187692119 -0.17333418479170171 0 -0.43155613508544272 -0.1669321437644439 0 -0.4214232379976206 -0.16216052115063159 0 -0.42549584187692119 -0.17333418479170171 0 -0.4214232379976206 -0.16216052115063159 0 -0.41110577652129249 -0.1670682470007229 0 -0.4214232379976206 -0.16216052115063159 0 -0.41110577652129249 -0.1670682470007229 0 -0.40669002996807779 -0.1495058137550834 0 -0.41110577652129249 -0.1670682470007229 0 -0.41834400919125792 -0.18158621355319651 0 -0.40730162077548249 -0.18407395049314179 0 -0.42549584187692119 -0.17333418479170171 0 -0.41110577652129249 -0.1670682470007229 0 -0.41834400919125792 -0.18158621355319651 0 -0.42032122747045741 -0.1927313373696285 0 -0.41834400919125792 -0.18158621355319651 0 -0.40730162077548249 -0.18407395049314179 0 -0.39543971762078378 -0.19194216334420211 0 -0.40730162077548249 -0.18407395049314179 0 -0.39267839793348491 -0.17927693187167279 0 -0.40730162077548249 -0.18407395049314179 0 -0.39267839793348491 -0.17927693187167279 0 -0.39387780121335469 -0.16444862508152899 0 -0.40730162077548249 -0.18407395049314179 0 -0.39387780121335469 -0.16444862508152899 0 -0.37378547386561772 -0.17392500984250869 0 -0.36895563931783232 -0.19259611207654981 0 -0.3831693110633177 -0.1873742460103984 0 -0.37378547386561772 -0.17392500984250869 0 -0.39267839793348491 -0.17927693187167279 0 -0.3831693110633177 -0.1873742460103984 0 -0.37378547386561772 -0.17392500984250869 0 -0.39267839793348491 -0.17927693187167279 0 -0.39387780121335469 -0.16444862508152899 0 -0.39543971762078378 -0.19194216334420211 0 -0.39267839793348491 -0.17927693187167279 0 -0.3831693110633177 -0.1873742460103984 0 -0.37378547386561772 -0.17392500984250869 0 -0.37839901512320262 -0.15996290040625341 0 -0.39387780121335469 -0.16444862508152899 0 -0.37839901512320262 -0.15996290040625341 0 -0.39387780121335469 -0.16444862508152899 0 -0.3804539816512269 -0.14482329966991631 0 -0.41110577652129249 -0.1670682470007229 0 -0.39387780121335469 -0.16444862508152899 0 -0.40669002996807779 -0.1495058137550834 0 -0.41110577652129249 -0.1670682470007229 0 -0.40730162077548249 -0.18407395049314179 0 -0.39387780121335469 -0.16444862508152899 0 -0.39387780121335469 -0.16444862508152899 0 -0.3804539816512269 -0.14482329966991631 0 -0.40669002996807779 -0.1495058137550834 0 -0.3804539816512269 -0.14482329966991631 0 -0.39647179587780151 -0.13189450107720049 0 -0.40669002996807779 -0.1495058137550834 0 -0.3804539816512269 -0.14482329966991631 0 -0.40669002996807779 -0.1495058137550834 0 -0.39387780121335469 -0.16444862508152899 0 -0.3804539816512269 -0.14482329966991631 0 -0.3804539816512269 -0.14482329966991631 0 -0.38278168804071749 -0.12940228238898679 0 -0.39647179587780151 -0.13189450107720049 0 -0.3804539816512269 -0.14482329966991631 0 -0.39647179587780151 -0.13189450107720049 0 -0.37212838853434238 -0.11808059788504249 0 -0.37028068739271691 -0.13083580994494901 0 -0.38278168804071749 -0.12940228238898679 0 -0.37028068739271691 -0.13083580994494901 0 -0.3804539816512269 -0.14482329966991631 0 -0.38278168804071749 -0.12940228238898679 0 -0.38278168804071749 -0.12940228238898679 0 -0.39647179587780151 -0.13189450107720049 0 -0.39044023874876249 -0.11757149150947201 0 -0.39647179587780151 -0.13189450107720049 0 -0.40828286160401828 -0.1310364195873514 0 -0.40669002996807779 -0.1495058137550834 0 -0.39647179587780151 -0.13189450107720049 0 -0.40828286160401828 -0.1310364195873514 0 -0.41122993917504558 -0.1199812866788818 0 -0.39647179587780151 -0.13189450107720049 0 -0.41122993917504558 -0.1199812866788818 0 -0.40828286160401828 -0.1310364195873514 0 -0.41930562378398423 -0.12797048681614909 0 -0.41122993917504558 -0.1199812866788818 0 -0.41930562378398423 -0.12797048681614909 0 -0.41533589961201212 -0.13938201891822019 0 -0.4273858072007774 -0.14414008567558009 0 -0.40828286160401828 -0.1310364195873514 0 -0.41533589961201212 -0.13938201891822019 0 -0.40669002996807779 -0.1495058137550834 0 -0.40828286160401828 -0.1310364195873514 0 -0.41930562378398423 -0.12797048681614909 0 -0.41533589961201212 -0.13938201891822019 0 -0.40669002996807779 -0.1495058137550834 0 -0.43166640735559808 -0.1552039120346444 0 -0.4214232379976206 -0.16216052115063159 0 -0.40669002996807779 -0.1495058137550834 0 -0.43166640735559808 -0.1552039120346444 0 -0.41533589961201212 -0.13938201891822019 0 -0.40669002996807779 -0.1495058137550834 0 -0.4273858072007774 -0.14414008567558009 0 -0.40669002996807779 -0.1495058137550834 0 -0.4273858072007774 -0.14414008567558009 0 -0.43166640735559808 -0.1552039120346444 0 -0.43166640735559808 -0.1552039120346444 0 -0.43525592456887258 -0.14374997194848471 0 -0.44410307239699631 -0.15282998285397989 0 -0.4273858072007774 -0.14414008567558009 0 -0.43166640735559808 -0.1552039120346444 0 -0.43525592456887258 -0.14374997194848471 0 -0.41930562378398423 -0.12797048681614909 0 -0.43525592456887258 -0.14374997194848471 0 -0.41930562378398423 -0.12797048681614909 0 -0.4273858072007774 -0.14414008567558009 0 -0.43525592456887258 -0.14374997194848471 0 -0.41930562378398423 -0.12797048681614909 0 -0.4273858072007774 -0.14414008567558009 0 -0.41930562378398423 -0.12797048681614909 0 -0.43525592456887258 -0.14374997194848471 0 -0.43389101300267191 -0.13422730327376839 0 -0.41930562378398423 -0.12797048681614909 0 -0.43389101300267191 -0.13422730327376839 0 -0.4149348530849476 -0.1169905694289516 0 -0.43389101300267191 -0.13422730327376839 0 -0.4149348530849476 -0.1169905694289516 0 -0.43389101300267191 -0.13422730327376839 0 -0.43160182387889101 -0.1187955019330571 0 -0.44085253015216358 -0.1237950587173612 0 -0.43389101300267191 -0.13422730327376839 0 -0.44872577578551592 -0.13320174295465559 0 -0.452847172920396 -0.1514640371185853 0 -0.44872577578551592 -0.13320174295465559 0 -0.45896755277767909 -0.12575633132281341 0 -0.45000974795797011 -0.119430952696417 0 -0.44872577578551592 -0.13320174295465559 0 -0.45000974795797011 -0.119430952696417 0 -0.44085253015216358 -0.1237950587173612 0 -0.43389101300267191 -0.13422730327376839 0 -0.44872577578551592 -0.13320174295465559 0 -0.44085253015216358 -0.1237950587173612 0 -0.43525592456887258 -0.14374997194848471 0 -0.43389101300267191 -0.13422730327376839 0 -0.452847172920396 -0.1514640371185853 0 -0.43525592456887258 -0.14374997194848471 0 -0.44410307239699631 -0.15282998285397989 0 -0.452847172920396 -0.1514640371185853 0 -0.44872577578551592 -0.13320174295465559 0 -0.452847172920396 -0.1514640371185853 0 -0.456386085566235 -0.14096643446963419 0 -0.43389101300267191 -0.13422730327376839 0 -0.452847172920396 -0.1514640371185853 0 -0.44410307239699631 -0.15282998285397989 0 -0.452847172920396 -0.1514640371185853 0 -0.45664278474311831 -0.16090201031420531 0 -0.452847172920396 -0.1514640371185853 0 -0.456386085566235 -0.14096643446963419 0 -0.46738274896045578 -0.15003021006820461 0 -0.452847172920396 -0.1514640371185853 0 -0.46738274896045578 -0.15003021006820461 0 -0.45664278474311831 -0.16090201031420531 0 -0.456386085566235 -0.14096643446963419 0 -0.46738274896045578 -0.15003021006820461 0 -0.47200539146090159 -0.13839174763128981 0 -0.456386085566235 -0.14096643446963419 0 -0.47200539146090159 -0.13839174763128981 0 -0.47750202174635031 -0.1215216316744509 0 -0.456386085566235 -0.14096643446963419 0 -0.45896755277767909 -0.12575633132281341 0 -0.47750202174635031 -0.1215216316744509 0 -0.456386085566235 -0.14096643446963419 0 -0.47750202174635031 -0.1215216316744509 0 -0.44872577578551592 -0.13320174295465559 0 -0.456386085566235 -0.14096643446963419 0 -0.45896755277767909 -0.12575633132281341 0 -0.47200539146090159 -0.13839174763128981 0 -0.48675070957056549 -0.14104871431286931 0 -0.47750202174635031 -0.1215216316744509 0 -0.50000000000000011 -0.12648838757554831 0 -0.48675070957056549 -0.14104871431286931 0 -0.5 -0.15043640832747529 0 -0.50000000000000011 -0.12648838757554831 0 -0.48675070957056549 -0.14104871431286931 0 -0.47750202174635031 -0.1215216316744509 0 -0.48675070957056549 -0.14104871431286931 0 -0.5 -0.15043640832747529 0 -0.48062174440056549 -0.15969986187448909 0 -0.46738274896045578 -0.15003021006820461 0 -0.47200539146090159 -0.13839174763128981 0 -0.48675070957056549 -0.14104871431286931 0 -0.48675070957056549 -0.14104871431286931 0 -0.48062174440056549 -0.15969986187448909 0 -0.46738274896045578 -0.15003021006820461 0 -0.48675070957056549 -0.14104871431286931 0 -0.48062174440056549 -0.15969986187448909 0 -0.48062174440056549 -0.15969986187448909 0 -0.46548313673471758 -0.16971310035941381 0 -0.46753260370971428 -0.1600862956540782 0 -0.46738274896045578 -0.15003021006820461 0 -0.48062174440056549 -0.15969986187448909 0 -0.46753260370971428 -0.1600862956540782 0 -0.48062174440056549 -0.15969986187448909 0 -0.47449277923056221 -0.17835100943610771 0 -0.46548313673471758 -0.16971310035941381 0 -0.48062174440056549 -0.15969986187448909 0 -0.47449277923056221 -0.17835100943610771 0 -0.5 -0.15043640832747529 0 -0.48062174440056549 -0.15969986187448909 0 -0.49999999999999828 -0.17438442907940241 0 -0.48062174440056549 -0.15969986187448909 0 -0.49999999999999828 -0.17438442907940241 0 -0.47449277923056221 -0.17835100943610771 0 -0.49999999999999828 -0.17438442907940241 0 -0.47449277923056221 -0.17835100943610771 0 -0.49999999999999828 -0.17438442907940241 0 -0.47449277923056221 -0.17835100943610771 0 -0.48549376880548989 -0.19132810400505559 0 -0.47449277923056221 -0.17835100943610771 0 -0.46892716456320649 -0.19528781647494389 0 -0.47449277923056221 -0.17835100943610771 0 -0.45952205817714309 -0.18067907836188021 0 -0.46892716456320649 -0.19528781647494389 0 -0.45952205817714309 -0.18067907836188021 0 -0.46548313673471758 -0.16971310035941381 0 -0.45289664290439807 -0.17180374819378549 0 -0.47449277923056221 -0.17835100943610771 0 -0.45952205817714309 -0.18067907836188021 0 -0.47449277923056221 -0.17835100943610771 0 -0.45952205817714309 -0.18067907836188021 0 -0.46548313673471758 -0.16971310035941381 0 -0.46548313673471758 -0.16971310035941381 0 -0.46753260370971428 -0.1600862956540782 0 -0.45664278474311831 -0.16090201031420531 0 -0.46738274896045578 -0.15003021006820461 0 -0.46753260370971428 -0.1600862956540782 0 -0.45664278474311831 -0.16090201031420531 0 -0.46548313673471758 -0.16971310035941381 0 -0.45664278474311831 -0.16090201031420531 0 -0.45289664290439807 -0.17180374819378549 0 -0.45664278474311831 -0.16090201031420531 0 -0.45289664290439807 -0.17180374819378549 0 -0.44219215159727421 -0.16781727210851849 0 -0.43166640735559808 -0.1552039120346444 0 -0.45664278474311831 -0.16090201031420531 0 -0.44219215159727421 -0.16781727210851849 0 -0.43166640735559808 -0.1552039120346444 0 -0.45664278474311831 -0.16090201031420531 0 -0.43166640735559808 -0.1552039120346444 0 -0.44410307239699631 -0.15282998285397989 0 -0.45664278474311831 -0.16090201031420531 0 -0.43495901877196291 -0.17485617288990979 0 -0.44219215159727421 -0.16781727210851849 0 -0.44455133712372419 -0.18300714728765441 0 -0.43099962817645188 -0.18319011649723049 0 -0.44455133712372419 -0.18300714728765441 0 -0.43833565968517207 -0.19112957676178299 0 -0.45952205817714309 -0.18067907836188021 0 -0.44455133712372419 -0.18300714728765441 0 -0.45396471697207569 -0.194241302212698 0 -0.45952205817714309 -0.18067907836188021 0 -0.44455133712372419 -0.18300714728765441 0 -0.45952205817714309 -0.18067907836188021 0 -0.45289664290439807 -0.17180374819378549 0 -0.44455133712372419 -0.18300714728765441 0 -0.45289664290439807 -0.17180374819378549 0 -0.44219215159727421 -0.16781727210851849 0 -0.44455133712372419 -0.18300714728765441 0 -0.44455133712372419 -0.18300714728765441 0 -0.43833565968517207 -0.19112957676178299 0 -0.45396471697207569 -0.194241302212698 0 -0.43833565968517207 -0.19112957676178299 0 -0.44184138868315109 -0.20247798044170351 0 -0.45396471697207569 -0.194241302212698 0 -0.44184138868315109 -0.20247798044170351 0 -0.46336154989584488 -0.2122246235137781 0 -0.45396471697207569 -0.194241302212698 0 -0.44184138868315109 -0.20247798044170351 0 -0.46336154989584488 -0.2122246235137781 0 -0.45338394269579491 -0.2190794284651259 0 -0.43378961613155448 -0.20908682079381441 0 -0.44184138868315109 -0.20247798044170351 0 -0.44166379455333399 -0.21604972156869759 0 -0.44184138868315109 -0.20247798044170351 0 -0.44166379455333399 -0.21604972156869759 0 -0.45338394269579491 -0.2190794284651259 0 -0.44184138868315109 -0.20247798044170351 0 -0.46336154989584488 -0.2122246235137781 0 -0.46336154989584488 -0.2122246235137781 0 -0.46892716456320649 -0.19528781647494389 0 -0.46336154989584488 -0.2122246235137781 0 -0.45396471697207569 -0.194241302212698 0 -0.46892716456320649 -0.19528781647494389 0 -0.45952205817714309 -0.18067907836188021 0 -0.45396471697207569 -0.194241302212698 0 -0.46892716456320649 -0.19528781647494389 0 -0.47449277923056221 -0.17835100943610771 0 -0.46892716456320649 -0.19528781647494389 0 -0.48549376880548989 -0.19132810400505559 0 -0.46892716456320649 -0.19528781647494389 0 -0.48549376880548989 -0.19132810400505559 0 -0.47978640147694102 -0.20418872613165631 0 -0.5 -0.20182215567114031 0 -0.48549376880548989 -0.19132810400505559 0 -0.47978640147694102 -0.20418872613165631 0 -0.49999999999999828 -0.17438442907940241 0 -0.5 -0.20182215567114031 0 -0.48549376880548989 -0.19132810400505559 0 -0.5 -0.20182215567114031 0 -0.48114952412016337 -0.22028093099336349 0 -0.49893749834448198 -0.22833723847294871 0 -0.5 -0.20182215567114031 0 -0.47978640147694102 -0.20418872613165631 0 -0.48114952412016337 -0.22028093099336349 0 -0.46336154989584488 -0.2122246235137781 0 -0.48114952412016337 -0.22028093099336349 0 -0.46336154989584488 -0.2122246235137781 0 -0.47978640147694102 -0.20418872613165631 0 -0.48114952412016337 -0.22028093099336349 0 -0.46336154989584488 -0.2122246235137781 0 -0.46892716456320649 -0.19528781647494389 0 -0.47978640147694102 -0.20418872613165631 0 -0.46336154989584488 -0.2122246235137781 0 -0.48114952412016337 -0.22028093099336349 0 -0.46857810181099829 -0.22486784275082261 0 -0.48114952412016337 -0.22028093099336349 0 -0.48798868478634799 -0.231470988200419 0 -0.47142395938804471 -0.23802335247430181 0 -0.48114952412016337 -0.22028093099336349 0 -0.47142395938804471 -0.23802335247430181 0 -0.46857810181099829 -0.22486784275082261 0 -0.48114952412016337 -0.22028093099336349 0 -0.48798868478634799 -0.231470988200419 0 -0.49893749834448198 -0.22833723847294871 0 -0.48114952412016337 -0.22028093099336349 0 -0.49893749834448198 -0.22833723847294871 0 -0.48798868478634799 -0.231470988200419 0 -0.49893749834448198 -0.22833723847294871 0 -0.4875835208682564 -0.24248539692068891 0 -0.5 -0.25669760885461612 0 -0.49893749834448198 -0.22833723847294871 0 -0.4875835208682564 -0.24248539692068891 0 -0.48798868478634799 -0.231470988200419 0 -0.4875835208682564 -0.24248539692068891 0 -0.47142395938804471 -0.23802335247430181 0 -0.47878778985378329 -0.25835102983948688 0 -0.4875835208682564 -0.24248539692068891 0 -0.47142395938804471 -0.23802335247430181 0 -0.45662330498375908 -0.25656877445722759 0 -0.47142395938804471 -0.23802335247430181 0 -0.45034617445999431 -0.24335722649563979 0 -0.47142395938804471 -0.23802335247430181 0 -0.45735065046854989 -0.23051648340969341 0 -0.45034617445999431 -0.24335722649563979 0 -0.46336154989584488 -0.2122246235137781 0 -0.46857810181099829 -0.22486784275082261 0 -0.45735065046854989 -0.23051648340969341 0 -0.46336154989584488 -0.2122246235137781 0 -0.45735065046854989 -0.23051648340969341 0 -0.47142395938804471 -0.23802335247430181 0 -0.46857810181099829 -0.22486784275082261 0 -0.45735065046854989 -0.23051648340969341 0 -0.46336154989584488 -0.2122246235137781 0 -0.45338394269579491 -0.2190794284651259 0 -0.45735065046854989 -0.23051648340969341 0 -0.45338394269579491 -0.2190794284651259 0 -0.45735065046854989 -0.23051648340969341 0 -0.43806130733353449 -0.23541812032183559 0 -0.44166379455333399 -0.21604972156869759 0 -0.43806130733353449 -0.23541812032183559 0 -0.44166379455333399 -0.21604972156869759 0 -0.45338394269579491 -0.2190794284651259 0 -0.43806130733353449 -0.23541812032183559 0 -0.45735065046854989 -0.23051648340969341 0 -0.45034617445999431 -0.24335722649563979 0 -0.43806130733353449 -0.23541812032183559 0 -0.43445882011373449 -0.25478651907497341 0 -0.45034617445999431 -0.24335722649563979 0 -0.43806130733353449 -0.23541812032183559 0 -0.41324955929443102 -0.038374170610562031 0 -0.41005136228565903 -0.05540387285823338 0 -0.42435348212729052 -0.04457483879584373 0 -0.41324955929443102 -0.038374170610562031 0 -0.41005136228565903 -0.05540387285823338 0 -0.39900851660089293 -0.046429079601448257 0 -0.41324955929443102 -0.038374170610562031 0 -0.40747857107326091 -0.02424585309778798 0 -0.40045416304880688 -0.034240371911693122 0 -0.41005136228565903 -0.05540387285823338 0 -0.4246600563061857 -0.059067830999859447 0 -0.41422906440869389 -0.068128229862373102 0 -0.41005136228565903 -0.05540387285823338 0 -0.4246600563061857 -0.059067830999859447 0 -0.42435348212729052 -0.04457483879584373 0 -0.4246600563061857 -0.059067830999859447 0 -0.42435348212729052 -0.04457483879584373 0 -0.43957367317472601 -0.045089571971719818 0 -0.4246600563061857 -0.059067830999859447 0 -0.43957367317472601 -0.045089571971719818 0 -0.44544580640037118 -0.056213229689383748 0 -0.41324955929443102 -0.038374170610562031 0 -0.42435348212729052 -0.04457483879584373 0 -0.42981912379901888 -0.030443092666165631 0 -0.42435348212729052 -0.04457483879584373 0 -0.42981912379901888 -0.030443092666165631 0 -0.43957367317472601 -0.045089571971719818 0 -0.41302196833726168 -0.01226972299954816 0 -0.4392085005598273 -0.024676348383282701 0 -0.42659341977192161 -0.010103830507352861 0 -0.41302196833726168 -0.01226972299954816 0 -0.4392085005598273 -0.024676348383282701 0 -0.42981912379901888 -0.030443092666165631 0 -0.41673372021425997 -0.022240754673565791 0 -0.4392085005598273 -0.024676348383282701 0 -0.41302196833726168 -0.01226972299954816 0 -0.41673372021425997 -0.022240754673565791 0 -0.4392085005598273 -0.024676348383282701 0 -0.43741768347029059 -0.01288367903972009 0 -0.42659341977192161 -0.010103830507352861 0 -0.4392085005598273 -0.024676348383282701 0 -0.4441818909265971 -0.00998157505946092 0 -0.42578104856505677 0.0031949168855625672 0 -0.43741768347029059 -0.01288367903972009 0 -0.4441818909265971 -0.00998157505946092 0 -0.42578104856505677 0.0031949168855625672 0 -0.43741768347029059 -0.01288367903972009 0 -0.42659341977192161 -0.010103830507352861 0 -0.42578104856505677 0.0031949168855625672 0 -0.43741768347029059 -0.01288367903972009 0 -0.42578104856505677 0.0031949168855625672 0 -0.42659341977192161 -0.010103830507352861 0 -0.41753789792717189 -0.0038843189997757009 0 -0.42578104856505677 0.0031949168855625672 0 -0.42659341977192161 -0.010103830507352861 0 -0.41753789792717189 -0.0038843189997757009 0 -0.41302196833726168 -0.01226972299954816 0 -0.41753789792717189 -0.0038843189997757009 0 -0.41302196833726168 -0.01226972299954816 0 -0.40771050441737638 -0.0035262849216432719 0 -0.41753789792717189 -0.0038843189997757009 0 -0.40771050441737638 -0.0035262849216432719 0 -0.41105156913745711 0.0034129409419674369 0 -0.42981912379901888 -0.030443092666165631 0 -0.40747857107326091 -0.02424585309778798 0 -0.41324955929443102 -0.038374170610562031 0 -0.42981912379901888 -0.030443092666165631 0 -0.40747857107326091 -0.02424585309778798 0 -0.42981912379901888 -0.030443092666165631 0 -0.41673372021425997 -0.022240754673565791 0 -0.40747857107326091 -0.02424585309778798 0 -0.41302196833726168 -0.01226972299954816 0 -0.41673372021425997 -0.022240754673565791 0 -0.40747857107326091 -0.02424585309778798 0 -0.41673372021425997 -0.022240754673565791 0 -0.40747857107326091 -0.02424585309778798 0 -0.40747857107326091 -0.02424585309778798 0 -0.38992317137517202 -0.02804917422583518 0 -0.40747857107326091 -0.02424585309778798 0 -0.38992317137517202 -0.02804917422583518 0 -0.38297625517291389 -0.017448943304264108 0 -0.40747857107326091 -0.02424585309778798 0 -0.38992317137517202 -0.02804917422583518 0 -0.40045416304880688 -0.034240371911693122 0 -0.40747857107326091 -0.02424585309778798 0 -0.39567459441968961 -0.012635194689989219 0 -0.38297625517291389 -0.017448943304264108 0 -0.40747857107326091 -0.02424585309778798 0 -0.38297625517291389 -0.017448943304264108 0 -0.41302196833726168 -0.01226972299954816 0 -0.40747857107326091 -0.02424585309778798 0 -0.39567459441968961 -0.012635194689989219 0 -0.41302196833726168 -0.01226972299954816 0 -0.40771050441737638 -0.0035262849216432719 0 -0.38683543611469601 0.0001369023841863784 0 -0.41302196833726168 -0.01226972299954816 0 -0.39567459441968961 -0.012635194689989219 0 -0.38683543611469601 0.0001369023841863784 0 -0.41302196833726168 -0.01226972299954816 0 -0.38683543611469601 0.0001369023841863784 0 -0.40771050441737638 -0.0035262849216432719 0 -0.38683543611469601 0.0001369023841863784 0 -0.40226596945639398 0.0014711925349297271 0 -0.39567459441968961 -0.012635194689989219 0 -0.38502252263107412 -0.0084426060797158468 0 -0.38683543611469601 0.0001369023841863784 0 -0.39567459441968961 -0.012635194689989219 0 -0.38502252263107412 -0.0084426060797158468 0 -0.38297625517291389 -0.017448943304264108 0 -0.38502252263107412 -0.0084426060797158468 0 -0.38009964520605882 -0.0090403485437739461 0 -0.38297625517291389 -0.017448943304264108 0 -0.37278444596104371 -0.0079457960458173115 0 -0.38009964520605882 -0.0090403485437739461 0 -0.38297625517291389 -0.017448943304264108 0 -0.37474494217865062 -0.0022388935110706832 0 -0.38502252263107412 -0.0084426060797158468 0 -0.38683543611469601 0.0001369023841863784 0 -0.37474494217865062 -0.0022388935110706832 0 -0.38502252263107412 -0.0084426060797158468 0 -0.38009964520605882 -0.0090403485437739461 0 -0.37474494217865062 -0.0022388935110706832 0 -0.37278444596104371 -0.0079457960458173115 0 -0.38009964520605882 -0.0090403485437739461 0 -0.37236777167708351 -0.031852495353884333 0 -0.38992317137517202 -0.02804917422583518 0 -0.37990921189048049 -0.023302515363219579 0 -0.37236777167708351 -0.031852495353884333 0 -0.38992317137517202 -0.02804917422583518 0 -0.38992317137517202 -0.02804917422583518 0 -0.38297625517291389 -0.017448943304264108 0 -0.37990921189048049 -0.023302515363219579 0 -0.3739022591900184 -0.02415390189740213 0 -0.38297625517291389 -0.017448943304264108 0 -0.37990921189048049 -0.023302515363219579 0 -0.37236777167708351 -0.031852495353884333 0 -0.3739022591900184 -0.02415390189740213 0 -0.37990921189048049 -0.023302515363219579 0 -0.37236777167708351 -0.031852495353884333 0 -0.37990921189048049 -0.023302515363219579 0 -0.38458287424021398 -0.039388642062709187 0 -0.39900851660089293 -0.046429079601448257 0 -0.3815482533063424 -0.052412606119804542 0 -0.37355784227175309 -0.045246792894939887 0 -0.37236777167708351 -0.031852495353884333 0 -0.38458287424021398 -0.039388642062709187 0 -0.37236777167708351 -0.031852495353884333 0 -0.38992317137517202 -0.02804917422583518 0 -0.38458287424021398 -0.039388642062709187 0 -0.37355784227175309 -0.045246792894939887 0 -0.38458287424021398 -0.039388642062709187 0 -0.3815482533063424 -0.052412606119804542 0 -0.38458287424021398 -0.039388642062709187 0 -0.39900851660089293 -0.046429079601448257 0 -0.40045416304880688 -0.034240371911693122 0 -0.38992317137517202 -0.02804917422583518 0 -0.38458287424021398 -0.039388642062709187 0 -0.40045416304880688 -0.034240371911693122 0 -0.41324955929443102 -0.038374170610562031 0 -0.39900851660089293 -0.046429079601448257 0 -0.40045416304880688 -0.034240371911693122 0 -0.39900851660089293 -0.046429079601448257 0 -0.39626447370361728 -0.06091275685647668 0 -0.3815482533063424 -0.052412606119804542 0 -0.41005136228565903 -0.05540387285823338 0 -0.39626447370361728 -0.06091275685647668 0 -0.40517181862379281 -0.066558370858305557 0 -0.41005136228565903 -0.05540387285823338 0 -0.39900851660089293 -0.046429079601448257 0 -0.39626447370361728 -0.06091275685647668 0 -0.36862349457690058 -0.057461967220355487 0 -0.3815482533063424 -0.052412606119804542 0 -0.37947166312044489 -0.067272628224985004 0 -0.3815482533063424 -0.052412606119804542 0 -0.37947166312044489 -0.067272628224985004 0 -0.39260231949431601 -0.074533368335879327 0 -0.36882665317829499 -0.078032107790563188 0 -0.39260231949431601 -0.074533368335879327 0 -0.39626447370361728 -0.06091275685647668 0 -0.3815482533063424 -0.052412606119804542 0 -0.39260231949431601 -0.074533368335879327 0 -0.3815482533063424 -0.052412606119804542 0 -0.39260231949431601 -0.074533368335879327 0 -0.36882665317829499 -0.078032107790563188 0 -0.37947166312044489 -0.067272628224985004 0 -0.39260231949431601 -0.074533368335879327 0 -0.36882665317829499 -0.078032107790563188 0 -0.39260231949431601 -0.074533368335879327 0 -0.39002829617667018 -0.099006697234722524 0 -0.36882665317829499 -0.078032107790563188 0 -0.39002829617667018 -0.099006697234722524 0 -0.37367929427193591 -0.1014825750548952 0 -0.36882665317829499 -0.078032107790563188 0 -0.39002829617667018 -0.099006697234722524 0 -0.39260231949431601 -0.074533368335879327 0 -0.39002829617667018 -0.099006697234722524 0 -0.39510370691593599 -0.098958215311000047 0 -0.39260231949431601 -0.074533368335879327 0 -0.40274583300482147 -0.094831984843681591 0 -0.39260231949431601 -0.074533368335879327 0 -0.39510370691593599 -0.098958215311000047 0 -0.40274583300482147 -0.094831984843681591 0 -0.40361170428446441 -0.083317353290434007 0 -0.39260231949431601 -0.074533368335879327 0 -0.40274583300482147 -0.094831984843681591 0 -0.40361170428446441 -0.083317353290434007 0 -0.39867569396630093 -0.073639632925658519 0 -0.40696916935602839 -0.074517235882718885 0 -0.39867569396630093 -0.073639632925658519 0 -0.40517181862379281 -0.066558370858305557 0 -0.40696916935602839 -0.074517235882718885 0 -0.39626447370361728 -0.06091275685647668 0 -0.39867569396630093 -0.073639632925658519 0 -0.40517181862379281 -0.066558370858305557 0 -0.39626447370361728 -0.06091275685647668 0 -0.39867569396630093 -0.073639632925658519 0 -0.39260231949431601 -0.074533368335879327 0 -0.40361170428446441 -0.083317353290434007 0 -0.39867569396630093 -0.073639632925658519 0 -0.39260231949431601 -0.074533368335879327 0 -0.39867569396630093 -0.073639632925658519 0 -0.39260231949431601 -0.074533368335879327 0 -0.37212838853434238 -0.11808059788504249 0 -0.38278168804071749 -0.12940228238898679 0 -0.39044023874876249 -0.11757149150947201 0 -0.37367929427193591 -0.1014825750548952 0 -0.37212838853434238 -0.11808059788504249 0 -0.39044023874876249 -0.11757149150947201 0 -0.37367929427193591 -0.1014825750548952 0 -0.39044023874876249 -0.11757149150947201 0 -0.39002829617667018 -0.099006697234722524 0 -0.39510370691593599 -0.098958215311000047 0 -0.40274583300482147 -0.094831984843681591 0 -0.41288934651532883 -0.11513060135148299 0 -0.39002829617667018 -0.099006697234722524 0 -0.39510370691593599 -0.098958215311000047 0 -0.41122993917504558 -0.1199812866788818 0 -0.39510370691593599 -0.098958215311000047 0 -0.41288934651532883 -0.11513060135148299 0 -0.39647179587780151 -0.13189450107720049 0 -0.39044023874876249 -0.11757149150947201 0 -0.41122993917504558 -0.1199812866788818 0 -0.39002829617667018 -0.099006697234722524 0 -0.41122993917504558 -0.1199812866788818 0 -0.39044023874876249 -0.11757149150947201 0 -0.39002829617667018 -0.099006697234722524 0 -0.41122993917504558 -0.1199812866788818 0 -0.39510370691593599 -0.098958215311000047 0 -0.41122993917504558 -0.1199812866788818 0 -0.41288934651532883 -0.11513060135148299 0 -0.41930562378398423 -0.12797048681614909 0 -0.41122993917504558 -0.1199812866788818 0 -0.4149348530849476 -0.1169905694289516 0 -0.41930562378398423 -0.12797048681614909 0 -0.41122993917504558 -0.1199812866788818 0 -0.41930562378398423 -0.12797048681614909 0 -0.4149348530849476 -0.1169905694289516 0 -0.41122993917504558 -0.1199812866788818 0 -0.41288934651532883 -0.11513060135148299 0 -0.4149348530849476 -0.1169905694289516 0 -0.41122993917504558 -0.1199812866788818 0 -0.4149348530849476 -0.1169905694289516 0 -0.41288934651532883 -0.11513060135148299 0 -0.4149348530849476 -0.1169905694289516 0 -0.41288934651532883 -0.11513060135148299 0 -0.4149348530849476 -0.1169905694289516 0 -0.41458672172207622 -0.10427776634057311 0 -0.40274583300482147 -0.094831984843681591 0 -0.41288934651532883 -0.11513060135148299 0 -0.4149348530849476 -0.1169905694289516 0 -0.41458672172207622 -0.10427776634057311 0 -0.43059848591229039 -0.1043464168163742 0 -0.40274583300482147 -0.094831984843681591 0 -0.41288934651532883 -0.11513060135148299 0 -0.41458672172207622 -0.10427776634057311 0 -0.41458672172207622 -0.10427776634057311 0 -0.41348552386521947 -0.090840815536544176 0 -0.43025813067654672 -0.08737754853092726 0 -0.40274583300482147 -0.094831984843681591 0 -0.41458672172207622 -0.10427776634057311 0 -0.41348552386521947 -0.090840815536544176 0 -0.43059848591229039 -0.1043464168163742 0 -0.43025813067654672 -0.08737754853092726 0 -0.44626211873963212 -0.091702264203795431 0 -0.41458672172207622 -0.10427776634057311 0 -0.43059848591229039 -0.1043464168163742 0 -0.43025813067654672 -0.08737754853092726 0 -0.41458672172207622 -0.10427776634057311 0 -0.43025813067654672 -0.08737754853092726 0 -0.4149348530849476 -0.1169905694289516 0 -0.43059848591229039 -0.1043464168163742 0 -0.43160182387889101 -0.1187955019330571 0 -0.4149348530849476 -0.1169905694289516 0 -0.43059848591229039 -0.1043464168163742 0 -0.43389101300267191 -0.13422730327376839 0 -0.4149348530849476 -0.1169905694289516 0 -0.43160182387889101 -0.1187955019330571 0 -0.43059848591229039 -0.1043464168163742 0 -0.43160182387889101 -0.1187955019330571 0 -0.44003429013576911 -0.11331979272890801 0 -0.43160182387889101 -0.1187955019330571 0 -0.44085253015216358 -0.1237950587173612 0 -0.44003429013576911 -0.11331979272890801 0 -0.41422906440869389 -0.068128229862373102 0 -0.41539885585273961 -0.080089681603359497 0 -0.42594434486026628 -0.073522222089585226 0 -0.4246600563061857 -0.059067830999859447 0 -0.41422906440869389 -0.068128229862373102 0 -0.42594434486026628 -0.073522222089585226 0 -0.41005136228565903 -0.05540387285823338 0 -0.40517181862379281 -0.066558370858305557 0 -0.41422906440869389 -0.068128229862373102 0 -0.40517181862379281 -0.066558370858305557 0 -0.41422906440869389 -0.068128229862373102 0 -0.40696916935602839 -0.074517235882718885 0 -0.41422906440869389 -0.068128229862373102 0 -0.40696916935602839 -0.074517235882718885 0 -0.41539885585273961 -0.080089681603359497 0 -0.41348552386521947 -0.090840815536544176 0 -0.41539885585273961 -0.080089681603359497 0 -0.43025813067654672 -0.08737754853092726 0 -0.40361170428446441 -0.083317353290434007 0 -0.41348552386521947 -0.090840815536544176 0 -0.41539885585273961 -0.080089681603359497 0 -0.40361170428446441 -0.083317353290434007 0 -0.40696916935602839 -0.074517235882718885 0 -0.41539885585273961 -0.080089681603359497 0 -0.40361170428446441 -0.083317353290434007 0 -0.40274583300482147 -0.094831984843681591 0 -0.41348552386521947 -0.090840815536544176 0 -0.41539885585273961 -0.080089681603359497 0 -0.43025813067654672 -0.08737754853092726 0 -0.42594434486026628 -0.073522222089585226 0 -0.4246600563061857 -0.059067830999859447 0 -0.44592953963101739 -0.07047733072128165 0 -0.43025813067654672 -0.08737754853092726 0 -0.42594434486026628 -0.073522222089585226 0 -0.44592953963101739 -0.07047733072128165 0 -0.4246600563061857 -0.059067830999859447 0 -0.42594434486026628 -0.073522222089585226 0 -0.44592953963101739 -0.07047733072128165 0 -0.44592953963101739 -0.07047733072128165 0 -0.45893666683642192 -0.056450303318209168 0 -0.44592953963101739 -0.07047733072128165 0 -0.44626211873963212 -0.091702264203795431 0 -0.46192575156697407 -0.079058111591217034 0 -0.43025813067654672 -0.08737754853092726 0 -0.44592953963101739 -0.07047733072128165 0 -0.43025813067654672 -0.08737754853092726 0 -0.44592953963101739 -0.07047733072128165 0 -0.44626211873963212 -0.091702264203795431 0 -0.44626211873963212 -0.091702264203795431 0 -0.46631049206888459 -0.091444160656324658 0 -0.46192575156697407 -0.079058111591217034 0 -0.44626211873963212 -0.091702264203795431 0 -0.46192575156697407 -0.079058111591217034 0 -0.46631049206888459 -0.091444160656324658 0 -0.46192575156697407 -0.079058111591217034 0 -0.47702460168979111 -0.087157524427869615 0 -0.44592953963101739 -0.07047733072128165 0 -0.46192575156697407 -0.079058111591217034 0 -0.45893666683642192 -0.056450303318209168 0 -0.46192575156697407 -0.079058111591217034 0 -0.47491389520024407 -0.068573693827893439 0 -0.45893666683642192 -0.056450303318209168 0 -0.46192575156697407 -0.079058111591217034 0 -0.47491389520024407 -0.068573693827893439 0 -0.44592953963101739 -0.07047733072128165 0 -0.46192575156697407 -0.079058111591217034 0 -0.45000974795797011 -0.119430952696417 0 -0.44085253015216358 -0.1237950587173612 0 -0.44003429013576911 -0.11331979272890801 0 -0.45000974795797011 -0.119430952696417 0 -0.44003429013576911 -0.11331979272890801 0 -0.44926481423485548 -0.10476542824413421 0 -0.43059848591229039 -0.1043464168163742 0 -0.44626211873963212 -0.091702264203795431 0 -0.43059848591229039 -0.1043464168163742 0 -0.44626211873963212 -0.091702264203795431 0 -0.44926481423485548 -0.10476542824413421 0 -0.43059848591229039 -0.1043464168163742 0 -0.44003429013576911 -0.11331979272890801 0 -0.44926481423485548 -0.10476542824413421 0 -0.44626211873963212 -0.091702264203795431 0 -0.44926481423485548 -0.10476542824413421 0 -0.46153012095291662 -0.1019472767233552 0 -0.44626211873963212 -0.091702264203795431 0 -0.46631049206888459 -0.091444160656324658 0 -0.46153012095291662 -0.1019472767233552 0 -0.46631049206888459 -0.091444160656324658 0 -0.46153012095291662 -0.1019472767233552 0 -0.4710589232177344 -0.098453604121520433 0 -0.46153012095291662 -0.1019472767233552 0 -0.46221413283232399 -0.11366089481890911 0 -0.47430793409480421 -0.10627177682285049 0 -0.44926481423485548 -0.10476542824413421 0 -0.46153012095291662 -0.1019472767233552 0 -0.46221413283232399 -0.11366089481890911 0 -0.45896755277767909 -0.12575633132281341 0 -0.46221413283232399 -0.11366089481890911 0 -0.47750202174635031 -0.1215216316744509 0 -0.45000974795797011 -0.119430952696417 0 -0.44926481423485548 -0.10476542824413421 0 -0.46221413283232399 -0.11366089481890911 0 -0.45896755277767909 -0.12575633132281341 0 -0.45000974795797011 -0.119430952696417 0 -0.46221413283232399 -0.11366089481890911 0 -0.47750202174635031 -0.1215216316744509 0 -0.47430793409480421 -0.10627177682285049 0 -0.48673501487359588 -0.1010237797652184 0 -0.46221413283232399 -0.11366089481890911 0 -0.47750202174635031 -0.1215216316744509 0 -0.47430793409480421 -0.10627177682285049 0 -0.47430793409480421 -0.10627177682285049 0 -0.47745372589702628 -0.099742000537211661 0 -0.48673501487359588 -0.1010237797652184 0 -0.46153012095291662 -0.1019472767233552 0 -0.47430793409480421 -0.10627177682285049 0 -0.4710589232177344 -0.098453604121520433 0 -0.46631049206888459 -0.091444160656324658 0 -0.4710589232177344 -0.098453604121520433 0 -0.47771303140197108 -0.093218841439257433 0 -0.47430793409480421 -0.10627177682285049 0 -0.4710589232177344 -0.098453604121520433 0 -0.47745372589702628 -0.099742000537211661 0 -0.4710589232177344 -0.098453604121520433 0 -0.47745372589702628 -0.099742000537211661 0 -0.47771303140197108 -0.093218841439257433 0 -0.47745372589702628 -0.099742000537211661 0 -0.48673501487359588 -0.1010237797652184 0 -0.47771303140197108 -0.093218841439257433 0 -0.48673501487359588 -0.1010237797652184 0 -0.47771303140197108 -0.093218841439257433 0 -0.47702460168979111 -0.087157524427869615 0 -0.47750202174635031 -0.1215216316744509 0 -0.48673501487359588 -0.1010237797652184 0 -0.4986179579264654 -0.1020768288792674 0 -0.48673501487359588 -0.1010237797652184 0 -0.49842317329231273 -0.098636270432611556 0 -0.47702460168979111 -0.087157524427869615 0 -0.48673501487359588 -0.1010237797652184 0 -0.49842317329231273 -0.098636270432611556 0 -0.4986179579264654 -0.1020768288792674 0 -0.49999999999999939 -0.099482120969144883 0 -0.49842317329231273 -0.098636270432611556 0 -0.4986179579264654 -0.1020768288792674 0 -0.49842317329231273 -0.098636270432611556 0 -0.4986179579264654 -0.1020768288792674 0 -0.49999999999999939 -0.099482120969144883 0 -0.49842317329231273 -0.098636270432611556 0 -0.50000000000000011 -0.12648838757554831 0 -0.47750202174635031 -0.1215216316744509 0 -0.4986179579264654 -0.1020768288792674 0 -0.47750202174635031 -0.1215216316744509 0 -0.4986179579264654 -0.1020768288792674 0 -0.47491389520024407 -0.068573693827893439 0 -0.47702460168979111 -0.087157524427869615 0 -0.4847984782487687 -0.075944598732494498 0 -0.47491389520024407 -0.068573693827893439 0 -0.47702460168979111 -0.087157524427869615 0 -0.47967839073812912 -0.064727650616396362 0 -0.4847984782487687 -0.075944598732494498 0 -0.48794163871831331 -0.064119883023254248 0 -0.47967839073812912 -0.064727650616396362 0 -0.47491389520024407 -0.068573693827893439 0 -0.4847984782487687 -0.075944598732494498 0 -0.47967839073812912 -0.064727650616396362 0 -0.47491389520024407 -0.068573693827893439 0 -0.46192575156697407 -0.079058111591217034 0 -0.47702460168979111 -0.087157524427869615 0 -0.46192575156697407 -0.079058111591217034 0 -0.47491389520024407 -0.068573693827893439 0 -0.47702460168979111 -0.087157524427869615 0 -0.46631049206888459 -0.091444160656324658 0 -0.47771303140197108 -0.093218841439257433 0 -0.47702460168979111 -0.087157524427869615 0 -0.47771303140197108 -0.093218841439257433 0 -0.47702460168979111 -0.087157524427869615 0 -0.49842317329231273 -0.098636270432611556 0 -0.49712708577170861 -0.075742961183477536 0 -0.4847984782487687 -0.075944598732494498 0 -0.49999999999999939 -0.099482120969144883 0 -0.49842317329231273 -0.098636270432611556 0 -0.5 -0.078030389970551228 0 -0.49842317329231273 -0.098636270432611556 0 -0.49712708577170861 -0.075742961183477536 0 -0.49842317329231273 -0.098636270432611556 0 -0.5 -0.078030389970551228 0 -0.49712708577170861 -0.075742961183477536 0 -0.49842317329231273 -0.098636270432611556 0 -0.47702460168979111 -0.087157524427869615 0 -0.4847984782487687 -0.075944598732494498 0 -0.49842317329231273 -0.098636270432611556 0 -0.47702460168979111 -0.087157524427869615 0 -0.5 -0.078030389970551228 0 -0.49712708577170861 -0.075742961183477536 0 -0.49999999999999928 -0.056578658971957581 0 -0.49712708577170861 -0.075742961183477536 0 -0.49583099825110311 -0.052849651934343489 0 -0.49712708577170861 -0.075742961183477536 0 -0.48794163871831331 -0.064119883023254248 0 -0.49583099825110311 -0.052849651934343489 0 -0.49712708577170861 -0.075742961183477536 0 -0.4847984782487687 -0.075944598732494498 0 -0.48794163871831331 -0.064119883023254248 0 -0.49712708577170861 -0.075742961183477536 0 -0.49999999999999928 -0.056578658971957581 0 -0.49583099825110311 -0.052849651934343489 0 -0.49583099825110311 -0.052849651934343489 0 -0.47748890114140963 -0.036443372127734748 0 -0.48227324058185622 -0.051334552649559453 0 -0.49999999999999928 -0.056578658971957581 0 -0.49583099825110311 -0.052849651934343489 0 -0.49999999999999928 -0.056578658971957581 0 -0.50000000000000144 -0.053559852644015388 0 -0.49583099825110311 -0.052849651934343489 0 -0.48794163871831331 -0.064119883023254248 0 -0.49583099825110311 -0.052849651934343489 0 -0.48227324058185622 -0.051334552649559453 0 -0.50000000000000144 -0.053559852644015388 0 -0.49583099825110311 -0.052849651934343489 0 -0.48598145264485831 -0.02728491224803695 0 -0.49583099825110311 -0.052849651934343489 0 -0.47748890114140963 -0.036443372127734748 0 -0.48598145264485831 -0.02728491224803695 0 -0.50000000000000144 -0.053559852644015388 0 -0.48598145264485831 -0.02728491224803695 0 -0.50000000000000144 -0.053559852644015388 0 -0.48598145264485831 -0.02728491224803695 0 -0.5 -0.025161366008633609 0 -0.49583099825110311 -0.052849651934343489 0 -0.47748890114140963 -0.036443372127734748 0 -0.47748890114140963 -0.036443372127734748 0 -0.48598145264485831 -0.02728491224803695 0 -0.47748890114140963 -0.036443372127734748 0 -0.47194379404182718 -0.042423275915137587 0 -0.48227324058185622 -0.051334552649559453 0 -0.47748890114140963 -0.036443372127734748 0 -0.47194379404182718 -0.042423275915137587 0 -0.47748890114140963 -0.036443372127734748 0 -0.47194379404182718 -0.042423275915137587 0 -0.47056077858213702 -0.03024644074295027 0 -0.47194379404182718 -0.042423275915137587 0 -0.46539503278239303 -0.037082973767017267 0 -0.47056077858213702 -0.03024644074295027 0 -0.47194379404182718 -0.042423275915137587 0 -0.47056077858213702 -0.03024644074295027 0 -0.47748890114140963 -0.036443372127734748 0 -0.47056077858213702 -0.03024644074295027 0 -0.47748890114140963 -0.036443372127734748 0 -0.47056077858213702 -0.03024644074295027 0 -0.47745882259212458 -0.028728106929589409 0 -0.47967839073812912 -0.064727650616396362 0 -0.47491389520024407 -0.068573693827893439 0 -0.47194379404182718 -0.042423275915137587 0 -0.47967839073812912 -0.064727650616396362 0 -0.47194379404182718 -0.042423275915137587 0 -0.48227324058185622 -0.051334552649559453 0 -0.47491389520024407 -0.068573693827893439 0 -0.47194379404182718 -0.042423275915137587 0 -0.47967839073812912 -0.064727650616396362 0 -0.48794163871831331 -0.064119883023254248 0 -0.48227324058185622 -0.051334552649559453 0 -0.47491389520024407 -0.068573693827893439 0 -0.47194379404182718 -0.042423275915137587 0 -0.45893666683642192 -0.056450303318209168 0 -0.45893666683642192 -0.056450303318209168 0 -0.45743491846808387 -0.04563500224908737 0 -0.44544580640037118 -0.056213229689383748 0 -0.47194379404182718 -0.042423275915137587 0 -0.45893666683642192 -0.056450303318209168 0 -0.45743491846808387 -0.04563500224908737 0 -0.47194379404182718 -0.042423275915137587 0 -0.45893666683642192 -0.056450303318209168 0 -0.46539503278239303 -0.037082973767017267 0 -0.44890774518284438 -0.02927164544362729 0 -0.46539503278239303 -0.037082973767017267 0 -0.45215967652477718 -0.036640332234541717 0 -0.44890774518284438 -0.02927164544362729 0 -0.46539503278239303 -0.037082973767017267 0 -0.44890774518284438 -0.02927164544362729 0 -0.46189821575704781 -0.02986243911986371 0 -0.47194379404182718 -0.042423275915137587 0 -0.46539503278239303 -0.037082973767017267 0 -0.45743491846808387 -0.04563500224908737 0 -0.46539503278239303 -0.037082973767017267 0 -0.46189821575704781 -0.02986243911986371 0 -0.47056077858213702 -0.03024644074295027 0 -0.46539503278239303 -0.037082973767017267 0 -0.45743491846808387 -0.04563500224908737 0 -0.45215967652477718 -0.036640332234541717 0 -0.42981912379901888 -0.030443092666165631 0 -0.45215967652477718 -0.036640332234541717 0 -0.45743491846808387 -0.04563500224908737 0 -0.45215967652477718 -0.036640332234541717 0 -0.43957367317472601 -0.045089571971719818 0 -0.42981912379901888 -0.030443092666165631 0 -0.45215967652477718 -0.036640332234541717 0 -0.43957367317472601 -0.045089571971719818 0 -0.45743491846808387 -0.04563500224908737 0 -0.43957367317472601 -0.045089571971719818 0 -0.44544580640037118 -0.056213229689383748 0 -0.4246600563061857 -0.059067830999859447 0 -0.44592953963101739 -0.07047733072128165 0 -0.44544580640037118 -0.056213229689383748 0 -0.44592953963101739 -0.07047733072128165 0 -0.45893666683642192 -0.056450303318209168 0 -0.44544580640037118 -0.056213229689383748 0 -0.4441818909265971 -0.00998157505946092 0 -0.45588653083934588 0.00041698580085632909 0 -0.44737850259376799 0.0077656591989471307 0 -0.4441818909265971 -0.00998157505946092 0 -0.4570262928383732 -0.018140378997512391 0 -0.45633913854906122 -0.0094275687658610888 0 -0.4441818909265971 -0.00998157505946092 0 -0.45633913854906122 -0.0094275687658610888 0 -0.45588653083934588 0.00041698580085632909 0 -0.43741768347029059 -0.01288367903972009 0 -0.4441818909265971 -0.00998157505946092 0 -0.44890774518284438 -0.02927164544362729 0 -0.42981912379901888 -0.030443092666165631 0 -0.45215967652477718 -0.036640332234541717 0 -0.4392085005598273 -0.024676348383282701 0 -0.4441818909265971 -0.00998157505946092 0 -0.44890774518284438 -0.02927164544362729 0 -0.46258273328813732 -0.023158067004484729 0 -0.43741768347029059 -0.01288367903972009 0 -0.44890774518284438 -0.02927164544362729 0 -0.43741768347029059 -0.01288367903972009 0 -0.4392085005598273 -0.024676348383282701 0 -0.44890774518284438 -0.02927164544362729 0 -0.4392085005598273 -0.024676348383282701 0 -0.44890774518284438 -0.02927164544362729 0 -0.45215967652477718 -0.036640332234541717 0 -0.4392085005598273 -0.024676348383282701 0 -0.44890774518284438 -0.02927164544362729 0 -0.4441818909265971 -0.00998157505946092 0 -0.46258273328813732 -0.023158067004484729 0 -0.46258273328813732 -0.023158067004484729 0 -0.46826183959192841 -0.01000530680732737 0 -0.47056077858213702 -0.03024644074295027 0 -0.4441818909265971 -0.00998157505946092 0 -0.4570262928383732 -0.018140378997512391 0 -0.46258273328813732 -0.023158067004484729 0 -0.4570262928383732 -0.018140378997512391 0 -0.46258273328813732 -0.023158067004484729 0 -0.44890774518284438 -0.02927164544362729 0 -0.46189821575704781 -0.02986243911986371 0 -0.46258273328813732 -0.023158067004484729 0 -0.46258273328813732 -0.023158067004484729 0 -0.47056077858213702 -0.03024644074295027 0 -0.46189821575704781 -0.02986243911986371 0 -0.46258273328813732 -0.023158067004484729 0 -0.47056077858213702 -0.03024644074295027 0 -0.4570262928383732 -0.018140378997512391 0 -0.46258273328813732 -0.023158067004484729 0 -0.46826183959192841 -0.01000530680732737 0 -0.4570262928383732 -0.018140378997512391 0 -0.46826183959192841 -0.01000530680732737 0 -0.45633913854906122 -0.0094275687658610888 0 -0.46826183959192841 -0.01000530680732737 0 -0.45633913854906122 -0.0094275687658610888 0 -0.45588653083934588 0.00041698580085632909 0 -0.46826183959192841 -0.01000530680732737 0 -0.47597217662329228 -0.0085245425598697612 0 -0.4659629006017233 0.010235827128295859 0 -0.46826183959192841 -0.01000530680732737 0 -0.47597217662329228 -0.0085245425598697612 0 -0.47580415800009379 -0.02093770259963601 0 -0.47597217662329228 -0.0085245425598697612 0 -0.48922725890134677 -0.010453537226696331 0 -0.48082517856277007 0.001845263919603602 0 -0.47597217662329228 -0.0085245425598697612 0 -0.47580415800009379 -0.02093770259963601 0 -0.48598145264485831 -0.02728491224803695 0 -0.47597217662329228 -0.0085245425598697612 0 -0.48598145264485831 -0.02728491224803695 0 -0.46826183959192841 -0.01000530680732737 0 -0.47056077858213702 -0.03024644074295027 0 -0.47580415800009379 -0.02093770259963601 0 -0.47597217662329228 -0.0085245425598697612 0 -0.48598145264485831 -0.02728491224803695 0 -0.4893389393206713 -0.02366416211133009 0 -0.46826183959192841 -0.01000530680732737 0 -0.47056077858213702 -0.03024644074295027 0 -0.47056077858213702 -0.03024644074295027 0 -0.47580415800009379 -0.02093770259963601 0 -0.47745882259212458 -0.028728106929589409 0 -0.47580415800009379 -0.02093770259963601 0 -0.47745882259212458 -0.028728106929589409 0 -0.48598145264485831 -0.02728491224803695 0 -0.47748890114140963 -0.036443372127734748 0 -0.47745882259212458 -0.028728106929589409 0 -0.48598145264485831 -0.02728491224803695 0 -0.48598145264485831 -0.02728491224803695 0 -0.4893389393206713 -0.02366416211133009 0 -0.5 -0.025161366008633609 0 -0.48598145264485831 -0.02728491224803695 0 -0.4893389393206713 -0.02366416211133009 0 -0.4893389393206713 -0.02366416211133009 0 -0.5 -0.025161366008633609 0 -0.48922725890134677 -0.010453537226696331 0 -0.48922725890134677 -0.010453537226696331 0 -0.5 0.0032371206267481911 0 -0.48082517856277007 0.001845263919603602 0 -0.5 -0.025161366008633609 0 -0.48922725890134677 -0.010453537226696331 0 -0.5 0.0032371206267481911 0 -0.47597217662329228 -0.0085245425598697612 0 -0.4893389393206713 -0.02366416211133009 0 -0.48922725890134677 -0.010453537226696331 0 -0.5 0.0032371206267481911 0 -0.48596576445654982 0.01457961489688041 0 -0.48082517856277007 0.001845263919603602 0 -0.48596576445654982 0.01457961489688041 0 -0.47541999506787802 0.025418180444172121 0 -0.5 0.031635607262129987 0 -0.5 0.0032371206267481911 0 -0.48596576445654982 0.01457961489688041 0 -0.5 0.031635607262129987 0 -0.48596576445654982 0.01457961489688041 0 -0.47541999506787802 0.025418180444172121 0 -0.47401658579892991 0.013489912392399149 0 -0.47541999506787802 0.025418180444172121 0 -0.46963945276383978 0.01793989872667965 0 -0.47401658579892991 0.013489912392399149 0 -0.47597217662329228 -0.0085245425598697612 0 -0.48082517856277007 0.001845263919603602 0 -0.4659629006017233 0.010235827128295859 0 -0.47401658579892991 0.013489912392399149 0 -0.48082517856277007 0.001845263919603602 0 -0.4659629006017233 0.010235827128295859 0 -0.46963945276383978 0.01793989872667965 0 -0.47401658579892991 0.013489912392399149 0 -0.4659629006017233 0.010235827128295859 0 -0.47597217662329228 -0.0085245425598697612 0 -0.4659629006017233 0.010235827128295859 0 -0.48596576445654982 0.01457961489688041 0 -0.47401658579892991 0.013489912392399149 0 -0.48082517856277007 0.001845263919603602 0 -0.5 0.060034093897511798 0 -0.47816362815030861 0.043832779932641487 0 -0.48068047186290208 0.063626500276227002 0 -0.47541999506787802 0.025418180444172121 0 -0.5 0.031635607262129987 0 -0.47816362815030861 0.043832779932641487 0 -0.5 0.060034093897511798 0 -0.5 0.031635607262129987 0 -0.47816362815030861 0.043832779932641487 0 -0.47541999506787802 0.025418180444172121 0 -0.47816362815030861 0.043832779932641487 0 -0.46442391639916691 0.036471327701905212 0 -0.47816362815030861 0.043832779932641487 0 -0.46119618507356652 0.049359273152949731 0 -0.48068047186290208 0.063626500276227002 0 -0.46119618507356652 0.049359273152949731 0 -0.46103932749027238 0.064238871702306077 0 -0.48068047186290208 0.063626500276227002 0 -0.46119618507356652 0.049359273152949731 0 -0.44286953411296898 0.045255716157198693 0 -0.46103932749027238 0.064238871702306077 0 -0.47816362815030861 0.043832779932641487 0 -0.46119618507356652 0.049359273152949731 0 -0.46442391639916691 0.036471327701905212 0 -0.46119618507356652 0.049359273152949731 0 -0.46442391639916691 0.036471327701905212 0 -0.45082509298125129 0.038608595210277222 0 -0.46442391639916691 0.036471327701905212 0 -0.45082509298125129 0.038608595210277222 0 -0.4583939967914884 0.024422211169287101 0 -0.45082509298125129 0.038608595210277222 0 -0.4583939967914884 0.024422211169287101 0 -0.46119618507356652 0.049359273152949731 0 -0.45082509298125129 0.038608595210277222 0 -0.44286953411296898 0.045255716157198693 0 -0.45082509298125129 0.038608595210277222 0 -0.4405409619944019 0.035432846457562263 0 -0.4458839614772655 0.023387518650519249 0 -0.45082509298125129 0.038608595210277222 0 -0.4405409619944019 0.035432846457562263 0 -0.44286953411296898 0.045255716157198693 0 -0.4405409619944019 0.035432846457562263 0 -0.44286953411296898 0.045255716157198693 0 -0.43229092530358848 0.04451632412921195 0 -0.44286953411296898 0.045255716157198693 0 -0.44282721760043869 0.062046251170956107 0 -0.46103932749027238 0.064238871702306077 0 -0.44286953411296898 0.045255716157198693 0 -0.44282721760043869 0.062046251170956107 0 -0.43188097302969042 0.056955122555226501 0 -0.44286953411296898 0.045255716157198693 0 -0.46103932749027238 0.064238871702306077 0 -0.46826183959192841 -0.01000530680732737 0 -0.45588653083934588 0.00041698580085632909 0 -0.4659629006017233 0.010235827128295859 0 -0.46826183959192841 -0.01000530680732737 0 -0.4659629006017233 0.010235827128295859 0 -0.45609316173783881 0.014082317838893479 0 -0.45588653083934588 0.00041698580085632909 0 -0.4659629006017233 0.010235827128295859 0 -0.46963945276383978 0.01793989872667965 0 -0.4659629006017233 0.010235827128295859 0 -0.4583939967914884 0.024422211169287101 0 -0.4659629006017233 0.010235827128295859 0 -0.4583939967914884 0.024422211169287101 0 -0.47541999506787802 0.025418180444172121 0 -0.46963945276383978 0.01793989872667965 0 -0.4583939967914884 0.024422211169287101 0 -0.47541999506787802 0.025418180444172121 0 -0.46442391639916691 0.036471327701905212 0 -0.4583939967914884 0.024422211169287101 0 -0.45609316173783881 0.014082317838893479 0 -0.4659629006017233 0.010235827128295859 0 -0.4583939967914884 0.024422211169287101 0 -0.45609316173783881 0.014082317838893479 0 -0.4583939967914884 0.024422211169287101 0 -0.4458839614772655 0.023387518650519249 0 -0.45082509298125129 0.038608595210277222 0 -0.4583939967914884 0.024422211169287101 0 -0.4458839614772655 0.023387518650519249 0 -0.4405409619944019 0.035432846457562263 0 -0.4458839614772655 0.023387518650519249 0 -0.43566193494816191 0.02574822372494872 0 -0.4458839614772655 0.023387518650519249 0 -0.4359559447540089 0.01018896392150693 0 -0.43566193494816191 0.02574822372494872 0 -0.4441818909265971 -0.00998157505946092 0 -0.44737850259376799 0.0077656591989471307 0 -0.4359559447540089 0.01018896392150693 0 -0.4458839614772655 0.023387518650519249 0 -0.44737850259376799 0.0077656591989471307 0 -0.4359559447540089 0.01018896392150693 0 -0.45609316173783881 0.014082317838893479 0 -0.4458839614772655 0.023387518650519249 0 -0.44737850259376799 0.0077656591989471307 0 -0.45609316173783881 0.014082317838893479 0 -0.45588653083934588 0.00041698580085632909 0 -0.44737850259376799 0.0077656591989471307 0 -0.4441818909265971 -0.00998157505946092 0 -0.4359559447540089 0.01018896392150693 0 -0.42578104856505677 0.0031949168855625672 0 -0.42578104856505677 0.0031949168855625672 0 -0.41622595309658328 0.016397403714119251 0 -0.42870406893849561 0.019163111370922251 0 -0.4359559447540089 0.01018896392150693 0 -0.42578104856505677 0.0031949168855625672 0 -0.42870406893849561 0.019163111370922251 0 -0.41753789792717189 -0.0038843189997757009 0 -0.42578104856505677 0.0031949168855625672 0 -0.41105156913745711 0.0034129409419674369 0 -0.42578104856505677 0.0031949168855625672 0 -0.40852807671777941 0.0155494406680463 0 -0.41622595309658328 0.016397403714119251 0 -0.42578104856505677 0.0031949168855625672 0 -0.40852807671777941 0.0155494406680463 0 -0.41105156913745711 0.0034129409419674369 0 -0.42578104856505677 0.0031949168855625672 0 -0.40852807671777941 0.0155494406680463 0 -0.42578104856505677 0.0031949168855625672 0 -0.41622595309658328 0.016397403714119251 0 -0.40852807671777941 0.0155494406680463 0 -0.41105156913745711 0.0034129409419674369 0 -0.40262572535869262 0.0089097845909437267 0 -0.40771050441737638 -0.0035262849216432719 0 -0.41105156913745711 0.0034129409419674369 0 -0.40226596945639398 0.0014711925349297271 0 -0.40667085762811028 0.029599890542676258 0 -0.41622595309658328 0.016397403714119251 0 -0.42870406893849561 0.019163111370922251 0 -0.40667085762811028 0.029599890542676258 0 -0.42870406893849561 0.019163111370922251 0 -0.40667085762811028 0.029599890542676258 0 -0.41990433555607742 0.03061685230769556 0 -0.42870406893849561 0.019163111370922251 0 -0.40852807671777941 0.0155494406680463 0 -0.40667085762811028 0.029599890542676258 0 -0.41622595309658328 0.016397403714119251 0 -0.40667085762811028 0.029599890542676258 0 -0.41622595309658328 0.016397403714119251 0 -0.41990433555607742 0.03061685230769556 0 -0.4284463216954002 0.029357354603554459 0 -0.42870406893849561 0.019163111370922251 0 -0.4359559447540089 0.01018896392150693 0 -0.42870406893849561 0.019163111370922251 0 -0.43566193494816191 0.02574822372494872 0 -0.4284463216954002 0.029357354603554459 0 -0.42870406893849561 0.019163111370922251 0 -0.43566193494816191 0.02574822372494872 0 -0.4284463216954002 0.029357354603554459 0 -0.43566193494816191 0.02574822372494872 0 -0.43264023121812112 0.033917661463996759 0 -0.4405409619944019 0.035432846457562263 0 -0.43264023121812112 0.033917661463996759 0 -0.43229092530358848 0.04451632412921195 0 -0.43264023121812112 0.033917661463996759 0 -0.43229092530358848 0.04451632412921195 0 -0.42532103781614489 0.037340924150209003 0 -0.4405409619944019 0.035432846457562263 0 -0.43566193494816191 0.02574822372494872 0 -0.43264023121812112 0.033917661463996759 0 -0.43229092530358848 0.04451632412921195 0 -0.42532103781614489 0.037340924150209003 0 -0.42042490988599091 0.046091327469671317 0 -0.4284463216954002 0.029357354603554459 0 -0.43264023121812112 0.033917661463996759 0 -0.42532103781614489 0.037340924150209003 0 -0.41990433555607742 0.03061685230769556 0 -0.4284463216954002 0.029357354603554459 0 -0.42532103781614489 0.037340924150209003 0 -0.43229092530358848 0.04451632412921195 0 -0.43188097302969042 0.056955122555226501 0 -0.42585725303016408 0.051510102087770737 0 -0.44286953411296898 0.045255716157198693 0 -0.43229092530358848 0.04451632412921195 0 -0.43188097302969042 0.056955122555226501 0 -0.43229092530358848 0.04451632412921195 0 -0.42585725303016408 0.051510102087770737 0 -0.42042490988599091 0.046091327469671317 0 -0.43188097302969042 0.056955122555226501 0 -0.41883220390138681 0.058477634196973202 0 -0.43131469147834472 0.070632617455275076 0 -0.43188097302969042 0.056955122555226501 0 -0.42585725303016408 0.051510102087770737 0 -0.41883220390138681 0.058477634196973202 0 -0.41883220390138681 0.058477634196973202 0 -0.40840220717331749 0.048304634434869917 0 -0.39985653820026013 0.060860810446949978 0 -0.42585725303016408 0.051510102087770737 0 -0.41883220390138681 0.058477634196973202 0 -0.42042490988599091 0.046091327469671317 0 -0.41883220390138681 0.058477634196973202 0 -0.40840220717331749 0.048304634434869917 0 -0.42042490988599091 0.046091327469671317 0 -0.41990433555607742 0.03061685230769556 0 -0.42532103781614489 0.037340924150209003 0 -0.4122967326089878 0.037821593301397609 0 -0.42532103781614489 0.037340924150209003 0 -0.42042490988599091 0.046091327469671317 0 -0.4122967326089878 0.037821593301397609 0 -0.40840220717331749 0.048304634434869917 0 -0.4122967326089878 0.037821593301397609 0 -0.40579981868685489 0.041495006097714962 0 -0.40840220717331749 0.048304634434869917 0 -0.42042490988599091 0.046091327469671317 0 -0.4122967326089878 0.037821593301397609 0 -0.4122967326089878 0.037821593301397609 0 -0.40278544391907911 0.034968452634622761 0 -0.40579981868685489 0.041495006097714962 0 -0.40667085762811028 0.029599890542676258 0 -0.4122967326089878 0.037821593301397609 0 -0.40278544391907911 0.034968452634622761 0 -0.40667085762811028 0.029599890542676258 0 -0.41990433555607742 0.03061685230769556 0 -0.4122967326089878 0.037821593301397609 0 -0.40667085762811028 0.029599890542676258 0 -0.40278544391907911 0.034968452634622761 0 -0.40667085762811028 0.029599890542676258 0 -0.38856614517843069 0.038175802748282091 0 -0.40667085762811028 0.029599890542676258 0 -0.38856614517843069 0.038175802748282091 0 -0.39127510487050182 0.027903964450529759 0 -0.40667085762811028 0.029599890542676258 0 -0.40278544391907911 0.034968452634622761 0 -0.38856614517843069 0.038175802748282091 0 -0.40278544391907911 0.034968452634622761 0 -0.40579981868685489 0.041495006097714962 0 -0.3977250587697031 0.045015474274426849 0 -0.40840220717331749 0.048304634434869917 0 -0.40579981868685489 0.041495006097714962 0 -0.3977250587697031 0.045015474274426849 0 -0.40278544391907911 0.034968452634622761 0 -0.3977250587697031 0.045015474274426849 0 -0.38856614517843069 0.038175802748282091 0 -0.40840220717331749 0.048304634434869917 0 -0.3977250587697031 0.045015474274426849 0 -0.39985653820026013 0.060860810446949978 0 -0.3977250587697031 0.045015474274426849 0 -0.39985653820026013 0.060860810446949978 0 -0.38472691017257071 0.052921849058569698 0 -0.39985653820026013 0.060860810446949978 0 -0.38472691017257071 0.052921849058569698 0 -0.38510762700538009 0.066428587654483159 0 -0.38472691017257071 0.052921849058569698 0 -0.37046143272875132 0.04675171495388801 0 -0.37000681959492809 0.05831264468359916 0 -0.38472691017257071 0.052921849058569698 0 -0.38510762700538009 0.066428587654483159 0 -0.37000681959492809 0.05831264468359916 0 -0.38856614517843069 0.038175802748282091 0 -0.37871402691879819 0.03757115751491092 0 -0.37046143272875132 0.04675171495388801 0 -0.38856614517843069 0.038175802748282091 0 -0.37046143272875132 0.04675171495388801 0 -0.38472691017257071 0.052921849058569698 0 -0.38856614517843069 0.038175802748282091 0 -0.37046143272875132 0.04675171495388801 0 -0.38856614517843069 0.038175802748282091 0 -0.38315308642314733 0.033917821982192238 0 -0.39127510487050182 0.027903964450529759 0 -0.38856614517843069 0.038175802748282091 0 -0.38315308642314733 0.033917821982192238 0 -0.37871402691879819 0.03757115751491092 0 -0.3977250587697031 0.045015474274426849 0 -0.38472691017257071 0.052921849058569698 0 -0.38856614517843069 0.038175802748282091 0 -0.37871402691879819 0.03757115751491092 0 -0.3764786745208083 0.032098692741998169 0 -0.37046143272875132 0.04675171495388801 0 -0.38315308642314733 0.033917821982192238 0 -0.3764786745208083 0.032098692741998169 0 -0.38155727091044611 0.028316364585127811 0 -0.38315308642314733 0.033917821982192238 0 -0.37871402691879819 0.03757115751491092 0 -0.3764786745208083 0.032098692741998169 0 -0.3764786745208083 0.032098692741998169 0 -0.38155727091044611 0.028316364585127811 0 -0.37960108001976323 0.022263106047543741 0 -0.37960108001976323 0.022263106047543741 0 -0.37998819155715241 0.0057865511937031933 0 -0.37123175334181557 0.027162262264614271 0 -0.3764786745208083 0.032098692741998169 0 -0.37960108001976323 0.022263106047543741 0 -0.37123175334181557 0.027162262264614271 0 -0.38155727091044611 0.028316364585127811 0 -0.38533699425949169 0.022674384769296389 0 -0.37960108001976323 0.022263106047543741 0 -0.38155727091044611 0.028316364585127811 0 -0.38533699425949169 0.022674384769296389 0 -0.39127510487050182 0.027903964450529759 0 -0.38315308642314733 0.033917821982192238 0 -0.38155727091044611 0.028316364585127811 0 -0.39127510487050182 0.027903964450529759 0 -0.39054146691731162 0.018060194648231769 0 -0.38533699425949169 0.022674384769296389 0 -0.39127510487050182 0.027903964450529759 0 -0.38533699425949169 0.022674384769296389 0 -0.3837100485794358 0.01682829411504885 0 -0.37960108001976323 0.022263106047543741 0 -0.39054146691731162 0.018060194648231769 0 -0.38533699425949169 0.022674384769296389 0 -0.3837100485794358 0.01682829411504885 0 -0.3837100485794358 0.01682829411504885 0 -0.37960108001976323 0.022263106047543741 0 -0.37998819155715241 0.0057865511937031933 0 -0.37998819155715241 0.0057865511937031933 0 -0.38683543611469601 0.0001369023841863784 0 -0.36064890389212972 0.0125435277679194 0 -0.37998819155715241 0.0057865511937031933 0 -0.38683543611469601 0.0001369023841863784 0 -0.38901012294298121 0.0062908016400105649 0 -0.38683543611469601 0.0001369023841863784 0 -0.38901012294298121 0.0062908016400105649 0 -0.39501457079486157 0.0055715078560810288 0 -0.37998819155715241 0.0057865511937031933 0 -0.38901012294298121 0.0062908016400105649 0 -0.38744744785130802 0.01185902438546781 0 -0.3837100485794358 0.01682829411504885 0 -0.37998819155715241 0.0057865511937031933 0 -0.38744744785130802 0.01185902438546781 0 -0.38901012294298121 0.0062908016400105649 0 -0.38744744785130802 0.01185902438546781 0 -0.39422738021243581 0.01127211946813913 0 -0.39054146691731162 0.018060194648231769 0 -0.3837100485794358 0.01682829411504885 0 -0.38744744785130802 0.01185902438546781 0 -0.39054146691731162 0.018060194648231769 0 -0.39422738021243581 0.01127211946813913 0 -0.39743955081534421 0.016339100765178138 0 -0.39054146691731162 0.018060194648231769 0 -0.38744744785130802 0.01185902438546781 0 -0.39422738021243581 0.01127211946813913 0 -0.39422738021243581 0.01127211946813913 0 -0.39501457079486157 0.0055715078560810288 0 -0.40262572535869262 0.0089097845909437267 0 -0.39422738021243581 0.01127211946813913 0 -0.40262572535869262 0.0089097845909437267 0 -0.39743955081534421 0.016339100765178138 0 -0.38683543611469601 0.0001369023841863784 0 -0.39501457079486157 0.0055715078560810288 0 -0.40226596945639398 0.0014711925349297271 0 -0.38901012294298121 0.0062908016400105649 0 -0.39422738021243581 0.01127211946813913 0 -0.39501457079486157 0.0055715078560810288 0 -0.41105156913745711 0.0034129409419674369 0 -0.40226596945639398 0.0014711925349297271 0 -0.40262572535869262 0.0089097845909437267 0 -0.39501457079486157 0.0055715078560810288 0 -0.40226596945639398 0.0014711925349297271 0 -0.40262572535869262 0.0089097845909437267 0 -0.40852807671777941 0.0155494406680463 0 -0.40262572535869262 0.0089097845909437267 0 -0.39743955081534421 0.016339100765178138 0 -0.40852807671777941 0.0155494406680463 0 -0.39127510487050182 0.027903964450529759 0 -0.40852807671777941 0.0155494406680463 0 -0.40667085762811028 0.029599890542676258 0 -0.39127510487050182 0.027903964450529759 0 -0.40852807671777941 0.0155494406680463 0 -0.39127510487050182 0.027903964450529759 0 -0.39743955081534421 0.016339100765178138 0 -0.39054146691731162 0.018060194648231769 0 -0.39127510487050182 0.027903964450529759 0 -0.39743955081534421 0.016339100765178138 0 -0.39792088922733271 0.1160922105611595 0 -0.40104213778508202 0.092866093853817611 0 -0.41467909406405851 0.1139188519362445 0 -0.39792088922733271 0.1160922105611595 0 -0.3782625711058698 0.101617738696854 0 -0.40104213778508202 0.092866093853817611 0 -0.3782625711058698 0.101617738696854 0 -0.38372255811484618 0.13025780258704611 0 -0.3782625711058698 0.101617738696854 0 -0.38372255811484618 0.13025780258704611 0 -0.36747352968705388 0.12273486311700831 0 -0.39792088922733271 0.1160922105611595 0 -0.3782625711058698 0.101617738696854 0 -0.38372255811484618 0.13025780258704611 0 -0.39792088922733271 0.1160922105611595 0 -0.3782625711058698 0.101617738696854 0 -0.3782625711058698 0.101617738696854 0 -0.40104213778508202 0.092866093853817611 0 -0.37470600383380392 0.082961959162170973 0 -0.39520328107527708 0.075997639864115257 0 -0.40104213778508202 0.092866093853817611 0 -0.37470600383380392 0.082961959162170973 0 -0.3782625711058698 0.101617738696854 0 -0.37470600383380392 0.082961959162170973 0 -0.40104213778508202 0.092866093853817611 0 -0.37470600383380392 0.082961959162170973 0 -0.38510762700538009 0.066428587654483159 0 -0.37000681959492809 0.05831264468359916 0 -0.37470600383380392 0.082961959162170973 0 -0.38510762700538009 0.066428587654483159 0 -0.39520328107527708 0.075997639864115257 0 -0.37470600383380392 0.082961959162170973 0 -0.39985653820026013 0.060860810446949978 0 -0.39520328107527708 0.075997639864115257 0 -0.41322693425173768 0.074694678089132868 0 -0.39985653820026013 0.060860810446949978 0 -0.38510762700538009 0.066428587654483159 0 -0.39520328107527708 0.075997639864115257 0 -0.39520328107527708 0.075997639864115257 0 -0.40104213778508202 0.092866093853817611 0 -0.41322693425173768 0.074694678089132868 0 -0.40104213778508202 0.092866093853817611 0 -0.41322693425173768 0.074694678089132868 0 -0.42957324029363853 0.085693113452461764 0 -0.41883220390138681 0.058477634196973202 0 -0.41322693425173768 0.074694678089132868 0 -0.43131469147834472 0.070632617455275076 0 -0.41883220390138681 0.058477634196973202 0 -0.39985653820026013 0.060860810446949978 0 -0.41322693425173768 0.074694678089132868 0 -0.43131469147834472 0.070632617455275076 0 -0.42957324029363853 0.085693113452461764 0 -0.4470315618909167 0.073148927984774167 0 -0.41322693425173768 0.074694678089132868 0 -0.43131469147834472 0.070632617455275076 0 -0.42957324029363853 0.085693113452461764 0 -0.44282721760043869 0.062046251170956107 0 -0.43188097302969042 0.056955122555226501 0 -0.43131469147834472 0.070632617455275076 0 -0.42957324029363853 0.085693113452461764 0 -0.42737827173636012 0.1027702285454639 0 -0.44343173260412461 0.097571970950778963 0 -0.40104213778508202 0.092866093853817611 0 -0.42737827173636012 0.1027702285454639 0 -0.41467909406405851 0.1139188519362445 0 -0.40104213778508202 0.092866093853817611 0 -0.42737827173636012 0.1027702285454639 0 -0.40104213778508202 0.092866093853817611 0 -0.42957324029363853 0.085693113452461764 0 -0.42737827173636012 0.1027702285454639 0 -0.39792088922733271 0.1160922105611595 0 -0.41467909406405851 0.1139188519362445 0 -0.417579207348795 0.13056668242546571 0 -0.39792088922733271 0.1160922105611595 0 -0.417579207348795 0.13056668242546571 0 -0.41467909406405851 0.1139188519362445 0 -0.42608096723388439 0.1205091241492761 0 -0.417579207348795 0.13056668242546571 0 -0.42737827173636012 0.1027702285454639 0 -0.41467909406405851 0.1139188519362445 0 -0.42608096723388439 0.1205091241492761 0 -0.42737827173636012 0.1027702285454639 0 -0.42608096723388439 0.1205091241492761 0 -0.43826405507869293 0.1195835460605416 0 -0.42608096723388439 0.1205091241492761 0 -0.43826405507869293 0.1195835460605416 0 -0.43293323699752101 0.1317554923945817 0 -0.43826405507869293 0.1195835460605416 0 -0.45371440568763749 0.1126743632371118 0 -0.44901593584904892 0.12912088192892021 0 -0.42737827173636012 0.1027702285454639 0 -0.43826405507869293 0.1195835460605416 0 -0.45371440568763749 0.1126743632371118 0 -0.4523882543875366 0.10983005993361 0 -0.45371440568763749 0.1126743632371118 0 -0.42737827173636012 0.1027702285454639 0 -0.4523882543875366 0.10983005993361 0 -0.44343173260412461 0.097571970950778963 0 -0.42737827173636012 0.1027702285454639 0 -0.4523882543875366 0.10983005993361 0 -0.45371440568763749 0.1126743632371118 0 -0.42737827173636012 0.1027702285454639 0 -0.45371440568763749 0.1126743632371118 0 -0.44343173260412461 0.097571970950778963 0 -0.45084974973894648 0.096020795281878568 0 -0.45306155814551219 0.1028275296158008 0 -0.44343173260412461 0.097571970950778963 0 -0.45084974973894648 0.096020795281878568 0 -0.44733932132275389 0.088290098875458828 0 -0.4523882543875366 0.10983005993361 0 -0.44343173260412461 0.097571970950778963 0 -0.45306155814551219 0.1028275296158008 0 -0.4523882543875366 0.10983005993361 0 -0.45306155814551219 0.1028275296158008 0 -0.45661100561120399 0.109540819014999 0 -0.45306155814551219 0.1028275296158008 0 -0.46084618436187341 0.10490351706993729 0 -0.45661100561120399 0.109540819014999 0 -0.45306155814551219 0.1028275296158008 0 -0.46084618436187341 0.10490351706993729 0 -0.45799439118323759 0.099220837031069903 0 -0.46084618436187341 0.10490351706993729 0 -0.4635407771028337 0.1124237257980706 0 -0.45661100561120399 0.109540819014999 0 -0.45799439118323759 0.099220837031069903 0 -0.46723244863383712 0.097971273043108306 0 -0.45594156200913483 0.091684632610025046 0 -0.45084974973894648 0.096020795281878568 0 -0.45799439118323759 0.099220837031069903 0 -0.45594156200913483 0.091684632610025046 0 -0.45084974973894648 0.096020795281878568 0 -0.45306155814551219 0.1028275296158008 0 -0.45799439118323759 0.099220837031069903 0 -0.46084618436187341 0.10490351706993729 0 -0.45799439118323759 0.099220837031069903 0 -0.46723244863383712 0.097971273043108306 0 -0.46084618436187341 0.10490351706993729 0 -0.46723244863383712 0.097971273043108306 0 -0.46686982756835349 0.1074114054382402 0 -0.46084618436187341 0.10490351706993729 0 -0.46686982756835349 0.1074114054382402 0 -0.4635407771028337 0.1124237257980706 0 -0.45371440568763749 0.1126743632371118 0 -0.46425598871103851 0.13528374379222011 0 -0.4635407771028337 0.1124237257980706 0 -0.45674497769142258 0.1138140594952527 0 -0.46958882025875243 0.12035793204680111 0 -0.46686982756835349 0.1074114054382402 0 -0.4635407771028337 0.1124237257980706 0 -0.47044075898603932 0.11380610730348489 0 -0.4635407771028337 0.1124237257980706 0 -0.46958882025875243 0.12035793204680111 0 -0.47044075898603932 0.11380610730348489 0 -0.45674497769142258 0.1138140594952527 0 -0.45371440568763749 0.1126743632371118 0 -0.46425598871103851 0.13528374379222011 0 -0.45674497769142258 0.1138140594952527 0 -0.46958882025875243 0.12035793204680111 0 -0.46425598871103851 0.13528374379222011 0 -0.4523882543875366 0.10983005993361 0 -0.45661100561120399 0.109540819014999 0 -0.45371440568763749 0.1126743632371118 0 -0.45674497769142258 0.1138140594952527 0 -0.45661100561120399 0.109540819014999 0 -0.45371440568763749 0.1126743632371118 0 -0.45674497769142258 0.1138140594952527 0 -0.45371440568763749 0.1126743632371118 0 -0.4635407771028337 0.1124237257980706 0 -0.45674497769142258 0.1138140594952527 0 -0.45661100561120399 0.109540819014999 0 -0.44282721760043869 0.062046251170956107 0 -0.4470315618909167 0.073148927984774167 0 -0.46103932749027238 0.064238871702306077 0 -0.44282721760043869 0.062046251170956107 0 -0.43131469147834472 0.070632617455275076 0 -0.4470315618909167 0.073148927984774167 0 -0.42957324029363853 0.085693113452461764 0 -0.44343173260412461 0.097571970950778963 0 -0.44733932132275389 0.088290098875458828 0 -0.42957324029363853 0.085693113452461764 0 -0.4470315618909167 0.073148927984774167 0 -0.44733932132275389 0.088290098875458828 0 -0.4470315618909167 0.073148927984774167 0 -0.44733932132275389 0.088290098875458828 0 -0.46047789149500767 0.082617330138573752 0 -0.45084974973894648 0.096020795281878568 0 -0.44733932132275389 0.088290098875458828 0 -0.45594156200913483 0.091684632610025046 0 -0.44733932132275389 0.088290098875458828 0 -0.45594156200913483 0.091684632610025046 0 -0.46047789149500767 0.082617330138573752 0 -0.46723244863383712 0.097971273043108306 0 -0.45594156200913483 0.091684632610025046 0 -0.46047789149500767 0.082617330138573752 0 -0.46047789149500767 0.082617330138573752 0 -0.46103932749027238 0.064238871702306077 0 -0.47920912086757578 0.083222027247413538 0 -0.4470315618909167 0.073148927984774167 0 -0.46047789149500767 0.082617330138573752 0 -0.46103932749027238 0.064238871702306077 0 -0.46103932749027238 0.064238871702306077 0 -0.48068047186290208 0.063626500276227002 0 -0.47920912086757578 0.083222027247413538 0 -0.46103932749027238 0.064238871702306077 0 -0.47920912086757578 0.083222027247413538 0 -0.46723244863383712 0.097971273043108306 0 -0.46047789149500767 0.082617330138573752 0 -0.47920912086757578 0.083222027247413538 0 -0.48068047186290208 0.063626500276227002 0 -0.47920912086757578 0.083222027247413538 0 -0.5 0.088432580532893601 0 -0.47920912086757578 0.083222027247413538 0 -0.49737891424487929 0.102205182792521 0 -0.47920912086757578 0.083222027247413538 0 -0.5 0.088432580532893601 0 -0.49737891424487929 0.102205182792521 0 -0.5 0.060034093897511798 0 -0.48068047186290208 0.063626500276227002 0 -0.5 0.088432580532893601 0 -0.47827810320487629 0.116675775998883 0 -0.48837893466537508 0.1117690854599766 0 -0.4842723158563047 0.1301441798928954 0 -0.47827810320487629 0.116675775998883 0 -0.47512549980118862 0.10796659812409699 0 -0.48837893466537508 0.1117690854599766 0 -0.47827810320487629 0.116675775998883 0 -0.46958882025875243 0.12035793204680111 0 -0.4842723158563047 0.1301441798928954 0 -0.47827810320487629 0.116675775998883 0 -0.47044075898603932 0.11380610730348489 0 -0.47512549980118862 0.10796659812409699 0 -0.46686982756835349 0.1074114054382402 0 -0.47044075898603932 0.11380610730348489 0 -0.47512549980118862 0.10796659812409699 0 -0.47827810320487629 0.116675775998883 0 -0.46958882025875243 0.12035793204680111 0 -0.47044075898603932 0.11380610730348489 0 -0.46723244863383712 0.097971273043108306 0 -0.47512549980118862 0.10796659812409699 0 -0.48162445158666772 0.1005823670901454 0 -0.46723244863383712 0.097971273043108306 0 -0.47920912086757578 0.083222027247413538 0 -0.48162445158666772 0.1005823670901454 0 -0.46723244863383712 0.097971273043108306 0 -0.46686982756835349 0.1074114054382402 0 -0.47512549980118862 0.10796659812409699 0 -0.47512549980118862 0.10796659812409699 0 -0.48162445158666772 0.1005823670901454 0 -0.48837893466537508 0.1117690854599766 0 -0.48162445158666772 0.1005823670901454 0 -0.49737891424487929 0.102205182792521 0 -0.48837893466537508 0.1117690854599766 0 -0.47920912086757578 0.083222027247413538 0 -0.48162445158666772 0.1005823670901454 0 -0.49737891424487929 0.102205182792521 0 -0.5 0.088432580532893601 0 -0.49737891424487929 0.102205182792521 0 -0.5 0.1168310671682755 0 -0.49737891424487929 0.102205182792521 0 -0.5 0.1168310671682755 0 -0.48837893466537508 0.1117690854599766 0 -0.5 0.1168310671682755 0 -0.48837893466537508 0.1117690854599766 0 -0.4842723158563047 0.1301441798928954 0 -0.5 0.1168310671682755 0 -0.4842723158563047 0.1301441798928954 0 -0.5 0.14522955380365729 0 -0.46958882025875243 0.12035793204680111 0 -0.4842723158563047 0.1301441798928954 0 -0.46425598871103851 0.13528374379222011 0 -0.4842723158563047 0.1301441798928954 0 -0.47479757173443998 0.15789312434732811 0 -0.46425598871103851 0.13528374379222011 0 -0.47479757173443998 0.15789312434732811 0 -0.46425598871103851 0.13528374379222011 0 -0.4842723158563047 0.1301441798928954 0 -0.5 0.14522955380365729 0 -0.47479757173443998 0.15789312434732811 0 -0.5 0.14522955380365729 0 -0.49999999999999972 0.17362804043903909 0 -0.47479757173443998 0.15789312434732811 0 -0.49999999999999972 0.17362804043903909 0 -0.47479757173443998 0.15789312434732811 0 -0.49999999999999972 0.17362804043903909 0 -0.49200992699072321 0.1743962810239672 0 -0.47479757173443998 0.15789312434732811 0 -0.48341269367675271 0.17637066895233999 0 -0.49170634683837577 0.1941587336203292 0 -0.49368671912131301 0.1828531969182482 0 -0.49999999999999972 0.17362804043903909 0 -0.5 0.19278741936367841 0 -0.49368671912131301 0.1828531969182482 0 -0.48341269367675271 0.17637066895233999 0 -0.49170634683837577 0.1941587336203292 0 -0.49368671912131301 0.1828531969182482 0 -0.49999999999999972 0.17362804043903909 0 -0.49200992699072321 0.1743962810239672 0 -0.49200992699072321 0.1743962810239672 0 -0.48341269367675271 0.17637066895233999 0 -0.49368671912131301 0.1828531969182482 0 -0.49200992699072321 0.1743962810239672 0 -0.48341269367675271 0.17637066895233999 0 -0.48341269367675271 0.17637066895233999 0 -0.45591042926964898 0.18268667049205081 0 -0.47274380268756999 0.19288508587190861 0 -0.48341269367675271 0.17637066895233999 0 -0.45591042926964898 0.18268667049205081 0 -0.49200992699072321 0.1743962810239672 0 -0.48341269367675271 0.17637066895233999 0 -0.47479757173443998 0.15789312434732811 0 -0.48341269367675271 0.17637066895233999 0 -0.47479757173443998 0.15789312434732811 0 -0.48341269367675271 0.17637066895233999 0 -0.47479757173443998 0.15789312434732811 0 -0.45723956394668003 0.16387676974864759 0 -0.48341269367675271 0.17637066895233999 0 -0.45723956394668003 0.16387676974864759 0 -0.45591042926964898 0.18268667049205081 0 -0.45591042926964898 0.18268667049205081 0 -0.43992511097516529 0.17411109905454999 0 -0.4284081648625454 0.1890026720317621 0 -0.45591042926964898 0.18268667049205081 0 -0.4284081648625454 0.1890026720317621 0 -0.45723956394668003 0.16387676974864759 0 -0.45591042926964898 0.18268667049205081 0 -0.43992511097516529 0.17411109905454999 0 -0.45723956394668003 0.16387676974864759 0 -0.43992511097516529 0.17411109905454999 0 -0.43892522612619872 0.15930650560997939 0 -0.43892522612619872 0.15930650560997939 0 -0.43796764784210812 0.14528805014891141 0 -0.45386540436598038 0.14482430837095511 0 -0.45723956394668003 0.16387676974864759 0 -0.43892522612619872 0.15930650560997939 0 -0.45386540436598038 0.14482430837095511 0 -0.45386540436598038 0.14482430837095511 0 -0.43293323699752101 0.1317554923945817 0 -0.43826405507869293 0.1195835460605416 0 -0.44901593584904892 0.12912088192892021 0 -0.43293323699752101 0.1317554923945817 0 -0.43796764784210812 0.14528805014891141 0 -0.45386540436598038 0.14482430837095511 0 -0.43293323699752101 0.1317554923945817 0 -0.44901593584904892 0.12912088192892021 0 -0.45386540436598038 0.14482430837095511 0 -0.43293323699752101 0.1317554923945817 0 -0.45371440568763749 0.1126743632371118 0 -0.44901593584904892 0.12912088192892021 0 -0.46425598871103851 0.13528374379222011 0 -0.44901593584904892 0.12912088192892021 0 -0.46425598871103851 0.13528374379222011 0 -0.45386540436598038 0.14482430837095511 0 -0.47479757173443998 0.15789312434732811 0 -0.45723956394668003 0.16387676974864759 0 -0.45386540436598038 0.14482430837095511 0 -0.47479757173443998 0.15789312434732811 0 -0.46425598871103851 0.13528374379222011 0 -0.45386540436598038 0.14482430837095511 0 -0.47479757173443998 0.15789312434732811 0 -0.45386540436598038 0.14482430837095511 0 -0.48226153920099157 0.23766317590200001 0 -0.47864167104372218 0.246590621409366 0 -0.48932095354102823 0.25454658797793611 0 -0.47315400564016008 0.2364435414805684 0 -0.47864167104372218 0.246590621409366 0 -0.46938038244821267 0.25133041049185839 0 -0.47315400564016008 0.2364435414805684 0 -0.48226153920099157 0.23766317590200001 0 -0.47864167104372218 0.246590621409366 0 -0.49106398183666961 0.22759324404760359 0 -0.48932095354102823 0.25454658797793611 0 -0.5 0.23810140997737081 0 -0.49106398183666961 0.22759324404760359 0 -0.48932095354102823 0.25454658797793611 0 -0.48226153920099157 0.23766317590200001 0 -0.49106398183666961 0.22759324404760359 0 -0.48932095354102823 0.25454658797793611 0 -0.5 0.23810140997737081 0 -0.49106398183666961 0.22759324404760359 0 -0.50000000000000022 0.21194679828831781 0 -0.49106398183666961 0.22759324404760359 0 -0.47912708394337772 0.2231418845945258 0 -0.48726644121087642 0.21298690825741631 0 -0.48226153920099157 0.23766317590200001 0 -0.49106398183666961 0.22759324404760359 0 -0.47912708394337772 0.2231418845945258 0 -0.47315400564016008 0.2364435414805684 0 -0.48226153920099157 0.23766317590200001 0 -0.47912708394337772 0.2231418845945258 0 -0.47315400564016008 0.2364435414805684 0 -0.47912708394337772 0.2231418845945258 0 -0.46764368341616458 0.22415830119077751 0 -0.47912708394337772 0.2231418845945258 0 -0.47360767850491831 0.20951316246361981 0 -0.46764368341616458 0.22415830119077751 0 -0.47360767850491831 0.20951316246361981 0 -0.48726644121087642 0.21298690825741631 0 -0.49170634683837577 0.1941587336203292 0 -0.47912708394337772 0.2231418845945258 0 -0.47360767850491831 0.20951316246361981 0 -0.48726644121087642 0.21298690825741631 0 -0.49106398183666961 0.22759324404760359 0 -0.50000000000000022 0.21194679828831781 0 -0.48726644121087642 0.21298690825741631 0 -0.50000000000000022 0.21194679828831781 0 -0.48726644121087642 0.21298690825741631 0 -0.49170634683837577 0.1941587336203292 0 -0.50000000000000022 0.21194679828831781 0 -0.49170634683837577 0.1941587336203292 0 -0.50000000000000022 0.21194679828831781 0 -0.5 0.19278741936367841 0 -0.49170634683837577 0.1941587336203292 0 -0.49368671912131301 0.1828531969182482 0 -0.5 0.19278741936367841 0 -0.49170634683837577 0.1941587336203292 0 -0.48341269367675271 0.17637066895233999 0 -0.49170634683837577 0.1941587336203292 0 -0.47274380268756999 0.19288508587190861 0 -0.47360767850491831 0.20951316246361981 0 -0.49170634683837577 0.1941587336203292 0 -0.47274380268756999 0.19288508587190861 0 -0.47360767850491831 0.20951316246361981 0 -0.47274380268756999 0.19288508587190861 0 -0.45820261548712909 0.20353130823034371 0 -0.45591042926964898 0.18268667049205081 0 -0.47274380268756999 0.19288508587190861 0 -0.45820261548712909 0.20353130823034371 0 -0.45591042926964898 0.18268667049205081 0 -0.43516662619925378 0.20614333559983469 0 -0.4284081648625454 0.1890026720317621 0 -0.45591042926964898 0.18268667049205081 0 -0.45820261548712909 0.20353130823034371 0 -0.43516662619925378 0.20614333559983469 0 -0.44192508753596349 0.22328399916790689 0 -0.43516662619925378 0.20614333559983469 0 -0.45032248765871591 0.2151961798839368 0 -0.44192508753596349 0.22328399916790689 0 -0.43516662619925378 0.20614333559983469 0 -0.45032248765871591 0.2151961798839368 0 -0.45820261548712909 0.20353130823034371 0 -0.43516662619925378 0.20614333559983469 0 -0.45032248765871591 0.2151961798839368 0 -0.46109406183397039 0.21551848415653921 0 -0.45620465585954723 0.2251951411450015 0 -0.45032248765871591 0.2151961798839368 0 -0.45820261548712909 0.20353130823034371 0 -0.46109406183397039 0.21551848415653921 0 -0.47360767850491831 0.20951316246361981 0 -0.45820261548712909 0.20353130823034371 0 -0.46109406183397039 0.21551848415653921 0 -0.47360767850491831 0.20951316246361981 0 -0.46109406183397039 0.21551848415653921 0 -0.46764368341616458 0.22415830119077751 0 -0.47315400564016008 0.2364435414805684 0 -0.46764368341616458 0.22415830119077751 0 -0.45925329591452863 0.2407771106774913 0 -0.46764368341616458 0.22415830119077751 0 -0.45620465585954723 0.2251951411450015 0 -0.45925329591452863 0.2407771106774913 0 -0.46109406183397039 0.21551848415653921 0 -0.46764368341616458 0.22415830119077751 0 -0.45620465585954723 0.2251951411450015 0 -0.45032248765871591 0.2151961798839368 0 -0.45620465585954723 0.2251951411450015 0 -0.44192508753596349 0.22328399916790689 0 -0.44192508753596349 0.22328399916790689 0 -0.44062222049055039 0.24203477259657111 0 -0.43146145522804691 0.2313120115293863 0 -0.45620465585954723 0.2251951411450015 0 -0.44062222049055039 0.24203477259657111 0 -0.45620465585954723 0.2251951411450015 0 -0.44192508753596349 0.22328399916790689 0 -0.44062222049055039 0.24203477259657111 0 -0.44062222049055039 0.24203477259657111 0 -0.45046339488490522 0.249057113070103 0 -0.44442574262614493 0.25832327296872359 0 -0.44062222049055039 0.24203477259657111 0 -0.45046339488490522 0.249057113070103 0 -0.45925329591452863 0.2407771106774913 0 -0.45620465585954723 0.2251951411450015 0 -0.44062222049055039 0.24203477259657111 0 -0.45925329591452863 0.2407771106774913 0 -0.45046339488490522 0.249057113070103 0 -0.45925329591452863 0.2407771106774913 0 -0.45807104112411212 0.25534721177055669 0 -0.45925329591452863 0.2407771106774913 0 -0.46938038244821267 0.25133041049185839 0 -0.45807104112411212 0.25534721177055669 0 -0.47315400564016008 0.2364435414805684 0 -0.45925329591452863 0.2407771106774913 0 -0.46938038244821267 0.25133041049185839 0 -0.4198454647722451 0.23985190764030939 0 -0.40081965837488509 0.24074316727492401 0 -0.40585136056822319 0.25674789398696107 0 -0.4198454647722451 0.23985190764030939 0 -0.405480724964072 0.22581663549259839 0 -0.40081965837488509 0.24074316727492401 0 -0.44062222049055039 0.24203477259657111 0 -0.4198454647722451 0.23985190764030939 0 -0.42503978512155383 0.25887440404814072 0 -0.44062222049055039 0.24203477259657111 0 -0.4198454647722451 0.23985190764030939 0 -0.43146145522804691 0.2313120115293863 0 -0.4198454647722451 0.23985190764030939 0 -0.43146145522804691 0.2313120115293863 0 -0.42370673975344808 0.22056464269113771 0 -0.44192508753596349 0.22328399916790689 0 -0.43146145522804691 0.2313120115293863 0 -0.42370673975344808 0.22056464269113771 0 -0.4198454647722451 0.23985190764030939 0 -0.42370673975344808 0.22056464269113771 0 -0.405480724964072 0.22581663549259839 0 -0.42370673975344808 0.22056464269113771 0 -0.40708390191205951 0.20882890034131879 0 -0.405480724964072 0.22581663549259839 0 -0.42370673975344808 0.22056464269113771 0 -0.40708390191205951 0.20882890034131879 0 -0.42107335870595469 0.2022269477122331 0 -0.44192508753596349 0.22328399916790689 0 -0.42370673975344808 0.22056464269113771 0 -0.43516662619925378 0.20614333559983469 0 -0.42370673975344808 0.22056464269113771 0 -0.43516662619925378 0.20614333559983469 0 -0.42107335870595469 0.2022269477122331 0 -0.43516662619925378 0.20614333559983469 0 -0.4284081648625454 0.1890026720317621 0 -0.42107335870595469 0.2022269477122331 0 -0.43516662619925378 0.20614333559983469 0 -0.4284081648625454 0.1890026720317621 0 -0.4284081648625454 0.1890026720317621 0 -0.40915969581062839 0.19342315750049971 0 -0.4284081648625454 0.1890026720317621 0 -0.42107335870595469 0.2022269477122331 0 -0.40915969581062839 0.19342315750049971 0 -0.40708390191205951 0.20882890034131879 0 -0.42107335870595469 0.2022269477122331 0 -0.40915969581062839 0.19342315750049971 0 -0.40708390191205951 0.20882890034131879 0 -0.40915969581062839 0.19342315750049971 0 -0.38991122675871148 0.19784364296923759 0 -0.40915969581062839 0.19342315750049971 0 -0.38991122675871148 0.19784364296923759 0 -0.40915969581062839 0.19342315750049971 0 -0.38991122675871148 0.19784364296923759 0 -0.39569501158598158 0.17813944679546001 0 -0.39158905321283283 0.2136173787495643 0 -0.38435338999826391 0.22831720607051781 0 -0.36414166766971379 0.2074649771098355 0 -0.38991122675871148 0.19784364296923759 0 -0.39158905321283283 0.2136173787495643 0 -0.36414166766971379 0.2074649771098355 0 -0.40708390191205951 0.20882890034131879 0 -0.39158905321283283 0.2136173787495643 0 -0.405480724964072 0.22581663549259839 0 -0.40708390191205951 0.20882890034131879 0 -0.38991122675871148 0.19784364296923759 0 -0.39158905321283283 0.2136173787495643 0 -0.405480724964072 0.22581663549259839 0 -0.38435338999826391 0.22831720607051781 0 -0.40081965837488509 0.24074316727492401 0 -0.39158905321283283 0.2136173787495643 0 -0.405480724964072 0.22581663549259839 0 -0.38435338999826391 0.22831720607051781 0 -0.37619177155740557 0.24036243622333081 0 -0.38790582398472923 0.24962922847932231 0 -0.36318679658289171 0.25196182354824148 0 -0.38435338999826391 0.22831720607051781 0 -0.37619177155740557 0.24036243622333081 0 -0.38790582398472923 0.24962922847932231 0 -0.38435338999826391 0.22831720607051781 0 -0.38790582398472923 0.24962922847932231 0 -0.40081965837488509 0.24074316727492401 0 -0.38790582398472923 0.24962922847932231 0 -0.40081965837488509 0.24074316727492401 0 -0.40585136056822319 0.25674789398696107 0 -0.40926453963391513 0.14045102348790381 0 -0.42614672387873248 0.14526589422012931 0 -0.41883635224822963 0.16472684775983329 0 -0.40926453963391513 0.14045102348790381 0 -0.41883635224822963 0.16472684775983329 0 -0.40926453963391513 0.14045102348790381 0 -0.41883635224822963 0.16472684775983329 0 -0.40029434983296169 0.15790366282291429 0 -0.40926453963391513 0.14045102348790381 0 -0.417579207348795 0.13056668242546571 0 -0.40026410281127539 0.13237877311027449 0 -0.40926453963391513 0.14045102348790381 0 -0.417579207348795 0.13056668242546571 0 -0.42614672387873248 0.14526589422012931 0 -0.417579207348795 0.13056668242546571 0 -0.43293323699752101 0.1317554923945817 0 -0.42614672387873248 0.14526589422012931 0 -0.42608096723388439 0.1205091241492761 0 -0.417579207348795 0.13056668242546571 0 -0.43293323699752101 0.1317554923945817 0 -0.43796764784210812 0.14528805014891141 0 -0.43293323699752101 0.1317554923945817 0 -0.42614672387873248 0.14526589422012931 0 -0.43892522612619872 0.15930650560997939 0 -0.43796764784210812 0.14528805014891141 0 -0.42614672387873248 0.14526589422012931 0 -0.43892522612619872 0.15930650560997939 0 -0.42614672387873248 0.14526589422012931 0 -0.41883635224822963 0.16472684775983329 0 -0.43992511097516529 0.17411109905454999 0 -0.43892522612619872 0.15930650560997939 0 -0.41883635224822963 0.16472684775983329 0 -0.4284081648625454 0.1890026720317621 0 -0.41883635224822963 0.16472684775983329 0 -0.43992511097516529 0.17411109905454999 0 -0.4284081648625454 0.1890026720317621 0 -0.41883635224822963 0.16472684775983329 0 -0.40915969581062839 0.19342315750049971 0 -0.41883635224822963 0.16472684775983329 0 -0.39569501158598158 0.17813944679546001 0 -0.4284081648625454 0.1890026720317621 0 -0.40915969581062839 0.19342315750049971 0 -0.41883635224822963 0.16472684775983329 0 -0.40029434983296169 0.15790366282291429 0 -0.39569501158598158 0.17813944679546001 0 -0.38484252596519369 0.16167484958157691 0 -0.41883635224822963 0.16472684775983329 0 -0.40029434983296169 0.15790366282291429 0 -0.39569501158598158 0.17813944679546001 0 -0.39569501158598158 0.17813944679546001 0 -0.38484252596519369 0.16167484958157691 0 -0.36525228834216061 0.17922160577889321 0 -0.38991122675871148 0.19784364296923759 0 -0.39569501158598158 0.17813944679546001 0 -0.36525228834216061 0.17922160577889321 0 -0.39283331973148827 0.14452614648979731 0 -0.38372255811484618 0.13025780258704611 0 -0.36636290901460722 0.1509782344479508 0 -0.38484252596519369 0.16167484958157691 0 -0.39283331973148827 0.14452614648979731 0 -0.36636290901460722 0.1509782344479508 0 -0.40029434983296169 0.15790366282291429 0 -0.38484252596519369 0.16167484958157691 0 -0.39283331973148827 0.14452614648979731 0 -0.40926453963391513 0.14045102348790381 0 -0.40029434983296169 0.15790366282291429 0 -0.39283331973148827 0.14452614648979731 0 -0.39283331973148827 0.14452614648979731 0 -0.40026410281127539 0.13237877311027449 0 -0.38372255811484618 0.13025780258704611 0 -0.39792088922733271 0.1160922105611595 0 -0.417579207348795 0.13056668242546571 0 -0.40026410281127539 0.13237877311027449 0 -0.39792088922733271 0.1160922105611595 0 -0.40026410281127539 0.13237877311027449 0 -0.38372255811484618 0.13025780258704611 0 -0.40926453963391513 0.14045102348790381 0 -0.39283331973148827 0.14452614648979731 0 -0.40026410281127539 0.13237877311027449 0 -0.38372255811484618 0.13025780258704611 0 -0.36636290901460722 0.1509782344479508 0 -0.36747352968705388 0.12273486311700831 0 -0.36636290901460722 0.1509782344479508 0 -0.36747352968705388 0.12273486311700831 0 -0.35528769071996391 0.12689780186549679 0 -0.36636290901460722 0.1509782344479508 0 -0.36747352968705388 0.12273486311700831 0 -0.35528769071996391 0.12689780186549679 0 -0.33512599087492562 0.1447950320020088 0 -0.35528769071996391 0.12689780186549679 0 -0.35168351666373848 0.14314256241625531 0 -0.33512599087492562 0.1447950320020088 0 -0.35528769071996391 0.12689780186549679 0 -0.33512599087492562 0.1447950320020088 0 -0.34115039425197219 0.12498493974687711 0 -0.35528769071996391 0.12689780186549679 0 -0.35168351666373848 0.14314256241625531 0 -0.36636290901460722 0.1509782344479508 0 -0.35168351666373848 0.14314256241625531 0 -0.36636290901460722 0.1509782344479508 0 -0.34333519974196419 0.16612441953572921 0 -0.38484252596519369 0.16167484958157691 0 -0.36636290901460722 0.1509782344479508 0 -0.36525228834216061 0.17922160577889321 0 -0.36636290901460722 0.1509782344479508 0 -0.36525228834216061 0.17922160577889321 0 -0.36525228834216061 0.17922160577889321 0 -0.34333519974196419 0.16612441953572921 0 -0.34654591437965571 0.19533490523866279 0 -0.36636290901460722 0.1509782344479508 0 -0.36525228834216061 0.17922160577889321 0 -0.34333519974196419 0.16612441953572921 0 -0.34333519974196419 0.16612441953572921 0 -0.31496429102988749 0.16269226213852109 0 -0.33512599087492562 0.1447950320020088 0 -0.34333519974196419 0.16612441953572921 0 -0.34654591437965571 0.19533490523866279 0 -0.32412519241006588 0.1878495682783011 0 -0.31496429102988749 0.16269226213852109 0 -0.32412519241006588 0.1878495682783011 0 -0.34333519974196419 0.16612441953572921 0 -0.31496429102988749 0.16269226213852109 0 -0.32412519241006588 0.1878495682783011 0 -0.31303823693556859 0.17707572181323081 0 -0.31496429102988749 0.16269226213852109 0 -0.32412519241006588 0.1878495682783011 0 -0.31303823693556859 0.17707572181323081 0 -0.32412519241006588 0.1878495682783011 0 -0.3108046026399135 0.18379038091696129 0 -0.31496429102988749 0.16269226213852109 0 -0.31353256245119709 0.1587605055712967 0 -0.31354631638020197 0.13395604467094269 0 -0.33512599087492562 0.1447950320020088 0 -0.3122891553291075 0.14635758184588041 0 -0.31353256245119709 0.1587605055712967 0 -0.33512599087492562 0.1447950320020088 0 -0.3122891553291075 0.14635758184588041 0 -0.31496429102988749 0.16269226213852109 0 -0.31353256245119709 0.1587605055712967 0 -0.33512599087492562 0.1447950320020088 0 -0.31496429102988749 0.16269226213852109 0 -0.33512599087492562 0.1447950320020088 0 -0.31354631638020197 0.13395604467094269 0 -0.32917568526667751 0.12578156900391591 0 -0.33512599087492562 0.1447950320020088 0 -0.31354631638020197 0.13395604467094269 0 -0.32917568526667751 0.12578156900391591 0 -0.32114709127587232 0.11611322513389059 0 -0.32917568526667751 0.12578156900391591 0 -0.33512599087492562 0.1447950320020088 0 -0.34115039425197219 0.12498493974687711 0 -0.35168351666373848 0.14314256241625531 0 -0.34333519974196419 0.16612441953572921 0 -0.33512599087492562 0.1447950320020088 0 -0.36303104699726713 0.23570834844077809 0 -0.34244699517042121 0.23816418055786151 0 -0.36318679658289171 0.25196182354824148 0 -0.34244699517042121 0.23816418055786151 0 -0.36318679658289171 0.25196182354824148 0 -0.33952374355129727 0.25899057541505788 0 -0.37619177155740557 0.24036243622333081 0 -0.36303104699726713 0.23570834844077809 0 -0.36318679658289171 0.25196182354824148 0 -0.38435338999826391 0.22831720607051781 0 -0.37619177155740557 0.24036243622333081 0 -0.36303104699726713 0.23570834844077809 0 -0.38435338999826391 0.22831720607051781 0 -0.36303104699726713 0.23570834844077809 0 -0.36414166766971379 0.2074649771098355 0 -0.36303104699726713 0.23570834844077809 0 -0.36414166766971379 0.2074649771098355 0 -0.36303104699726713 0.23570834844077809 0 -0.35084793517488477 0.2210857468323085 0 -0.34244699517042121 0.23816418055786151 0 -0.36303104699726713 0.23570834844077809 0 -0.35084793517488477 0.2210857468323085 0 -0.36414166766971379 0.2074649771098355 0 -0.35084793517488477 0.2210857468323085 0 -0.36414166766971379 0.2074649771098355 0 -0.34654591437965571 0.19533490523866279 0 -0.36525228834216061 0.17922160577889321 0 -0.36414166766971379 0.2074649771098355 0 -0.38991122675871148 0.19784364296923759 0 -0.36525228834216061 0.17922160577889321 0 -0.36414166766971379 0.2074649771098355 0 -0.36525228834216061 0.17922160577889321 0 -0.36414166766971379 0.2074649771098355 0 -0.34654591437965571 0.19533490523866279 0 -0.32412519241006588 0.1878495682783011 0 -0.33328609379024349 0.2130068744180813 0 -0.34654591437965571 0.19533490523866279 0 -0.32412519241006588 0.1878495682783011 0 -0.33328609379024349 0.2130068744180813 0 -0.32412519241006588 0.1878495682783011 0 -0.33328609379024349 0.2130068744180813 0 -0.31080006153106382 0.20197173666100501 0 -0.32412519241006588 0.1878495682783011 0 -0.31080006153106382 0.20197173666100501 0 -0.3108046026399135 0.18379038091696129 0 -0.33328609379024349 0.2130068744180813 0 -0.31873218963182409 0.22654972870499029 0 -0.31080006153106382 0.20197173666100501 0 -0.35084793517488477 0.2210857468323085 0 -0.34654591437965571 0.19533490523866279 0 -0.33328609379024349 0.2130068744180813 0 -0.35084793517488477 0.2210857468323085 0 -0.33328609379024349 0.2130068744180813 0 -0.34244699517042121 0.23816418055786151 0 -0.33328609379024349 0.2130068744180813 0 -0.34244699517042121 0.23816418055786151 0 -0.33328609379024349 0.2130068744180813 0 -0.31873218963182409 0.22654972870499029 0 -0.34244699517042121 0.23816418055786151 0 -0.31873218963182409 0.22654972870499029 0 -0.32200613725511351 0.24850726385495631 0 -0.34244699517042121 0.23816418055786151 0 -0.31873218963182409 0.22654972870499029 0 -0.32200613725511351 0.24850726385495631 0 -0.30672251365844311 0.23743048015470111 0 -0.32200613725511351 0.24850726385495631 0 -0.34244699517042121 0.23816418055786151 0 -0.33952374355129727 0.25899057541505788 0 -0.29125564533142001 0.24067530578368901 0 -0.30672251365844311 0.23743048015470111 0 -0.30640548876467488 0.25787073169030861 0 -0.32200613725511351 0.24850726385495631 0 -0.30672251365844311 0.23743048015470111 0 -0.30640548876467488 0.25787073169030861 0 -0.29125564533142001 0.24067530578368901 0 -0.30672251365844311 0.23743048015470111 0 -0.29521310730918271 0.21354937073956171 0 -0.31873218963182409 0.22654972870499029 0 -0.30672251365844311 0.23743048015470111 0 -0.29521310730918271 0.21354937073956171 0 -0.29125564533142001 0.24067530578368901 0 -0.29521310730918271 0.21354937073956171 0 -0.29125564533142001 0.24067530578368901 0 -0.29521310730918271 0.21354937073956171 0 -0.27258595833473342 0.22149207507906341 0 -0.29521310730918271 0.21354937073956171 0 -0.28878760701375322 0.1984352968903606 0 -0.27490594785389072 0.20112241201531189 0 -0.31873218963182409 0.22654972870499029 0 -0.29521310730918271 0.21354937073956171 0 -0.31080006153106382 0.20197173666100501 0 -0.29521310730918271 0.21354937073956171 0 -0.29917056928694541 0.1864234356954344 0 -0.29521310730918271 0.21354937073956171 0 -0.31080006153106382 0.20197173666100501 0 -0.29917056928694541 0.1864234356954344 0 -0.31080006153106382 0.20197173666100501 0 -0.3108046026399135 0.18379038091696129 0 -0.29917056928694541 0.1864234356954344 0 -0.28878760701375322 0.1984352968903606 0 -0.29917056928694541 0.1864234356954344 0 -0.28955343229492791 0.1852490896997587 0 -0.29521310730918271 0.21354937073956171 0 -0.28878760701375322 0.1984352968903606 0 -0.29917056928694541 0.1864234356954344 0 -0.28878760701375322 0.1984352968903606 0 -0.27938784373491388 0.18917199981814359 0 -0.28955343229492791 0.1852490896997587 0 -0.27938784373491388 0.18917199981814359 0 -0.27490594785389072 0.20112241201531189 0 -0.26439180367967152 0.18225540552070321 0 -0.28878760701375322 0.1984352968903606 0 -0.27938784373491388 0.18917199981814359 0 -0.27490594785389072 0.20112241201531189 0 -0.27490594785389072 0.20112241201531189 0 -0.25370102580463139 0.2052288024824625 0 -0.26439180367967152 0.18225540552070321 0 -0.25370102580463139 0.2052288024824625 0 -0.26439180367967152 0.18225540552070321 0 -0.23359887481107691 0.1809086922627815 0 -0.27490594785389072 0.20112241201531189 0 -0.25370102580463139 0.2052288024824625 0 -0.27258595833473342 0.22149207507906341 0 -0.29521310730918271 0.21354937073956171 0 -0.27490594785389072 0.20112241201531189 0 -0.27258595833473342 0.22149207507906341 0 -0.29125564533142001 0.24067530578368901 0 -0.27258595833473342 0.22149207507906341 0 -0.26834113505385238 0.23837358332174549 0 -0.27258595833473342 0.22149207507906341 0 -0.25272375818517617 0.22994970808158929 0 -0.26834113505385238 0.23837358332174549 0 -0.25370102580463139 0.2052288024824625 0 -0.27258595833473342 0.22149207507906341 0 -0.25272375818517617 0.22994970808158929 0 -0.25272375818517617 0.22994970808158929 0 -0.25621817608628389 0.2460965770837312 0 -0.26834113505385238 0.23837358332174549 0 -0.25621817608628389 0.2460965770837312 0 -0.26834113505385238 0.23837358332174549 0 -0.26892213733164849 0.25365425058065472 0 -0.29125564533142001 0.24067530578368901 0 -0.26834113505385238 0.23837358332174549 0 -0.26892213733164849 0.25365425058065472 0 -0.29370567785695612 0.15770531643225719 0 -0.28412418886142132 0.16518528890623771 0 -0.28065913062351988 0.14575155473079041 0 -0.30159211447790629 0.14759241864651959 0 -0.29370567785695612 0.15770531643225719 0 -0.28065913062351988 0.14575155473079041 0 -0.29682817834931757 0.13068013418198679 0 -0.30159211447790629 0.14759241864651959 0 -0.28065913062351988 0.14575155473079041 0 -0.29682817834931757 0.13068013418198679 0 -0.28065913062351988 0.14575155473079041 0 -0.28285123447775751 0.1183560919224374 0 -0.31354631638020197 0.13395604467094269 0 -0.29682817834931757 0.13068013418198679 0 -0.30159211447790629 0.14759241864651959 0 -0.31354631638020197 0.13395604467094269 0 -0.3122891553291075 0.14635758184588041 0 -0.30159211447790629 0.14759241864651959 0 -0.31353256245119709 0.1587605055712967 0 -0.3122891553291075 0.14635758184588041 0 -0.30159211447790629 0.14759241864651959 0 -0.31496429102988749 0.16269226213852109 0 -0.31353256245119709 0.1587605055712967 0 -0.30488677357152572 0.1641353808659653 0 -0.30159211447790629 0.14759241864651959 0 -0.30488677357152572 0.1641353808659653 0 -0.29370567785695612 0.15770531643225719 0 -0.31353256245119709 0.1587605055712967 0 -0.30159211447790629 0.14759241864651959 0 -0.30488677357152572 0.1641353808659653 0 -0.31496429102988749 0.16269226213852109 0 -0.30225886166240762 0.17397067591913981 0 -0.31303823693556859 0.17707572181323081 0 -0.31496429102988749 0.16269226213852109 0 -0.30225886166240762 0.17397067591913981 0 -0.31496429102988749 0.16269226213852109 0 -0.30488677357152572 0.1641353808659653 0 -0.30225886166240762 0.17397067591913981 0 -0.30488677357152572 0.1641353808659653 0 -0.30225886166240762 0.17397067591913981 0 -0.29597535979189887 0.1670989905046398 0 -0.30488677357152572 0.1641353808659653 0 -0.29370567785695612 0.15770531643225719 0 -0.29597535979189887 0.1670989905046398 0 -0.31303823693556859 0.17707572181323081 0 -0.3108046026399135 0.18379038091696129 0 -0.30225886166240762 0.17397067591913981 0 -0.30225886166240762 0.17397067591913981 0 -0.29917056928694541 0.1864234356954344 0 -0.28955343229492791 0.1852490896997587 0 -0.3108046026399135 0.18379038091696129 0 -0.30225886166240762 0.17397067591913981 0 -0.29917056928694541 0.1864234356954344 0 -0.30225886166240762 0.17397067591913981 0 -0.28955343229492791 0.1852490896997587 0 -0.30225886166240762 0.17397067591913981 0 -0.28955343229492791 0.1852490896997587 0 -0.29024545837739651 0.173916500811098 0 -0.28955343229492791 0.1852490896997587 0 -0.29024545837739651 0.173916500811098 0 -0.27889874324695868 0.17762520371433099 0 -0.29024545837739651 0.173916500811098 0 -0.28412418886142132 0.16518528890623771 0 -0.27889874324695868 0.17762520371433099 0 -0.27938784373491388 0.18917199981814359 0 -0.28955343229492791 0.1852490896997587 0 -0.27889874324695868 0.17762520371433099 0 -0.29370567785695612 0.15770531643225719 0 -0.29597535979189887 0.1670989905046398 0 -0.28412418886142132 0.16518528890623771 0 -0.30225886166240762 0.17397067591913981 0 -0.29024545837739651 0.173916500811098 0 -0.29597535979189887 0.1670989905046398 0 -0.29024545837739651 0.173916500811098 0 -0.29597535979189887 0.1670989905046398 0 -0.28412418886142132 0.16518528890623771 0 -0.28412418886142132 0.16518528890623771 0 -0.26844272787379447 0.16268744982768751 0 -0.27889874324695868 0.17762520371433099 0 -0.28412418886142132 0.16518528890623771 0 -0.26844272787379447 0.16268744982768751 0 -0.28065913062351988 0.14575155473079041 0 -0.26844272787379447 0.16268744982768751 0 -0.27889874324695868 0.17762520371433099 0 -0.26439180367967152 0.18225540552070321 0 -0.27938784373491388 0.18917199981814359 0 -0.27889874324695868 0.17762520371433099 0 -0.26439180367967152 0.18225540552070321 0 -0.26844272787379447 0.16268744982768751 0 -0.26439180367967152 0.18225540552070321 0 -0.247018622616726 0.15992587597476091 0 -0.26844272787379447 0.16268744982768751 0 -0.25846103874104392 0.14702121199507179 0 -0.247018622616726 0.15992587597476091 0 -0.26844272787379447 0.16268744982768751 0 -0.25846103874104392 0.14702121199507179 0 -0.28065913062351988 0.14575155473079041 0 -0.25846103874104392 0.14702121199507179 0 -0.28065913062351988 0.14575155473079041 0 -0.25922316449870308 0.12628093809151891 0 -0.28065913062351988 0.14575155473079041 0 -0.25922316449870308 0.12628093809151891 0 -0.28285123447775751 0.1183560919224374 0 -0.25846103874104392 0.14702121199507179 0 -0.25922316449870308 0.12628093809151891 0 -0.2369615480924761 0.1404602413506009 0 -0.25922316449870308 0.12628093809151891 0 -0.25136603029008331 0.1103208693098497 0 -0.26687835675477128 0.1014348965859585 0 -0.25136603029008331 0.1103208693098497 0 -0.26687835675477128 0.1014348965859585 0 -0.24377998071086901 0.096378574065869249 0 -0.26687835675477128 0.1014348965859585 0 -0.28737892951993471 0.098967158637655914 0 -0.27569457229827071 0.081243623470509244 0 -0.26687835675477128 0.1014348965859585 0 -0.28285123447775751 0.1183560919224374 0 -0.28737892951993471 0.098967158637655914 0 -0.25922316449870308 0.12628093809151891 0 -0.26687835675477128 0.1014348965859585 0 -0.28285123447775751 0.1183560919224374 0 -0.29682817834931757 0.13068013418198679 0 -0.28285123447775751 0.1183560919224374 0 -0.30549209578720232 0.10774456093924389 0 -0.28285123447775751 0.1183560919224374 0 -0.28737892951993471 0.098967158637655914 0 -0.30549209578720232 0.10774456093924389 0 -0.28737892951993471 0.098967158637655914 0 -0.30549209578720232 0.10774456093924389 0 -0.29743787519420251 0.08153307720754506 0 -0.30549209578720232 0.10774456093924389 0 -0.29743787519420251 0.08153307720754506 0 -0.31354631638020197 0.13395604467094269 0 -0.29682817834931757 0.13068013418198679 0 -0.30549209578720232 0.10774456093924389 0 -0.31354631638020197 0.13395604467094269 0 -0.30549209578720232 0.10774456093924389 0 -0.29926204670725021 0.066629363318123747 0 -0.30931237829482389 0.073252958087475881 0 -0.31697319293959142 0.061410437985649477 0 -0.29926204670725021 0.066629363318123747 0 -0.30931237829482389 0.073252958087475881 0 -0.29743787519420251 0.08153307720754506 0 -0.30549209578720232 0.10774456093924389 0 -0.29743787519420251 0.08153307720754506 0 -0.31312795334666071 0.083579729522452809 0 -0.30931237829482389 0.073252958087475881 0 -0.29743787519420251 0.08153307720754506 0 -0.31312795334666071 0.083579729522452809 0 -0.28737892951993471 0.098967158637655914 0 -0.29743787519420251 0.08153307720754506 0 -0.27569457229827071 0.081243623470509244 0 -0.29743787519420251 0.08153307720754506 0 -0.28743776060402371 0.060458689408765323 0 -0.28938365460120269 0.05532159347584624 0 -0.29743787519420251 0.08153307720754506 0 -0.28938365460120269 0.05532159347584624 0 -0.29926204670725021 0.066629363318123747 0 -0.29743787519420251 0.08153307720754506 0 -0.28938365460120269 0.05532159347584624 0 -0.29743787519420251 0.08153307720754506 0 -0.27569457229827071 0.081243623470509244 0 -0.28743776060402371 0.060458689408765323 0 -0.27569457229827071 0.081243623470509244 0 -0.26257114212692878 0.06573449919026883 0 -0.28743776060402371 0.060458689408765323 0 -0.26257114212692878 0.06573449919026883 0 -0.28743776060402371 0.060458689408765323 0 -0.26687835675477128 0.1014348965859585 0 -0.25261226255175379 0.080423606239198905 0 -0.24377998071086901 0.096378574065869249 0 -0.26687835675477128 0.1014348965859585 0 -0.27569457229827071 0.081243623470509244 0 -0.25261226255175379 0.080423606239198905 0 -0.26257114212692878 0.06573449919026883 0 -0.23770452364983391 0.071010308971772351 0 -0.25261226255175379 0.080423606239198905 0 -0.26257114212692878 0.06573449919026883 0 -0.23770452364983391 0.071010308971772351 0 -0.27569457229827071 0.081243623470509244 0 -0.25261226255175379 0.080423606239198905 0 -0.26257114212692878 0.06573449919026883 0 -0.2522816967992324 0.037264740289820159 0 -0.27263172987273521 0.051913181220590639 0 -0.24906194248509719 0.058488871325365822 0 -0.26257114212692878 0.06573449919026883 0 -0.27263172987273521 0.051913181220590639 0 -0.24906194248509719 0.058488871325365822 0 -0.2522816967992324 0.037264740289820159 0 -0.2684979789729644 0.03593820420606865 0 -0.27263172987273521 0.051913181220590639 0 -0.2684979789729644 0.03593820420606865 0 -0.27263172987273521 0.051913181220590639 0 -0.28132943400820298 0.02911010974414751 0 -0.27263172987273521 0.051913181220590639 0 -0.28132943400820298 0.02911010974414751 0 -0.28938365460120269 0.05532159347584624 0 -0.26257114212692878 0.06573449919026883 0 -0.27263172987273521 0.051913181220590639 0 -0.28743776060402371 0.060458689408765323 0 -0.25267499080189931 -0.0034516002120552492 0 -0.26909988492935111 -0.0018655285383734981 0 -0.25157722050270093 0.012682655753942951 0 -0.26909988492935111 -0.0018655285383734981 0 -0.25157722050270093 0.012682655753942951 0 -0.27200359261247947 0.017754051058092819 0 -0.2522816967992324 0.037264740289820159 0 -0.25157722050270093 0.012682655753942951 0 -0.27200359261247947 0.017754051058092819 0 -0.2522816967992324 0.037264740289820159 0 -0.2684979789729644 0.03593820420606865 0 -0.27200359261247947 0.017754051058092819 0 -0.2522816967992324 0.037264740289820159 0 -0.27200359261247947 0.017754051058092819 0 -0.27200359261247947 0.017754051058092819 0 -0.28831373269731447 0.017122983851404761 0 -0.28132943400820298 0.02911010974414751 0 -0.2684979789729644 0.03593820420606865 0 -0.27200359261247947 0.017754051058092819 0 -0.28132943400820298 0.02911010974414751 0 -0.26909988492935111 -0.0018655285383734981 0 -0.2917254884257266 -0.0017566381736345419 0 -0.27200359261247947 0.017754051058092819 0 -0.2917254884257266 -0.0017566381736345419 0 -0.27200359261247947 0.017754051058092819 0 -0.28831373269731447 0.017122983851404761 0 -0.2917254884257266 -0.0017566381736345419 0 -0.28831373269731447 0.017122983851404761 0 -0.29997880334656019 0.01439552450637107 0 -0.2917254884257266 -0.0017566381736345419 0 -0.27200359261247947 0.017754051058092819 0 -0.28831373269731447 0.017122983851404761 0 -0.29656482898857922 0.02610767777843559 0 -0.29997880334656019 0.01439552450637107 0 -0.28831373269731447 0.017122983851404761 0 -0.28132943400820298 0.02911010974414751 0 -0.29656482898857922 0.02610767777843559 0 -0.28132943400820298 0.02911010974414751 0 -0.29656482898857922 0.02610767777843559 0 -0.29344050585463782 0.03493273697686209 0 -0.29656482898857922 0.02610767777843559 0 -0.31039051656375261 0.022327184027059441 0 -0.30541723396373921 0.038711125382435783 0 -0.31039051656375261 0.022327184027059441 0 -0.30541723396373921 0.038711125382435783 0 -0.32038394146944787 0.031620215762440292 0 -0.29656482898857922 0.02610767777843559 0 -0.31039051656375261 0.022327184027059441 0 -0.29997880334656019 0.01439552450637107 0 -0.31039051656375261 0.022327184027059441 0 -0.31177688145040278 0.0050359958776742568 0 -0.29997880334656019 0.01439552450637107 0 -0.2917254884257266 -0.0017566381736345419 0 -0.31177688145040278 0.0050359958776742568 0 -0.29997880334656019 0.01439552450637107 0 -0.27263172987273521 0.051913181220590639 0 -0.28743776060402371 0.060458689408765323 0 -0.28938365460120269 0.05532159347584624 0 -0.28938365460120269 0.05532159347584624 0 -0.29045052645802971 0.045802035002429492 0 -0.29738278035354182 0.050541329601553678 0 -0.28938365460120269 0.05532159347584624 0 -0.29738278035354182 0.050541329601553678 0 -0.29780899910201009 0.056562827273038227 0 -0.29926204670725021 0.066629363318123747 0 -0.28938365460120269 0.05532159347584624 0 -0.29780899910201009 0.056562827273038227 0 -0.28132943400820298 0.02911010974414751 0 -0.28938365460120269 0.05532159347584624 0 -0.29045052645802971 0.045802035002429492 0 -0.28132943400820298 0.02911010974414751 0 -0.28938365460120269 0.05532159347584624 0 -0.28132943400820298 0.02911010974414751 0 -0.29344050585463782 0.03493273697686209 0 -0.29045052645802971 0.045802035002429492 0 -0.29344050585463782 0.03493273697686209 0 -0.29045052645802971 0.045802035002429492 0 -0.30541723396373921 0.038711125382435783 0 -0.29045052645802971 0.045802035002429492 0 -0.30541723396373921 0.038711125382435783 0 -0.29738278035354182 0.050541329601553678 0 -0.29045052645802971 0.045802035002429492 0 -0.30541723396373921 0.038711125382435783 0 -0.29656482898857922 0.02610767777843559 0 -0.29344050585463782 0.03493273697686209 0 -0.30541723396373921 0.038711125382435783 0 -0.30541723396373921 0.038711125382435783 0 -0.30520751474604563 0.05375902269662923 0 -0.31780711793698518 0.045521831715634557 0 -0.29926204670725021 0.066629363318123747 0 -0.30520751474604563 0.05375902269662923 0 -0.31697319293959142 0.061410437985649477 0 -0.30541723396373921 0.038711125382435783 0 -0.30520751474604563 0.05375902269662923 0 -0.29738278035354182 0.050541329601553678 0 -0.30520751474604563 0.05375902269662923 0 -0.29738278035354182 0.050541329601553678 0 -0.29780899910201009 0.056562827273038227 0 -0.29926204670725021 0.066629363318123747 0 -0.30520751474604563 0.05375902269662923 0 -0.29780899910201009 0.056562827273038227 0 -0.32553678940662539 0.052415823907368687 0 -0.31780711793698518 0.045521831715634557 0 -0.33422422494732851 0.04449049745268327 0 -0.31697319293959142 0.061410437985649477 0 -0.32553678940662539 0.052415823907368687 0 -0.31780711793698518 0.045521831715634557 0 -0.30520751474604563 0.05375902269662923 0 -0.31697319293959142 0.061410437985649477 0 -0.31780711793698518 0.045521831715634557 0 -0.31697319293959142 0.061410437985649477 0 -0.32808937753058609 0.059947696530402161 0 -0.32553678940662539 0.052415823907368687 0 -0.31780711793698518 0.045521831715634557 0 -0.32038394146944787 0.031620215762440292 0 -0.33422422494732851 0.04449049745268327 0 -0.30541723396373921 0.038711125382435783 0 -0.31780711793698518 0.045521831715634557 0 -0.32038394146944787 0.031620215762440292 0 -0.30541723396373921 0.038711125382435783 0 -0.32038394146944787 0.031620215762440292 0 -0.32038394146944787 0.031620215762440292 0 -0.33422422494732851 0.04449049745268327 0 -0.33422422494732851 0.04449049745268327 0 -0.34051642268078958 0.02208187176518148 0 -0.34924074101412461 0.03711639968071382 0 -0.32038394146944787 0.031620215762440292 0 -0.33422422494732851 0.04449049745268327 0 -0.34051642268078958 0.02208187176518148 0 -0.33422422494732851 0.04449049745268327 0 -0.34715076893326918 0.04673829876922056 0 -0.34924074101412461 0.03711639968071382 0 -0.33422422494732851 0.04449049745268327 0 -0.34806450842520742 0.057360779142928031 0 -0.34715076893326918 0.04673829876922056 0 -0.33422422494732851 0.04449049745268327 0 -0.34806450842520742 0.057360779142928031 0 -0.33422422494732851 0.04449049745268327 0 -0.33482930480244999 0.055095026294593591 0 -0.34806450842520742 0.057360779142928031 0 -0.3407399656121517 0.06083029771636933 0 -0.33482930480244999 0.055095026294593591 0 -0.33440717105718593 0.063083878638897639 0 -0.3407399656121517 0.06083029771636933 0 -0.33482930480244999 0.055095026294593591 0 -0.34806450842520742 0.057360779142928031 0 -0.32808937753058609 0.059947696530402161 0 -0.33482930480244999 0.055095026294593591 0 -0.33440717105718593 0.063083878638897639 0 -0.32808937753058609 0.059947696530402161 0 -0.32553678940662539 0.052415823907368687 0 -0.33482930480244999 0.055095026294593591 0 -0.32553678940662539 0.052415823907368687 0 -0.33422422494732851 0.04449049745268327 0 -0.33482930480244999 0.055095026294593591 0 -0.31039051656375261 0.022327184027059441 0 -0.31177688145040278 0.0050359958776742568 0 -0.3261420213634148 0.01391490981329808 0 -0.32828291010712762 -0.0049346835118845543 0 -0.31177688145040278 0.0050359958776742568 0 -0.3261420213634148 0.01391490981329808 0 -0.31039051656375261 0.022327184027059441 0 -0.32038394146944787 0.031620215762440292 0 -0.3261420213634148 0.01391490981329808 0 -0.31039051656375261 0.022327184027059441 0 -0.32038394146944787 0.031620215762440292 0 -0.32038394146944787 0.031620215762440292 0 -0.34051642268078958 0.02208187176518148 0 -0.32038394146944787 0.031620215762440292 0 -0.3261420213634148 0.01391490981329808 0 -0.34051642268078958 0.02208187176518148 0 -0.3261420213634148 0.01391490981329808 0 -0.34051642268078958 0.02208187176518148 0 -0.34055428987364128 0.0059527955302196532 0 -0.32828291010712762 -0.0049346835118845543 0 -0.3261420213634148 0.01391490981329808 0 -0.34055428987364128 0.0059527955302196532 0 -0.34051642268078958 0.02208187176518148 0 -0.34055428987364128 0.0059527955302196532 0 -0.36064890389212972 0.0125435277679194 0 -0.34718119132474479 -0.01384164818341615 0 -0.34055428987364128 0.0059527955302196532 0 -0.36064890389212972 0.0125435277679194 0 -0.34051642268078958 0.02208187176518148 0 -0.36064890389212972 0.0125435277679194 0 -0.34051642268078958 0.02208187176518148 0 -0.35699945364537122 0.027147445145089769 0 -0.34924074101412461 0.03711639968071382 0 -0.34051642268078958 0.02208187176518148 0 -0.35699945364537122 0.027147445145089769 0 -0.36064890389212972 0.0125435277679194 0 -0.35699945364537122 0.027147445145089769 0 -0.36163302121541668 0.029781402687577421 0 -0.35940737946489582 0.035374977024224222 0 -0.37998819155715241 0.0057865511937031933 0 -0.36738966121720701 0.029980518529024301 0 -0.37123175334181557 0.027162262264614271 0 -0.37998819155715241 0.0057865511937031933 0 -0.36738966121720701 0.029980518529024301 0 -0.3645477689834325 0.020181962352102071 0 -0.37998819155715241 0.0057865511937031933 0 -0.36738966121720701 0.029980518529024301 0 -0.36273559053419291 0.026622670051971411 0 -0.36738966121720701 0.029980518529024301 0 -0.3645477689834325 0.020181962352102071 0 -0.35699945364537122 0.027147445145089769 0 -0.36163302121541668 0.029781402687577421 0 -0.36273559053419291 0.026622670051971411 0 -0.35699945364537122 0.027147445145089769 0 -0.36273559053419291 0.026622670051971411 0 -0.3645477689834325 0.020181962352102071 0 -0.36163302121541668 0.029781402687577421 0 -0.36273559053419291 0.026622670051971411 0 -0.36738966121720701 0.029980518529024301 0 -0.35699945364537122 0.027147445145089769 0 -0.3645477689834325 0.020181962352102071 0 -0.36064890389212972 0.0125435277679194 0 -0.3645477689834325 0.020181962352102071 0 -0.36064890389212972 0.0125435277679194 0 -0.37998819155715241 0.0057865511937031933 0 -0.3645477689834325 0.020181962352102071 0 -0.36064890389212972 0.0125435277679194 0 -0.38683543611469601 0.0001369023841863784 0 -0.36064890389212972 0.0125435277679194 0 -0.37474494217865062 -0.0022388935110706832 0 -0.38683543611469601 0.0001369023841863784 0 -0.36064890389212972 0.0125435277679194 0 -0.37474494217865062 -0.0022388935110706832 0 -0.36307869926690151 -0.00068504054922277494 0 -0.36064890389212972 0.0125435277679194 0 -0.35479113087726238 0.05417448586434577 0 -0.34715076893326918 0.04673829876922056 0 -0.35593663516940488 0.04278932274017315 0 -0.35479113087726238 0.05417448586434577 0 -0.35147867423579721 0.06053566178096708 0 -0.3622197730044176 0.060127746183944272 0 -0.35479113087726238 0.05417448586434577 0 -0.35147867423579721 0.06053566178096708 0 -0.35479113087726238 0.05417448586434577 0 -0.34806450842520742 0.057360779142928031 0 -0.35147867423579721 0.06053566178096708 0 -0.35479113087726238 0.05417448586434577 0 -0.34806450842520742 0.057360779142928031 0 -0.34806450842520742 0.057360779142928031 0 -0.35147867423579721 0.06053566178096708 0 -0.3447014191436914 0.063951910484466787 0 -0.34806450842520742 0.057360779142928031 0 -0.35147867423579721 0.06053566178096708 0 -0.3407399656121517 0.06083029771636933 0 -0.34806450842520742 0.057360779142928031 0 -0.3407399656121517 0.06083029771636933 0 -0.34806450842520742 0.057360779142928031 0 -0.3447014191436914 0.063951910484466787 0 -0.35479113087726238 0.05417448586434577 0 -0.34806450842520742 0.057360779142928031 0 -0.34715076893326918 0.04673829876922056 0 -0.34715076893326918 0.04673829876922056 0 -0.34924074101412461 0.03711639968071382 0 -0.35593663516940488 0.04278932274017315 0 -0.36738966121720701 0.029980518529024301 0 -0.35479113087726238 0.05417448586434577 0 -0.35593663516940488 0.04278932274017315 0 -0.35699945364537122 0.027147445145089769 0 -0.34924074101412461 0.03711639968071382 0 -0.35940737946489582 0.035374977024224222 0 -0.34924074101412461 0.03711639968071382 0 -0.35593663516940488 0.04278932274017315 0 -0.35940737946489582 0.035374977024224222 0 -0.36738966121720701 0.029980518529024301 0 -0.35479113087726238 0.05417448586434577 0 -0.36677646394688163 0.041367990420506082 0 -0.37123175334181557 0.027162262264614271 0 -0.37046143272875132 0.04675171495388801 0 -0.36738966121720701 0.029980518529024301 0 -0.35479113087726238 0.05417448586434577 0 -0.37123175334181557 0.027162262264614271 0 -0.36677646394688163 0.041367990420506082 0 -0.37046143272875132 0.04675171495388801 0 -0.3764786745208083 0.032098692741998169 0 -0.37123175334181557 0.027162262264614271 0 -0.37046143272875132 0.04675171495388801 0 -0.36163302121541668 0.029781402687577421 0 -0.36738966121720701 0.029980518529024301 0 -0.35940737946489582 0.035374977024224222 0 -0.36738966121720701 0.029980518529024301 0 -0.35593663516940488 0.04278932274017315 0 -0.35940737946489582 0.035374977024224222 0 -0.36738966121720701 0.029980518529024301 0 -0.37123175334181557 0.027162262264614271 0 -0.36677646394688163 0.041367990420506082 0 -0.36677646394688163 0.041367990420506082 0 -0.37046143272875132 0.04675171495388801 0 -0.36802302346639398 0.047906750352184523 0 -0.36677646394688163 0.041367990420506082 0 -0.36802302346639398 0.047906750352184523 0 -0.37046143272875132 0.04675171495388801 0 -0.37000681959492809 0.05831264468359916 0 -0.36802302346639398 0.047906750352184523 0 -0.37000681959492809 0.05831264468359916 0 -0.37046143272875132 0.04675171495388801 0 -0.36802302346639398 0.047906750352184523 0 -0.37000681959492809 0.05831264468359916 0 -0.37046143272875132 0.04675171495388801 0 -0.36802302346639398 0.047906750352184523 0 -0.35479113087726238 0.05417448586434577 0 -0.36802302346639398 0.047906750352184523 0 -0.35479113087726238 0.05417448586434577 0 -0.36802302346639398 0.047906750352184523 0 -0.3622197730044176 0.060127746183944272 0 -0.35479113087726238 0.05417448586434577 0 -0.36677646394688163 0.041367990420506082 0 -0.36802302346639398 0.047906750352184523 0 -0.36802302346639398 0.047906750352184523 0 -0.3622197730044176 0.060127746183944272 0 -0.37000681959492809 0.05831264468359916 0 -0.35147867423579721 0.06053566178096708 0 -0.36926886504626422 0.077079019973005369 0 -0.3622197730044176 0.060127746183944272 0 -0.37000681959492809 0.05831264468359916 0 -0.36926886504626422 0.077079019973005369 0 -0.37000681959492809 0.05831264468359916 0 -0.36926886504626422 0.077079019973005369 0 -0.37079498002478778 0.078498176574577722 0 -0.36926886504626422 0.077079019973005369 0 -0.34551673285671652 0.071984855543133663 0 -0.36912013352382872 0.080861301107253064 0 -0.37000681959492809 0.05831264468359916 0 -0.37079498002478778 0.078498176574577722 0 -0.37470600383380392 0.082961959162170973 0 -0.35147867423579721 0.06053566178096708 0 -0.3622197730044176 0.060127746183944272 0 -0.36926886504626422 0.077079019973005369 0 -0.37000681959492809 0.05831264468359916 0 -0.37470600383380392 0.082961959162170973 0 -0.37000681959492809 0.05831264468359916 0 -0.36926886504626422 0.077079019973005369 0 -0.36926886504626422 0.077079019973005369 0 -0.37079498002478778 0.078498176574577722 0 -0.34551673285671652 0.071984855543133663 0 -0.34763839367566191 0.079069075487607554 0 -0.36912013352382872 0.080861301107253064 0 -0.34551673285671652 0.071984855543133663 0 -0.36912013352382872 0.080861301107253064 0 -0.35147867423579721 0.06053566178096708 0 -0.36926886504626422 0.077079019973005369 0 -0.34551673285671652 0.071984855543133663 0 -0.34408269824063842 0.074738747125954852 0 -0.34763839367566191 0.079069075487607554 0 -0.34179116264722731 0.080399472229040897 0 -0.34408269824063842 0.074738747125954852 0 -0.34551673285671652 0.071984855543133663 0 -0.34763839367566191 0.079069075487607554 0 -0.34408269824063842 0.074738747125954852 0 -0.34551673285671652 0.071984855543133663 0 -0.35147867423579721 0.06053566178096708 0 -0.34551673285671652 0.071984855543133663 0 -0.3447014191436914 0.063951910484466787 0 -0.35147867423579721 0.06053566178096708 0 -0.34551673285671652 0.071984855543133663 0 -0.34763839367566191 0.079069075487607554 0 -0.36858415035949882 0.094491491786065696 0 -0.34763839367566191 0.079069075487607554 0 -0.36858415035949882 0.094491491786065696 0 -0.35198293914272999 0.094145145766245733 0 -0.34456144318064219 0.08667329674911145 0 -0.34763839367566191 0.079069075487607554 0 -0.35198293914272999 0.094145145766245733 0 -0.34456144318064219 0.08667329674911145 0 -0.35198293914272999 0.094145145766245733 0 -0.34431035454597703 0.093789606507308373 0 -0.34456144318064219 0.08667329674911145 0 -0.34763839367566191 0.079069075487607554 0 -0.34179116264722731 0.080399472229040897 0 -0.3782625711058698 0.101617738696854 0 -0.37470600383380392 0.082961959162170973 0 -0.36858415035949882 0.094491491786065696 0 -0.34763839367566191 0.079069075487607554 0 -0.36912013352382872 0.080861301107253064 0 -0.36858415035949882 0.094491491786065696 0 -0.36926886504626422 0.077079019973005369 0 -0.37079498002478778 0.078498176574577722 0 -0.36912013352382872 0.080861301107253064 0 -0.36926886504626422 0.077079019973005369 0 -0.36912013352382872 0.080861301107253064 0 -0.36912013352382872 0.080861301107253064 0 -0.37470600383380392 0.082961959162170973 0 -0.37079498002478778 0.078498176574577722 0 -0.36912013352382872 0.080861301107253064 0 -0.37470600383380392 0.082961959162170973 0 -0.36912013352382872 0.080861301107253064 0 -0.37470600383380392 0.082961959162170973 0 -0.36858415035949882 0.094491491786065696 0 -0.36912013352382872 0.080861301107253064 0 -0.36858415035949882 0.094491491786065696 0 -0.36858415035949882 0.094491491786065696 0 -0.36747352968705388 0.12273486311700831 0 -0.3782625711058698 0.101617738696854 0 -0.36858415035949882 0.094491491786065696 0 -0.36858415035949882 0.094491491786065696 0 -0.36006702585218792 0.10838608290929221 0 -0.35198293914272999 0.094145145766245733 0 -0.36858415035949882 0.094491491786065696 0 -0.36006702585218792 0.10838608290929221 0 -0.36747352968705388 0.12273486311700831 0 -0.3782625711058698 0.101617738696854 0 -0.36858415035949882 0.094491491786065696 0 -0.36747352968705388 0.12273486311700831 0 -0.36006702585218792 0.10838608290929221 0 -0.36747352968705388 0.12273486311700831 0 -0.35832203275528268 0.1183511860346923 0 -0.35528769071996391 0.12689780186549679 0 -0.36747352968705388 0.12273486311700831 0 -0.35832203275528268 0.1183511860346923 0 -0.35528769071996391 0.12689780186549679 0 -0.35832203275528268 0.1183511860346923 0 -0.35045988476192508 0.115385996246972 0 -0.36006702585218792 0.10838608290929221 0 -0.35832203275528268 0.1183511860346923 0 -0.35045988476192508 0.115385996246972 0 -0.35045988476192508 0.115385996246972 0 -0.34547580274860562 0.10394098399483009 0 -0.33570271963636877 0.11206429961599181 0 -0.35528769071996391 0.12689780186549679 0 -0.35045988476192508 0.115385996246972 0 -0.34115039425197219 0.12498493974687711 0 -0.36006702585218792 0.10838608290929221 0 -0.35198293914272999 0.094145145766245733 0 -0.34547580274860562 0.10394098399483009 0 -0.36006702585218792 0.10838608290929221 0 -0.35045988476192508 0.115385996246972 0 -0.34547580274860562 0.10394098399483009 0 -0.35198293914272999 0.094145145766245733 0 -0.34547580274860562 0.10394098399483009 0 -0.34431035454597703 0.093789606507308373 0 -0.34547580274860562 0.10394098399483009 0 -0.34431035454597703 0.093789606507308373 0 -0.335413749579693 0.097286071719103154 0 -0.34547580274860562 0.10394098399483009 0 -0.335413749579693 0.097286071719103154 0 -0.33570271963636877 0.11206429961599181 0 -0.335413749579693 0.097286071719103154 0 -0.33570271963636877 0.11206429961599181 0 -0.32444247844199348 0.1047035033472971 0 -0.35045988476192508 0.115385996246972 0 -0.34115039425197219 0.12498493974687711 0 -0.33570271963636877 0.11206429961599181 0 -0.32917568526667751 0.12578156900391591 0 -0.33570271963636877 0.11206429961599181 0 -0.32114709127587232 0.11611322513389059 0 -0.32917568526667751 0.12578156900391591 0 -0.34115039425197219 0.12498493974687711 0 -0.33570271963636877 0.11206429961599181 0 -0.31354631638020197 0.13395604467094269 0 -0.30549209578720232 0.10774456093924389 0 -0.32114709127587232 0.11611322513389059 0 -0.30549209578720232 0.10774456093924389 0 -0.32114709127587232 0.11611322513389059 0 -0.32444247844199348 0.1047035033472971 0 -0.33570271963636877 0.11206429961599181 0 -0.32114709127587232 0.11611322513389059 0 -0.32444247844199348 0.1047035033472971 0 -0.30549209578720232 0.10774456093924389 0 -0.32444247844199348 0.1047035033472971 0 -0.32445673593083119 0.090309359328255762 0 -0.30549209578720232 0.10774456093924389 0 -0.32445673593083119 0.090309359328255762 0 -0.31312795334666071 0.083579729522452809 0 -0.335413749579693 0.097286071719103154 0 -0.32444247844199348 0.1047035033472971 0 -0.32445673593083119 0.090309359328255762 0 -0.32445673593083119 0.090309359328255762 0 -0.3275606083710243 0.080211281293741998 0 -0.31312795334666071 0.083579729522452809 0 -0.3275606083710243 0.080211281293741998 0 -0.31312795334666071 0.083579729522452809 0 -0.31976082328641481 0.073112182403608325 0 -0.30931237829482389 0.073252958087475881 0 -0.31312795334666071 0.083579729522452809 0 -0.31976082328641481 0.073112182403608325 0 -0.30931237829482389 0.073252958087475881 0 -0.31697319293959142 0.061410437985649477 0 -0.31976082328641481 0.073112182403608325 0 -0.31697319293959142 0.061410437985649477 0 -0.31976082328641481 0.073112182403608325 0 -0.32886731949388731 0.069155273298144179 0 -0.31697319293959142 0.061410437985649477 0 -0.32808937753058609 0.059947696530402161 0 -0.32886731949388731 0.069155273298144179 0 -0.3275606083710243 0.080211281293741998 0 -0.31976082328641481 0.073112182403608325 0 -0.32886731949388731 0.069155273298144179 0 -0.32886731949388731 0.069155273298144179 0 -0.33770721458858299 0.069047958238937293 0 -0.336378655355973 0.076693290193422539 0 -0.3275606083710243 0.080211281293741998 0 -0.32886731949388731 0.069155273298144179 0 -0.336378655355973 0.076693290193422539 0 -0.33440717105718593 0.063083878638897639 0 -0.32886731949388731 0.069155273298144179 0 -0.33770721458858299 0.069047958238937293 0 -0.32808937753058609 0.059947696530402161 0 -0.33440717105718593 0.063083878638897639 0 -0.32886731949388731 0.069155273298144179 0 -0.3407399656121517 0.06083029771636933 0 -0.33440717105718593 0.063083878638897639 0 -0.33770721458858299 0.069047958238937293 0 -0.3407399656121517 0.06083029771636933 0 -0.3447014191436914 0.063951910484466787 0 -0.33770721458858299 0.069047958238937293 0 -0.34551673285671652 0.071984855543133663 0 -0.3447014191436914 0.063951910484466787 0 -0.33770721458858299 0.069047958238937293 0 -0.34408269824063842 0.074738747125954852 0 -0.33770721458858299 0.069047958238937293 0 -0.336378655355973 0.076693290193422539 0 -0.34408269824063842 0.074738747125954852 0 -0.34551673285671652 0.071984855543133663 0 -0.33770721458858299 0.069047958238937293 0 -0.34551673285671652 0.071984855543133663 0 -0.33770721458858299 0.069047958238937293 0 -0.34408269824063842 0.074738747125954852 0 -0.336378655355973 0.076693290193422539 0 -0.34179116264722731 0.080399472229040897 0 -0.336378655355973 0.076693290193422539 0 -0.34179116264722731 0.080399472229040897 0 -0.33708436589161489 0.085963183755354639 0 -0.34456144318064219 0.08667329674911145 0 -0.34179116264722731 0.080399472229040897 0 -0.33708436589161489 0.085963183755354639 0 -0.34456144318064219 0.08667329674911145 0 -0.34431035454597703 0.093789606507308373 0 -0.33708436589161489 0.085963183755354639 0 -0.34431035454597703 0.093789606507308373 0 -0.335413749579693 0.097286071719103154 0 -0.33708436589161489 0.085963183755354639 0 -0.335413749579693 0.097286071719103154 0 -0.32445673593083119 0.090309359328255762 0 -0.33708436589161489 0.085963183755354639 0 -0.32445673593083119 0.090309359328255762 0 -0.3275606083710243 0.080211281293741998 0 -0.33708436589161489 0.085963183755354639 0 -0.3275606083710243 0.080211281293741998 0 -0.336378655355973 0.076693290193422539 0 -0.33708436589161489 0.085963183755354639 0 -0.38891458820749281 0.47713565504117422 0 -0.42172655890518862 0.5 0 -0.3640375775585698 0.5 0 -0.38891458820749281 0.47713565504117422 0 -0.37103467036260362 0.45695891695805302 0 -0.36943712044780219 0.47475959506207249 0 -0.39694697642853649 0.45370639251272787 0 -0.37103467036260362 0.45695891695805302 0 -0.38891458820749281 0.47713565504117422 0 -0.39694697642853649 0.45370639251272787 0 -0.37103467036260362 0.45695891695805302 0 -0.38249991962136642 0.44345487931465249 0 -0.39694697642853649 0.45370639251272787 0 -0.37103467036260362 0.45695891695805302 0 -0.38249991962136642 0.44345487931465249 0 -0.39694697642853649 0.45370639251272787 0 -0.40464661760035381 0.43350824459614162 0 -0.38891458820749281 0.47713565504117422 0 -0.39694697642853649 0.45370639251272787 0 -0.41631826774707797 0.4711213942969617 0 -0.39694697642853649 0.45370639251272787 0 -0.42285928249446952 0.45045386806740279 0 -0.41631826774707797 0.4711213942969617 0 -0.42285928249446952 0.45045386806740279 0 -0.42501824733507809 0.43459816807542118 0 -0.40464661760035381 0.43350824459614162 0 -0.39694697642853649 0.45370639251272787 0 -0.42285928249446952 0.45045386806740279 0 -0.39694697642853649 0.45370639251272787 0 -0.42285928249446952 0.45045386806740279 0 -0.40464661760035381 0.43350824459614162 0 -0.42285928249446952 0.45045386806740279 0 -0.43521244088076849 0.46107148678855758 0 -0.44877158856040261 0.44720134362207808 0 -0.42285928249446952 0.45045386806740279 0 -0.44877158856040261 0.44720134362207808 0 -0.42285928249446952 0.45045386806740279 0 -0.43592409671607729 0.44045812782560079 0 -0.44877158856040261 0.44720134362207808 0 -0.42285928249446952 0.45045386806740279 0 -0.43592409671607729 0.44045812782560079 0 -0.42501824733507809 0.43459816807542118 0 -0.42285928249446952 0.45045386806740279 0 -0.43521244088076849 0.46107148678855758 0 -0.41631826774707797 0.4711213942969617 0 -0.41631826774707797 0.4711213942969617 0 -0.42172655890518862 0.5 0 -0.43935827984199688 0.47473889959161758 0 -0.43521244088076849 0.46107148678855758 0 -0.41631826774707797 0.4711213942969617 0 -0.43935827984199688 0.47473889959161758 0 -0.38891458820749281 0.47713565504117422 0 -0.41631826774707797 0.4711213942969617 0 -0.42172655890518862 0.5 0 -0.42172655890518862 0.5 0 -0.43935827984199688 0.47473889959161758 0 -0.47784082473980471 0.47626967285504462 0 -0.42172655890518862 0.5 0 -0.5 0.5 0 -0.47784082473980471 0.47626967285504462 0 -0.43935827984199688 0.47473889959161758 0 -0.47784082473980471 0.47626967285504462 0 -0.4487547857598953 0.46184192836472759 0 -0.5 0.5 0 -0.47784082473980471 0.47626967285504462 0 -0.49999999999999589 0.44077113011354369 0 -0.47784082473980471 0.47626967285504462 0 -0.47438579428019922 0.44398623686781052 0 -0.4627013265822788 0.4545376326069438 0 -0.47784082473980471 0.47626967285504462 0 -0.49999999999999589 0.44077113011354369 0 -0.47438579428019922 0.44398623686781052 0 -0.49999999999999589 0.44077113011354369 0 -0.47438579428019922 0.44398623686781052 0 -0.48180565015534738 0.42787197640755792 0 -0.49999999999999589 0.44077113011354369 0 -0.47438579428019922 0.44398623686781052 0 -0.47438579428019922 0.44398623686781052 0 -0.4627013265822788 0.4545376326069438 0 -0.44877158856040261 0.44720134362207808 0 -0.47438579428019922 0.44398623686781052 0 -0.44877158856040261 0.44720134362207808 0 -0.47438579428019922 0.44398623686781052 0 -0.44877158856040261 0.44720134362207808 0 -0.46289485375526918 0.43579199928955081 0 -0.44877158856040261 0.44720134362207808 0 -0.44878504691792248 0.43547483269414872 0 -0.46289485375526918 0.43579199928955081 0 -0.47784082473980471 0.47626967285504462 0 -0.4627013265822788 0.4545376326069438 0 -0.4487547857598953 0.46184192836472759 0 -0.4627013265822788 0.4545376326069438 0 -0.4487547857598953 0.46184192836472759 0 -0.44877158856040261 0.44720134362207808 0 -0.4487547857598953 0.46184192836472759 0 -0.44877158856040261 0.44720134362207808 0 -0.43521244088076849 0.46107148678855758 0 -0.4487547857598953 0.46184192836472759 0 -0.44877158856040261 0.44720134362207808 0 -0.43521244088076849 0.46107148678855758 0 -0.43935827984199688 0.47473889959161758 0 -0.4487547857598953 0.46184192836472759 0 -0.44877158856040261 0.44720134362207808 0 -0.44508566455651338 0.43839632914573512 0 -0.44878504691792248 0.43547483269414872 0 -0.44877158856040261 0.44720134362207808 0 -0.44878504691792248 0.43547483269414872 0 -0.43592409671607729 0.44045812782560079 0 -0.44877158856040261 0.44720134362207808 0 -0.44508566455651338 0.43839632914573512 0 -0.44531233658805403 0.42513554986162888 0 -0.44878504691792248 0.43547483269414872 0 -0.44880957839306629 0.41410011360809668 0 -0.44878504691792248 0.43547483269414872 0 -0.44880957839306629 0.41410011360809668 0 -0.43788570063392329 0.43164093021736671 0 -0.44531233658805403 0.42513554986162888 0 -0.44878504691792248 0.43547483269414872 0 -0.43592409671607729 0.44045812782560079 0 -0.44508566455651338 0.43839632914573512 0 -0.43788570063392329 0.43164093021736671 0 -0.44508566455651338 0.43839632914573512 0 -0.43788570063392329 0.43164093021736671 0 -0.44878504691792248 0.43547483269414872 0 -0.44508566455651338 0.43839632914573512 0 -0.44878504691792248 0.43547483269414872 0 -0.44531233658805403 0.42513554986162888 0 -0.44880957839306629 0.41410011360809668 0 -0.42391867717568832 0.41711337076656618 0 -0.44880957839306629 0.41410011360809668 0 -0.46585669794528167 0.42199291516666237 0 -0.4641229039382897 0.40091036417177778 0 -0.44878504691792248 0.43547483269414872 0 -0.46585669794528167 0.42199291516666237 0 -0.44878504691792248 0.43547483269414872 0 -0.44880957839306629 0.41410011360809668 0 -0.46585669794528167 0.42199291516666237 0 -0.44878504691792248 0.43547483269414872 0 -0.46585669794528167 0.42199291516666237 0 -0.46289485375526918 0.43579199928955081 0 -0.47438579428019922 0.44398623686781052 0 -0.46289485375526918 0.43579199928955081 0 -0.48180565015534738 0.42787197640755792 0 -0.46585669794528167 0.42199291516666237 0 -0.46289485375526918 0.43579199928955081 0 -0.48180565015534738 0.42787197640755792 0 -0.46585669794528167 0.42199291516666237 0 -0.48292834897264081 0.4085109976391762 0 -0.4641229039382897 0.40091036417177778 0 -0.46585669794528167 0.42199291516666237 0 -0.48292834897264081 0.4085109976391762 0 -0.46585669794528167 0.42199291516666237 0 -0.48180565015534738 0.42787197640755792 0 -0.48292834897264081 0.4085109976391762 0 -0.48292834897264081 0.4085109976391762 0 -0.5 0.41790010511261683 0 -0.5 0.39502908011169002 0 -0.48180565015534738 0.42787197640755792 0 -0.48292834897264081 0.4085109976391762 0 -0.5 0.41790010511261683 0 -0.49999999999999589 0.44077113011354369 0 -0.48180565015534738 0.42787197640755792 0 -0.5 0.41790010511261683 0 -0.48850556386005051 0.3766603246979251 0 -0.5 0.39502908011169002 0 -0.47832653283541199 0.38608194873200979 0 -0.48850556386005051 0.3766603246979251 0 -0.5 0.39502908011169002 0 -0.5 0.36887446842263683 0 -0.48292834897264081 0.4085109976391762 0 -0.5 0.39502908011169002 0 -0.47832653283541199 0.38608194873200979 0 -0.48292834897264081 0.4085109976391762 0 -0.5 0.39502908011169002 0 -0.48292834897264081 0.4085109976391762 0 -0.47832653283541199 0.38608194873200979 0 -0.4641229039382897 0.40091036417177778 0 -0.48850556386005051 0.3766603246979251 0 -0.47832653283541199 0.38608194873200979 0 -0.48259334700195489 0.36409898273387958 0 -0.47832653283541199 0.38608194873200979 0 -0.46059005399087027 0.38292215568240928 0 -0.4641229039382897 0.40091036417177778 0 -0.47832653283541199 0.38608194873200979 0 -0.46059005399087027 0.38292215568240928 0 -0.46572599417265398 0.36772482908493609 0 -0.44880957839306629 0.41410011360809668 0 -0.4641229039382897 0.40091036417177778 0 -0.44883410986820999 0.3927253945220448 0 -0.46059005399087027 0.38292215568240928 0 -0.4641229039382897 0.40091036417177778 0 -0.44883410986820999 0.3927253945220448 0 -0.44880957839306629 0.41410011360809668 0 -0.44883410986820999 0.3927253945220448 0 -0.43699833754743561 0.40294499431243458 0 -0.44880957839306629 0.41410011360809668 0 -0.44883410986820999 0.3927253945220448 0 -0.44883410986820999 0.3927253945220448 0 -0.43978391516082421 0.3912231797547942 0 -0.43699833754743561 0.40294499431243458 0 -0.44883410986820999 0.3927253945220448 0 -0.43978391516082421 0.3912231797547942 0 -0.44802713623065987 0.37645115623263098 0 -0.44883410986820999 0.3927253945220448 0 -0.44885864134335329 0.37135067543599282 0 -0.44883410986820999 0.3927253945220448 0 -0.44802713623065987 0.37645115623263098 0 -0.44885864134335329 0.37135067543599282 0 -0.43978391516082421 0.3912231797547942 0 -0.44802713623065987 0.37645115623263098 0 -0.42527607699699133 0.39277117395206662 0 -0.46059005399087027 0.38292215568240928 0 -0.44883410986820999 0.3927253945220448 0 -0.44885864134335329 0.37135067543599282 0 -0.44802713623065987 0.37645115623263098 0 -0.4250431626101242 0.37647010748543319 0 -0.42527607699699133 0.39277117395206662 0 -0.44802713623065987 0.37645115623263098 0 -0.42527607699699133 0.39277117395206662 0 -0.4250431626101242 0.37647010748543319 0 -0.4134887672477453 0.38574914578498593 0 -0.40122768387689522 0.38158953953487368 0 -0.4250431626101242 0.37647010748543319 0 -0.40122768387689522 0.38158953953487368 0 -0.4250431626101242 0.37647010748543319 0 -0.4134887672477453 0.38574914578498593 0 -0.42527607699699133 0.39277117395206662 0 -0.4250431626101242 0.37647010748543319 0 -0.40122768387689522 0.38158953953487368 0 -0.40086489287733429 0.37467411733839928 0 -0.4134887672477453 0.38574914578498593 0 -0.40798835104355652 0.39359067917546098 0 -0.40557429982823212 0.38794008425198068 0 -0.4134887672477453 0.38574914578498593 0 -0.40122768387689522 0.38158953953487368 0 -0.40557429982823212 0.38794008425198068 0 -0.40798835104355652 0.39359067917546098 0 -0.42527607699699133 0.39277117395206662 0 -0.40252501776332311 0.40909119167150271 0 -0.42527607699699133 0.39277117395206662 0 -0.40252501776332311 0.40909119167150271 0 -0.4134887672477453 0.38574914578498593 0 -0.40798835104355652 0.39359067917546098 0 -0.42527607699699133 0.39277117395206662 0 -0.42527607699699133 0.39277117395206662 0 -0.43699833754743561 0.40294499431243458 0 -0.42391867717568832 0.41711337076656618 0 -0.43978391516082421 0.3912231797547942 0 -0.42527607699699133 0.39277117395206662 0 -0.43699833754743561 0.40294499431243458 0 -0.44880957839306629 0.41410011360809668 0 -0.43699833754743561 0.40294499431243458 0 -0.42391867717568832 0.41711337076656618 0 -0.44531233658805403 0.42513554986162888 0 -0.42391867717568832 0.41711337076656618 0 -0.43788570063392329 0.43164093021736671 0 -0.44531233658805403 0.42513554986162888 0 -0.42391867717568832 0.41711337076656618 0 -0.43788570063392329 0.43164093021736671 0 -0.42391867717568832 0.41711337076656618 0 -0.42501824733507809 0.43459816807542118 0 -0.43592409671607729 0.44045812782560079 0 -0.43788570063392329 0.43164093021736671 0 -0.42501824733507809 0.43459816807542118 0 -0.42391867717568832 0.41711337076656618 0 -0.42501824733507809 0.43459816807542118 0 -0.40464661760035381 0.43350824459614162 0 -0.42527607699699133 0.39277117395206662 0 -0.42391867717568832 0.41711337076656618 0 -0.40252501776332311 0.40909119167150271 0 -0.42391867717568832 0.41711337076656618 0 -0.40252501776332311 0.40909119167150271 0 -0.40464661760035381 0.43350824459614162 0 -0.42391867717568832 0.41711337076656618 0 -0.40252501776332311 0.40909119167150271 0 -0.40252501776332311 0.40909119167150271 0 -0.37875820238401509 0.42613984176471847 0 -0.40252501776332311 0.40909119167150271 0 -0.40464661760035381 0.43350824459614162 0 -0.37875820238401509 0.42613984176471847 0 -0.38249991962136642 0.44345487931465249 0 -0.40464661760035381 0.43350824459614162 0 -0.37875820238401509 0.42613984176471847 0 -0.40252501776332311 0.40909119167150271 0 -0.37875820238401509 0.42613984176471847 0 -0.37769092578324193 0.39977892163450779 0 -0.37769092578324193 0.39977892163450779 0 -0.38963770449155072 0.39285491215608792 0 -0.37686086334024771 0.38257038446795849 0 -0.40252501776332311 0.40909119167150271 0 -0.37769092578324193 0.39977892163450779 0 -0.38963770449155072 0.39285491215608792 0 -0.40252501776332311 0.40909119167150271 0 -0.37769092578324193 0.39977892163450779 0 -0.37686086334024771 0.38257038446795849 0 -0.39363670834615189 0.38450398520198442 0 -0.40086489287733429 0.37467411733839928 0 -0.38963770449155072 0.39285491215608792 0 -0.37686086334024771 0.38257038446795849 0 -0.39363670834615189 0.38450398520198442 0 -0.37686086334024771 0.38257038446795849 0 -0.40086489287733429 0.37467411733839928 0 -0.37686086334024771 0.38257038446795849 0 -0.40086489287733429 0.37467411733839928 0 -0.39033592763893787 0.37070590072739279 0 -0.39363670834615189 0.38450398520198442 0 -0.40122768387689522 0.38158953953487368 0 -0.39959239714473138 0.39083097251260251 0 -0.38963770449155072 0.39285491215608792 0 -0.39363670834615189 0.38450398520198442 0 -0.39959239714473138 0.39083097251260251 0 -0.39363670834615189 0.38450398520198442 0 -0.40122768387689522 0.38158953953487368 0 -0.40086489287733429 0.37467411733839928 0 -0.40122768387689522 0.38158953953487368 0 -0.40557429982823212 0.38794008425198068 0 -0.39959239714473138 0.39083097251260251 0 -0.40798835104355652 0.39359067917546098 0 -0.40557429982823212 0.38794008425198068 0 -0.39959239714473138 0.39083097251260251 0 -0.40252501776332311 0.40909119167150271 0 -0.38963770449155072 0.39285491215608792 0 -0.39959239714473138 0.39083097251260251 0 -0.40798835104355652 0.39359067917546098 0 -0.40252501776332311 0.40909119167150271 0 -0.39959239714473138 0.39083097251260251 0 -0.3926828114571661 0.35541775914535301 0 -0.40105078960399698 0.34662517948293931 0 -0.40586906590548888 0.3393029225754271 0 -0.3926828114571661 0.35541775914535301 0 -0.39400561065841477 0.34382680172727831 0 -0.40586906590548888 0.3393029225754271 0 -0.3926828114571661 0.35541775914535301 0 -0.40586906590548888 0.3393029225754271 0 -0.3926828114571661 0.35541775914535301 0 -0.39969836615416421 0.35756427730283669 0 -0.39341808057325789 0.36431669671432632 0 -0.3926828114571661 0.35541775914535301 0 -0.40105078960399698 0.34662517948293931 0 -0.39969836615416421 0.35756427730283669 0 -0.3926828114571661 0.35541775914535301 0 -0.39400561065841477 0.34382680172727831 0 -0.38539473684528258 0.34837828204789067 0 -0.40105078960399698 0.34662517948293931 0 -0.40525205349158999 0.35429039595711992 0 -0.40888688292129022 0.34941903462410451 0 -0.40105078960399698 0.34662517948293931 0 -0.4080564418273247 0.34368885170405422 0 -0.40888688292129022 0.34941903462410451 0 -0.40105078960399698 0.34662517948293931 0 -0.40525205349158999 0.35429039595711992 0 -0.39969836615416421 0.35756427730283669 0 -0.40525205349158999 0.35429039595711992 0 -0.39969836615416421 0.35756427730283669 0 -0.40553625032349627 0.36037170931698131 0 -0.40553625032349627 0.36037170931698131 0 -0.40544017780568847 0.3661562974108753 0 -0.40025021147547779 0.36436392320030081 0 -0.40544017780568847 0.3661562974108753 0 -0.40025021147547779 0.36436392320030081 0 -0.397742957241214 0.36844985128713797 0 -0.39969836615416421 0.35756427730283669 0 -0.40553625032349627 0.36037170931698131 0 -0.40025021147547779 0.36436392320030081 0 -0.40544017780568847 0.3661562974108753 0 -0.40086489287733429 0.37467411733839928 0 -0.397742957241214 0.36844985128713797 0 -0.40086489287733429 0.37467411733839928 0 -0.397742957241214 0.36844985128713797 0 -0.39033592763893787 0.37070590072739279 0 -0.397742957241214 0.36844985128713797 0 -0.39341808057325789 0.36431669671432632 0 -0.39033592763893787 0.37070590072739279 0 -0.39969836615416421 0.35756427730283669 0 -0.40025021147547779 0.36436392320030081 0 -0.39341808057325789 0.36431669671432632 0 -0.40025021147547779 0.36436392320030081 0 -0.397742957241214 0.36844985128713797 0 -0.39341808057325789 0.36431669671432632 0 -0.3926828114571661 0.35541775914535301 0 -0.39341808057325789 0.36431669671432632 0 -0.37949655700884349 0.37153259571527891 0 -0.37949655700884349 0.37153259571527891 0 -0.37823932191431281 0.35548757599615399 0 -0.37024808467873749 0.36543132639488701 0 -0.3926828114571661 0.35541775914535301 0 -0.37949655700884349 0.37153259571527891 0 -0.37823932191431281 0.35548757599615399 0 -0.3926828114571661 0.35541775914535301 0 -0.37949655700884349 0.37153259571527891 0 -0.39341808057325789 0.36431669671432632 0 -0.39033592763893787 0.37070590072739279 0 -0.37949655700884349 0.37153259571527891 0 -0.37686086334024771 0.38257038446795849 0 -0.39033592763893787 0.37070590072739279 0 -0.37949655700884349 0.37153259571527891 0 -0.37823932191431281 0.35548757599615399 0 -0.38539473684528258 0.34837828204789067 0 -0.3787015959315434 0.33902802614693439 0 -0.3926828114571661 0.35541775914535301 0 -0.37823932191431281 0.35548757599615399 0 -0.38539473684528258 0.34837828204789067 0 -0.3787015959315434 0.33902802614693439 0 -0.37816355277066899 0.32985684687273281 0 -0.39158393304450312 0.32769252248945308 0 -0.39400561065841477 0.34382680172727831 0 -0.38539473684528258 0.34837828204789067 0 -0.3787015959315434 0.33902802614693439 0 -0.39158393304450312 0.32769252248945308 0 -0.37442838800096029 0.32044424157556423 0 -0.37816355277066899 0.32985684687273281 0 -0.39158393304450312 0.32769252248945308 0 -0.37442838800096029 0.32044424157556423 0 -0.38613629988198012 0.31665983269396758 0 -0.39158393304450312 0.32769252248945308 0 -0.37442838800096029 0.32044424157556423 0 -0.38613629988198012 0.31665983269396758 0 -0.37442838800096029 0.32044424157556423 0 -0.37415321332832258 0.31386652142517069 0 -0.39158393304450312 0.32769252248945308 0 -0.4039094095666334 0.320812311378052 0 -0.40925887999808552 0.33516025262174892 0 -0.38613629988198012 0.31665983269396758 0 -0.39830358576524327 0.31266849694114901 0 -0.39158393304450312 0.32769252248945308 0 -0.39830358576524327 0.31266849694114901 0 -0.39158393304450312 0.32769252248945308 0 -0.4039094095666334 0.320812311378052 0 -0.39830358576524327 0.31266849694114901 0 -0.4039094095666334 0.320812311378052 0 -0.40826549608127172 0.31275764886218971 0 -0.3787015959315434 0.33902802614693439 0 -0.40777024278950652 0.33697950655941222 0 -0.39158393304450312 0.32769252248945308 0 -0.40925887999808552 0.33516025262174892 0 -0.39158393304450312 0.32769252248945308 0 -0.40777024278950652 0.33697950655941222 0 -0.40925887999808552 0.33516025262174892 0 -0.3787015959315434 0.33902802614693439 0 -0.39158393304450312 0.32769252248945308 0 -0.40777024278950652 0.33697950655941222 0 -0.39400561065841477 0.34382680172727831 0 -0.3787015959315434 0.33902802614693439 0 -0.40777024278950652 0.33697950655941222 0 -0.39400561065841477 0.34382680172727831 0 -0.40586906590548888 0.3393029225754271 0 -0.40777024278950652 0.33697950655941222 0 -0.40105078960399698 0.34662517948293931 0 -0.40586906590548888 0.3393029225754271 0 -0.40105078960399698 0.34662517948293931 0 -0.40586906590548888 0.3393029225754271 0 -0.4080564418273247 0.34368885170405422 0 -0.4080564418273247 0.34368885170405422 0 -0.41125860555200922 0.34134685969384471 0 -0.40895905381070002 0.33957121871677393 0 -0.40586906590548888 0.3393029225754271 0 -0.4080564418273247 0.34368885170405422 0 -0.40895905381070002 0.33957121871677393 0 -0.4080564418273247 0.34368885170405422 0 -0.41125860555200922 0.34134685969384471 0 -0.41366919887348358 0.34576378073699821 0 -0.41125860555200922 0.34134685969384471 0 -0.41273643032526569 0.33662953043248711 0 -0.41433336845197538 0.3415594658204692 0 -0.41125860555200922 0.34134685969384471 0 -0.41433336845197538 0.3415594658204692 0 -0.41366919887348358 0.34576378073699821 0 -0.41125860555200922 0.34134685969384471 0 -0.41273643032526569 0.33662953043248711 0 -0.40895905381070002 0.33957121871677393 0 -0.41273643032526569 0.33662953043248711 0 -0.40777024278950652 0.33697950655941222 0 -0.41273643032526569 0.33662953043248711 0 -0.40895905381070002 0.33957121871677393 0 -0.40777024278950652 0.33697950655941222 0 -0.41273643032526569 0.33662953043248711 0 -0.40777024278950652 0.33697950655941222 0 -0.40925887999808552 0.33516025262174892 0 -0.40777024278950652 0.33697950655941222 0 -0.40925887999808552 0.33516025262174892 0 -0.40586906590548888 0.3393029225754271 0 -0.40895905381070002 0.33957121871677393 0 -0.40777024278950652 0.33697950655941222 0 -0.40586906590548888 0.3393029225754271 0 -0.40777024278950652 0.33697950655941222 0 -0.41273643032526569 0.33662953043248711 0 -0.40925887999808552 0.33516025262174892 0 -0.40925887999808552 0.33516025262174892 0 -0.42024067891477529 0.32173946694831868 0 -0.40925887999808552 0.33516025262174892 0 -0.42071708592719742 0.33131558094746122 0 -0.42024067891477529 0.32173946694831868 0 -0.41273643032526569 0.33662953043248711 0 -0.40925887999808552 0.33516025262174892 0 -0.42071708592719742 0.33131558094746122 0 -0.41273643032526569 0.33662953043248711 0 -0.4199209072431685 0.34318781838679219 0 -0.41433336845197538 0.3415594658204692 0 -0.4199209072431685 0.34318781838679219 0 -0.41433336845197538 0.3415594658204692 0 -0.41366919887348358 0.34576378073699821 0 -0.40925887999808552 0.33516025262174892 0 -0.41892768793075841 0.31754462100172592 0 -0.42141481873501418 0.31567829233095179 0 -0.40925887999808552 0.33516025262174892 0 -0.411263050936583 0.31954773430139438 0 -0.41892768793075841 0.31754462100172592 0 -0.40925887999808552 0.33516025262174892 0 -0.42141481873501418 0.31567829233095179 0 -0.40925887999808552 0.33516025262174892 0 -0.42024067891477529 0.32173946694831868 0 -0.42141481873501418 0.31567829233095179 0 -0.411263050936583 0.31954773430139438 0 -0.40826549608127172 0.31275764886218971 0 -0.41647318301620623 0.31168328686166002 0 -0.4039094095666334 0.320812311378052 0 -0.411263050936583 0.31954773430139438 0 -0.40826549608127172 0.31275764886218971 0 -0.4039094095666334 0.320812311378052 0 -0.40925887999808552 0.33516025262174892 0 -0.411263050936583 0.31954773430139438 0 -0.411263050936583 0.31954773430139438 0 -0.41892768793075841 0.31754462100172592 0 -0.41647318301620623 0.31168328686166002 0 -0.41892768793075841 0.31754462100172592 0 -0.42141481873501418 0.31567829233095179 0 -0.41892768793075841 0.31754462100172592 0 -0.42141481873501418 0.31567829233095179 0 -0.41647318301620623 0.31168328686166002 0 -0.42024067891477529 0.32173946694831868 0 -0.43790895006943947 0.32081412042189511 0 -0.43122247783146522 0.30831868127488848 0 -0.42024067891477529 0.32173946694831868 0 -0.42938605365092247 0.3272194948190838 0 -0.43790895006943947 0.32081412042189511 0 -0.42024067891477529 0.32173946694831868 0 -0.42141481873501418 0.31567829233095179 0 -0.43122247783146522 0.30831868127488848 0 -0.42024067891477529 0.32173946694831868 0 -0.43122247783146522 0.30831868127488848 0 -0.42071708592719742 0.33131558094746122 0 -0.42024067891477529 0.32173946694831868 0 -0.42938605365092247 0.3272194948190838 0 -0.42938605365092247 0.3272194948190838 0 -0.43674098495811231 0.33493788649063261 0 -0.43790895006943947 0.32081412042189511 0 -0.43790895006943947 0.32081412042189511 0 -0.4401847358662575 0.3127477530096977 0 -0.43122247783146522 0.30831868127488848 0 -0.41273643032526569 0.33662953043248711 0 -0.43674098495811231 0.33493788649063261 0 -0.42071708592719742 0.33131558094746122 0 -0.42938605365092247 0.3272194948190838 0 -0.43674098495811231 0.33493788649063261 0 -0.41273643032526569 0.33662953043248711 0 -0.4199209072431685 0.34318781838679219 0 -0.43385085243219867 0.34555045147446217 0 -0.41273643032526569 0.33662953043248711 0 -0.42071708592719742 0.33131558094746122 0 -0.43674098495811231 0.33493788649063261 0 -0.41273643032526569 0.33662953043248711 0 -0.43385085243219867 0.34555045147446217 0 -0.41273643032526569 0.33662953043248711 0 -0.43674098495811231 0.33493788649063261 0 -0.43385085243219867 0.34555045147446217 0 -0.43385085243219867 0.34555045147446217 0 -0.4302486007270056 0.35272204188882378 0 -0.42573384958437638 0.34916959158482058 0 -0.43385085243219867 0.34555045147446217 0 -0.43539550265875948 0.35741731211322858 0 -0.44110397924445488 0.35756373905142852 0 -0.43539550265875948 0.35741731211322858 0 -0.4302486007270056 0.35272204188882378 0 -0.42757171946388478 0.35850981688022993 0 -0.43385085243219867 0.34555045147446217 0 -0.43539550265875948 0.35741731211322858 0 -0.4302486007270056 0.35272204188882378 0 -0.4302486007270056 0.35272204188882378 0 -0.42480748600639012 0.35482075793933809 0 -0.42573384958437638 0.34916959158482058 0 -0.4302486007270056 0.35272204188882378 0 -0.42757171946388478 0.35850981688022993 0 -0.42480748600639012 0.35482075793933809 0 -0.42757171946388478 0.35850981688022993 0 -0.42480748600639012 0.35482075793933809 0 -0.42195212413097077 0.36043988011418487 0 -0.4199209072431685 0.34318781838679219 0 -0.43385085243219867 0.34555045147446217 0 -0.42573384958437638 0.34916959158482058 0 -0.42480748600639012 0.35482075793933809 0 -0.42573384958437638 0.34916959158482058 0 -0.41984140151311927 0.3495668882346864 0 -0.4199209072431685 0.34318781838679219 0 -0.42573384958437638 0.34916959158482058 0 -0.41984140151311927 0.3495668882346864 0 -0.4199209072431685 0.34318781838679219 0 -0.41984140151311927 0.3495668882346864 0 -0.41366919887348358 0.34576378073699821 0 -0.41984140151311927 0.3495668882346864 0 -0.41366919887348358 0.34576378073699821 0 -0.41404230344944593 0.35073751764187411 0 -0.42480748600639012 0.35482075793933809 0 -0.41984140151311927 0.3495668882346864 0 -0.41755863725870102 0.35684421707679032 0 -0.42480748600639012 0.35482075793933809 0 -0.41755863725870102 0.35684421707679032 0 -0.42195212413097077 0.36043988011418487 0 -0.41984140151311927 0.3495668882346864 0 -0.41755863725870102 0.35684421707679032 0 -0.41404230344944593 0.35073751764187411 0 -0.41755863725870102 0.35684421707679032 0 -0.41125051028190041 0.35540848222164118 0 -0.41404230344944593 0.35073751764187411 0 -0.41125051028190041 0.35540848222164118 0 -0.40888688292129022 0.34941903462410451 0 -0.41404230344944593 0.35073751764187411 0 -0.41755863725870102 0.35684421707679032 0 -0.41125051028190041 0.35540848222164118 0 -0.41142088061722581 0.36176204086772412 0 -0.40553625032349627 0.36037170931698131 0 -0.41125051028190041 0.35540848222164118 0 -0.41142088061722581 0.36176204086772412 0 -0.40525205349158999 0.35429039595711992 0 -0.40553625032349627 0.36037170931698131 0 -0.41125051028190041 0.35540848222164118 0 -0.40525205349158999 0.35429039595711992 0 -0.41125051028190041 0.35540848222164118 0 -0.40888688292129022 0.34941903462410451 0 -0.4080564418273247 0.34368885170405422 0 -0.40888688292129022 0.34941903462410451 0 -0.41366919887348358 0.34576378073699821 0 -0.40888688292129022 0.34941903462410451 0 -0.41366919887348358 0.34576378073699821 0 -0.41404230344944593 0.35073751764187411 0 -0.4250431626101242 0.37647010748543319 0 -0.40086489287733429 0.37467411733839928 0 -0.42486892241442098 0.36677785020884007 0 -0.40086489287733429 0.37467411733839928 0 -0.42486892241442098 0.36677785020884007 0 -0.40086489287733429 0.37467411733839928 0 -0.41378193274770297 0.36450427419225789 0 -0.42486892241442098 0.36677785020884007 0 -0.40544017780568847 0.3661562974108753 0 -0.40086489287733429 0.37467411733839928 0 -0.41378193274770297 0.36450427419225789 0 -0.40544017780568847 0.3661562974108753 0 -0.41142088061722581 0.36176204086772412 0 -0.41378193274770297 0.36450427419225789 0 -0.40553625032349627 0.36037170931698131 0 -0.40544017780568847 0.3661562974108753 0 -0.41142088061722581 0.36176204086772412 0 -0.41755863725870102 0.35684421707679032 0 -0.41378193274770297 0.36450427419225789 0 -0.42195212413097077 0.36043988011418487 0 -0.41378193274770297 0.36450427419225789 0 -0.42486892241442098 0.36677785020884007 0 -0.42195212413097077 0.36043988011418487 0 -0.41755863725870102 0.35684421707679032 0 -0.41142088061722581 0.36176204086772412 0 -0.41378193274770297 0.36450427419225789 0 -0.4250431626101242 0.37647010748543319 0 -0.44885864134335329 0.37135067543599282 0 -0.4250431626101242 0.37647010748543319 0 -0.42486892241442098 0.36677785020884007 0 -0.44885864134335329 0.37135067543599282 0 -0.42486892241442098 0.36677785020884007 0 -0.448872951951507 0.35888158307927881 0 -0.43539550265875948 0.35741731211322858 0 -0.42486892241442098 0.36677785020884007 0 -0.44110397924445488 0.35756373905142852 0 -0.43539550265875948 0.35741731211322858 0 -0.42757171946388478 0.35850981688022993 0 -0.42486892241442098 0.36677785020884007 0 -0.42757171946388478 0.35850981688022993 0 -0.42486892241442098 0.36677785020884007 0 -0.42195212413097077 0.36043988011418487 0 -0.42486892241442098 0.36677785020884007 0 -0.44885864134335329 0.37135067543599282 0 -0.448872951951507 0.35888158307927881 0 -0.44802713623065987 0.37645115623263098 0 -0.4250431626101242 0.37647010748543319 0 -0.44885864134335329 0.37135067543599282 0 -0.42486892241442098 0.36677785020884007 0 -0.44110397924445488 0.35756373905142852 0 -0.448872951951507 0.35888158307927881 0 -0.44885864134335329 0.37135067543599282 0 -0.448872951951507 0.35888158307927881 0 -0.44885864134335329 0.37135067543599282 0 -0.448872951951507 0.35888158307927881 0 -0.45634368000688869 0.36512471152292858 0 -0.43385085243219867 0.34555045147446217 0 -0.45496527453913199 0.35447137251643651 0 -0.44889299330712729 0.34242966823447613 0 -0.43385085243219867 0.34555045147446217 0 -0.45496527453913199 0.35447137251643651 0 -0.43385085243219867 0.34555045147446217 0 -0.44887533288597797 0.35680703170406669 0 -0.45496527453913199 0.35447137251643651 0 -0.43385085243219867 0.34555045147446217 0 -0.44110397924445488 0.35756373905142852 0 -0.44887533288597797 0.35680703170406669 0 -0.44110397924445488 0.35756373905142852 0 -0.44887533288597797 0.35680703170406669 0 -0.448872951951507 0.35888158307927881 0 -0.44887533288597797 0.35680703170406669 0 -0.448872951951507 0.35888158307927881 0 -0.44887533288597797 0.35680703170406669 0 -0.448872951951507 0.35888158307927881 0 -0.45496527453913199 0.35447137251643651 0 -0.448872951951507 0.35888158307927881 0 -0.45496527453913199 0.35447137251643651 0 -0.47186707529616939 0.3513175305497272 0 -0.448872951951507 0.35888158307927881 0 -0.47186707529616939 0.3513175305497272 0 -0.448872951951507 0.35888158307927881 0 -0.45634368000688869 0.36512471152292858 0 -0.47186707529616939 0.3513175305497272 0 -0.45911772068334677 0.34536620346235469 0 -0.45496527453913199 0.35447137251643651 0 -0.47186707529616939 0.3513175305497272 0 -0.45911772068334677 0.34536620346235469 0 -0.45496527453913199 0.35447137251643651 0 -0.44889299330712729 0.34242966823447613 0 -0.46572599417265398 0.36772482908493609 0 -0.45634368000688869 0.36512471152292858 0 -0.47186707529616939 0.3513175305497272 0 -0.46059005399087027 0.38292215568240928 0 -0.44885864134335329 0.37135067543599282 0 -0.46572599417265398 0.36772482908493609 0 -0.44885864134335329 0.37135067543599282 0 -0.46572599417265398 0.36772482908493609 0 -0.44885864134335329 0.37135067543599282 0 -0.46572599417265398 0.36772482908493609 0 -0.45634368000688869 0.36512471152292858 0 -0.47832653283541199 0.38608194873200979 0 -0.46572599417265398 0.36772482908493609 0 -0.48259334700195489 0.36409898273387958 0 -0.46572599417265398 0.36772482908493609 0 -0.48259334700195489 0.36409898273387958 0 -0.47186707529616939 0.3513175305497272 0 -0.46572599417265398 0.36772482908493609 0 -0.48259334700195489 0.36409898273387958 0 -0.47186707529616939 0.3513175305497272 0 -0.494861198640831 0.34375347802017348 0 -0.47186707529616939 0.3513175305497272 0 -0.48536711719674469 0.35339641184703091 0 -0.494861198640831 0.34375347802017348 0 -0.48259334700195489 0.36409898273387958 0 -0.47186707529616939 0.3513175305497272 0 -0.48536711719674469 0.35339641184703091 0 -0.48259334700195489 0.36409898273387958 0 -0.49214684784802371 0.35441565608434311 0 -0.48536711719674469 0.35339641184703091 0 -0.49214684784802371 0.35441565608434311 0 -0.5 0.36887446842263683 0 -0.5 0.34271985673358363 0 -0.49214684784802371 0.35441565608434311 0 -0.48536711719674469 0.35339641184703091 0 -0.494861198640831 0.34375347802017348 0 -0.49214684784802371 0.35441565608434311 0 -0.494861198640831 0.34375347802017348 0 -0.5 0.34271985673358363 0 -0.48850556386005051 0.3766603246979251 0 -0.48259334700195489 0.36409898273387958 0 -0.5 0.36887446842263683 0 -0.48259334700195489 0.36409898273387958 0 -0.49214684784802371 0.35441565608434311 0 -0.5 0.36887446842263683 0 -0.485708092488497 0.3189911195031831 0 -0.5 0.31656524504453032 0 -0.48475009422380527 0.3315545986069256 0 -0.485708092488497 0.3189911195031831 0 -0.5 0.31656524504453032 0 -0.48583489694974541 0.30845327583860088 0 -0.5 0.31656524504453032 0 -0.5 0.34271985673358363 0 -0.48475009422380527 0.3315545986069256 0 -0.494861198640831 0.34375347802017348 0 -0.5 0.34271985673358363 0 -0.48475009422380527 0.3315545986069256 0 -0.48475009422380527 0.3315545986069256 0 -0.46074553959095882 0.3332462425487791 0 -0.47186707529616939 0.3513175305497272 0 -0.494861198640831 0.34375347802017348 0 -0.48475009422380527 0.3315545986069256 0 -0.47186707529616939 0.3513175305497272 0 -0.48475009422380527 0.3315545986069256 0 -0.46074553959095882 0.3332462425487791 0 -0.48475009422380527 0.3315545986069256 0 -0.47224737878043732 0.31939135852267558 0 -0.46074553959095882 0.3332462425487791 0 -0.485708092488497 0.3189911195031831 0 -0.48475009422380527 0.3315545986069256 0 -0.47224737878043732 0.31939135852267558 0 -0.485708092488497 0.3189911195031831 0 -0.47224737878043732 0.31939135852267558 0 -0.48583489694974541 0.30845327583860088 0 -0.47224737878043732 0.31939135852267558 0 -0.46258830912673421 0.31343425170936878 0 -0.46074553959095882 0.3332462425487791 0 -0.46258830912673421 0.31343425170936878 0 -0.46074553959095882 0.3332462425487791 0 -0.45107709460752138 0.31557533431346357 0 -0.45911772068334677 0.34536620346235469 0 -0.47186707529616939 0.3513175305497272 0 -0.46074553959095882 0.3332462425487791 0 -0.45911772068334677 0.34536620346235469 0 -0.46074553959095882 0.3332462425487791 0 -0.44889299330712729 0.34242966823447613 0 -0.43674098495811231 0.33493788649063261 0 -0.46074553959095882 0.3332462425487791 0 -0.43674098495811231 0.33493788649063261 0 -0.46074553959095882 0.3332462425487791 0 -0.44889299330712729 0.34242966823447613 0 -0.43674098495811231 0.33493788649063261 0 -0.46074553959095882 0.3332462425487791 0 -0.43790895006943947 0.32081412042189511 0 -0.43674098495811231 0.33493788649063261 0 -0.43385085243219867 0.34555045147446217 0 -0.44889299330712729 0.34242966823447613 0 -0.46074553959095882 0.3332462425487791 0 -0.45107709460752138 0.31557533431346357 0 -0.43790895006943947 0.32081412042189511 0 -0.45107709460752138 0.31557533431346357 0 -0.43790895006943947 0.32081412042189511 0 -0.4401847358662575 0.3127477530096977 0 -0.44444415583193408 0.29216055381020578 0 -0.43122247783146522 0.30831868127488848 0 -0.44810052680614793 0.29565349026271098 0 -0.43122247783146522 0.30831868127488848 0 -0.44368336155109173 0.30649675881006838 0 -0.44810052680614793 0.29565349026271098 0 -0.43122247783146522 0.30831868127488848 0 -0.4401847358662575 0.3127477530096977 0 -0.44368336155109173 0.30649675881006838 0 -0.43122247783146522 0.30831868127488848 0 -0.44444415583193408 0.29216055381020578 0 -0.44810052680614793 0.29565349026271098 0 -0.43122247783146522 0.30831868127488848 0 -0.45107709460752138 0.31557533431346357 0 -0.4401847358662575 0.3127477530096977 0 -0.44368336155109173 0.30649675881006838 0 -0.44368336155109173 0.30649675881006838 0 -0.44996115485610377 0.3015940899144034 0 -0.4551770389262465 0.30483297142504889 0 -0.44368336155109173 0.30649675881006838 0 -0.44996115485610377 0.3015940899144034 0 -0.44810052680614793 0.29565349026271098 0 -0.45288369214092922 0.29939313915978533 0 -0.44996115485610377 0.3015940899144034 0 -0.44810052680614793 0.29565349026271098 0 -0.45288369214092922 0.29939313915978533 0 -0.44996115485610377 0.3015940899144034 0 -0.4551770389262465 0.30483297142504889 0 -0.45107709460752138 0.31557533431346357 0 -0.44368336155109173 0.30649675881006838 0 -0.4551770389262465 0.30483297142504889 0 -0.44702735364695217 0.27675533545947301 0 -0.43422108619098299 0.29621681389521232 0 -0.44444415583193408 0.29216055381020578 0 -0.44702735364695217 0.27675533545947301 0 -0.43422108619098299 0.29621681389521232 0 -0.44702735364695217 0.27675533545947301 0 -0.43274811138672559 0.28469846643612018 0 -0.43422108619098299 0.29621681389521232 0 -0.44810052680614793 0.29565349026271098 0 -0.4493542421043164 0.28919027156790111 0 -0.45395006383388498 0.28587005882998617 0 -0.44444415583193408 0.29216055381020578 0 -0.44810052680614793 0.29565349026271098 0 -0.4493542421043164 0.28919027156790111 0 -0.44444415583193408 0.29216055381020578 0 -0.4493542421043164 0.28919027156790111 0 -0.44702735364695217 0.27675533545947301 0 -0.4493542421043164 0.28919027156790111 0 -0.45395006383388498 0.28587005882998617 0 -0.44702735364695217 0.27675533545947301 0 -0.44810052680614793 0.29565349026271098 0 -0.45395006383388498 0.28587005882998617 0 -0.46497857578083068 0.28298829925053381 0 -0.44810052680614793 0.29565349026271098 0 -0.4593999708052337 0.29480301670676529 0 -0.46497857578083068 0.28298829925053381 0 -0.44810052680614793 0.29565349026271098 0 -0.46497857578083068 0.28298829925053381 0 -0.45288369214092922 0.29939313915978533 0 -0.44810052680614793 0.29565349026271098 0 -0.4593999708052337 0.29480301670676529 0 -0.4593999708052337 0.29480301670676529 0 -0.46827174088950307 0.29409138505043392 0 -0.46497857578083068 0.28298829925053381 0 -0.46258830912673421 0.31343425170936878 0 -0.45107709460752138 0.31557533431346357 0 -0.4551770389262465 0.30483297142504889 0 -0.45288369214092922 0.29939313915978533 0 -0.4593999708052337 0.29480301670676529 0 -0.4551770389262465 0.30483297142504889 0 -0.4593999708052337 0.29480301670676529 0 -0.4551770389262465 0.30483297142504889 0 -0.46625021185001803 0.30380681263807602 0 -0.4593999708052337 0.29480301670676529 0 -0.46827174088950307 0.29409138505043392 0 -0.46625021185001803 0.30380681263807602 0 -0.47224737878043732 0.31939135852267558 0 -0.46258830912673421 0.31343425170936878 0 -0.46625021185001803 0.30380681263807602 0 -0.46258830912673421 0.31343425170936878 0 -0.4551770389262465 0.30483297142504889 0 -0.46625021185001803 0.30380681263807602 0 -0.47551717359816043 0.30301602212345602 0 -0.4769183937012712 0.29196404103452073 0 -0.48583489694974541 0.30845327583860088 0 -0.47224737878043732 0.31939135852267558 0 -0.46625021185001803 0.30380681263807602 0 -0.47551717359816043 0.30301602212345602 0 -0.47224737878043732 0.31939135852267558 0 -0.47551717359816043 0.30301602212345602 0 -0.48583489694974541 0.30845327583860088 0 -0.46827174088950307 0.29409138505043392 0 -0.46625021185001803 0.30380681263807602 0 -0.47551717359816043 0.30301602212345602 0 -0.46827174088950307 0.29409138505043392 0 -0.46497857578083068 0.28298829925053381 0 -0.4769183937012712 0.29196404103452073 0 -0.4769183937012712 0.29196404103452073 0 -0.48757792524538679 0.2814999319082685 0 -0.48583489694974541 0.30845327583860088 0 -0.46827174088950307 0.29409138505043392 0 -0.47551717359816043 0.30301602212345602 0 -0.4769183937012712 0.29196404103452073 0 -0.46497857578083068 0.28298829925053381 0 -0.47783287987075052 0.28169384510791978 0 -0.4769183937012712 0.29196404103452073 0 -0.47783287987075052 0.28169384510791978 0 -0.4769183937012712 0.29196404103452073 0 -0.48757792524538679 0.2814999319082685 0 -0.5 0.29041063335547701 0 -0.48757792524538679 0.2814999319082685 0 -0.48583489694974541 0.30845327583860088 0 -0.48757792524538679 0.2814999319082685 0 -0.48583489694974541 0.30845327583860088 0 -0.5 0.31656524504453032 0 -0.5 0.29041063335547701 0 -0.48583489694974541 0.30845327583860088 0 -0.5 0.23810140997737081 0 -0.5 0.26425602166642381 0 -0.48932095354102823 0.25454658797793611 0 -0.48757792524538679 0.2814999319082685 0 -0.48932095354102823 0.25454658797793611 0 -0.48366697684514259 0.26703881783025729 0 -0.48757792524538679 0.2814999319082685 0 -0.5 0.26425602166642381 0 -0.48932095354102823 0.25454658797793611 0 -0.48757792524538679 0.2814999319082685 0 -0.48932095354102823 0.25454658797793611 0 -0.5 0.29041063335547701 0 -0.48757792524538679 0.2814999319082685 0 -0.5 0.26425602166642381 0 -0.46497857578083068 0.28298829925053381 0 -0.48185662475551339 0.27032310823835648 0 -0.46497857578083068 0.28298829925053381 0 -0.47783287987075052 0.28169384510791978 0 -0.48185662475551339 0.27032310823835648 0 -0.48366697684514259 0.26703881783025729 0 -0.45893043448094739 0.2699305570534084 0 -0.48757792524538679 0.2814999319082685 0 -0.48366697684514259 0.26703881783025729 0 -0.48185662475551339 0.27032310823835648 0 -0.48366697684514259 0.26703881783025729 0 -0.48185662475551339 0.27032310823835648 0 -0.47235815296560851 0.27257019559313889 0 -0.46497857578083068 0.28298829925053381 0 -0.48185662475551339 0.27032310823835648 0 -0.47235815296560851 0.27257019559313889 0 -0.48366697684514259 0.26703881783025729 0 -0.46959483388743167 0.25994315597580908 0 -0.45893043448094739 0.2699305570534084 0 -0.48366697684514259 0.26703881783025729 0 -0.47235815296560851 0.27257019559313889 0 -0.45893043448094739 0.2699305570534084 0 -0.47783287987075052 0.28169384510791978 0 -0.48757792524538679 0.2814999319082685 0 -0.48185662475551339 0.27032310823835648 0 -0.48932095354102823 0.25454658797793611 0 -0.48366697684514259 0.26703881783025729 0 -0.47792533453874358 0.25606878273296479 0 -0.48366697684514259 0.26703881783025729 0 -0.46959483388743167 0.25994315597580908 0 -0.47792533453874358 0.25606878273296479 0 -0.47864167104372218 0.246590621409366 0 -0.48932095354102823 0.25454658797793611 0 -0.47792533453874358 0.25606878273296479 0 -0.47864167104372218 0.246590621409366 0 -0.47792533453874358 0.25606878273296479 0 -0.46938038244821267 0.25133041049185839 0 -0.46959483388743167 0.25994315597580908 0 -0.47792533453874358 0.25606878273296479 0 -0.46938038244821267 0.25133041049185839 0 -0.46959483388743167 0.25994315597580908 0 -0.46938038244821267 0.25133041049185839 0 -0.45807104112411212 0.25534721177055669 0 -0.46959483388743167 0.25994315597580908 0 -0.45807104112411212 0.25534721177055669 0 -0.45893043448094739 0.2699305570534084 0 -0.45807104112411212 0.25534721177055669 0 -0.45893043448094739 0.2699305570534084 0 -0.44442574262614493 0.25832327296872359 0 -0.45395006383388498 0.28587005882998617 0 -0.46497857578083068 0.28298829925053381 0 -0.45893043448094739 0.2699305570534084 0 -0.45395006383388498 0.28587005882998617 0 -0.45893043448094739 0.2699305570534084 0 -0.44702735364695217 0.27675533545947301 0 -0.46497857578083068 0.28298829925053381 0 -0.47235815296560851 0.27257019559313889 0 -0.45893043448094739 0.2699305570534084 0 -0.45893043448094739 0.2699305570534084 0 -0.43419389211675241 0.27282229627655952 0 -0.45893043448094739 0.2699305570534084 0 -0.44442574262614493 0.25832327296872359 0 -0.43419389211675241 0.27282229627655952 0 -0.45893043448094739 0.2699305570534084 0 -0.44702735364695217 0.27675533545947301 0 -0.43419389211675241 0.27282229627655952 0 -0.44702735364695217 0.27675533545947301 0 -0.43419389211675241 0.27282229627655952 0 -0.43274811138672559 0.28469846643612018 0 -0.45046339488490522 0.249057113070103 0 -0.45807104112411212 0.25534721177055669 0 -0.44442574262614493 0.25832327296872359 0 -0.44062222049055039 0.24203477259657111 0 -0.44442574262614493 0.25832327296872359 0 -0.42503978512155383 0.25887440404814072 0 -0.44062222049055039 0.24203477259657111 0 -0.42503978512155383 0.25887440404814072 0 -0.44442574262614493 0.25832327296872359 0 -0.42503978512155383 0.25887440404814072 0 -0.43419389211675241 0.27282229627655952 0 -0.42503978512155383 0.25887440404814072 0 -0.40945734975255721 0.27571403549971041 0 -0.40585136056822319 0.25674789398696107 0 -0.4198454647722451 0.23985190764030939 0 -0.42503978512155383 0.25887440404814072 0 -0.40585136056822319 0.25674789398696107 0 -0.40945734975255721 0.27571403549971041 0 -0.43419389211675241 0.27282229627655952 0 -0.42503978512155383 0.25887440404814072 0 -0.40945734975255721 0.27571403549971041 0 -0.42503978512155383 0.25887440404814072 0 -0.40945734975255721 0.27571403549971041 0 -0.43419389211675241 0.27282229627655952 0 -0.40945734975255721 0.27571403549971041 0 -0.43419389211675241 0.27282229627655952 0 -0.4229835889384117 0.28415291652507912 0 -0.43419389211675241 0.27282229627655952 0 -0.43274811138672559 0.28469846643612018 0 -0.4229835889384117 0.28415291652507912 0 -0.43274811138672559 0.28469846643612018 0 -0.43422108619098299 0.29621681389521232 0 -0.42519236151645012 0.29288975242762622 0 -0.43274811138672559 0.28469846643612018 0 -0.42519236151645012 0.29288975242762622 0 -0.4229835889384117 0.28415291652507912 0 -0.42141481873501418 0.31567829233095179 0 -0.43422108619098299 0.29621681389521232 0 -0.42141481873501418 0.31567829233095179 0 -0.43422108619098299 0.29621681389521232 0 -0.42237726971740519 0.30236741203524931 0 -0.44444415583193408 0.29216055381020578 0 -0.43422108619098299 0.29621681389521232 0 -0.43122247783146522 0.30831868127488848 0 -0.42141481873501418 0.31567829233095179 0 -0.43422108619098299 0.29621681389521232 0 -0.43122247783146522 0.30831868127488848 0 -0.43422108619098299 0.29621681389521232 0 -0.42519236151645012 0.29288975242762622 0 -0.42237726971740519 0.30236741203524931 0 -0.42141481873501418 0.31567829233095179 0 -0.43122247783146522 0.30831868127488848 0 -0.42237726971740519 0.30236741203524931 0 -0.41647318301620623 0.31168328686166002 0 -0.40812109447663159 0.30329838776079099 0 -0.42141481873501418 0.31567829233095179 0 -0.42237726971740519 0.30236741203524931 0 -0.41647318301620623 0.31168328686166002 0 -0.42237726971740519 0.30236741203524931 0 -0.40812109447663159 0.30329838776079099 0 -0.41256551749876041 0.29129965580367562 0 -0.40826549608127172 0.31275764886218971 0 -0.41647318301620623 0.31168328686166002 0 -0.40812109447663159 0.30329838776079099 0 -0.40945734975255721 0.27571403549971041 0 -0.4229835889384117 0.28415291652507912 0 -0.41256551749876041 0.29129965580367562 0 -0.42519236151645012 0.29288975242762622 0 -0.4229835889384117 0.28415291652507912 0 -0.41256551749876041 0.29129965580367562 0 -0.42519236151645012 0.29288975242762622 0 -0.42237726971740519 0.30236741203524931 0 -0.41256551749876041 0.29129965580367562 0 -0.40945734975255721 0.27571403549971041 0 -0.39180528154043992 0.29479027846244049 0 -0.39350738277932218 0.27757861076756318 0 -0.40945734975255721 0.27571403549971041 0 -0.39180528154043992 0.29479027846244049 0 -0.40812109447663159 0.30329838776079099 0 -0.41256551749876041 0.29129965580367562 0 -0.39180528154043992 0.29479027846244049 0 -0.40945734975255721 0.27571403549971041 0 -0.41256551749876041 0.29129965580367562 0 -0.39180528154043992 0.29479027846244049 0 -0.38613629988198012 0.31665983269396758 0 -0.39830358576524327 0.31266849694114901 0 -0.39180528154043992 0.29479027846244049 0 -0.39830358576524327 0.31266849694114901 0 -0.40812109447663159 0.30329838776079099 0 -0.39180528154043992 0.29479027846244049 0 -0.39830358576524327 0.31266849694114901 0 -0.40826549608127172 0.31275764886218971 0 -0.40812109447663159 0.30329838776079099 0 -0.39180528154043992 0.29479027846244049 0 -0.37819889022761238 0.29924868842846319 0 -0.37415321332832258 0.31386652142517069 0 -0.38613629988198012 0.31665983269396758 0 -0.39180528154043992 0.29479027846244049 0 -0.37415321332832258 0.31386652142517069 0 -0.39180528154043992 0.29479027846244049 0 -0.37415321332832258 0.31386652142517069 0 -0.39180528154043992 0.29479027846244049 0 -0.37819889022761238 0.29924868842846319 0 -0.37870614451813112 0.28175948497688769 0 -0.39180528154043992 0.29479027846244049 0 -0.37870614451813112 0.28175948497688769 0 -0.39350738277932218 0.27757861076756318 0 -0.37870614451813112 0.28175948497688769 0 -0.37647038179830861 0.26645711442365799 0 -0.39350738277932218 0.27757861076756318 0 -0.37647038179830861 0.26645711442365799 0 -0.39336972403141229 0.26369738761855421 0 -0.39350738277932218 0.27757861076756318 0 -0.38790582398472923 0.24962922847932231 0 -0.37647038179830861 0.26645711442365799 0 -0.39336972403141229 0.26369738761855421 0 -0.38790582398472923 0.24962922847932231 0 -0.37647038179830861 0.26645711442365799 0 -0.36318679658289171 0.25196182354824148 0 -0.40945734975255721 0.27571403549971041 0 -0.40585136056822319 0.25674789398696107 0 -0.39336972403141229 0.26369738761855421 0 -0.38790582398472923 0.24962922847932231 0 -0.40585136056822319 0.25674789398696107 0 -0.39336972403141229 0.26369738761855421 0 -0.40945734975255721 0.27571403549971041 0 -0.39336972403141229 0.26369738761855421 0 -0.39350738277932218 0.27757861076756318 0 -0.40945734975255721 0.27571403549971041 0 -0.39350738277932218 0.27757861076756318 0 -0.35583614606747688 0.27501819518035592 0 -0.36318679658289171 0.25196182354824148 0 -0.33952374355129727 0.25899057541505788 0 -0.37647038179830861 0.26645711442365799 0 -0.35583614606747688 0.27501819518035592 0 -0.36318679658289171 0.25196182354824148 0 -0.37870614451813112 0.28175948497688769 0 -0.37647038179830861 0.26645711442365799 0 -0.35583614606747688 0.27501819518035592 0 -0.37819889022761238 0.29924868842846319 0 -0.37870614451813112 0.28175948497688769 0 -0.36775571630023218 0.2927315942663431 0 -0.37870614451813112 0.28175948497688769 0 -0.35583614606747688 0.27501819518035592 0 -0.36775571630023218 0.2927315942663431 0 -0.37819889022761238 0.29924868842846319 0 -0.36899777432263853 0.30469822459034263 0 -0.37415321332832258 0.31386652142517069 0 -0.36899777432263853 0.30469822459034263 0 -0.36272901898995358 0.31473918551029578 0 -0.37415321332832258 0.31386652142517069 0 -0.37819889022761238 0.29924868842846319 0 -0.36775571630023218 0.2927315942663431 0 -0.36899777432263853 0.30469822459034263 0 -0.36775571630023218 0.2927315942663431 0 -0.36899777432263853 0.30469822459034263 0 -0.35931620367806588 0.30475084950198522 0 -0.36775571630023218 0.2927315942663431 0 -0.35931620367806588 0.30475084950198522 0 -0.35261706249820868 0.29381533636168528 0 -0.36899777432263853 0.30469822459034263 0 -0.35931620367806588 0.30475084950198522 0 -0.36272901898995358 0.31473918551029578 0 -0.35931620367806588 0.30475084950198522 0 -0.35261706249820868 0.29381533636168528 0 -0.34344143829887858 0.30736403781452232 0 -0.35931620367806588 0.30475084950198522 0 -0.34344143829887858 0.30736403781452232 0 -0.35467675850453528 0.31743756764607989 0 -0.35931620367806588 0.30475084950198522 0 -0.35467675850453528 0.31743756764607989 0 -0.36272901898995358 0.31473918551029578 0 -0.35583614606747688 0.27501819518035592 0 -0.36775571630023218 0.2927315942663431 0 -0.35261706249820868 0.29381533636168528 0 -0.35583614606747688 0.27501819518035592 0 -0.35261706249820868 0.29381533636168528 0 -0.33673580814638959 0.28921200504521999 0 -0.35261706249820868 0.29381533636168528 0 -0.33673580814638959 0.28921200504521999 0 -0.34344143829887858 0.30736403781452232 0 -0.33673580814638959 0.28921200504521999 0 -0.32075162894010661 0.28280614760534989 0 -0.33379142081270979 0.2734424933293601 0 -0.34344143829887858 0.30736403781452232 0 -0.31699951866320542 0.30755322334125379 0 -0.34344143829887858 0.30736403781452232 0 -0.31699951866320542 0.30755322334125379 0 -0.33459812393413729 0.32207732583041709 0 -0.33673580814638959 0.28921200504521999 0 -0.34344143829887858 0.30736403781452232 0 -0.31699951866320542 0.30755322334125379 0 -0.33673580814638959 0.28921200504521999 0 -0.31699951866320542 0.30755322334125379 0 -0.32075162894010661 0.28280614760534989 0 -0.31699951866320542 0.30755322334125379 0 -0.32075162894010661 0.28280614760534989 0 -0.30493521127791462 0.28695781074044469 0 -0.32075162894010661 0.28280614760534989 0 -0.31931282352829687 0.26617321261290411 0 -0.33379142081270979 0.2734424933293601 0 -0.32075162894010661 0.28280614760534989 0 -0.31931282352829687 0.26617321261290411 0 -0.30493521127791462 0.28695781074044469 0 -0.35583614606747688 0.27501819518035592 0 -0.33673580814638959 0.28921200504521999 0 -0.33379142081270979 0.2734424933293601 0 -0.35583614606747688 0.27501819518035592 0 -0.33379142081270979 0.2734424933293601 0 -0.33952374355129727 0.25899057541505788 0 -0.31931282352829687 0.26617321261290411 0 -0.33379142081270979 0.2734424933293601 0 -0.33952374355129727 0.25899057541505788 0 -0.32200613725511351 0.24850726385495631 0 -0.31931282352829687 0.26617321261290411 0 -0.33952374355129727 0.25899057541505788 0 -0.32200613725511351 0.24850726385495631 0 -0.31931282352829687 0.26617321261290411 0 -0.30640548876467488 0.25787073169030861 0 -0.31931282352829687 0.26617321261290411 0 -0.30640548876467488 0.25787073169030861 0 -0.3010630097917536 0.27273037638764702 0 -0.31931282352829687 0.26617321261290411 0 -0.3010630097917536 0.27273037638764702 0 -0.30493521127791462 0.28695781074044469 0 -0.31931282352829687 0.26617321261290411 0 -0.30493521127791462 0.28695781074044469 0 -0.3010630097917536 0.27273037638764702 0 -0.29309283898050847 0.28048055459605348 0 -0.30493521127791462 0.28695781074044469 0 -0.3010630097917536 0.27273037638764702 0 -0.29309283898050847 0.28048055459605348 0 -0.28156868640737281 0.27216957229852412 0 -0.30640548876467488 0.25787073169030861 0 -0.3010630097917536 0.27273037638764702 0 -0.28156868640737281 0.27216957229852412 0 -0.30640548876467488 0.25787073169030861 0 -0.28156868640737281 0.27216957229852412 0 -0.28729818335365731 0.26780124082781631 0 -0.28156868640737281 0.27216957229852412 0 -0.28729818335365731 0.26780124082781631 0 -0.27880962639343299 0.26078065685839158 0 -0.29309283898050847 0.28048055459605348 0 -0.28156868640737281 0.27216957229852412 0 -0.28401529333418091 0.28255904946725641 0 -0.30640548876467488 0.25787073169030861 0 -0.28156868640737281 0.27216957229852412 0 -0.29125564533142001 0.24067530578368901 0 -0.30640548876467488 0.25787073169030861 0 -0.28729818335365731 0.26780124082781631 0 -0.29125564533142001 0.24067530578368901 0 -0.28729818335365731 0.26780124082781631 0 -0.27880962639343299 0.26078065685839158 0 -0.29125564533142001 0.24067530578368901 0 -0.28729818335365731 0.26780124082781631 0 -0.29125564533142001 0.24067530578368901 0 -0.26892213733164849 0.25365425058065472 0 -0.27880962639343299 0.26078065685839158 0 -0.26892213733164849 0.25365425058065472 0 -0.27880962639343299 0.26078065685839158 0 -0.26500347954306669 0.26960291480127369 0 -0.28156868640737281 0.27216957229852412 0 -0.25673188405007052 0.28646841290673969 0 -0.28156868640737281 0.27216957229852412 0 -0.26500347954306669 0.26960291480127369 0 -0.25673188405007052 0.28646841290673969 0 -0.28156868640737281 0.27216957229852412 0 -0.27880962639343299 0.26078065685839158 0 -0.26500347954306669 0.26960291480127369 0 -0.28156868640737281 0.27216957229852412 0 -0.27479408276187339 0.28687287199942368 0 -0.28401529333418091 0.28255904946725641 0 -0.26500347954306669 0.26960291480127369 0 -0.25265925142613249 0.26128234508680298 0 -0.25673188405007052 0.28646841290673969 0 -0.26892213733164849 0.25365425058065472 0 -0.26500347954306669 0.26960291480127369 0 -0.25265925142613249 0.26128234508680298 0 -0.25621817608628389 0.2460965770837312 0 -0.26892213733164849 0.25365425058065472 0 -0.25265925142613249 0.26128234508680298 0 -0.25505401324638421 0.30366623925853881 0 -0.26661761067819428 0.2958317928062858 0 -0.26721257633701828 0.30790943684761429 0 -0.25505401324638421 0.30366623925853881 0 -0.26721257633701828 0.30790943684761429 0 -0.25901197930261888 0.31383205914145501 0 -0.26721257633701828 0.30790943684761429 0 -0.25901197930261888 0.31383205914145501 0 -0.26528599585519008 0.31471464054907522 0 -0.25505401324638421 0.30366623925853881 0 -0.25901197930261888 0.31383205914145501 0 -0.24885494741763489 0.31718848033418301 0 -0.25505401324638421 0.30366623925853881 0 -0.25673188405007052 0.28646841290673969 0 -0.26661761067819428 0.2958317928062858 0 -0.26661761067819428 0.2958317928062858 0 -0.27573637841232751 0.29432500902679382 0 -0.27326763327687947 0.30016750757533939 0 -0.28156868640737281 0.27216957229852412 0 -0.25673188405007052 0.28646841290673969 0 -0.27479408276187339 0.28687287199942368 0 -0.26661761067819428 0.2958317928062858 0 -0.27479408276187339 0.28687287199942368 0 -0.27573637841232751 0.29432500902679382 0 -0.25673188405007052 0.28646841290673969 0 -0.26661761067819428 0.2958317928062858 0 -0.27479408276187339 0.28687287199942368 0 -0.27479408276187339 0.28687287199942368 0 -0.28401529333418091 0.28255904946725641 0 -0.28313816676434478 0.29069510378855717 0 -0.27479408276187339 0.28687287199942368 0 -0.27573637841232751 0.29432500902679382 0 -0.28313816676434478 0.29069510378855717 0 -0.27573637841232751 0.29432500902679382 0 -0.28086439858034518 0.29805776896436298 0 -0.28313816676434478 0.29069510378855717 0 -0.28086439858034518 0.29805776896436298 0 -0.27753065875984329 0.30327410754998058 0 -0.28274061889410179 0.30278083970340541 0 -0.27753065875984329 0.30327410754998058 0 -0.27514776209796898 0.30785266251660498 0 -0.28274061889410179 0.30278083970340541 0 -0.27753065875984329 0.30327410754998058 0 -0.27326763327687947 0.30016750757533939 0 -0.27348155140824082 0.30658246875079598 0 -0.28086439858034518 0.29805776896436298 0 -0.27753065875984329 0.30327410754998058 0 -0.27326763327687947 0.30016750757533939 0 -0.27573637841232751 0.29432500902679382 0 -0.28086439858034518 0.29805776896436298 0 -0.27326763327687947 0.30016750757533939 0 -0.26661761067819428 0.2958317928062858 0 -0.27326763327687947 0.30016750757533939 0 -0.26721257633701828 0.30790943684761429 0 -0.26721257633701828 0.30790943684761429 0 -0.27514776209796898 0.30785266251660498 0 -0.27123720609067609 0.3158529302113221 0 -0.26721257633701828 0.30790943684761429 0 -0.27348155140824082 0.30658246875079598 0 -0.27514776209796898 0.30785266251660498 0 -0.26721257633701828 0.30790943684761429 0 -0.27514776209796898 0.30785266251660498 0 -0.27326763327687947 0.30016750757533939 0 -0.26721257633701828 0.30790943684761429 0 -0.27348155140824082 0.30658246875079598 0 -0.27514776209796898 0.30785266251660498 0 -0.2851872012256097 0.31550597615259851 0 -0.27753065875984329 0.30327410754998058 0 -0.27348155140824082 0.30658246875079598 0 -0.27514776209796898 0.30785266251660498 0 -0.27348155140824082 0.30658246875079598 0 -0.27514776209796898 0.30785266251660498 0 -0.27514776209796898 0.30785266251660498 0 -0.2905575990275322 0.30774240886798532 0 -0.27514776209796898 0.30785266251660498 0 -0.2905575990275322 0.30774240886798532 0 -0.2851872012256097 0.31550597615259851 0 -0.2896026760048197 0.2969772506180926 0 -0.2905575990275322 0.30774240886798532 0 -0.30493521127791462 0.28695781074044469 0 -0.27514776209796898 0.30785266251660498 0 -0.28274061889410179 0.30278083970340541 0 -0.2905575990275322 0.30774240886798532 0 -0.2905575990275322 0.30774240886798532 0 -0.2851872012256097 0.31550597615259851 0 -0.28274061889410179 0.30278083970340541 0 -0.2896026760048197 0.2969772506180926 0 -0.2905575990275322 0.30774240886798532 0 -0.28086439858034518 0.29805776896436298 0 -0.28274061889410179 0.30278083970340541 0 -0.2896026760048197 0.2969772506180926 0 -0.28401529333418091 0.28255904946725641 0 -0.28313816676434478 0.29069510378855717 0 -0.29095683727235372 0.28753395384208091 0 -0.28086439858034518 0.29805776896436298 0 -0.2896026760048197 0.2969772506180926 0 -0.28313816676434478 0.29069510378855717 0 -0.2896026760048197 0.2969772506180926 0 -0.28313816676434478 0.29069510378855717 0 -0.29095683727235372 0.28753395384208091 0 -0.2896026760048197 0.2969772506180926 0 -0.29095683727235372 0.28753395384208091 0 -0.30493521127791462 0.28695781074044469 0 -0.29309283898050847 0.28048055459605348 0 -0.29095683727235372 0.28753395384208091 0 -0.30493521127791462 0.28695781074044469 0 -0.29309283898050847 0.28048055459605348 0 -0.28401529333418091 0.28255904946725641 0 -0.29095683727235372 0.28753395384208091 0 -0.31699951866320542 0.30755322334125379 0 -0.2905575990275322 0.30774240886798532 0 -0.30563014257680821 0.31779627416788381 0 -0.31699951866320542 0.30755322334125379 0 -0.2905575990275322 0.30774240886798532 0 -0.2905575990275322 0.30774240886798532 0 -0.30493521127791462 0.28695781074044469 0 -0.31699951866320542 0.30755322334125379 0 -0.2905575990275322 0.30774240886798532 0 -0.30493521127791462 0.28695781074044469 0 -0.30538608464820588 0.33090408634228141 0 -0.28942706780696309 0.31873813168532672 0 -0.30563014257680821 0.31779627416788381 0 -0.30538608464820588 0.33090408634228141 0 -0.31811651498789978 0.32488887006413791 0 -0.30563014257680821 0.31779627416788381 0 -0.30538608464820588 0.33090408634228141 0 -0.2937791937433501 0.31637108240395312 0 -0.30538608464820588 0.33090408634228141 0 -0.3017933608705089 0.344447887165377 0 -0.32134510148944728 0.34307004099923799 0 -0.30538608464820588 0.33090408634228141 0 -0.29093013722955491 0.33661105704622479 0 -0.3017933608705089 0.344447887165377 0 -0.30538608464820588 0.33090408634228141 0 -0.29093013722955491 0.33661105704622479 0 -0.2885751077852815 0.32830696870384862 0 -0.29093013722955491 0.33661105704622479 0 -0.28224162025157051 0.34582573333151501 0 -0.3017933608705089 0.344447887165377 0 -0.2885751077852815 0.32830696870384862 0 -0.28146834572906437 0.33465123959114113 0 -0.2790455690922089 0.3243844570517187 0 -0.29093013722955491 0.33661105704622479 0 -0.2885751077852815 0.32830696870384862 0 -0.28146834572906437 0.33465123959114113 0 -0.29093013722955491 0.33661105704622479 0 -0.28146834572906437 0.33465123959114113 0 -0.28224162025157051 0.34582573333151501 0 -0.30538608464820588 0.33090408634228141 0 -0.2885751077852815 0.32830696870384862 0 -0.28942706780696309 0.31873813168532672 0 -0.30538608464820588 0.33090408634228141 0 -0.28942706780696309 0.31873813168532672 0 -0.2937791937433501 0.31637108240395312 0 -0.28942706780696309 0.31873813168532672 0 -0.2937791937433501 0.31637108240395312 0 -0.2851872012256097 0.31550597615259851 0 -0.2905575990275322 0.30774240886798532 0 -0.30563014257680821 0.31779627416788381 0 -0.2937791937433501 0.31637108240395312 0 -0.2905575990275322 0.30774240886798532 0 -0.2937791937433501 0.31637108240395312 0 -0.2851872012256097 0.31550597615259851 0 -0.28942706780696309 0.31873813168532672 0 -0.2937791937433501 0.31637108240395312 0 -0.2885751077852815 0.32830696870384862 0 -0.28942706780696309 0.31873813168532672 0 -0.2790455690922089 0.3243844570517187 0 -0.28942706780696309 0.31873813168532672 0 -0.2790455690922089 0.3243844570517187 0 -0.2851872012256097 0.31550597615259851 0 -0.2790455690922089 0.3243844570517187 0 -0.28942706780696309 0.31873813168532672 0 -0.2851872012256097 0.31550597615259851 0 -0.2790455690922089 0.3243844570517187 0 -0.28942706780696309 0.31873813168532672 0 -0.2851872012256097 0.31550597615259851 0 -0.27514776209796898 0.30785266251660498 0 -0.2851872012256097 0.31550597615259851 0 -0.27699557949655113 0.31645322234696882 0 -0.2851872012256097 0.31550597615259851 0 -0.27699557949655113 0.31645322234696882 0 -0.2790455690922089 0.3243844570517187 0 -0.27514776209796898 0.30785266251660498 0 -0.27699557949655113 0.31645322234696882 0 -0.27123720609067609 0.3158529302113221 0 -0.27001263578126711 0.32263717043347712 0 -0.2790455690922089 0.3243844570517187 0 -0.25910260253645218 0.33523110656146687 0 -0.26721257633701828 0.30790943684761429 0 -0.27123720609067609 0.3158529302113221 0 -0.26528599585519008 0.31471464054907522 0 -0.27699557949655113 0.31645322234696882 0 -0.27123720609067609 0.3158529302113221 0 -0.27001263578126711 0.32263717043347712 0 -0.27123720609067609 0.3158529302113221 0 -0.26528599585519008 0.31471464054907522 0 -0.26368222169044719 0.32126413599590953 0 -0.27123720609067609 0.3158529302113221 0 -0.27001263578126711 0.32263717043347712 0 -0.26368222169044719 0.32126413599590953 0 -0.27699557949655113 0.31645322234696882 0 -0.27001263578126711 0.32263717043347712 0 -0.2790455690922089 0.3243844570517187 0 -0.2790455690922089 0.3243844570517187 0 -0.25910260253645218 0.33523110656146687 0 -0.2790455690922089 0.3243844570517187 0 -0.26824012707650141 0.34000504592112352 0 -0.28146834572906437 0.33465123959114113 0 -0.2790455690922089 0.3243844570517187 0 -0.26824012707650141 0.34000504592112352 0 -0.2790455690922089 0.3243844570517187 0 -0.26824012707650141 0.34000504592112352 0 -0.25910260253645218 0.33523110656146687 0 -0.28146834572906437 0.33465123959114113 0 -0.26824012707650141 0.34000504592112352 0 -0.28224162025157051 0.34582573333151501 0 -0.25910260253645218 0.33523110656146687 0 -0.25407523553642281 0.3497448278934856 0 -0.23915963598069589 0.34607775607121571 0 -0.25910260253645218 0.33523110656146687 0 -0.25407523553642281 0.3497448278934856 0 -0.26309588156361569 0.34576168367824162 0 -0.26824012707650141 0.34000504592112352 0 -0.25910260253645218 0.33523110656146687 0 -0.26309588156361569 0.34576168367824162 0 -0.25910260253645218 0.33523110656146687 0 -0.25451497659773847 0.32559442806853028 0 -0.24843663428782739 0.33758714710907461 0 -0.25451497659773847 0.32559442806853028 0 -0.25901197930261888 0.31383205914145501 0 -0.24885494741763489 0.31718848033418301 0 -0.25451497659773847 0.32559442806853028 0 -0.25901197930261888 0.31383205914145501 0 -0.26368222169044719 0.32126413599590953 0 -0.25901197930261888 0.31383205914145501 0 -0.26528599585519008 0.31471464054907522 0 -0.26368222169044719 0.32126413599590953 0 -0.27001263578126711 0.32263717043347712 0 -0.25910260253645218 0.33523110656146687 0 -0.26368222169044719 0.32126413599590953 0 -0.25910260253645218 0.33523110656146687 0 -0.25451497659773847 0.32559442806853028 0 -0.26368222169044719 0.32126413599590953 0 -0.26470209097228098 0.37140351159401941 0 -0.25562758441007077 0.36194187249828802 0 -0.266880351992417 0.3582272519812631 0 -0.26470209097228098 0.37140351159401941 0 -0.25213085833087667 0.37355178257669552 0 -0.25562758441007077 0.36194187249828802 0 -0.25213085833087667 0.37355178257669552 0 -0.25562758441007077 0.36194187249828802 0 -0.24329038266145239 0.36134909741814653 0 -0.25562758441007077 0.36194187249828802 0 -0.25407523553642281 0.3497448278934856 0 -0.24329038266145239 0.36134909741814653 0 -0.25407523553642281 0.3497448278934856 0 -0.26309588156361569 0.34576168367824162 0 -0.266880351992417 0.3582272519812631 0 -0.25562758441007077 0.36194187249828802 0 -0.25407523553642281 0.3497448278934856 0 -0.266880351992417 0.3582272519812631 0 -0.266880351992417 0.3582272519812631 0 -0.27640009279511962 0.35155878343443242 0 -0.28837447244510311 0.36628710188532532 0 -0.26309588156361569 0.34576168367824162 0 -0.266880351992417 0.3582272519812631 0 -0.27640009279511962 0.35155878343443242 0 -0.26824012707650141 0.34000504592112352 0 -0.26309588156361569 0.34576168367824162 0 -0.27640009279511962 0.35155878343443242 0 -0.26824012707650141 0.34000504592112352 0 -0.27640009279511962 0.35155878343443242 0 -0.28224162025157051 0.34582573333151501 0 -0.266880351992417 0.3582272519812631 0 -0.28837447244510311 0.36628710188532532 0 -0.266880351992417 0.3582272519812631 0 -0.28837447244510311 0.36628710188532532 0 -0.27747916353329311 0.37529003384729942 0 -0.26470209097228098 0.37140351159401941 0 -0.266880351992417 0.3582272519812631 0 -0.27747916353329311 0.37529003384729942 0 -0.28837447244510311 0.36628710188532532 0 -0.28714059247178902 0.37543321948423419 0 -0.27747916353329311 0.37529003384729942 0 -0.28837447244510311 0.36628710188532532 0 -0.28956810344150979 0.35324588380912608 0 -0.30292150033679799 0.36018321991941088 0 -0.28837447244510311 0.36628710188532532 0 -0.29874239202075642 0.37528196759933868 0 -0.28714059247178902 0.37543321948423419 0 -0.28224162025157051 0.34582573333151501 0 -0.3017933608705089 0.344447887165377 0 -0.28224162025157051 0.34582573333151501 0 -0.28956810344150979 0.35324588380912608 0 -0.3017933608705089 0.344447887165377 0 -0.27640009279511962 0.35155878343443242 0 -0.28224162025157051 0.34582573333151501 0 -0.28956810344150979 0.35324588380912608 0 -0.27640009279511962 0.35155878343443242 0 -0.28837447244510311 0.36628710188532532 0 -0.28956810344150979 0.35324588380912608 0 -0.3017933608705089 0.344447887165377 0 -0.31193410579265052 0.3536039280541286 0 -0.30292150033679799 0.36018321991941088 0 -0.28956810344150979 0.35324588380912608 0 -0.3017933608705089 0.344447887165377 0 -0.30292150033679799 0.36018321991941088 0 -0.3017933608705089 0.344447887165377 0 -0.32134510148944728 0.34307004099923799 0 -0.3017933608705089 0.344447887165377 0 -0.31193410579265052 0.3536039280541286 0 -0.32134510148944728 0.34307004099923799 0 -0.31193410579265052 0.3536039280541286 0 -0.30292150033679799 0.36018321991941088 0 -0.31340485972314069 0.36375751913665871 0 -0.28837447244510311 0.36628710188532532 0 -0.30292150033679799 0.36018321991941088 0 -0.30986859289778912 0.37434695178938759 0 -0.28837447244510311 0.36628710188532532 0 -0.30986859289778912 0.37434695178938759 0 -0.28837447244510311 0.36628710188532532 0 -0.30986859289778912 0.37434695178938759 0 -0.29874239202075642 0.37528196759933868 0 -0.30292150033679799 0.36018321991941088 0 -0.30986859289778912 0.37434695178938759 0 -0.31340485972314069 0.36375751913665871 0 -0.30986859289778912 0.37434695178938759 0 -0.31340485972314069 0.36375751913665871 0 -0.32167824364597858 0.36970754211250728 0 -0.31340485972314069 0.36375751913665871 0 -0.32243327870136801 0.35950699838777223 0 -0.32167824364597858 0.36970754211250728 0 -0.32243327870136801 0.35950699838777223 0 -0.32167824364597858 0.36970754211250728 0 -0.33132177355711989 0.36851943955526861 0 -0.32167824364597858 0.36970754211250728 0 -0.33132177355711989 0.36851943955526861 0 -0.33136271335047512 0.38240680169344993 0 -0.32243327870136801 0.35950699838777223 0 -0.33132177355711989 0.36851943955526861 0 -0.33989838930305449 0.35721367281084643 0 -0.33132177355711989 0.36851943955526861 0 -0.34304766554360439 0.37232322735168022 0 -0.33136271335047512 0.38240680169344993 0 -0.33132177355711989 0.36851943955526861 0 -0.34304766554360439 0.37232322735168022 0 -0.33989838930305449 0.35721367281084643 0 -0.33989838930305449 0.35721367281084643 0 -0.32134510148944728 0.34307004099923799 0 -0.33989838930305449 0.35721367281084643 0 -0.32134510148944728 0.34307004099923799 0 -0.3500233487104954 0.34104903357308669 0 -0.32243327870136801 0.35950699838777223 0 -0.33989838930305449 0.35721367281084643 0 -0.32134510148944728 0.34307004099923799 0 -0.31193410579265052 0.3536039280541286 0 -0.32243327870136801 0.35950699838777223 0 -0.32134510148944728 0.34307004099923799 0 -0.31193410579265052 0.3536039280541286 0 -0.31340485972314069 0.36375751913665871 0 -0.32243327870136801 0.35950699838777223 0 -0.30538608464820588 0.33090408634228141 0 -0.32134510148944728 0.34307004099923799 0 -0.30538608464820588 0.33090408634228141 0 -0.32134510148944728 0.34307004099923799 0 -0.31811651498789978 0.32488887006413791 0 -0.32134510148944728 0.34307004099923799 0 -0.31811651498789978 0.32488887006413791 0 -0.33459812393413729 0.32207732583041709 0 -0.31699951866320542 0.30755322334125379 0 -0.30563014257680821 0.31779627416788381 0 -0.31811651498789978 0.32488887006413791 0 -0.31699951866320542 0.30755322334125379 0 -0.31811651498789978 0.32488887006413791 0 -0.33459812393413729 0.32207732583041709 0 -0.32134510148944728 0.34307004099923799 0 -0.34342889555096417 0.33131534648734451 0 -0.3500233487104954 0.34104903357308669 0 -0.32134510148944728 0.34307004099923799 0 -0.33459812393413729 0.32207732583041709 0 -0.34342889555096417 0.33131534648734451 0 -0.32134510148944728 0.34307004099923799 0 -0.3500233487104954 0.34104903357308669 0 -0.3500233487104954 0.34104903357308669 0 -0.35650114511620551 0.33294276438790088 0 -0.36794029410566942 0.33226259727897972 0 -0.34342889555096417 0.33131534648734451 0 -0.3500233487104954 0.34104903357308669 0 -0.35650114511620551 0.33294276438790088 0 -0.33459812393413729 0.32207732583041709 0 -0.34342889555096417 0.33131534648734451 0 -0.35467675850453528 0.31743756764607989 0 -0.34344143829887858 0.30736403781452232 0 -0.33459812393413729 0.32207732583041709 0 -0.35467675850453528 0.31743756764607989 0 -0.35650114511620551 0.33294276438790088 0 -0.35467675850453528 0.31743756764607989 0 -0.36272901898995358 0.31473918551029578 0 -0.34342889555096417 0.33131534648734451 0 -0.35650114511620551 0.33294276438790088 0 -0.35467675850453528 0.31743756764607989 0 -0.35650114511620551 0.33294276438790088 0 -0.36272901898995358 0.31473918551029578 0 -0.37415321332832258 0.31386652142517069 0 -0.35650114511620551 0.33294276438790088 0 -0.37415321332832258 0.31386652142517069 0 -0.35650114511620551 0.33294276438790088 0 -0.37442838800096029 0.32044424157556423 0 -0.37415321332832258 0.31386652142517069 0 -0.37816355277066899 0.32985684687273281 0 -0.37442838800096029 0.32044424157556423 0 -0.36794029410566942 0.33226259727897972 0 -0.3787015959315434 0.33902802614693439 0 -0.3500233487104954 0.34104903357308669 0 -0.36794029410566942 0.33226259727897972 0 -0.35650114511620551 0.33294276438790088 0 -0.37442838800096029 0.32044424157556423 0 -0.36794029410566942 0.33226259727897972 0 -0.3787015959315434 0.33902802614693439 0 -0.3500233487104954 0.34104903357308669 0 -0.3787015959315434 0.33902802614693439 0 -0.37816355277066899 0.32985684687273281 0 -0.36794029410566942 0.33226259727897972 0 -0.3787015959315434 0.33902802614693439 0 -0.3500233487104954 0.34104903357308669 0 -0.36501658974902518 0.35367198233662939 0 -0.37823932191431281 0.35548757599615399 0 -0.3787015959315434 0.33902802614693439 0 -0.36501658974902518 0.35367198233662939 0 -0.37823932191431281 0.35548757599615399 0 -0.36501658974902518 0.35367198233662939 0 -0.37024808467873749 0.36543132639488701 0 -0.36501658974902518 0.35367198233662939 0 -0.37024808467873749 0.36543132639488701 0 -0.35845167711666143 0.37135730462245548 0 -0.37949655700884349 0.37153259571527891 0 -0.37024808467873749 0.36543132639488701 0 -0.36758280318953013 0.37627165255961892 0 -0.37024808467873749 0.36543132639488701 0 -0.35845167711666143 0.37135730462245548 0 -0.36758280318953013 0.37627165255961892 0 -0.36501658974902518 0.35367198233662939 0 -0.35845167711666143 0.37135730462245548 0 -0.35334750121980912 0.35582299833575448 0 -0.34304766554360439 0.37232322735168022 0 -0.33989838930305449 0.35721367281084643 0 -0.35845167711666143 0.37135730462245548 0 -0.33989838930305449 0.35721367281084643 0 -0.35845167711666143 0.37135730462245548 0 -0.35334750121980912 0.35582299833575448 0 -0.33989838930305449 0.35721367281084643 0 -0.35845167711666143 0.37135730462245548 0 -0.33989838930305449 0.35721367281084643 0 -0.3500233487104954 0.34104903357308669 0 -0.35334750121980912 0.35582299833575448 0 -0.3500233487104954 0.34104903357308669 0 -0.36501658974902518 0.35367198233662939 0 -0.35334750121980912 0.35582299833575448 0 -0.35285683380316007 0.39046665159751448 0 -0.36027192889352422 0.40897543894708011 0 -0.34270265381785459 0.40768080501023862 0 -0.34304766554360439 0.37232322735168022 0 -0.35845167711666143 0.37135730462245548 0 -0.35285683380316007 0.39046665159751448 0 -0.37686086334024771 0.38257038446795849 0 -0.35285683380316007 0.39046665159751448 0 -0.37686086334024771 0.38257038446795849 0 -0.35285683380316007 0.39046665159751448 0 -0.36758280318953013 0.37627165255961892 0 -0.35845167711666143 0.37135730462245548 0 -0.35285683380316007 0.39046665159751448 0 -0.36758280318953013 0.37627165255961892 0 -0.37686086334024771 0.38257038446795849 0 -0.37949655700884349 0.37153259571527891 0 -0.36758280318953013 0.37627165255961892 0 -0.37769092578324193 0.39977892163450779 0 -0.35285683380316007 0.39046665159751448 0 -0.37769092578324193 0.39977892163450779 0 -0.37686086334024771 0.38257038446795849 0 -0.35285683380316007 0.39046665159751448 0 -0.37769092578324193 0.39977892163450779 0 -0.35285683380316007 0.39046665159751448 0 -0.36027192889352422 0.40897543894708011 0 -0.37875820238401509 0.42613984176471847 0 -0.37769092578324193 0.39977892163450779 0 -0.36027192889352422 0.40897543894708011 0 -0.37875820238401509 0.42613984176471847 0 -0.36027192889352422 0.40897543894708011 0 -0.36048507512927641 0.42545129427310208 0 -0.37875820238401509 0.42613984176471847 0 -0.36048507512927641 0.42545129427310208 0 -0.35499138700470761 0.44318849185793469 0 -0.37875820238401509 0.42613984176471847 0 -0.35499138700470761 0.44318849185793469 0 -0.34691622899781399 0.42161541908905831 0 -0.33223168701086447 0.43660936806356893 0 -0.35499138700470761 0.44318849185793469 0 -0.36048507512927641 0.42545129427310208 0 -0.34691622899781399 0.42161541908905831 0 -0.35499138700470761 0.44318849185793469 0 -0.36027192889352422 0.40897543894708011 0 -0.34691622899781399 0.42161541908905831 0 -0.34270265381785459 0.40768080501023862 0 -0.36027192889352422 0.40897543894708011 0 -0.36048507512927641 0.42545129427310208 0 -0.34691622899781399 0.42161541908905831 0 -0.34270265381785459 0.40768080501023862 0 -0.32841174735063311 0.41773478988879181 0 -0.32505653004414181 0.39961172552874852 0 -0.34691622899781399 0.42161541908905831 0 -0.34270265381785459 0.40768080501023862 0 -0.32841174735063311 0.41773478988879181 0 -0.34691622899781399 0.42161541908905831 0 -0.32841174735063311 0.41773478988879181 0 -0.33223168701086447 0.43660936806356893 0 -0.32841174735063311 0.41773478988879181 0 -0.33223168701086447 0.43660936806356893 0 -0.31148998866141242 0.43181261152586448 0 -0.32841174735063311 0.41773478988879181 0 -0.31441363705571701 0.41408607272300291 0 -0.32505653004414181 0.39961172552874852 0 -0.32841174735063311 0.41773478988879181 0 -0.31441363705571701 0.41408607272300291 0 -0.31148998866141242 0.43181261152586448 0 -0.32505653004414181 0.39961172552874852 0 -0.31219235154091651 0.39185403334122892 0 -0.30619500853749271 0.39725637532293351 0 -0.32505653004414181 0.39961172552874852 0 -0.31778050989885959 0.38527433798844479 0 -0.31219235154091651 0.39185403334122892 0 -0.35285683380316007 0.39046665159751448 0 -0.32505653004414181 0.39961172552874852 0 -0.33136271335047512 0.38240680169344993 0 -0.35285683380316007 0.39046665159751448 0 -0.34270265381785459 0.40768080501023862 0 -0.32505653004414181 0.39961172552874852 0 -0.35285683380316007 0.39046665159751448 0 -0.32505653004414181 0.39961172552874852 0 -0.35285683380316007 0.39046665159751448 0 -0.33136271335047512 0.38240680169344993 0 -0.34304766554360439 0.37232322735168022 0 -0.35285683380316007 0.39046665159751448 0 -0.33136271335047512 0.38240680169344993 0 -0.30986859289778912 0.37434695178938759 0 -0.32167824364597858 0.36970754211250728 0 -0.33136271335047512 0.38240680169344993 0 -0.30986859289778912 0.37434695178938759 0 -0.33136271335047512 0.38240680169344993 0 -0.32505653004414181 0.39961172552874852 0 -0.33136271335047512 0.38240680169344993 0 -0.31778050989885959 0.38527433798844479 0 -0.30986859289778912 0.37434695178938759 0 -0.33136271335047512 0.38240680169344993 0 -0.31778050989885959 0.38527433798844479 0 -0.30986859289778912 0.37434695178938759 0 -0.31778050989885959 0.38527433798844479 0 -0.30574515252343709 0.38648905476423068 0 -0.30986859289778912 0.37434695178938759 0 -0.30574515252343709 0.38648905476423068 0 -0.29874239202075642 0.37528196759933868 0 -0.30574515252343709 0.38648905476423068 0 -0.29874239202075642 0.37528196759933868 0 -0.29146244090030071 0.40289140707507309 0 -0.31778050989885959 0.38527433798844479 0 -0.30574515252343709 0.38648905476423068 0 -0.31219235154091651 0.39185403334122892 0 -0.32505653004414181 0.39961172552874852 0 -0.30619500853749271 0.39725637532293351 0 -0.29725622628512233 0.40875679945997928 0 -0.32505653004414181 0.39961172552874852 0 -0.29725622628512233 0.40875679945997928 0 -0.30574515252343709 0.38648905476423068 0 -0.30619500853749271 0.39725637532293351 0 -0.29146244090030071 0.40289140707507309 0 -0.30574515252343709 0.38648905476423068 0 -0.31219235154091651 0.39185403334122892 0 -0.30619500853749271 0.39725637532293351 0 -0.30619500853749271 0.39725637532293351 0 -0.29146244090030071 0.40289140707507309 0 -0.29725622628512233 0.40875679945997928 0 -0.29146244090030071 0.40289140707507309 0 -0.2882496590958894 0.39023794275143442 0 -0.278827461574497 0.39790462172635238 0 -0.28396634188800352 0.38487377460497352 0 -0.2882496590958894 0.39023794275143442 0 -0.278827461574497 0.39790462172635238 0 -0.29146244090030071 0.40289140707507309 0 -0.278827461574497 0.39790462172635238 0 -0.27940045790464241 0.41220012044695847 0 -0.29874239202075642 0.37528196759933868 0 -0.29146244090030071 0.40289140707507309 0 -0.29874239202075642 0.37528196759933868 0 -0.29146244090030071 0.40289140707507309 0 -0.2882496590958894 0.39023794275143442 0 -0.29874239202075642 0.37528196759933868 0 -0.28396634188800352 0.38487377460497352 0 -0.28714059247178902 0.37543321948423419 0 -0.29874239202075642 0.37528196759933868 0 -0.28396634188800352 0.38487377460497352 0 -0.2882496590958894 0.39023794275143442 0 -0.28396634188800352 0.38487377460497352 0 -0.28714059247178902 0.37543321948423419 0 -0.27747916353329311 0.37529003384729942 0 -0.28396634188800352 0.38487377460497352 0 -0.27747916353329311 0.37529003384729942 0 -0.26775424033426293 0.38456849691175748 0 -0.28396634188800352 0.38487377460497352 0 -0.26775424033426293 0.38456849691175748 0 -0.278827461574497 0.39790462172635238 0 -0.26470209097228098 0.37140351159401941 0 -0.27747916353329311 0.37529003384729942 0 -0.26775424033426293 0.38456849691175748 0 -0.278827461574497 0.39790462172635238 0 -0.26298604578065232 0.3973558675440883 0 -0.2677584473194361 0.40899541659639099 0 -0.26775424033426293 0.38456849691175748 0 -0.278827461574497 0.39790462172635238 0 -0.26298604578065232 0.3973558675440883 0 -0.26298604578065232 0.3973558675440883 0 -0.25152819264859128 0.38883491631829081 0 -0.2490618870264745 0.40647588616764979 0 -0.26298604578065232 0.3973558675440883 0 -0.2677584473194361 0.40899541659639099 0 -0.2490618870264745 0.40647588616764979 0 -0.25213085833087667 0.37355178257669552 0 -0.26775424033426293 0.38456849691175748 0 -0.25152819264859128 0.38883491631829081 0 -0.26775424033426293 0.38456849691175748 0 -0.26298604578065232 0.3973558675440883 0 -0.25152819264859128 0.38883491631829081 0 -0.26470209097228098 0.37140351159401941 0 -0.25213085833087667 0.37355178257669552 0 -0.26775424033426293 0.38456849691175748 0 -0.2572482915111563 0.42152384209731297 0 -0.26330490497154813 0.43976041958731371 0 -0.24092688658692171 0.43286849171069308 0 -0.2572482915111563 0.42152384209731297 0 -0.27163392734069919 0.42205675226444578 0 -0.26330490497154813 0.43976041958731371 0 -0.2572482915111563 0.42152384209731297 0 -0.2677584473194361 0.40899541659639099 0 -0.2490618870264745 0.40647588616764979 0 -0.2572482915111563 0.42152384209731297 0 -0.2677584473194361 0.40899541659639099 0 -0.27163392734069919 0.42205675226444578 0 -0.27940045790464241 0.41220012044695847 0 -0.27163392734069919 0.42205675226444578 0 -0.28418248977984512 0.43050084655080739 0 -0.2677584473194361 0.40899541659639099 0 -0.27940045790464241 0.41220012044695847 0 -0.27163392734069919 0.42205675226444578 0 -0.278827461574497 0.39790462172635238 0 -0.2677584473194361 0.40899541659639099 0 -0.27940045790464241 0.41220012044695847 0 -0.27163392734069919 0.42205675226444578 0 -0.28418248977984512 0.43050084655080739 0 -0.26330490497154813 0.43976041958731371 0 -0.28418248977984512 0.43050084655080739 0 -0.29943060469912958 0.42576946359573847 0 -0.28981068171355151 0.44369098771903792 0 -0.29146244090030071 0.40289140707507309 0 -0.28418248977984512 0.43050084655080739 0 -0.29146244090030071 0.40289140707507309 0 -0.27940045790464241 0.41220012044695847 0 -0.28418248977984512 0.43050084655080739 0 -0.28418248977984512 0.43050084655080739 0 -0.29725622628512233 0.40875679945997928 0 -0.29943060469912958 0.42576946359573847 0 -0.29146244090030071 0.40289140707507309 0 -0.28418248977984512 0.43050084655080739 0 -0.29725622628512233 0.40875679945997928 0 -0.31441363705571701 0.41408607272300291 0 -0.32505653004414181 0.39961172552874852 0 -0.29725622628512233 0.40875679945997928 0 -0.31441363705571701 0.41408607272300291 0 -0.29725622628512233 0.40875679945997928 0 -0.29943060469912958 0.42576946359573847 0 -0.31441363705571701 0.41408607272300291 0 -0.29943060469912958 0.42576946359573847 0 -0.31148998866141242 0.43181261152586448 0 -0.29943060469912958 0.42576946359573847 0 -0.31148998866141242 0.43181261152586448 0 -0.28981068171355151 0.44369098771903792 0 -0.31148998866141242 0.43181261152586448 0 -0.30120616623050861 0.45239726712555162 0 -0.31718999816658727 0.45065056632578487 0 -0.31148998866141242 0.43181261152586448 0 -0.30120616623050861 0.45239726712555162 0 -0.31148998866141242 0.43181261152586448 0 -0.30120616623050861 0.45239726712555162 0 -0.28981068171355151 0.44369098771903792 0 -0.30120616623050861 0.45239726712555162 0 -0.29092234379960469 0.47298192272523881 0 -0.30745775624609217 0.47728579204436761 0 -0.30120616623050861 0.45239726712555162 0 -0.30745775624609217 0.47728579204436761 0 -0.31718999816658727 0.45065056632578487 0 -0.2852957606144535 0.45730244818253718 0 -0.28186649269177161 0.46567885888970018 0 -0.29092234379960469 0.47298192272523881 0 -0.30120616623050861 0.45239726712555162 0 -0.29092234379960469 0.47298192272523881 0 -0.30120616623050861 0.45239726712555162 0 -0.2852957606144535 0.45730244818253718 0 -0.29092234379960469 0.47298192272523881 0 -0.2852957606144535 0.45730244818253718 0 -0.28186649269177161 0.46567885888970018 0 -0.27690253865938408 0.45811028602654041 0 -0.28418248977984512 0.43050084655080739 0 -0.28981068171355151 0.44369098771903792 0 -0.27690253865938408 0.45811028602654041 0 -0.30120616623050861 0.45239726712555162 0 -0.2852957606144535 0.45730244818253718 0 -0.28981068171355151 0.44369098771903792 0 -0.2852957606144535 0.45730244818253718 0 -0.28981068171355151 0.44369098771903792 0 -0.27690253865938408 0.45811028602654041 0 -0.28418248977984512 0.43050084655080739 0 -0.27690253865938408 0.45811028602654041 0 -0.28418248977984512 0.43050084655080739 0 -0.27690253865938408 0.45811028602654041 0 -0.26330490497154813 0.43976041958731371 0 -0.2852957606144535 0.45730244818253718 0 -0.27690253865938408 0.45811028602654041 0 -0.28186649269177161 0.46567885888970018 0 -0.27690253865938408 0.45811028602654041 0 -0.27835780074514338 0.47366975871288508 0 -0.27690253865938408 0.45811028602654041 0 -0.25345677561811758 0.46036691342989022 0 -0.27690253865938408 0.45811028602654041 0 -0.25345677561811758 0.46036691342989022 0 -0.26590293397843329 0.47057525233348851 0 -0.25345677561811758 0.46036691342989022 0 -0.25315469521642581 0.4750486889203015 0 -0.26590293397843329 0.47057525233348851 0 -0.25345677561811758 0.46036691342989022 0 -0.26330490497154813 0.43976041958731371 0 -0.24129970279445639 0.44943490890582899 0 -0.27690253865938408 0.45811028602654041 0 -0.25345677561811758 0.46036691342989022 0 -0.26330490497154813 0.43976041958731371 0 -0.26169037092037989 0.4910190989046625 0 -0.25397816739109252 0.5 0 -0.27113802145370669 0.49283981386083792 0 -0.26169037092037989 0.4910190989046625 0 -0.25474868654415728 0.48692894813519849 0 -0.26689660829256312 0.48430763362261348 0 -0.26169037092037989 0.4910190989046625 0 -0.25397816739109252 0.5 0 -0.25474868654415728 0.48692894813519849 0 -0.25315469521642581 0.4750486889203015 0 -0.26689660829256312 0.48430763362261348 0 -0.25315469521642581 0.4750486889203015 0 -0.26689660829256312 0.48430763362261348 0 -0.26590293397843329 0.47057525233348851 0 -0.25474868654415728 0.48692894813519849 0 -0.25315469521642581 0.4750486889203015 0 -0.26689660829256312 0.48430763362261348 0 -0.27690253865938408 0.45811028602654041 0 -0.26590293397843329 0.47057525233348851 0 -0.26946370716205509 0.4860372782758946 0 -0.27690253865938408 0.45811028602654041 0 -0.26946370716205509 0.4860372782758946 0 -0.27690253865938408 0.45811028602654041 0 -0.27835780074514338 0.47366975871288508 0 -0.26946370716205509 0.4860372782758946 0 -0.26689660829256312 0.48430763362261348 0 -0.26590293397843329 0.47057525233348851 0 -0.26946370716205509 0.4860372782758946 0 -0.28186649269177161 0.46567885888970018 0 -0.27835780074514338 0.47366975871288508 0 -0.28298297564177088 0.4743823417855309 0 -0.27835780074514338 0.47366975871288508 0 -0.2798907507987049 0.48286402398659151 0 -0.28298297564177088 0.4743823417855309 0 -0.27835780074514338 0.47366975871288508 0 -0.2798907507987049 0.48286402398659151 0 -0.26946370716205509 0.4860372782758946 0 -0.26946370716205509 0.4860372782758946 0 -0.28063852136870049 0.49356657832492562 0 -0.26946370716205509 0.4860372782758946 0 -0.27113802145370669 0.49283981386083792 0 -0.28063852136870049 0.49356657832492562 0 -0.2798907507987049 0.48286402398659151 0 -0.26946370716205509 0.4860372782758946 0 -0.28063852136870049 0.49356657832492562 0 -0.25397816739109252 0.5 0 -0.27113802145370669 0.49283981386083792 0 -0.27742446875513049 0.50000000000000155 0 -0.26689660829256312 0.48430763362261348 0 -0.26946370716205509 0.4860372782758946 0 -0.27113802145370669 0.49283981386083792 0 -0.26169037092037989 0.4910190989046625 0 -0.26689660829256312 0.48430763362261348 0 -0.27113802145370669 0.49283981386083792 0 -0.26689660829256312 0.48430763362261348 0 -0.26946370716205509 0.4860372782758946 0 -0.27113802145370669 0.49283981386083792 0 -0.28063852136870049 0.49356657832492562 0 -0.27742446875513049 0.50000000000000155 0 -0.28063852136870049 0.49356657832492562 0 -0.27742446875513049 0.50000000000000155 0 -0.28063852136870049 0.49356657832492562 0 -0.27742446875513049 0.50000000000000155 0 -0.29018685806186229 0.50000000000000122 0 -0.28063852136870049 0.49356657832492562 0 -0.29018685806186229 0.50000000000000122 0 -0.29092234379960469 0.47298192272523881 0 -0.28063852136870049 0.49356657832492562 0 -0.29018685806186229 0.50000000000000122 0 -0.29018685806186229 0.50000000000000122 0 -0.29092234379960469 0.47298192272523881 0 -0.30745775624609217 0.47728579204436761 0 -0.28063852136870049 0.49356657832492562 0 -0.29092234379960469 0.47298192272523881 0 -0.2798907507987049 0.48286402398659151 0 -0.28063852136870049 0.49356657832492562 0 -0.29092234379960469 0.47298192272523881 0 -0.28186649269177161 0.46567885888970018 0 -0.28298297564177088 0.4743823417855309 0 -0.29092234379960469 0.47298192272523881 0 -0.2798907507987049 0.48286402398659151 0 -0.28298297564177088 0.4743823417855309 0 -0.29092234379960469 0.47298192272523881 0 -0.29018685806186229 0.50000000000000122 0 -0.30745775624609217 0.47728579204436761 0 -0.3640375775585698 0.5 0 -0.30745775624609217 0.47728579204436761 0 -0.33122457162539992 0.46023714195115112 0 -0.3640375775585698 0.5 0 -0.30745775624609217 0.47728579204436761 0 -0.33122457162539992 0.46023714195115112 0 -0.30745775624609217 0.47728579204436761 0 -0.31718999816658727 0.45065056632578487 0 -0.33122457162539992 0.46023714195115112 0 -0.33223168701086447 0.43660936806356893 0 -0.31148998866141242 0.43181261152586448 0 -0.31718999816658727 0.45065056632578487 0 -0.33223168701086447 0.43660936806356893 0 -0.31718999816658727 0.45065056632578487 0 -0.33122457162539992 0.46023714195115112 0 -0.33122457162539992 0.46023714195115112 0 -0.35499138700470761 0.44318849185793469 0 -0.33223168701086447 0.43660936806356893 0 -0.33122457162539992 0.46023714195115112 0 -0.35499138700470761 0.44318849185793469 0 -0.33122457162539992 0.46023714195115112 0 -0.35376164566254242 0.46494380824906301 0 -0.35499138700470761 0.44318849185793469 0 -0.38249991962136642 0.44345487931465249 0 -0.35499138700470761 0.44318849185793469 0 -0.37103467036260362 0.45695891695805302 0 -0.38249991962136642 0.44345487931465249 0 -0.37875820238401509 0.42613984176471847 0 -0.35499138700470761 0.44318849185793469 0 -0.35376164566254242 0.46494380824906301 0 -0.35499138700470761 0.44318849185793469 0 -0.37103467036260362 0.45695891695805302 0 -0.35376164566254242 0.46494380824906301 0 -0.37103467036260362 0.45695891695805302 0 -0.36943712044780219 0.47475959506207249 0 -0.33122457162539992 0.46023714195115112 0 -0.35376164566254242 0.46494380824906301 0 -0.3640375775585698 0.5 0 -0.38891458820749281 0.47713565504117422 0 -0.36943712044780219 0.47475959506207249 0 -0.3640375775585698 0.5 0 -0.35376164566254242 0.46494380824906301 0 -0.36943712044780219 0.47475959506207249 0 -0.3640375775585698 0.5 0 -0.1410608215807003 0.47118489318428192 0 -0.1506389915883973 0.47451242435581331 0 -0.15779819732271971 0.4695739402503486 0 -0.1410608215807003 0.47118489318428192 0 -0.15779819732271971 0.4695739402503486 0 -0.1455325599989582 0.47665965757352818 0 -0.14983465253105441 0.48099067897208148 0 -0.1405957742956809 0.47995063378193648 0 -0.14983465253105441 0.48099067897208148 0 -0.14427471349546869 0.48965289008050411 0 -0.1405957742956809 0.47995063378193648 0 -0.1455325599989582 0.47665965757352818 0 -0.1410608215807003 0.47118489318428192 0 -0.1506389915883973 0.47451242435581331 0 -0.1455325599989582 0.47665965757352818 0 -0.1410608215807003 0.47118489318428192 0 -0.1405957742956809 0.47995063378193648 0 -0.1506389915883973 0.47451242435581331 0 -0.15682389603308189 0.47748605108520858 0 -0.15779819732271971 0.4695739402503486 0 -0.1506389915883973 0.47451242435581331 0 -0.14983465253105441 0.48099067897208148 0 -0.15682389603308189 0.47748605108520858 0 -0.1455325599989582 0.47665965757352818 0 -0.1506389915883973 0.47451242435581331 0 -0.14983465253105441 0.48099067897208148 0 -0.14983465253105441 0.48099067897208148 0 -0.1558122254133027 0.48316327461493752 0 -0.15682389603308189 0.47748605108520858 0 -0.14983465253105441 0.48099067897208148 0 -0.1558122254133027 0.48316327461493752 0 -0.15140604362779489 0.486968875654338 0 -0.1558122254133027 0.48316327461493752 0 -0.15140604362779489 0.486968875654338 0 -0.15545271364459581 0.49281799385228547 0 -0.14983465253105441 0.48099067897208148 0 -0.15140604362779489 0.486968875654338 0 -0.14427471349546869 0.48965289008050411 0 -0.15140604362779489 0.486968875654338 0 -0.15545271364459581 0.49281799385228547 0 -0.14427471349546869 0.48965289008050411 0 -0.15453849507163009 0.5 0 -0.14427471349546869 0.48965289008050411 0 -0.12543772684428189 0.5 0 -0.15453849507163009 0.5 0 -0.15545271364459581 0.49281799385228547 0 -0.14427471349546869 0.48965289008050411 0 -0.14427471349546869 0.48965289008050411 0 -0.12543772684428189 0.5 0 -0.13178312884530541 0.48627570230508688 0 -0.14427471349546869 0.48965289008050411 0 -0.13178312884530541 0.48627570230508688 0 -0.1405957742956809 0.47995063378193648 0 -0.13178312884530541 0.48627570230508688 0 -0.1317912103042716 0.47600940211286807 0 -0.11642361318749669 0.48420448820259387 0 -0.1317912103042716 0.47600940211286807 0 -0.14083201439797821 0.46516349611765162 0 -0.12052644250191399 0.4682622397032008 0 -0.13178312884530541 0.48627570230508688 0 -0.1405957742956809 0.47995063378193648 0 -0.1317912103042716 0.47600940211286807 0 -0.1410608215807003 0.47118489318428192 0 -0.1405957742956809 0.47995063378193648 0 -0.1317912103042716 0.47600940211286807 0 -0.1410608215807003 0.47118489318428192 0 -0.1317912103042716 0.47600940211286807 0 -0.14083201439797821 0.46516349611765162 0 -0.12618187852634369 0.45882241462805679 0 -0.14083201439797821 0.46516349611765162 0 -0.12052644250191399 0.4682622397032008 0 -0.14083201439797821 0.46516349611765162 0 -0.12052644250191399 0.4682622397032008 0 -0.12618187852634369 0.45882241462805679 0 -0.13621980461969219 0.45775649261309698 0 -0.13482926781972801 0.45201676164804122 0 -0.13621980461969219 0.45775649261309698 0 -0.13482926781972801 0.45201676164804122 0 -0.1430360577347192 0.45502329805863873 0 -0.13621980461969219 0.45775649261309698 0 -0.14083201439797821 0.46516349611765162 0 -0.1430360577347192 0.45502329805863873 0 -0.12618187852634369 0.45882241462805679 0 -0.13621980461969219 0.45775649261309698 0 -0.14083201439797821 0.46516349611765162 0 -0.12618187852634369 0.45882241462805679 0 -0.13482926781972801 0.45201676164804122 0 -0.1248743097581413 0.44162978393037222 0 -0.13482926781972801 0.45201676164804122 0 -0.13973201497409549 0.44099892737807922 0 -0.1415241139788854 0.4488412036993919 0 -0.13482926781972801 0.45201676164804122 0 -0.1415241139788854 0.4488412036993919 0 -0.1430360577347192 0.45502329805863873 0 -0.13973201497409549 0.44099892737807922 0 -0.13491063247587859 0.43073185275000708 0 -0.1248743097581413 0.44162978393037222 0 -0.13482926781972801 0.45201676164804122 0 -0.13973201497409549 0.44099892737807922 0 -0.1248743097581413 0.44162978393037222 0 -0.13973201497409549 0.44099892737807922 0 -0.14849911538699881 0.44732582771280882 0 -0.14949031039727409 0.43903968606904947 0 -0.14849911538699881 0.44732582771280882 0 -0.1430360577347192 0.45502329805863873 0 -0.15230793746503779 0.45507497120342549 0 -0.13973201497409549 0.44099892737807922 0 -0.1415241139788854 0.4488412036993919 0 -0.14849911538699881 0.44732582771280882 0 -0.1415241139788854 0.4488412036993919 0 -0.14849911538699881 0.44732582771280882 0 -0.1430360577347192 0.45502329805863873 0 -0.14849911538699881 0.44732582771280882 0 -0.15230793746503779 0.45507497120342549 0 -0.15767924869329919 0.44641741059368378 0 -0.14949031039727409 0.43903968606904947 0 -0.15767924869329919 0.44641741059368378 0 -0.15912083936695831 0.4347249498771325 0 -0.14849911538699881 0.44732582771280882 0 -0.14949031039727409 0.43903968606904947 0 -0.15767924869329919 0.44641741059368378 0 -0.14083201439797821 0.46516349611765162 0 -0.16113758629404229 0.46206475253210239 0 -0.15779819732271971 0.4695739402503486 0 -0.1410608215807003 0.47118489318428192 0 -0.14083201439797821 0.46516349611765162 0 -0.15779819732271971 0.4695739402503486 0 -0.14083201439797821 0.46516349611765162 0 -0.16113758629404229 0.46206475253210239 0 -0.14083201439797821 0.46516349611765162 0 -0.15230793746503779 0.45507497120342549 0 -0.16113758629404229 0.46206475253210239 0 -0.14083201439797821 0.46516349611765162 0 -0.1430360577347192 0.45502329805863873 0 -0.15230793746503779 0.45507497120342549 0 -0.16113758629404229 0.46206475253210239 0 -0.16940388650370539 0.44815354093755089 0 -0.18144315819010631 0.45896600894655282 0 -0.16113758629404229 0.46206475253210239 0 -0.18144315819010631 0.45896600894655282 0 -0.16113758629404229 0.46206475253210239 0 -0.17453557306473899 0.46796298731641428 0 -0.15779819732271971 0.4695739402503486 0 -0.15230793746503779 0.45507497120342549 0 -0.16113758629404229 0.46206475253210239 0 -0.16013216473902109 0.45292766881669072 0 -0.16113758629404229 0.46206475253210239 0 -0.16013216473902109 0.45292766881669072 0 -0.16940388650370539 0.44815354093755089 0 -0.15767924869329919 0.44641741059368378 0 -0.16940388650370539 0.44815354093755089 0 -0.15912083936695831 0.4347249498771325 0 -0.15230793746503779 0.45507497120342549 0 -0.16013216473902109 0.45292766881669072 0 -0.15767924869329919 0.44641741059368378 0 -0.16013216473902109 0.45292766881669072 0 -0.15767924869329919 0.44641741059368378 0 -0.16940388650370539 0.44815354093755089 0 -0.1829590266345629 0.45699162349075462 0 -0.18255950863604661 0.43173185523385532 0 -0.1829590266345629 0.45699162349075462 0 -0.19557533522393281 0.44055915781337712 0 -0.18255950863604661 0.43173185523385532 0 -0.16940388650370539 0.44815354093755089 0 -0.1829590266345629 0.45699162349075462 0 -0.18255950863604661 0.43173185523385532 0 -0.16113758629404229 0.46206475253210239 0 -0.17453557306473899 0.46796298731641428 0 -0.18144315819010631 0.45896600894655282 0 -0.17453557306473899 0.46796298731641428 0 -0.18144315819010631 0.45896600894655282 0 -0.17453557306473899 0.46796298731641428 0 -0.18311948649431831 0.46713679563994498 0 -0.16940388650370539 0.44815354093755089 0 -0.18144315819010631 0.45896600894655282 0 -0.1829590266345629 0.45699162349075462 0 -0.18144315819010631 0.45896600894655282 0 -0.1829590266345629 0.45699162349075462 0 -0.18144315819010631 0.45896600894655282 0 -0.1829865290739871 0.45873048193697258 0 -0.1829590266345629 0.45699162349075462 0 -0.18144315819010631 0.45896600894655282 0 -0.1829865290739871 0.45873048193697258 0 -0.1829865290739871 0.45873048193697258 0 -0.1829590266345629 0.45699162349075462 0 -0.17453557306473899 0.46796298731641428 0 -0.18144315819010631 0.45896600894655282 0 -0.18311948649431831 0.46713679563994498 0 -0.1829865290739871 0.45873048193697258 0 -0.18311948649431831 0.46713679563994498 0 -0.18144315819010631 0.45896600894655282 0 -0.1829865290739871 0.45873048193697258 0 -0.18311948649431831 0.46713679563994498 0 -0.18311948649431831 0.46713679563994498 0 -0.18337937489664821 0.48356839781997168 0 -0.19511197543601369 0.47606725323690458 0 -0.18311948649431831 0.46713679563994498 0 -0.18337937489664821 0.48356839781997168 0 -0.18311948649431831 0.46713679563994498 0 -0.18337937489664821 0.48356839781997168 0 -0.17485937494801759 0.47808814193434568 0 -0.17453557306473899 0.46796298731641428 0 -0.18311948649431831 0.46713679563994498 0 -0.17485937494801759 0.47808814193434568 0 -0.17453557306473899 0.46796298731641428 0 -0.15779819732271971 0.4695739402503486 0 -0.17453557306473899 0.46796298731641428 0 -0.16499414335466689 0.48039049058434952 0 -0.17453557306473899 0.46796298731641428 0 -0.16499414335466689 0.48039049058434952 0 -0.15779819732271971 0.4695739402503486 0 -0.17453557306473899 0.46796298731641428 0 -0.17485937494801759 0.47808814193434568 0 -0.16499414335466689 0.48039049058434952 0 -0.17485937494801759 0.47808814193434568 0 -0.16499414335466689 0.48039049058434952 0 -0.1699453859209171 0.49288017845899518 0 -0.1558122254133027 0.48316327461493752 0 -0.16499414335466689 0.48039049058434952 0 -0.15682389603308189 0.47748605108520858 0 -0.16499414335466689 0.48039049058434952 0 -0.15682389603308189 0.47748605108520858 0 -0.15779819732271971 0.4695739402503486 0 -0.15453849507163009 0.5 0 -0.1699453859209171 0.49288017845899518 0 -0.18363926329897839 0.49999999999999828 0 -0.15453849507163009 0.5 0 -0.15545271364459581 0.49281799385228547 0 -0.1699453859209171 0.49288017845899518 0 -0.15545271364459581 0.49281799385228547 0 -0.16499414335466689 0.48039049058434952 0 -0.1699453859209171 0.49288017845899518 0 -0.15545271364459581 0.49281799385228547 0 -0.16499414335466689 0.48039049058434952 0 -0.1558122254133027 0.48316327461493752 0 -0.15545271364459581 0.49281799385228547 0 -0.16499414335466689 0.48039049058434952 0 -0.18337937489664821 0.48356839781997168 0 -0.18363926329897839 0.49999999999999828 0 -0.18337937489664821 0.48356839781997168 0 -0.1699453859209171 0.49288017845899518 0 -0.18363926329897839 0.49999999999999828 0 -0.18337937489664821 0.48356839781997168 0 -0.17485937494801759 0.47808814193434568 0 -0.1699453859209171 0.49288017845899518 0 -0.18337937489664821 0.48356839781997168 0 -0.18363926329897839 0.49999999999999828 0 -0.19848883175809501 0.48685236178056529 0 -0.18363926329897839 0.49999999999999828 0 -0.19848883175809501 0.48685236178056529 0 -0.20708556466301639 0.5 0 -0.18311948649431831 0.46713679563994498 0 -0.19511197543601369 0.47606725323690458 0 -0.20656524953558469 0.46488016823659339 0 -0.18337937489664821 0.48356839781997168 0 -0.19848883175809501 0.48685236178056529 0 -0.19511197543601369 0.47606725323690458 0 -0.19848883175809501 0.48685236178056529 0 -0.19511197543601369 0.47606725323690458 0 -0.206747867840962 0.47700509082497228 0 -0.19511197543601369 0.47606725323690458 0 -0.206747867840962 0.47700509082497228 0 -0.20656524953558469 0.46488016823659339 0 -0.19848883175809501 0.48685236178056529 0 -0.206747867840962 0.47700509082497228 0 -0.21585796601610141 0.48648558657266339 0 -0.206747867840962 0.47700509082497228 0 -0.21852396914967101 0.47285401242330122 0 -0.20656524953558469 0.46488016823659339 0 -0.206747867840962 0.47700509082497228 0 -0.21852396914967101 0.47285401242330122 0 -0.21585796601610141 0.48648558657266339 0 -0.20708556466301639 0.5 0 -0.21585796601610141 0.48648558657266339 0 -0.23053186602705439 0.5 0 -0.19848883175809501 0.48685236178056529 0 -0.20708556466301639 0.5 0 -0.21585796601610141 0.48648558657266339 0 -0.21585796601610141 0.48648558657266339 0 -0.23053186602705439 0.5 0 -0.2373192826940049 0.48342253064983348 0 -0.21852396914967101 0.47285401242330122 0 -0.2373192826940049 0.48342253064983348 0 -0.23001101257685119 0.46262354083324181 0 -0.21852396914967101 0.47285401242330122 0 -0.21585796601610141 0.48648558657266339 0 -0.2373192826940049 0.48342253064983348 0 -0.25474868654415728 0.48692894813519849 0 -0.25315469521642581 0.4750486889203015 0 -0.2373192826940049 0.48342253064983348 0 -0.25315469521642581 0.4750486889203015 0 -0.2373192826940049 0.48342253064983348 0 -0.23001101257685119 0.46262354083324181 0 -0.25397816739109252 0.5 0 -0.23053186602705439 0.5 0 -0.2373192826940049 0.48342253064983348 0 -0.25397816739109252 0.5 0 -0.25474868654415728 0.48692894813519849 0 -0.2373192826940049 0.48342253064983348 0 -0.26330490497154813 0.43976041958731371 0 -0.24129970279445639 0.44943490890582899 0 -0.24092688658692171 0.43286849171069308 0 -0.24129970279445639 0.44943490890582899 0 -0.2242493546558077 0.44235471361969553 0 -0.24092688658692171 0.43286849171069308 0 -0.25345677561811758 0.46036691342989022 0 -0.23001101257685119 0.46262354083324181 0 -0.25345677561811758 0.46036691342989022 0 -0.24129970279445639 0.44943490890582899 0 -0.23001101257685119 0.46262354083324181 0 -0.25345677561811758 0.46036691342989022 0 -0.25315469521642581 0.4750486889203015 0 -0.23001101257685119 0.46262354083324181 0 -0.24129970279445639 0.44943490890582899 0 -0.23001101257685119 0.46262354083324181 0 -0.2242493546558077 0.44235471361969553 0 -0.23001101257685119 0.46262354083324181 0 -0.2242493546558077 0.44235471361969553 0 -0.2144914677851314 0.45380351874251162 0 -0.2242493546558077 0.44235471361969553 0 -0.20880164963731279 0.443380440886459 0 -0.2144914677851314 0.45380351874251162 0 -0.20880164963731279 0.443380440886459 0 -0.2144914677851314 0.45380351874251162 0 -0.20415969833182021 0.45549933815243238 0 -0.23001101257685119 0.46262354083324181 0 -0.2144914677851314 0.45380351874251162 0 -0.20656524953558469 0.46488016823659339 0 -0.21852396914967101 0.47285401242330122 0 -0.23001101257685119 0.46262354083324181 0 -0.20656524953558469 0.46488016823659339 0 -0.23001101257685119 0.46262354083324181 0 -0.20656524953558469 0.46488016823659339 0 -0.2144914677851314 0.45380351874251162 0 -0.20415969833182021 0.45549933815243238 0 -0.20656524953558469 0.46488016823659339 0 -0.1829865290739871 0.45873048193697258 0 -0.1829590266345629 0.45699162349075462 0 -0.20415969833182021 0.45549933815243238 0 -0.1829865290739871 0.45873048193697258 0 -0.20415969833182021 0.45549933815243238 0 -0.18311948649431831 0.46713679563994498 0 -0.20415969833182021 0.45549933815243238 0 -0.20656524953558469 0.46488016823659339 0 -0.1829865290739871 0.45873048193697258 0 -0.18311948649431831 0.46713679563994498 0 -0.20415969833182021 0.45549933815243238 0 -0.18311948649431831 0.46713679563994498 0 -0.20656524953558469 0.46488016823659339 0 -0.1829590266345629 0.45699162349075462 0 -0.19557533522393281 0.44055915781337712 0 -0.1829590266345629 0.45699162349075462 0 -0.20415969833182021 0.45549933815243238 0 -0.19557533522393281 0.44055915781337712 0 -0.20880164963731279 0.443380440886459 0 -0.20415969833182021 0.45549933815243238 0 -0.19557533522393281 0.44055915781337712 0 -0.19557533522393281 0.44055915781337712 0 -0.20819164381331129 0.42412669213600601 0 -0.19557533522393281 0.44055915781337712 0 -0.19413142888046839 0.4217351031076268 0 -0.18255950863604661 0.43173185523385532 0 -0.19557533522393281 0.44055915781337712 0 -0.19413142888046839 0.4217351031076268 0 -0.20819164381331129 0.42412669213600601 0 -0.19413142888046839 0.4217351031076268 0 -0.20819164381331129 0.42412669213600601 0 -0.2021706660915297 0.40578572337793972 0 -0.19413142888046839 0.4217351031076268 0 -0.2021706660915297 0.40578572337793972 0 -0.18215999063752189 0.40647208697695608 0 -0.20819164381331129 0.42412669213600601 0 -0.22405449890785839 0.40643558214578251 0 -0.2021706660915297 0.40578572337793972 0 -0.20880164963731279 0.443380440886459 0 -0.19557533522393281 0.44055915781337712 0 -0.20819164381331129 0.42412669213600601 0 -0.2242493546558077 0.44235471361969553 0 -0.20880164963731279 0.443380440886459 0 -0.20819164381331129 0.42412669213600601 0 -0.2242493546558077 0.44235471361969553 0 -0.20819164381331129 0.42412669213600601 0 -0.22600929792909111 0.42518400498706249 0 -0.2242493546558077 0.44235471361969553 0 -0.22600929792909111 0.42518400498706249 0 -0.24092688658692171 0.43286849171069308 0 -0.20819164381331129 0.42412669213600601 0 -0.22600929792909111 0.42518400498706249 0 -0.22405449890785839 0.40643558214578251 0 -0.22600929792909111 0.42518400498706249 0 -0.22405449890785839 0.40643558214578251 0 -0.2382988550227183 0.41778448946306668 0 -0.2572482915111563 0.42152384209731297 0 -0.2382988550227183 0.41778448946306668 0 -0.2490618870264745 0.40647588616764979 0 -0.22405449890785839 0.40643558214578251 0 -0.2382988550227183 0.41778448946306668 0 -0.2490618870264745 0.40647588616764979 0 -0.2572482915111563 0.42152384209731297 0 -0.2382988550227183 0.41778448946306668 0 -0.24092688658692171 0.43286849171069308 0 -0.22600929792909111 0.42518400498706249 0 -0.2382988550227183 0.41778448946306668 0 -0.24092688658692171 0.43286849171069308 0 -0.24000210142933509 0.37809552861286783 0 -0.23801773827758249 0.39392053259368742 0 -0.22567210936962789 0.38582584627882549 0 -0.25152819264859128 0.38883491631829081 0 -0.24000210142933509 0.37809552861286783 0 -0.23801773827758249 0.39392053259368742 0 -0.25213085833087667 0.37355178257669552 0 -0.25152819264859128 0.38883491631829081 0 -0.24000210142933509 0.37809552861286783 0 -0.25152819264859128 0.38883491631829081 0 -0.2490618870264745 0.40647588616764979 0 -0.23801773827758249 0.39392053259368742 0 -0.22405449890785839 0.40643558214578251 0 -0.2490618870264745 0.40647588616764979 0 -0.23801773827758249 0.39392053259368742 0 -0.22405449890785839 0.40643558214578251 0 -0.22567210936962789 0.38582584627882549 0 -0.2099895612515065 0.38861519238670661 0 -0.22405449890785839 0.40643558214578251 0 -0.23801773827758249 0.39392053259368742 0 -0.22567210936962789 0.38582584627882549 0 -0.22567210936962789 0.38582584627882549 0 -0.21752164111765379 0.37637519474985792 0 -0.23054114355980421 0.3681661286558337 0 -0.24000210142933509 0.37809552861286783 0 -0.22567210936962789 0.38582584627882549 0 -0.23054114355980421 0.3681661286558337 0 -0.22567210936962789 0.38582584627882549 0 -0.21752164111765379 0.37637519474985792 0 -0.2099895612515065 0.38861519238670661 0 -0.21752164111765379 0.37637519474985792 0 -0.2099895612515065 0.38861519238670661 0 -0.20825127389149589 0.37038948781896619 0 -0.2099895612515065 0.38861519238670661 0 -0.1956253707180633 0.37355818799515828 0 -0.20825127389149589 0.37038948781896619 0 -0.22405449890785839 0.40643558214578251 0 -0.2099895612515065 0.38861519238670661 0 -0.2021706660915297 0.40578572337793972 0 -0.2021706660915297 0.40578572337793972 0 -0.19434121226752371 0.39112870189136351 0 -0.18215999063752189 0.40647208697695608 0 -0.2099895612515065 0.38861519238670661 0 -0.2021706660915297 0.40578572337793972 0 -0.19434121226752371 0.39112870189136351 0 -0.2099895612515065 0.38861519238670661 0 -0.19434121226752371 0.39112870189136351 0 -0.1956253707180633 0.37355818799515828 0 -0.19434121226752371 0.39112870189136351 0 -0.18176047263899719 0.38121231872005679 0 -0.1956253707180633 0.37355818799515828 0 -0.18176047263899719 0.38121231872005679 0 -0.16585623702428451 0.39107516703040651 0 -0.16689278400863089 0.37048631692620287 0 -0.16585623702428451 0.39107516703040651 0 -0.1532541744773912 0.375434017343177 0 -0.15169756500005979 0.38990146883471011 0 -0.16585623702428451 0.39107516703040651 0 -0.1532541744773912 0.375434017343177 0 -0.16689278400863089 0.37048631692620287 0 -0.16585623702428451 0.39107516703040651 0 -0.1665369108918931 0.40914444316194981 0 -0.1556916669008335 0.40278409093046019 0 -0.16585623702428451 0.39107516703040651 0 -0.18215999063752189 0.40647208697695608 0 -0.1665369108918931 0.40914444316194981 0 -0.16585623702428451 0.39107516703040651 0 -0.15169756500005979 0.38990146883471011 0 -0.1556916669008335 0.40278409093046019 0 -0.18176047263899719 0.38121231872005679 0 -0.16585623702428451 0.39107516703040651 0 -0.18215999063752189 0.40647208697695608 0 -0.18176047263899719 0.38121231872005679 0 -0.18215999063752189 0.40647208697695608 0 -0.19434121226752371 0.39112870189136351 0 -0.18176047263899719 0.38121231872005679 0 -0.18215999063752189 0.40647208697695608 0 -0.18215999063752189 0.40647208697695608 0 -0.18255950863604661 0.43173185523385532 0 -0.18215999063752189 0.40647208697695608 0 -0.16958367679162159 0.42493542776846188 0 -0.1665369108918931 0.40914444316194981 0 -0.19413142888046839 0.4217351031076268 0 -0.18215999063752189 0.40647208697695608 0 -0.18255950863604661 0.43173185523385532 0 -0.18215999063752189 0.40647208697695608 0 -0.18255950863604661 0.43173185523385532 0 -0.16958367679162159 0.42493542776846188 0 -0.16940388650370539 0.44815354093755089 0 -0.18255950863604661 0.43173185523385532 0 -0.16958367679162159 0.42493542776846188 0 -0.16940388650370539 0.44815354093755089 0 -0.16958367679162159 0.42493542776846188 0 -0.15912083936695831 0.4347249498771325 0 -0.16958367679162159 0.42493542776846188 0 -0.15912083936695831 0.4347249498771325 0 -0.15604886632200479 0.41831593774319042 0 -0.16958367679162159 0.42493542776846188 0 -0.1665369108918931 0.40914444316194981 0 -0.15604886632200479 0.41831593774319042 0 -0.1665369108918931 0.40914444316194981 0 -0.15604886632200479 0.41831593774319042 0 -0.1556916669008335 0.40278409093046019 0 -0.15604886632200479 0.41831593774319042 0 -0.14768726638806501 0.40958107086639878 0 -0.1556916669008335 0.40278409093046019 0 -0.15604886632200479 0.41831593774319042 0 -0.1455440964649429 0.41771164433310332 0 -0.14575226394851429 0.42876386523653243 0 -0.15604886632200479 0.41831593774319042 0 -0.1455440964649429 0.41771164433310332 0 -0.14768726638806501 0.40958107086639878 0 -0.1455440964649429 0.41771164433310332 0 -0.14768726638806501 0.40958107086639878 0 -0.13820848934052041 0.41088683445876423 0 -0.15912083936695831 0.4347249498771325 0 -0.15604886632200479 0.41831593774319042 0 -0.14575226394851429 0.42876386523653243 0 -0.14949031039727409 0.43903968606904947 0 -0.15912083936695831 0.4347249498771325 0 -0.14575226394851429 0.42876386523653243 0 -0.1455440964649429 0.41771164433310332 0 -0.14575226394851429 0.42876386523653243 0 -0.13557398954387551 0.42076075412316039 0 -0.13973201497409549 0.44099892737807922 0 -0.14949031039727409 0.43903968606904947 0 -0.14575226394851429 0.42876386523653243 0 -0.13491063247587859 0.43073185275000708 0 -0.1242188050129694 0.42501783294758849 0 -0.1248743097581413 0.44162978393037222 0 -0.13973201497409549 0.44099892737807922 0 -0.14575226394851429 0.42876386523653243 0 -0.13491063247587859 0.43073185275000708 0 -0.14575226394851429 0.42876386523653243 0 -0.13491063247587859 0.43073185275000708 0 -0.13557398954387551 0.42076075412316039 0 -0.13491063247587859 0.43073185275000708 0 -0.13557398954387551 0.42076075412316039 0 -0.1242188050129694 0.42501783294758849 0 -0.13820848934052041 0.41088683445876423 0 -0.13557398954387551 0.42076075412316039 0 -0.12623023605756489 0.41143854881348008 0 -0.1455440964649429 0.41771164433310332 0 -0.13820848934052041 0.41088683445876423 0 -0.13557398954387551 0.42076075412316039 0 -0.13557398954387551 0.42076075412316039 0 -0.12623023605756489 0.41143854881348008 0 -0.1242188050129694 0.42501783294758849 0 -0.13820848934052041 0.41088683445876423 0 -0.12623023605756489 0.41143854881348008 0 -0.13398515235888339 0.40371564514020769 0 -0.12997925716256209 0.39431640422262348 0 -0.14074253368576661 0.38200722200303072 0 -0.1429432129120235 0.39820684686647628 0 -0.12623023605756489 0.41143854881348008 0 -0.13398515235888339 0.40371564514020769 0 -0.12997925716256209 0.39431640422262348 0 -0.13398515235888339 0.40371564514020769 0 -0.12997925716256209 0.39431640422262348 0 -0.1429432129120235 0.39820684686647628 0 -0.13820848934052041 0.41088683445876423 0 -0.13398515235888339 0.40371564514020769 0 -0.1429432129120235 0.39820684686647628 0 -0.12997925716256209 0.39431640422262348 0 -0.14074253368576661 0.38200722200303072 0 -0.12523428666698541 0.37069662222368049 0 -0.12997925716256209 0.39431640422262348 0 -0.12523428666698541 0.37069662222368049 0 -0.12103247972044499 0.39311621374447298 0 -0.14074253368576661 0.38200722200303072 0 -0.15169756500005979 0.38990146883471011 0 -0.1429432129120235 0.39820684686647628 0 -0.14074253368576661 0.38200722200303072 0 -0.1532541744773912 0.375434017343177 0 -0.15169756500005979 0.38990146883471011 0 -0.15169756500005979 0.38990146883471011 0 -0.1556916669008335 0.40278409093046019 0 -0.1429432129120235 0.39820684686647628 0 -0.14768726638806501 0.40958107086639878 0 -0.1556916669008335 0.40278409093046019 0 -0.1429432129120235 0.39820684686647628 0 -0.14768726638806501 0.40958107086639878 0 -0.13820848934052041 0.41088683445876423 0 -0.1429432129120235 0.39820684686647628 0 -0.14407255521749979 0.34403263722221961 0 -0.15504053286571459 0.3545366000593369 0 -0.14129669608781389 0.36249735492572199 0 -0.14407255521749979 0.34403263722221961 0 -0.15504053286571459 0.3545366000593369 0 -0.1549481930100888 0.34056708499864929 0 -0.14074253368576661 0.38200722200303072 0 -0.1532541744773912 0.375434017343177 0 -0.14129669608781389 0.36249735492572199 0 -0.1532541744773912 0.375434017343177 0 -0.15504053286571459 0.3545366000593369 0 -0.14129669608781389 0.36249735492572199 0 -0.14129669608781389 0.36249735492572199 0 -0.12523428666698541 0.37069662222368049 0 -0.1294360936135257 0.3482770307028879 0 -0.12523428666698541 0.37069662222368049 0 -0.1294360936135257 0.3482770307028879 0 -0.14074253368576661 0.38200722200303072 0 -0.14129669608781389 0.36249735492572199 0 -0.12523428666698541 0.37069662222368049 0 -0.14407255521749979 0.34403263722221961 0 -0.14129669608781389 0.36249735492572199 0 -0.1294360936135257 0.3482770307028879 0 -0.1294360936135257 0.3482770307028879 0 -0.13363790056006589 0.32585743918209531 0 -0.14407255521749979 0.34403263722221961 0 -0.1294360936135257 0.3482770307028879 0 -0.13363790056006589 0.32585743918209531 0 -0.1294360936135257 0.3482770307028879 0 -0.13363790056006589 0.32585743918209531 0 -0.1154499742120704 0.34086754873962172 0 -0.12722248981549561 0.3181430308760943 0 -0.13363790056006589 0.32585743918209531 0 -0.1360408951285694 0.3130357752318072 0 -0.12722248981549561 0.3181430308760943 0 -0.1360408951285694 0.3130357752318072 0 -0.12136448477009221 0.30951812845445109 0 -0.12722248981549561 0.3181430308760943 0 -0.13363790056006589 0.32585743918209531 0 -0.12142985306419619 0.32461006626398298 0 -0.13363790056006589 0.32585743918209531 0 -0.12142985306419619 0.32461006626398298 0 -0.13363790056006589 0.32585743918209531 0 -0.1360408951285694 0.3130357752318072 0 -0.14290423209994971 0.32095809222069871 0 -0.13363790056006589 0.32585743918209531 0 -0.1360408951285694 0.3130357752318072 0 -0.14290423209994971 0.32095809222069871 0 -0.1532404752523272 0.32269894785805692 0 -0.1464174014568787 0.29836992735667278 0 -0.13363790056006589 0.32585743918209531 0 -0.14290423209994971 0.32095809222069871 0 -0.15729966860100811 0.32827511069417059 0 -0.13363790056006589 0.32585743918209531 0 -0.15729966860100811 0.32827511069417059 0 -0.14290423209994971 0.32095809222069871 0 -0.1532404752523272 0.32269894785805692 0 -0.15729966860100811 0.32827511069417059 0 -0.1532404752523272 0.32269894785805692 0 -0.15943794807189979 0.31595908059817063 0 -0.1547819877644892 0.3091453549012102 0 -0.14407255521749979 0.34403263722221961 0 -0.13363790056006589 0.32585743918209531 0 -0.14748957934716561 0.33468306802428371 0 -0.13363790056006589 0.32585743918209531 0 -0.14748957934716561 0.33468306802428371 0 -0.15729966860100811 0.32827511069417059 0 -0.14748957934716561 0.33468306802428371 0 -0.1549481930100888 0.34056708499864929 0 -0.15729966860100811 0.32827511069417059 0 -0.14407255521749979 0.34403263722221961 0 -0.14748957934716561 0.33468306802428371 0 -0.1549481930100888 0.34056708499864929 0 -0.15729966860100811 0.32827511069417059 0 -0.18096143664194889 0.33069278220625808 0 -0.1549481930100888 0.34056708499864929 0 -0.15729966860100811 0.32827511069417059 0 -0.16781010436956259 0.34240718275037813 0 -0.15729966860100811 0.32827511069417059 0 -0.16781010436956259 0.34240718275037813 0 -0.18096143664194889 0.33069278220625808 0 -0.15729966860100811 0.32827511069417059 0 -0.17028988351433311 0.32233995817617028 0 -0.18096143664194889 0.33069278220625808 0 -0.15943794807189979 0.31595908059817063 0 -0.16495134068588049 0.31685297469802859 0 -0.1638395481514221 0.30983277085387728 0 -0.1532404752523272 0.32269894785805692 0 -0.15943794807189979 0.31595908059817063 0 -0.16037638850537991 0.32126535467967993 0 -0.15943794807189979 0.31595908059817063 0 -0.16037638850537991 0.32126535467967993 0 -0.16495134068588049 0.31685297469802859 0 -0.15729966860100811 0.32827511069417059 0 -0.16037638850537991 0.32126535467967993 0 -0.17028988351433311 0.32233995817617028 0 -0.1532404752523272 0.32269894785805692 0 -0.15729966860100811 0.32827511069417059 0 -0.16037638850537991 0.32126535467967993 0 -0.16495134068588049 0.31685297469802859 0 -0.17285953122972289 0.31090601179704258 0 -0.1638395481514221 0.30983277085387728 0 -0.17028988351433311 0.32233995817617028 0 -0.16495134068588049 0.31685297469802859 0 -0.17285953122972289 0.31090601179704258 0 -0.16037638850537991 0.32126535467967993 0 -0.17028988351433311 0.32233995817617028 0 -0.16495134068588049 0.31685297469802859 0 -0.18077272512400111 0.31876138179813301 0 -0.17285953122972289 0.31090601179704258 0 -0.17028988351433311 0.32233995817617028 0 -0.18077272512400111 0.31876138179813301 0 -0.17285953122972289 0.31090601179704258 0 -0.17028988351433311 0.32233995817617028 0 -0.18077272512400111 0.31876138179813301 0 -0.18096143664194889 0.33069278220625808 0 -0.18077272512400111 0.31876138179813301 0 -0.19386790912735871 0.33176087567547108 0 -0.18077272512400111 0.31876138179813301 0 -0.18096143664194889 0.33069278220625808 0 -0.18077272512400111 0.31876138179813301 0 -0.18096143664194889 0.33069278220625808 0 -0.19386790912735871 0.33176087567547108 0 -0.18096143664194889 0.33069278220625808 0 -0.1813609546404725 0.35595255046315749 0 -0.18096143664194889 0.33069278220625808 0 -0.1813609546404725 0.35595255046315749 0 -0.19258948339875709 0.33633707034479371 0 -0.16781010436956259 0.34240718275037813 0 -0.18096143664194889 0.33069278220625808 0 -0.1813609546404725 0.35595255046315749 0 -0.18096143664194889 0.33069278220625808 0 -0.19386790912735871 0.33176087567547108 0 -0.15504053286571459 0.3545366000593369 0 -0.16781010436956259 0.34240718275037813 0 -0.1813609546404725 0.35595255046315749 0 -0.15504053286571459 0.3545366000593369 0 -0.1549481930100888 0.34056708499864929 0 -0.16781010436956259 0.34240718275037813 0 -0.1532541744773912 0.375434017343177 0 -0.15504053286571459 0.3545366000593369 0 -0.16689278400863089 0.37048631692620287 0 -0.15504053286571459 0.3545366000593369 0 -0.1813609546404725 0.35595255046315749 0 -0.16689278400863089 0.37048631692620287 0 -0.18176047263899719 0.38121231872005679 0 -0.1813609546404725 0.35595255046315749 0 -0.18176047263899719 0.38121231872005679 0 -0.1813609546404725 0.35595255046315749 0 -0.1956253707180633 0.37355818799515828 0 -0.18176047263899719 0.38121231872005679 0 -0.1813609546404725 0.35595255046315749 0 -0.16689278400863089 0.37048631692620287 0 -0.1813609546404725 0.35595255046315749 0 -0.1956253707180633 0.37355818799515828 0 -0.2000380028121157 0.35856944723279938 0 -0.1956253707180633 0.37355818799515828 0 -0.2000380028121157 0.35856944723279938 0 -0.20825127389149589 0.37038948781896619 0 -0.1813609546404725 0.35595255046315749 0 -0.1951678646333711 0.34883535218340811 0 -0.19258948339875709 0.33633707034479371 0 -0.1813609546404725 0.35595255046315749 0 -0.1951678646333711 0.34883535218340811 0 -0.2000380028121157 0.35856944723279938 0 -0.1951678646333711 0.34883535218340811 0 -0.2000380028121157 0.35856944723279938 0 -0.20668301768213909 0.34448234069288158 0 -0.20668301768213909 0.34448234069288158 0 -0.2120127789660084 0.36084248239747968 0 -0.21921666942493959 0.3569244055809645 0 -0.2000380028121157 0.35856944723279938 0 -0.20668301768213909 0.34448234069288158 0 -0.2120127789660084 0.36084248239747968 0 -0.2120127789660084 0.36084248239747968 0 -0.21921666942493959 0.3569244055809645 0 -0.20668301768213909 0.34448234069288158 0 -0.21921666942493959 0.3569244055809645 0 -0.22158808080033929 0.34557455345049992 0 -0.20668301768213909 0.34448234069288158 0 -0.21921666942493959 0.3569244055809645 0 -0.2000380028121157 0.35856944723279938 0 -0.20825127389149589 0.37038948781896619 0 -0.2120127789660084 0.36084248239747968 0 -0.2120127789660084 0.36084248239747968 0 -0.2199937556016836 0.36693485901855288 0 -0.21921666942493959 0.3569244055809645 0 -0.20825127389149589 0.37038948781896619 0 -0.2120127789660084 0.36084248239747968 0 -0.2199937556016836 0.36693485901855288 0 -0.21752164111765379 0.37637519474985792 0 -0.20825127389149589 0.37038948781896619 0 -0.2199937556016836 0.36693485901855288 0 -0.21752164111765379 0.37637519474985792 0 -0.23054114355980421 0.3681661286558337 0 -0.2199937556016836 0.36693485901855288 0 -0.23054114355980421 0.3681661286558337 0 -0.21921666942493959 0.3569244055809645 0 -0.23305195790672301 0.35812934693154008 0 -0.23054114355980421 0.3681661286558337 0 -0.2199937556016836 0.36693485901855288 0 -0.21921666942493959 0.3569244055809645 0 -0.23054114355980421 0.3681661286558337 0 -0.21921666942493959 0.3569244055809645 0 -0.21921666942493959 0.3569244055809645 0 -0.22158808080033929 0.34557455345049992 0 -0.23915963598069589 0.34607775607121571 0 -0.21921666942493959 0.3569244055809645 0 -0.23915963598069589 0.34607775607121571 0 -0.21921666942493959 0.3569244055809645 0 -0.23305195790672301 0.35812934693154008 0 -0.23915963598069589 0.34607775607121571 0 -0.23305195790672301 0.35812934693154008 0 -0.23915963598069589 0.34607775607121571 0 -0.24329038266145239 0.36134909741814653 0 -0.25407523553642281 0.3497448278934856 0 -0.23915963598069589 0.34607775607121571 0 -0.24329038266145239 0.36134909741814653 0 -0.25213085833087667 0.37355178257669552 0 -0.24000210142933509 0.37809552861286783 0 -0.24329038266145239 0.36134909741814653 0 -0.24000210142933509 0.37809552861286783 0 -0.23054114355980421 0.3681661286558337 0 -0.24329038266145239 0.36134909741814653 0 -0.23054114355980421 0.3681661286558337 0 -0.23305195790672301 0.35812934693154008 0 -0.24329038266145239 0.36134909741814653 0 -0.23582541811145999 0.32679902143390172 0 -0.24885494741763489 0.31718848033418301 0 -0.23189508169276829 0.30076725351495531 0 -0.23582541811145999 0.32679902143390172 0 -0.24885494741763489 0.31718848033418301 0 -0.24633099797708269 0.32737693631841108 0 -0.25451497659773847 0.32559442806853028 0 -0.24885494741763489 0.31718848033418301 0 -0.24633099797708269 0.32737693631841108 0 -0.24843663428782739 0.33758714710907461 0 -0.22129300011358269 0.33481371145693772 0 -0.25451497659773847 0.32559442806853028 0 -0.24633099797708269 0.32737693631841108 0 -0.24843663428782739 0.33758714710907461 0 -0.25910260253645218 0.33523110656146687 0 -0.23915963598069589 0.34607775607121571 0 -0.23582541811145999 0.32679902143390172 0 -0.24633099797708269 0.32737693631841108 0 -0.24843663428782739 0.33758714710907461 0 -0.25910260253645218 0.33523110656146687 0 -0.23915963598069589 0.34607775607121571 0 -0.24843663428782739 0.33758714710907461 0 -0.23582541811145999 0.32679902143390172 0 -0.24843663428782739 0.33758714710907461 0 -0.22129300011358269 0.33481371145693772 0 -0.23915963598069589 0.34607775607121571 0 -0.24843663428782739 0.33758714710907461 0 -0.22129300011358269 0.33481371145693772 0 -0.22158808080033929 0.34557455345049992 0 -0.23915963598069589 0.34607775607121571 0 -0.22129300011358269 0.33481371145693772 0 -0.23582541811145999 0.32679902143390172 0 -0.21954464392232159 0.31820766509236142 0 -0.23189508169276829 0.30076725351495531 0 -0.23582541811145999 0.32679902143390172 0 -0.22129300011358269 0.33481371145693772 0 -0.21954464392232159 0.31820766509236142 0 -0.21954464392232159 0.31820766509236142 0 -0.20492818889453221 0.32276220977772679 0 -0.20060783596013981 0.3076349397264902 0 -0.22129300011358269 0.33481371145693772 0 -0.21954464392232159 0.31820766509236142 0 -0.20492818889453221 0.32276220977772679 0 -0.22129300011358269 0.33481371145693772 0 -0.20492818889453221 0.32276220977772679 0 -0.19386790912735871 0.33176087567547108 0 -0.22129300011358269 0.33481371145693772 0 -0.19386790912735871 0.33176087567547108 0 -0.20668301768213909 0.34448234069288158 0 -0.22129300011358269 0.33481371145693772 0 -0.19386790912735871 0.33176087567547108 0 -0.20668301768213909 0.34448234069288158 0 -0.22158808080033929 0.34557455345049992 0 -0.22129300011358269 0.33481371145693772 0 -0.20668301768213909 0.34448234069288158 0 -0.19386790912735871 0.33176087567547108 0 -0.19258948339875709 0.33633707034479371 0 -0.20668301768213909 0.34448234069288158 0 -0.19386790912735871 0.33176087567547108 0 -0.1951678646333711 0.34883535218340811 0 -0.20668301768213909 0.34448234069288158 0 -0.19258948339875709 0.33633707034479371 0 -0.18096143664194889 0.33069278220625808 0 -0.19386790912735871 0.33176087567547108 0 -0.19258948339875709 0.33633707034479371 0 -0.19386790912735871 0.33176087567547108 0 -0.19258948339875709 0.33633707034479371 0 -0.18077272512400111 0.31876138179813301 0 -0.19386790912735871 0.33176087567547108 0 -0.20060783596013981 0.3076349397264902 0 -0.20492818889453221 0.32276220977772679 0 -0.19386790912735871 0.33176087567547108 0 -0.20060783596013981 0.3076349397264902 0 -0.19386790912735871 0.33176087567547108 0 -0.20060783596013981 0.3076349397264902 0 -0.20060783596013981 0.3076349397264902 0 -0.20734776279292019 0.28350900377750898 0 -0.23189508169276829 0.30076725351495531 0 -0.21954464392232159 0.31820766509236142 0 -0.20060783596013981 0.3076349397264902 0 -0.23189508169276829 0.30076725351495531 0 -0.20060783596013981 0.3076349397264902 0 -0.20734776279292019 0.28350900377750898 0 -0.18034630435624241 0.29180066960649809 0 -0.20734776279292019 0.28350900377750898 0 -0.19375927737912041 0.2730469699042487 0 -0.18034630435624241 0.29180066960649809 0 -0.20060783596013981 0.3076349397264902 0 -0.20734776279292019 0.28350900377750898 0 -0.20734776279292019 0.28350900377750898 0 -0.23189508169276829 0.30076725351495531 0 -0.22396762922540969 0.27514125130055722 0 -0.23189508169276829 0.30076725351495531 0 -0.2378434694439332 0.28391349183279069 0 -0.22396762922540969 0.27514125130055722 0 -0.25673188405007052 0.28646841290673969 0 -0.23189508169276829 0.30076725351495531 0 -0.2378434694439332 0.28391349183279069 0 -0.25673188405007052 0.28646841290673969 0 -0.23189508169276829 0.30076725351495531 0 -0.25505401324638421 0.30366623925853881 0 -0.25673188405007052 0.28646841290673969 0 -0.23189508169276829 0.30076725351495531 0 -0.25505401324638421 0.30366623925853881 0 -0.24885494741763489 0.31718848033418301 0 -0.23189508169276829 0.30076725351495531 0 -0.25265925142613249 0.26128234508680298 0 -0.23885305679183191 0.2684477152547543 0 -0.23951274761537589 0.2474853768326048 0 -0.23885305679183191 0.2684477152547543 0 -0.22811192938500721 0.25829645972706228 0 -0.23951274761537589 0.2474853768326048 0 -0.25621817608628389 0.2460965770837312 0 -0.25265925142613249 0.26128234508680298 0 -0.23951274761537589 0.2474853768326048 0 -0.25673188405007052 0.28646841290673969 0 -0.2378434694439332 0.28391349183279069 0 -0.23885305679183191 0.2684477152547543 0 -0.25265925142613249 0.26128234508680298 0 -0.25673188405007052 0.28646841290673969 0 -0.23885305679183191 0.2684477152547543 0 -0.23885305679183191 0.2684477152547543 0 -0.22396762922540969 0.27514125130055722 0 -0.22811192938500721 0.25829645972706228 0 -0.2378434694439332 0.28391349183279069 0 -0.23885305679183191 0.2684477152547543 0 -0.22396762922540969 0.27514125130055722 0 -0.22811192938500721 0.25829645972706228 0 -0.22371849106378741 0.2462845034026982 0 -0.23951274761537589 0.2474853768326048 0 -0.22396762922540969 0.27514125130055722 0 -0.22811192938500721 0.25829645972706228 0 -0.21408768962570049 0.25938306782852782 0 -0.22811192938500721 0.25829645972706228 0 -0.21408768962570049 0.25938306782852782 0 -0.22371849106378741 0.2462845034026982 0 -0.21408768962570049 0.25938306782852782 0 -0.19928355658839081 0.25766712263582692 0 -0.2066863838603582 0.24242880758937649 0 -0.21408768962570049 0.25938306782852782 0 -0.20163280817849061 0.26608937016207479 0 -0.19928355658839081 0.25766712263582692 0 -0.20734776279292019 0.28350900377750898 0 -0.21408768962570049 0.25938306782852782 0 -0.20734776279292019 0.28350900377750898 0 -0.22396762922540969 0.27514125130055722 0 -0.21408768962570049 0.25938306782852782 0 -0.20734776279292019 0.28350900377750898 0 -0.21408768962570049 0.25938306782852782 0 -0.20163280817849061 0.26608937016207479 0 -0.20734776279292019 0.28350900377750898 0 -0.20163280817849061 0.26608937016207479 0 -0.19375927737912041 0.2730469699042487 0 -0.20163280817849061 0.26608937016207479 0 -0.19375927737912041 0.2730469699042487 0 -0.19160269433399771 0.26436194023610149 0 -0.19375927737912041 0.2730469699042487 0 -0.19160269433399771 0.26436194023610149 0 -0.17991988358848049 0.26483995741486333 0 -0.19928355658839081 0.25766712263582692 0 -0.18259587964237009 0.2606558300825601 0 -0.2066863838603582 0.24242880758937649 0 -0.18259587964237009 0.2606558300825601 0 -0.19333963139412971 0.24385714112684301 0 -0.19928355658839081 0.25766712263582692 0 -0.19160269433399771 0.26436194023610149 0 -0.18259587964237009 0.2606558300825601 0 -0.18259587964237009 0.2606558300825601 0 -0.2066863838603582 0.24242880758937649 0 -0.20163280817849061 0.26608937016207479 0 -0.19928355658839081 0.25766712263582692 0 -0.19160269433399771 0.26436194023610149 0 -0.17991988358848049 0.26483995741486333 0 -0.17951502337729761 0.2392424245160312 0 -0.17991988358848049 0.26483995741486333 0 -0.17042143569771079 0.26099360542817968 0 -0.17951502337729761 0.2392424245160312 0 -0.18259587964237009 0.2606558300825601 0 -0.17991988358848049 0.26483995741486333 0 -0.17951502337729761 0.2392424245160312 0 -0.19160269433399771 0.26436194023610149 0 -0.18259587964237009 0.2606558300825601 0 -0.17991988358848049 0.26483995741486333 0 -0.18259587964237009 0.2606558300825601 0 -0.17991988358848049 0.26483995741486333 0 -0.17991988358848049 0.26483995741486333 0 -0.17042143569771079 0.26099360542817968 0 -0.17716480609589361 0.26914773470870201 0 -0.17042143569771079 0.26099360542817968 0 -0.1627301728603629 0.26968240911070368 0 -0.1532221513837192 0.25419418888983192 0 -0.17042143569771079 0.26099360542817968 0 -0.1532221513837192 0.25419418888983192 0 -0.17951502337729761 0.2392424245160312 0 -0.1627301728603629 0.26968240911070368 0 -0.1620479085915319 0.28265904931380531 0 -0.15271877240598841 0.27446820953958367 0 -0.17042143569771079 0.26099360542817968 0 -0.1627301728603629 0.26968240911070368 0 -0.1699765768805111 0.26885491792894611 0 -0.1627301728603629 0.26968240911070368 0 -0.1699765768805111 0.26885491792894611 0 -0.16860704672851359 0.27535934789532951 0 -0.1627301728603629 0.26968240911070368 0 -0.16860704672851359 0.27535934789532951 0 -0.1620479085915319 0.28265904931380531 0 -0.16860704672851359 0.27535934789532951 0 -0.17077339862397739 0.28423195702734899 0 -0.1620479085915319 0.28265904931380531 0 -0.17991988358848049 0.26483995741486333 0 -0.18034630435624241 0.29180066960649809 0 -0.17991988358848049 0.26483995741486333 0 -0.17716480609589361 0.26914773470870201 0 -0.18034630435624241 0.29180066960649809 0 -0.16860704672851359 0.27535934789532951 0 -0.17716480609589361 0.26914773470870201 0 -0.17077339862397739 0.28423195702734899 0 -0.19375927737912041 0.2730469699042487 0 -0.17991988358848049 0.26483995741486333 0 -0.18034630435624241 0.29180066960649809 0 -0.17042143569771079 0.26099360542817968 0 -0.1699765768805111 0.26885491792894611 0 -0.17716480609589361 0.26914773470870201 0 -0.1699765768805111 0.26885491792894611 0 -0.16860704672851359 0.27535934789532951 0 -0.17716480609589361 0.26914773470870201 0 -0.17991988358848049 0.26483995741486333 0 -0.17716480609589361 0.26914773470870201 0 -0.17716480609589361 0.26914773470870201 0 -0.18034630435624241 0.29180066960649809 0 -0.17077339862397739 0.28423195702734899 0 -0.18034630435624241 0.29180066960649809 0 -0.16501618616712291 0.29775164083812761 0 -0.17077339862397739 0.28423195702734899 0 -0.18077272512400111 0.31876138179813301 0 -0.18034630435624241 0.29180066960649809 0 -0.18077272512400111 0.31876138179813301 0 -0.18034630435624241 0.29180066960649809 0 -0.17285953122972289 0.31090601179704258 0 -0.18034630435624241 0.29180066960649809 0 -0.17285953122972289 0.31090601179704258 0 -0.16501618616712291 0.29775164083812761 0 -0.18077272512400111 0.31876138179813301 0 -0.20060783596013981 0.3076349397264902 0 -0.18034630435624241 0.29180066960649809 0 -0.16501618616712291 0.29775164083812761 0 -0.15329008091572741 0.28945008379417048 0 -0.1547819877644892 0.3091453549012102 0 -0.17285953122972289 0.31090601179704258 0 -0.16501618616712291 0.29775164083812761 0 -0.1638395481514221 0.30983277085387728 0 -0.16501618616712291 0.29775164083812761 0 -0.1638395481514221 0.30983277085387728 0 -0.1547819877644892 0.3091453549012102 0 -0.15943794807189979 0.31595908059817063 0 -0.1638395481514221 0.30983277085387728 0 -0.1547819877644892 0.3091453549012102 0 -0.16501618616712291 0.29775164083812761 0 -0.17077339862397739 0.28423195702734899 0 -0.1620479085915319 0.28265904931380531 0 -0.16501618616712291 0.29775164083812761 0 -0.1620479085915319 0.28265904931380531 0 -0.15329008091572741 0.28945008379417048 0 -0.1464174014568787 0.29836992735667278 0 -0.13959432766143021 0.2740409068552887 0 -0.1620479085915319 0.28265904931380531 0 -0.15329008091572741 0.28945008379417048 0 -0.15271877240598841 0.27446820953958367 0 -0.15329008091572741 0.28945008379417048 0 -0.1464174014568787 0.29836992735667278 0 -0.13959432766143021 0.2740409068552887 0 -0.15329008091572741 0.28945008379417048 0 -0.1464174014568787 0.29836992735667278 0 -0.1547819877644892 0.3091453549012102 0 -0.1532404752523272 0.32269894785805692 0 -0.1464174014568787 0.29836992735667278 0 -0.1360408951285694 0.3130357752318072 0 -0.14290423209994971 0.32095809222069871 0 -0.1464174014568787 0.29836992735667278 0 -0.1532404752523272 0.32269894785805692 0 -0.1464174014568787 0.29836992735667278 0 -0.1547819877644892 0.3091453549012102 0 -0.1360408951285694 0.3130357752318072 0 -0.1264253840414637 0.29528772621663357 0 -0.12136448477009221 0.30951812845445109 0 -0.1360408951285694 0.3130357752318072 0 -0.1464174014568787 0.29836992735667278 0 -0.1264253840414637 0.29528772621663357 0 -0.1464174014568787 0.29836992735667278 0 -0.1264253840414637 0.29528772621663357 0 -0.13959432766143021 0.2740409068552887 0 -0.1264253840414637 0.29528772621663357 0 -0.13959432766143021 0.2740409068552887 0 -0.1185373796182298 0.27837978510360878 0 -0.13959432766143021 0.2740409068552887 0 -0.1327712538659816 0.24971188635390451 0 -0.13959432766143021 0.2740409068552887 0 -0.116744543106582 0.25728181003509248 0 -0.1327712538659816 0.24971188635390451 0 -0.13959432766143021 0.2740409068552887 0 -0.1532221513837192 0.25419418888983192 0 -0.1327712538659816 0.24971188635390451 0 -0.1627301728603629 0.26968240911070368 0 -0.1532221513837192 0.25419418888983192 0 -0.15271877240598841 0.27446820953958367 0 -0.13959432766143021 0.2740409068552887 0 -0.1532221513837192 0.25419418888983192 0 -0.15271877240598841 0.27446820953958367 0 -0.15329008091572741 0.28945008379417048 0 -0.13959432766143021 0.2740409068552887 0 -0.15271877240598841 0.27446820953958367 0 -0.1061606963602142 0.26761343855331338 0 -0.1001789302111205 0.27974269320078388 0 -0.1185373796182298 0.27837978510360878 0 -0.1061606963602142 0.26761343855331338 0 -0.1001789302111205 0.27974269320078388 0 -0.092613028744971265 0.26767711662392979 0 -0.1061606963602142 0.26761343855331338 0 -0.10005120432924321 0.25626016583208688 0 -0.116744543106582 0.25728181003509248 0 -0.1061606963602142 0.26761343855331338 0 -0.10005120432924321 0.25626016583208688 0 -0.092613028744971265 0.26767711662392979 0 -0.10005120432924321 0.25626016583208688 0 -0.116744543106582 0.25728181003509248 0 -0.1045487088169635 0.24438495162540061 0 -0.13959432766143021 0.2740409068552887 0 -0.116744543106582 0.25728181003509248 0 -0.1185373796182298 0.27837978510360878 0 -0.1061606963602142 0.26761343855331338 0 -0.116744543106582 0.25728181003509248 0 -0.1185373796182298 0.27837978510360878 0 -0.1264253840414637 0.29528772621663357 0 -0.1127724140037699 0.30190213115774378 0 -0.1091517300735869 0.29135078386346752 0 -0.1264253840414637 0.29528772621663357 0 -0.1185373796182298 0.27837978510360878 0 -0.1091517300735869 0.29135078386346752 0 -0.1264253840414637 0.29528772621663357 0 -0.12136448477009221 0.30951812845445109 0 -0.1127724140037699 0.30190213115774378 0 -0.12136448477009221 0.30951812845445109 0 -0.1127724140037699 0.30190213115774378 0 -0.1061991548417472 0.31213959050036899 0 -0.1127724140037699 0.30190213115774378 0 -0.1061991548417472 0.31213959050036899 0 -0.1005146973405663 0.30141191014932889 0 -0.1127724140037699 0.30190213115774378 0 -0.1005146973405663 0.30141191014932889 0 -0.1091517300735869 0.29135078386346752 0 -0.1005146973405663 0.30141191014932889 0 -0.094430836728355921 0.29177030977787999 0 -0.089068024122243669 0.30112896568664949 0 -0.1061991548417472 0.31213959050036899 0 -0.1005146973405663 0.30141191014932889 0 -0.090928135519314904 0.31087631578889069 0 -0.1001789302111205 0.27974269320078388 0 -0.1185373796182298 0.27837978510360878 0 -0.1091517300735869 0.29135078386346752 0 -0.1005146973405663 0.30141191014932889 0 -0.1091517300735869 0.29135078386346752 0 -0.094430836728355921 0.29177030977787999 0 -0.1001789302111205 0.27974269320078388 0 -0.1091517300735869 0.29135078386346752 0 -0.094430836728355921 0.29177030977787999 0 -0.1001789302111205 0.27974269320078388 0 -0.094430836728355921 0.29177030977787999 0 -0.086145563619835275 0.2816538088019015 0 -0.094430836728355921 0.29177030977787999 0 -0.086145563619835275 0.2816538088019015 0 -0.081526075002782958 0.29533369696514911 0 -0.094430836728355921 0.29177030977787999 0 -0.081526075002782958 0.29533369696514911 0 -0.089068024122243669 0.30112896568664949 0 -0.086145563619835275 0.2816538088019015 0 -0.081526075002782958 0.29533369696514911 0 -0.070830210313899522 0.29195808219782299 0 -0.090928135519314904 0.31087631578889069 0 -0.079482369404140468 0.30560554845979909 0 -0.074915307566508993 0.31649039264194578 0 -0.090928135519314904 0.31087631578889069 0 -0.089068024122243669 0.30112896568664949 0 -0.079482369404140468 0.30560554845979909 0 -0.1005146973405663 0.30141191014932889 0 -0.090928135519314904 0.31087631578889069 0 -0.089068024122243669 0.30112896568664949 0 -0.081526075002782958 0.29533369696514911 0 -0.089068024122243669 0.30112896568664949 0 -0.079482369404140468 0.30560554845979909 0 -0.054647974243728172 0.30430181459310768 0 -0.074915307566508993 0.31649039264194578 0 -0.079482369404140468 0.30560554845979909 0 -0.068661557073843291 0.3005821027458685 0 -0.074915307566508993 0.31649039264194578 0 -0.068661557073843291 0.3005821027458685 0 -0.054647974243728172 0.30430181459310768 0 -0.074915307566508993 0.31649039264194578 0 -0.081526075002782958 0.29533369696514911 0 -0.079482369404140468 0.30560554845979909 0 -0.068661557073843291 0.3005821027458685 0 -0.070830210313899522 0.29195808219782299 0 -0.067453711470644842 0.27023673344429472 0 -0.052574645638654917 0.28480468584225688 0 -0.081526075002782958 0.29533369696514911 0 -0.068661557073843291 0.3005821027458685 0 -0.070830210313899522 0.29195808219782299 0 -0.068661557073843291 0.3005821027458685 0 -0.070830210313899522 0.29195808219782299 0 -0.068661557073843291 0.3005821027458685 0 -0.070830210313899522 0.29195808219782299 0 -0.059610011597539182 0.29372125904316332 0 -0.086145563619835275 0.2816538088019015 0 -0.070830210313899522 0.29195808219782299 0 -0.077256670317037021 0.26667642926106078 0 -0.070830210313899522 0.29195808219782299 0 -0.067453711470644842 0.27023673344429472 0 -0.070830210313899522 0.29195808219782299 0 -0.077256670317037021 0.26667642926106078 0 -0.070830210313899522 0.29195808219782299 0 -0.067453711470644842 0.27023673344429472 0 -0.077256670317037021 0.26667642926106078 0 -0.086145563619835275 0.2816538088019015 0 -0.077256670317037021 0.26667642926106078 0 -0.092613028744971265 0.26767711662392979 0 -0.1001789302111205 0.27974269320078388 0 -0.086145563619835275 0.2816538088019015 0 -0.092613028744971265 0.26767711662392979 0 -0.077256670317037021 0.26667642926106078 0 -0.086302411784292182 0.25447467192259482 0 -0.083666647235009842 0.24139059785004849 0 -0.077256670317037021 0.26667642926106078 0 -0.083666647235009842 0.24139059785004849 0 -0.10005120432924321 0.25626016583208688 0 -0.086302411784292182 0.25447467192259482 0 -0.094679029848152713 0.24609146959404629 0 -0.10005120432924321 0.25626016583208688 0 -0.092613028744971265 0.26767711662392979 0 -0.086302411784292182 0.25447467192259482 0 -0.077256670317037021 0.26667642926106078 0 -0.092613028744971265 0.26767711662392979 0 -0.086302411784292182 0.25447467192259482 0 -0.077256670317037021 0.26667642926106078 0 -0.064077212627390134 0.24851538469076631 0 -0.083666647235009842 0.24139059785004849 0 -0.067453711470644842 0.27023673344429472 0 -0.077256670317037021 0.26667642926106078 0 -0.064077212627390134 0.24851538469076631 0 -0.067453711470644842 0.27023673344429472 0 -0.064077212627390134 0.24851538469076631 0 -0.067453711470644842 0.27023673344429472 0 -0.04634179854296408 0.26632715615711849 0 -0.064077212627390134 0.24851538469076631 0 -0.04634179854296408 0.26632715615711849 0 -0.064077212627390134 0.24851538469076631 0 -0.046578861792199937 0.24361118962503389 0 -0.067453711470644842 0.27023673344429472 0 -0.04634179854296408 0.26632715615711849 0 -0.052574645638654917 0.28480468584225688 0 -0.04634179854296408 0.26632715615711849 0 -0.034380640920947357 0.29211323654426968 0 -0.052574645638654917 0.28480468584225688 0 -0.04634179854296408 0.26632715615711849 0 -0.022607631921228569 0.27169805167723737 0 -0.034380640920947357 0.29211323654426968 0 -0.04634179854296408 0.26632715615711849 0 -0.03068766995985707 0.25286978792993342 0 -0.022607631921228569 0.27169805167723737 0 -0.04634179854296408 0.26632715615711849 0 -0.03068766995985707 0.25286978792993342 0 -0.046578861792199937 0.24361118962503389 0 -0.03068766995985707 0.25286978792993342 0 -0.022607631921228569 0.27169805167723737 0 -0.0098044441781452579 0.25473951632571468 0 -0.022607631921228569 0.27169805167723737 0 -0.015153941911089409 0.29208252597919021 0 3.3590645499582607e-05 0.27236849017123349 0 -0.022607631921228569 0.27169805167723737 0 -0.0098044441781452579 0.25473951632571468 0 3.3590645499582607e-05 0.27236849017123349 0 -0.0098044441781452579 0.25473951632571468 0 0.0073806355134042019 0.25529449578482938 0 3.3590645499582607e-05 0.27236849017123349 0 -0.0088759444352828343 0.31092800175718183 0 -0.015153941911089409 0.29208252597919021 0 0.0083336089875100904 0.29343585490586271 0 -0.015153941911089409 0.29208252597919021 0 0.0083336089875100904 0.29343585490586271 0 3.3590645499582607e-05 0.27236849017123349 0 -0.022607631921228569 0.27169805167723737 0 -0.015153941911089409 0.29208252597919021 0 -0.034380640920947357 0.29211323654426968 0 -0.0088759444352828343 0.31092800175718183 0 -0.015153941911089409 0.29208252597919021 0 -0.03508050583840458 0.3127012881250415 0 -0.015153941911089409 0.29208252597919021 0 -0.034380640920947357 0.29211323654426968 0 -0.03508050583840458 0.3127012881250415 0 -0.034380640920947357 0.29211323654426968 0 -0.054647974243728172 0.30430181459310768 0 -0.034380640920947357 0.29211323654426968 0 -0.054647974243728172 0.30430181459310768 0 -0.03508050583840458 0.3127012881250415 0 -0.034380640920947357 0.29211323654426968 0 -0.052574645638654917 0.28480468584225688 0 -0.054647974243728172 0.30430181459310768 0 -0.052574645638654917 0.28480468584225688 0 -0.059610011597539182 0.29372125904316332 0 -0.054647974243728172 0.30430181459310768 0 -0.070830210313899522 0.29195808219782299 0 -0.052574645638654917 0.28480468584225688 0 -0.059610011597539182 0.29372125904316332 0 -0.068661557073843291 0.3005821027458685 0 -0.059610011597539182 0.29372125904316332 0 -0.054647974243728172 0.30430181459310768 0 -0.058679851530075752 0.32054224196392622 0 -0.045885169747561752 0.33132665820789581 0 -0.073191842414501496 0.33174208285196288 0 -0.054647974243728172 0.30430181459310768 0 -0.058679851530075752 0.32054224196392622 0 -0.03508050583840458 0.3127012881250415 0 -0.045885169747561752 0.33132665820789581 0 -0.067541502003893042 0.3482616942848048 0 -0.073191842414501496 0.33174208285196288 0 -0.045885169747561752 0.33132665820789581 0 -0.073191842414501496 0.33174208285196288 0 -0.045885169747561752 0.33132665820789581 0 -0.018578497080621779 0.33091123356382868 0 -0.045885169747561752 0.33132665820789581 0 -0.03508050583840458 0.3127012881250415 0 -0.018578497080621779 0.33091123356382868 0 -0.058679851530075752 0.32054224196392622 0 -0.045885169747561752 0.33132665820789581 0 -0.03508050583840458 0.3127012881250415 0 -0.0088759444352828343 0.31092800175718183 0 -0.03508050583840458 0.3127012881250415 0 -0.018578497080621779 0.33091123356382868 0 -0.018578497080621779 0.33091123356382868 0 -0.0050552824635438226 0.34569829691311771 0 -0.02749858990914332 0.35301881799134821 0 -0.045885169747561752 0.33132665820789581 0 -0.018578497080621779 0.33091123356382868 0 -0.02749858990914332 0.35301881799134821 0 -0.018578497080621779 0.33091123356382868 0 -0.0050552824635438226 0.34569829691311771 0 0.0064742168078369342 0.3347740657525386 0 -0.018578497080621779 0.33091123356382868 0 0.0087281755863181168 0.33049580891976171 0 -0.018578497080621779 0.33091123356382868 0 0.0064742168078369342 0.3347740657525386 0 0.0087281755863181168 0.33049580891976171 0 -0.018578497080621779 0.33091123356382868 0 -0.003280447873963227 0.32161399115684158 0 0.0087281755863181168 0.33049580891976171 0 -0.0088759444352828343 0.31092800175718183 0 -0.018578497080621779 0.33091123356382868 0 -0.003280447873963227 0.32161399115684158 0 -0.0088759444352828343 0.31092800175718183 0 -0.003280447873963227 0.32161399115684158 0 0.0056044744337335906 0.31412092038659428 0 -0.0052616759920083916 0.36132776784546622 0 -0.0045342830833226501 0.3863935686212247 0 -0.0052616759920083916 0.36132776784546622 0 -0.024169526760701381 0.37267007813580277 0 -0.0045342830833226501 0.3863935686212247 0 -0.0052616759920083916 0.36132776784546622 0 -0.0045342830833226501 0.3863935686212247 0 0.0079023355216259559 0.37348921158265391 0 -0.0052616759920083916 0.36132776784546622 0 -0.0050552824635438226 0.34569829691311771 0 0.0061318462344260851 0.35417601161121459 0 -0.0052616759920083916 0.36132776784546622 0 -0.0050552824635438226 0.34569829691311771 0 -0.02749858990914332 0.35301881799134821 0 -0.02749858990914332 0.35301881799134821 0 -0.024169526760701381 0.37267007813580277 0 -0.04149310004589906 0.37124785083274592 0 -0.0052616759920083916 0.36132776784546622 0 -0.02749858990914332 0.35301881799134821 0 -0.024169526760701381 0.37267007813580277 0 -0.02749858990914332 0.35301881799134821 0 -0.04149310004589906 0.37124785083274592 0 -0.051818441616049399 0.35735321764765782 0 -0.045885169747561752 0.33132665820789581 0 -0.02749858990914332 0.35301881799134821 0 -0.051818441616049399 0.35735321764765782 0 -0.045885169747561752 0.33132665820789581 0 -0.051818441616049399 0.35735321764765782 0 -0.067541502003893042 0.3482616942848048 0 -0.04149310004589906 0.37124785083274592 0 -0.051818441616049399 0.35735321764765782 0 -0.056875823715872062 0.37631267096962301 0 -0.051818441616049399 0.35735321764765782 0 -0.069616273344600341 0.3650636543096733 0 -0.056875823715872062 0.37631267096962301 0 -0.069616273344600341 0.3650636543096733 0 -0.085055645225370236 0.37193713089684588 0 -0.071788917171084016 0.3809272333041443 0 -0.069616273344600341 0.3650636543096733 0 -0.071788917171084016 0.3809272333041443 0 -0.056875823715872062 0.37631267096962301 0 -0.069616273344600341 0.3650636543096733 0 -0.085055645225370236 0.37193713089684588 0 -0.084100884505446297 0.3554636863979832 0 -0.085055645225370236 0.37193713089684588 0 -0.084100884505446297 0.3554636863979832 0 -0.1008292236537022 0.36036332390371462 0 -0.084100884505446297 0.3554636863979832 0 -0.067541502003893042 0.3482616942848048 0 -0.085709514220790303 0.34113927750747819 0 -0.084100884505446297 0.3554636863979832 0 -0.085709514220790303 0.34113927750747819 0 -0.099722393067727538 0.34687368244968458 0 -0.069616273344600341 0.3650636543096733 0 -0.084100884505446297 0.3554636863979832 0 -0.067541502003893042 0.3482616942848048 0 -0.051818441616049399 0.35735321764765782 0 -0.069616273344600341 0.3650636543096733 0 -0.067541502003893042 0.3482616942848048 0 -0.067541502003893042 0.3482616942848048 0 -0.073191842414501496 0.33174208285196288 0 -0.085709514220790303 0.34113927750747819 0 -0.058679851530075752 0.32054224196392622 0 -0.073191842414501496 0.33174208285196288 0 -0.074915307566508993 0.31649039264194578 0 -0.054647974243728172 0.30430181459310768 0 -0.058679851530075752 0.32054224196392622 0 -0.074915307566508993 0.31649039264194578 0 -0.073191842414501496 0.33174208285196288 0 -0.074915307566508993 0.31649039264194578 0 -0.095182640889289766 0.32867897069078372 0 -0.090928135519314904 0.31087631578889069 0 -0.074915307566508993 0.31649039264194578 0 -0.095182640889289766 0.32867897069078372 0 -0.074915307566508993 0.31649039264194578 0 -0.095182640889289766 0.32867897069078372 0 -0.073191842414501496 0.33174208285196288 0 -0.085709514220790303 0.34113927750747819 0 -0.095182640889289766 0.32867897069078372 0 -0.085709514220790303 0.34113927750747819 0 -0.095182640889289766 0.32867897069078372 0 -0.099722393067727538 0.34687368244968458 0 -0.095182640889289766 0.32867897069078372 0 -0.1154499742120704 0.34086754873962172 0 -0.095182640889289766 0.32867897069078372 0 -0.1098512680755149 0.32470257897991811 0 -0.1154499742120704 0.34086754873962172 0 -0.095182640889289766 0.32867897069078372 0 -0.1154499742120704 0.34086754873962172 0 -0.099722393067727538 0.34687368244968458 0 -0.1061991548417472 0.31213959050036899 0 -0.090928135519314904 0.31087631578889069 0 -0.095182640889289766 0.32867897069078372 0 -0.1061991548417472 0.31213959050036899 0 -0.095182640889289766 0.32867897069078372 0 -0.1098512680755149 0.32470257897991811 0 -0.1061991548417472 0.31213959050036899 0 -0.115330384384618 0.31728312261503783 0 -0.1098512680755149 0.32470257897991811 0 -0.12136448477009221 0.30951812845445109 0 -0.1061991548417472 0.31213959050036899 0 -0.115330384384618 0.31728312261503783 0 -0.115330384384618 0.31728312261503783 0 -0.1098512680755149 0.32470257897991811 0 -0.12142985306419619 0.32461006626398298 0 -0.12722248981549561 0.3181430308760943 0 -0.115330384384618 0.31728312261503783 0 -0.12142985306419619 0.32461006626398298 0 -0.12722248981549561 0.3181430308760943 0 -0.12136448477009221 0.30951812845445109 0 -0.115330384384618 0.31728312261503783 0 -0.1098512680755149 0.32470257897991811 0 -0.12142985306419619 0.32461006626398298 0 -0.1154499742120704 0.34086754873962172 0 -0.13363790056006589 0.32585743918209531 0 -0.12142985306419619 0.32461006626398298 0 -0.1154499742120704 0.34086754873962172 0 -0.12523428666698541 0.37069662222368049 0 -0.1294360936135257 0.3482770307028879 0 -0.1154159689866658 0.35521970897278921 0 -0.1154499742120704 0.34086754873962172 0 -0.1154159689866658 0.35521970897278921 0 -0.099722393067727538 0.34687368244968458 0 -0.1294360936135257 0.3482770307028879 0 -0.1154499742120704 0.34086754873962172 0 -0.1154159689866658 0.35521970897278921 0 -0.12523428666698541 0.37069662222368049 0 -0.1154159689866658 0.35521970897278921 0 -0.11117961403065831 0.36839673047223442 0 -0.12523428666698541 0.37069662222368049 0 -0.11117961403065831 0.36839673047223442 0 -0.1123930043347208 0.38073562172137532 0 -0.11117961403065831 0.36839673047223442 0 -0.1008292236537022 0.36036332390371462 0 -0.09970079949094271 0.37763208900548878 0 -0.1154159689866658 0.35521970897278921 0 -0.11117961403065831 0.36839673047223442 0 -0.1008292236537022 0.36036332390371462 0 -0.085055645225370236 0.37193713089684588 0 -0.1008292236537022 0.36036332390371462 0 -0.09970079949094271 0.37763208900548878 0 -0.084100884505446297 0.3554636863979832 0 -0.1008292236537022 0.36036332390371462 0 -0.099722393067727538 0.34687368244968458 0 -0.1154159689866658 0.35521970897278921 0 -0.1008292236537022 0.36036332390371462 0 -0.099722393067727538 0.34687368244968458 0 -0.1036554482544351 0.39516830989393792 0 -0.1102807352191843 0.41378788895710661 0 -0.09259379641793411 0.40948313349934218 0 -0.1036554482544351 0.39516830989393792 0 -0.09970079949094271 0.37763208900548878 0 -0.1123930043347208 0.38073562172137532 0 -0.1036554482544351 0.39516830989393792 0 -0.09970079949094271 0.37763208900548878 0 -0.084297773186445962 0.39217279846007119 0 -0.11117961403065831 0.36839673047223442 0 -0.09970079949094271 0.37763208900548878 0 -0.1123930043347208 0.38073562172137532 0 -0.12523428666698541 0.37069662222368049 0 -0.1123930043347208 0.38073562172137532 0 -0.12103247972044499 0.39311621374447298 0 -0.1036554482544351 0.39516830989393792 0 -0.1123930043347208 0.38073562172137532 0 -0.12103247972044499 0.39311621374447298 0 -0.12523428666698541 0.37069662222368049 0 -0.12103247972044499 0.39311621374447298 0 -0.1036554482544351 0.39516830989393792 0 -0.12103247972044499 0.39311621374447298 0 -0.1102807352191843 0.41378788895710661 0 -0.12997925716256209 0.39431640422262348 0 -0.1102807352191843 0.41378788895710661 0 -0.12997925716256209 0.39431640422262348 0 -0.12103247972044499 0.39311621374447298 0 -0.1102807352191843 0.41378788895710661 0 -0.12623023605756489 0.41143854881348008 0 -0.1102807352191843 0.41378788895710661 0 -0.1242188050129694 0.42501783294758849 0 -0.12623023605756489 0.41143854881348008 0 -0.12997925716256209 0.39431640422262348 0 -0.1102807352191843 0.41378788895710661 0 -0.1102807352191843 0.41378788895710661 0 -0.1104760497445479 0.43296770510105842 0 -0.1242188050129694 0.42501783294758849 0 -0.1104760497445479 0.43296770510105842 0 -0.1242188050129694 0.42501783294758849 0 -0.1248743097581413 0.44162978393037222 0 -0.1102807352191843 0.41378788895710661 0 -0.090582213275806372 0.43325937369158968 0 -0.1102807352191843 0.41378788895710661 0 -0.1104760497445479 0.43296770510105842 0 -0.090582213275806372 0.43325937369158968 0 -0.1102807352191843 0.41378788895710661 0 -0.09259379641793411 0.40948313349934218 0 -0.090582213275806372 0.43325937369158968 0 -0.09259379641793411 0.40948313349934218 0 -0.090582213275806372 0.43325937369158968 0 -0.074152812153798875 0.41302729649400538 0 -0.090582213275806372 0.43325937369158968 0 -0.066022972602334681 0.42956105407568013 0 -0.074152812153798875 0.41302729649400538 0 -0.066022972602334681 0.42956105407568013 0 -0.074152812153798875 0.41302729649400538 0 -0.049329429094603867 0.41198700835812702 0 -0.074152812153798875 0.41302729649400538 0 -0.063154715464804681 0.39516467689365731 0 -0.084297773186445962 0.39217279846007119 0 -0.09259379641793411 0.40948313349934218 0 -0.074152812153798875 0.41302729649400538 0 -0.084297773186445962 0.39217279846007119 0 -0.1036554482544351 0.39516830989393792 0 -0.09259379641793411 0.40948313349934218 0 -0.084297773186445962 0.39217279846007119 0 -0.085055645225370236 0.37193713089684588 0 -0.09970079949094271 0.37763208900548878 0 -0.084297773186445962 0.39217279846007119 0 -0.085055645225370236 0.37193713089684588 0 -0.084297773186445962 0.39217279846007119 0 -0.071788917171084016 0.3809272333041443 0 -0.063154715464804681 0.39516467689365731 0 -0.084297773186445962 0.39217279846007119 0 -0.071788917171084016 0.3809272333041443 0 -0.063154715464804681 0.39516467689365731 0 -0.071788917171084016 0.3809272333041443 0 -0.056875823715872062 0.37631267096962301 0 -0.04149310004589906 0.37124785083274592 0 -0.056875823715872062 0.37631267096962301 0 -0.04338349465279491 0.38811939282985902 0 -0.063154715464804681 0.39516467689365731 0 -0.056875823715872062 0.37631267096962301 0 -0.04338349465279491 0.38811939282985902 0 -0.063154715464804681 0.39516467689365731 0 -0.04338349465279491 0.38811939282985902 0 -0.049329429094603867 0.41198700835812702 0 -0.04338349465279491 0.38811939282985902 0 -0.024844401122877391 0.39948633252540261 0 -0.049329429094603867 0.41198700835812702 0 -0.024169526760701381 0.37267007813580277 0 -0.04149310004589906 0.37124785083274592 0 -0.04338349465279491 0.38811939282985902 0 -0.024169526760701381 0.37267007813580277 0 -0.04338349465279491 0.38811939282985902 0 -0.024844401122877391 0.39948633252540261 0 -0.024169526760701381 0.37267007813580277 0 -0.024844401122877391 0.39948633252540261 0 -0.0045342830833226501 0.3863935686212247 0 -0.024844401122877391 0.39948633252540261 0 -0.0045342830833226501 0.3863935686212247 0 -0.0038092142255275289 0.41137928311071797 0 -0.0045342830833226501 0.3863935686212247 0 -0.0038092142255275289 0.41137928311071797 0 -0.024169526760701381 0.37267007813580277 0 -0.0045342830833226501 0.3863935686212247 0 -0.0030841453677343121 0.43636499760021141 0 -0.0038092142255275289 0.41137928311071797 0 -0.026324668085478481 0.42779129271708288 0 -0.0030841453677343121 0.43636499760021141 0 -0.0038092142255275289 0.41137928311071797 0 -0.024844401122877391 0.39948633252540261 0 -0.0038092142255275289 0.41137928311071797 0 -0.026324668085478481 0.42779129271708288 0 -0.026324668085478481 0.42779129271708288 0 -0.049329429094603867 0.41198700835812702 0 -0.049413859365407042 0.43472239834070731 0 -0.024844401122877391 0.39948633252540261 0 -0.026324668085478481 0.42779129271708288 0 -0.049329429094603867 0.41198700835812702 0 -0.074152812153798875 0.41302729649400538 0 -0.063154715464804681 0.39516467689365731 0 -0.049329429094603867 0.41198700835812702 0 -0.066022972602334681 0.42956105407568013 0 -0.049329429094603867 0.41198700835812702 0 -0.049413859365407042 0.43472239834070731 0 -0.066022972602334681 0.42956105407568013 0 -0.049413859365407042 0.43472239834070731 0 -0.0708836913324285 0.45273085842607269 0 -0.0393713920190637 0.45112048084748302 0 -0.052402143273794041 0.47435943831340011 0 -0.0708836913324285 0.45273085842607269 0 -0.049413859365407042 0.43472239834070731 0 -0.0393713920190637 0.45112048084748302 0 -0.0708836913324285 0.45273085842607269 0 -0.0393713920190637 0.45112048084748302 0 -0.02876560419008364 0.47203163756026523 0 -0.052402143273794041 0.47435943831340011 0 -0.026324668085478481 0.42779129271708288 0 -0.049413859365407042 0.43472239834070731 0 -0.0393713920190637 0.45112048084748302 0 -0.0030841453677343121 0.43636499760021141 0 -0.026324668085478481 0.42779129271708288 0 -0.01888650882967766 0.45329231687868837 0 -0.026324668085478481 0.42779129271708288 0 -0.0393713920190637 0.45112048084748302 0 -0.01888650882967766 0.45329231687868837 0 -0.0393713920190637 0.45112048084748302 0 -0.01888650882967766 0.45329231687868837 0 -0.02876560419008364 0.47203163756026523 0 -0.01888650882967766 0.45329231687868837 0 -0.01341416680576474 0.47109478045738301 0 -0.02876560419008364 0.47203163756026523 0 -0.01888650882967766 0.45329231687868837 0 -0.002359076509941094 0.46135071208970457 0 -0.01341416680576474 0.47109478045738301 0 -0.0030841453677343121 0.43636499760021141 0 -0.01888650882967766 0.45329231687868837 0 -0.002359076509941094 0.46135071208970457 0 -0.0030841453677343121 0.43636499760021141 0 -0.002359076509941094 0.46135071208970457 0 -0.0090346539348886701 0.5 0 -0.0016340076521478781 0.48633642657919801 0 -0.017460482120078509 0.48648722646036041 0 -0.0016340076521478781 0.48633642657919801 0 -0.01341416680576474 0.47109478045738301 0 -0.017460482120078509 0.48648722646036041 0 -0.002359076509941094 0.46135071208970457 0 -0.0016340076521478781 0.48633642657919801 0 -0.01341416680576474 0.47109478045738301 0 -0.002359076509941094 0.46135071208970457 0 -0.0016340076521478781 0.48633642657919801 0 -0.002359076509941094 0.46135071208970457 0 -0.0016340076521478781 0.48633642657919801 0 0.0036787250480955699 0.47408322248379448 0 -0.01341416680576474 0.47109478045738301 0 -0.02876560419008364 0.47203163756026523 0 -0.017460482120078509 0.48648722646036041 0 -0.02876560419008364 0.47203163756026523 0 -0.017460482120078509 0.48648722646036041 0 -0.038135422162237087 0.5 0 -0.0090346539348886701 0.5 0 -0.017460482120078509 0.48648722646036041 0 -0.038135422162237087 0.5 0 -0.02876560419008364 0.47203163756026523 0 -0.038135422162237087 0.5 0 -0.052402143273794041 0.47435943831340011 0 -0.038135422162237087 0.5 0 -0.052402143273794041 0.47435943831340011 0 -0.067236190389585393 0.5 0 -0.052402143273794041 0.47435943831340011 0 -0.067236190389585393 0.5 0 -0.073349005429332273 0.47921852398434828 0 -0.067236190389585393 0.5 0 -0.073349005429332273 0.47921852398434828 0 -0.096336958616933588 0.5 0 -0.073349005429332273 0.47921852398434828 0 -0.096336958616933588 0.5 0 -0.093805091172543903 0.47224368257650851 0 -0.052402143273794041 0.47435943831340011 0 -0.073349005429332273 0.47921852398434828 0 -0.0708836913324285 0.45273085842607269 0 -0.0708836913324285 0.45273085842607269 0 -0.1043361340672995 0.45358667135048331 0 -0.093805091172543903 0.47224368257650851 0 -0.090582213275806372 0.43325937369158968 0 -0.0708836913324285 0.45273085842607269 0 -0.1043361340672995 0.45358667135048331 0 -0.090582213275806372 0.43325937369158968 0 -0.066022972602334681 0.42956105407568013 0 -0.0708836913324285 0.45273085842607269 0 -0.090582213275806372 0.43325937369158968 0 -0.0708836913324285 0.45273085842607269 0 -0.073349005429332273 0.47921852398434828 0 -0.0708836913324285 0.45273085842607269 0 -0.093805091172543903 0.47224368257650851 0 -0.1043361340672995 0.45358667135048331 0 -0.12052644250191399 0.4682622397032008 0 -0.093805091172543903 0.47224368257650851 0 -0.1104760497445479 0.43296770510105842 0 -0.090582213275806372 0.43325937369158968 0 -0.1043361340672995 0.45358667135048331 0 -0.12618187852634369 0.45882241462805679 0 -0.1043361340672995 0.45358667135048331 0 -0.1248743097581413 0.44162978393037222 0 -0.1104760497445479 0.43296770510105842 0 -0.1043361340672995 0.45358667135048331 0 -0.1248743097581413 0.44162978393037222 0 -0.12618187852634369 0.45882241462805679 0 -0.1043361340672995 0.45358667135048331 0 -0.12052644250191399 0.4682622397032008 0 -0.1317912103042716 0.47600940211286807 0 -0.12052644250191399 0.4682622397032008 0 -0.11642361318749669 0.48420448820259387 0 -0.12052644250191399 0.4682622397032008 0 -0.11642361318749669 0.48420448820259387 0 -0.093805091172543903 0.47224368257650851 0 -0.12543772684428189 0.5 0 -0.11642361318749669 0.48420448820259387 0 -0.096336958616933588 0.5 0 -0.12543772684428189 0.5 0 -0.13178312884530541 0.48627570230508688 0 -0.11642361318749669 0.48420448820259387 0 -0.11642361318749669 0.48420448820259387 0 -0.096336958616933588 0.5 0 -0.093805091172543903 0.47224368257650851 0 -0.1693268494853358 0.079538523923443544 0 -0.16945340910355561 0.089496265134995978 0 -0.1618062267740645 0.07958177760614682 0 -0.16945340910355561 0.089496265134995978 0 -0.1618062267740645 0.07958177760614682 0 -0.1616157516695074 0.095139316102685473 0 -0.1618062267740645 0.07958177760614682 0 -0.1616157516695074 0.095139316102685473 0 -0.14767322655010931 0.084806545451415583 0 -0.1618062267740645 0.07958177760614682 0 -0.16640070467345031 0.07104807823334372 0 -0.15517576509654349 0.068304766057398533 0 -0.16640070467345031 0.07104807823334372 0 -0.15517576509654349 0.068304766057398533 0 -0.16451238623864939 0.061110077383343737 0 -0.16640070467345031 0.07104807823334372 0 -0.17354141001077031 0.063798093567348918 0 -0.16451238623864939 0.061110077383343737 0 -0.17157411485926041 0.074087910936242465 0 -0.16640070467345031 0.07104807823334372 0 -0.17354141001077031 0.063798093567348918 0 -0.1693268494853358 0.079538523923443544 0 -0.17157411485926041 0.074087910936242465 0 -0.16640070467345031 0.07104807823334372 0 -0.1693268494853358 0.079538523923443544 0 -0.1618062267740645 0.07958177760614682 0 -0.16640070467345031 0.07104807823334372 0 -0.17354141001077031 0.063798093567348918 0 -0.17702749526748529 0.081966948020833708 0 -0.17656426821359539 0.052679136019797047 0 -0.18185637422210199 0.067243003367259677 0 -0.17702749526748529 0.081966948020833708 0 -0.17656426821359539 0.052679136019797047 0 -0.17702749526748529 0.081966948020833708 0 -0.17656426821359539 0.052679136019797047 0 -0.17157411485926041 0.074087910936242465 0 -0.17354141001077031 0.063798093567348918 0 -0.17702749526748529 0.081966948020833708 0 -0.18185637422210199 0.067243003367259677 0 -0.1853153676200878 0.058850167416455039 0 -0.18892740292417859 0.064703221589215376 0 -0.18185637422210199 0.067243003367259677 0 -0.19050021368002351 0.072419239531055349 0 -0.18892740292417859 0.064703221589215376 0 -0.18185637422210199 0.067243003367259677 0 -0.18141962227324601 0.075216957450553817 0 -0.17702749526748529 0.081966948020833708 0 -0.18185637422210199 0.067243003367259677 0 -0.18141962227324601 0.075216957450553817 0 -0.19050021368002351 0.072419239531055349 0 -0.18141962227324601 0.075216957450553817 0 -0.1867192510276118 0.077748512173410014 0 -0.19050021368002351 0.072419239531055349 0 -0.18141962227324601 0.075216957450553817 0 -0.1867192510276118 0.077748512173410014 0 -0.1819129998543452 0.079414551687582866 0 -0.18248563084903771 0.082725789105533951 0 -0.17702749526748529 0.081966948020833708 0 -0.17749072232138041 0.1112547600218704 0 -0.1867192510276118 0.077748512173410014 0 -0.18248563084903771 0.082725789105533951 0 -0.1819129998543452 0.079414551687582866 0 -0.18141962227324601 0.075216957450553817 0 -0.1819129998543452 0.079414551687582866 0 -0.17702749526748529 0.081966948020833708 0 -0.18248563084903771 0.082725789105533951 0 -0.1819129998543452 0.079414551687582866 0 -0.17702749526748529 0.081966948020833708 0 -0.1693268494853358 0.079538523923443544 0 -0.16945340910355561 0.089496265134995978 0 -0.17702749526748529 0.081966948020833708 0 -0.1693268494853358 0.079538523923443544 0 -0.17157411485926041 0.074087910936242465 0 -0.17702749526748529 0.081966948020833708 0 -0.17702749526748529 0.081966948020833708 0 -0.17749072232138041 0.1112547600218704 0 -0.16945340910355561 0.089496265134995978 0 -0.17702749526748529 0.081966948020833708 0 -0.17749072232138041 0.1112547600218704 0 -0.17749072232138041 0.1112547600218704 0 -0.1951643137470572 0.093770439387570487 0 -0.18248563084903771 0.082725789105533951 0 -0.17749072232138041 0.1112547600218704 0 -0.1951643137470572 0.093770439387570487 0 -0.17749072232138041 0.1112547600218704 0 -0.19150979458678249 0.1243728737611647 0 -0.17789558253256721 0.1368522929207025 0 -0.17749072232138041 0.1112547600218704 0 -0.17789558253256721 0.1368522929207025 0 -0.17749072232138041 0.1112547600218704 0 -0.16113979031376621 0.12743058591966341 0 -0.17749072232138041 0.1112547600218704 0 -0.15084139672814201 0.110160429760413 0 -0.16113979031376621 0.12743058591966341 0 -0.17749072232138041 0.1112547600218704 0 -0.1616157516695074 0.095139316102685473 0 -0.15084139672814201 0.110160429760413 0 -0.16945340910355561 0.089496265134995978 0 -0.17749072232138041 0.1112547600218704 0 -0.1616157516695074 0.095139316102685473 0 -0.1616157516695074 0.095139316102685473 0 -0.15084139672814201 0.110160429760413 0 -0.14767322655010931 0.084806545451415583 0 -0.15084139672814201 0.110160429760413 0 -0.1348328660863515 0.097215266237156234 0 -0.14767322655010931 0.084806545451415583 0 -0.15084139672814201 0.110160429760413 0 -0.13137241316615089 0.11357835761918721 0 -0.14300315410871919 0.1253406317882016 0 -0.15084139672814201 0.110160429760413 0 -0.16113979031376621 0.12743058591966341 0 -0.14300315410871919 0.1253406317882016 0 -0.13137241316615089 0.11357835761918721 0 -0.14300315410871919 0.1253406317882016 0 -0.12687331202938101 0.13192737382428379 0 -0.13137241316615089 0.11357835761918721 0 -0.1348328660863515 0.097215266237156234 0 -0.1198812247159142 0.095002477965890675 0 -0.15084139672814201 0.110160429760413 0 -0.13137241316615089 0.11357835761918721 0 -0.1348328660863515 0.097215266237156234 0 -0.1348328660863515 0.097215266237156234 0 -0.12533951967512769 0.078274991835817334 0 -0.1198812247159142 0.095002477965890675 0 -0.1348328660863515 0.097215266237156234 0 -0.12533951967512769 0.078274991835817334 0 -0.14767322655010931 0.084806545451415583 0 -0.1618062267740645 0.07958177760614682 0 -0.14767322655010931 0.084806545451415583 0 -0.15517576509654349 0.068304766057398533 0 -0.14767322655010931 0.084806545451415583 0 -0.15517576509654349 0.068304766057398533 0 -0.14001017723872511 0.063978020277280875 0 -0.12533951967512769 0.078274991835817334 0 -0.14767322655010931 0.084806545451415583 0 -0.14001017723872511 0.063978020277280875 0 -0.12533951967512769 0.078274991835817334 0 -0.14001017723872511 0.063978020277280875 0 -0.1248745965026067 0.059896082918310993 0 -0.14001017723872511 0.063978020277280875 0 -0.13626681081840961 0.042829268155062397 0 -0.1248745965026067 0.059896082918310993 0 -0.13626681081840961 0.042829268155062397 0 -0.1339340902388827 0.022300844741854581 0 -0.1180188049733784 0.030804183747700629 0 -0.13626681081840961 0.042829268155062397 0 -0.1339340902388827 0.022300844741854581 0 -0.15968783393996419 0.037567277286728401 0 -0.13626681081840961 0.042829268155062397 0 -0.15351002702878311 0.053877414325468623 0 -0.15968783393996419 0.037567277286728401 0 -0.13626681081840961 0.042829268155062397 0 -0.15968783393996419 0.037567277286728401 0 -0.14001017723872511 0.063978020277280875 0 -0.13626681081840961 0.042829268155062397 0 -0.15351002702878311 0.053877414325468623 0 -0.15517576509654349 0.068304766057398533 0 -0.14001017723872511 0.063978020277280875 0 -0.15351002702878311 0.053877414325468623 0 -0.12735709500343681 0.004015926865657337 0 -0.15177498865293759 0.016606981474429749 0 -0.12735709500343681 0.004015926865657337 0 -0.1339340902388827 0.022300844741854581 0 -0.15177498865293759 0.016606981474429749 0 -0.12735709500343681 0.004015926865657337 0 -0.1339340902388827 0.022300844741854581 0 -0.11835839359799651 0.016938700943610479 0 -0.1339340902388827 0.022300844741854581 0 -0.15177498865293759 0.016606981474429749 0 -0.15968783393996419 0.037567277286728401 0 -0.1339340902388827 0.022300844741854581 0 -0.15968783393996419 0.037567277286728401 0 -0.12735709500343681 0.004015926865657337 0 -0.15177498865293759 0.016606981474429749 0 -0.14801408494475049 0.0031182785745780331 0 -0.15177498865293759 0.016606981474429749 0 -0.14801408494475049 0.0031182785745780331 0 -0.1619193683370386 0.0066468078375689294 0 -0.15773416148281841 -0.0035868741371463562 0 -0.14801408494475049 0.0031182785745780331 0 -0.1619193683370386 0.0066468078375689294 0 -0.15177498865293759 0.016606981474429749 0 -0.1619193683370386 0.0066468078375689294 0 -0.16760309597538539 0.015861310899326669 0 -0.16716832075785379 -0.0032078365625175 0 -0.1619193683370386 0.0066468078375689294 0 -0.17584419881677341 0.0071523107965592754 0 -0.1619193683370386 0.0066468078375689294 0 -0.16760309597538539 0.015861310899326669 0 -0.17584419881677341 0.0071523107965592754 0 -0.15177498865293759 0.016606981474429749 0 -0.17619288230243149 0.029198036083215671 0 -0.15177498865293759 0.016606981474429749 0 -0.17619288230243149 0.029198036083215671 0 -0.15968783393996419 0.037567277286728401 0 -0.15177498865293759 0.016606981474429749 0 -0.16760309597538539 0.015861310899326669 0 -0.17619288230243149 0.029198036083215671 0 -0.17619288230243149 0.029198036083215671 0 -0.1852069371874478 0.015311100034367831 0 -0.17584419881677341 0.0071523107965592754 0 -0.17619288230243149 0.029198036083215671 0 -0.17584419881677341 0.0071523107965592754 0 -0.16760309597538539 0.015861310899326669 0 -0.17619288230243149 0.029198036083215671 0 -0.17584419881677341 0.0071523107965592754 0 -0.17619288230243149 0.029198036083215671 0 -0.19572946351785711 0.039272048382664133 0 -0.19029700863621521 0.024089069561314659 0 -0.17619288230243149 0.029198036083215671 0 -0.1852069371874478 0.015311100034367831 0 -0.19029700863621521 0.024089069561314659 0 -0.1852069371874478 0.015311100034367831 0 -0.18717715497560061 0.0062623078557712403 0 -0.17584419881677341 0.0071523107965592754 0 -0.18154179604087481 -0.0036104187285780349 0 -0.18717715497560061 0.0062623078557712403 0 -0.17584419881677341 0.0071523107965592754 0 -0.15351002702878311 0.053877414325468623 0 -0.1659033968134131 0.050269055427132232 0 -0.15968783393996419 0.037567277286728401 0 -0.1659033968134131 0.050269055427132232 0 -0.16451238623864939 0.061110077383343737 0 -0.17656426821359539 0.052679136019797047 0 -0.17354141001077031 0.063798093567348918 0 -0.16451238623864939 0.061110077383343737 0 -0.17656426821359539 0.052679136019797047 0 -0.16451238623864939 0.061110077383343737 0 -0.17656426821359539 0.052679136019797047 0 -0.15351002702878311 0.053877414325468623 0 -0.1659033968134131 0.050269055427132232 0 -0.16451238623864939 0.061110077383343737 0 -0.15517576509654349 0.068304766057398533 0 -0.15351002702878311 0.053877414325468623 0 -0.16451238623864939 0.061110077383343737 0 -0.15968783393996419 0.037567277286728401 0 -0.1762663423330757 0.033842591165095401 0 -0.1659033968134131 0.050269055427132232 0 -0.15968783393996419 0.037567277286728401 0 -0.1764827173319595 0.047523031967639129 0 -0.17619288230243149 0.029198036083215671 0 -0.15968783393996419 0.037567277286728401 0 -0.1762663423330757 0.033842591165095401 0 -0.15968783393996419 0.037567277286728401 0 -0.1764827173319595 0.047523031967639129 0 -0.15968783393996419 0.037567277286728401 0 -0.1762663423330757 0.033842591165095401 0 -0.1764827173319595 0.047523031967639129 0 -0.17619288230243149 0.029198036083215671 0 -0.19572946351785711 0.039272048382664133 0 -0.181281627628781 0.040827380692469641 0 -0.18051660755046151 0.049914261515807259 0 -0.1764827173319595 0.047523031967639129 0 -0.17619288230243149 0.029198036083215671 0 -0.1762663423330757 0.033842591165095401 0 -0.19572946351785711 0.039272048382664133 0 -0.1762663423330757 0.033842591165095401 0 -0.181281627628781 0.040827380692469641 0 -0.19572946351785711 0.039272048382664133 0 -0.1762663423330757 0.033842591165095401 0 -0.181281627628781 0.040827380692469641 0 -0.1764827173319595 0.047523031967639129 0 -0.1762663423330757 0.033842591165095401 0 -0.1764827173319595 0.047523031967639129 0 -0.17619288230243149 0.029198036083215671 0 -0.1762663423330757 0.033842591165095401 0 -0.181281627628781 0.040827380692469641 0 -0.18051660755046151 0.049914261515807259 0 -0.19572946351785711 0.039272048382664133 0 -0.18051660755046151 0.049914261515807259 0 -0.17656426821359539 0.052679136019797047 0 -0.1853153676200878 0.058850167416455039 0 -0.18051660755046151 0.049914261515807259 0 -0.1764827173319595 0.047523031967639129 0 -0.1764827173319595 0.047523031967639129 0 -0.17656426821359539 0.052679136019797047 0 -0.1659033968134131 0.050269055427132232 0 -0.1764827173319595 0.047523031967639129 0 -0.17656426821359539 0.052679136019797047 0 -0.18051660755046151 0.049914261515807259 0 -0.1764827173319595 0.047523031967639129 0 -0.17656426821359539 0.052679136019797047 0 -0.18051660755046151 0.049914261515807259 0 -0.17656426821359539 0.052679136019797047 0 -0.18185637422210199 0.067243003367259677 0 -0.17656426821359539 0.052679136019797047 0 -0.1853153676200878 0.058850167416455039 0 -0.1853153676200878 0.058850167416455039 0 -0.19803765617450109 0.060300476042091433 0 -0.18892740292417859 0.064703221589215376 0 -0.18051660755046151 0.049914261515807259 0 -0.19803765617450109 0.060300476042091433 0 -0.1977866825790292 0.05007637869738242 0 -0.18051660755046151 0.049914261515807259 0 -0.1853153676200878 0.058850167416455039 0 -0.19803765617450109 0.060300476042091433 0 -0.18051660755046151 0.049914261515807259 0 -0.19803765617450109 0.060300476042091433 0 -0.19803765617450109 0.060300476042091433 0 -0.1977866825790292 0.05007637869738242 0 -0.2066297839190599 0.054855205218219752 0 -0.18051660755046151 0.049914261515807259 0 -0.1977866825790292 0.05007637869738242 0 -0.19572946351785711 0.039272048382664133 0 -0.18051660755046151 0.049914261515807259 0 -0.19572946351785711 0.039272048382664133 0 -0.19572946351785711 0.039272048382664133 0 -0.2098237389609823 0.029412342647955388 0 -0.1977866825790292 0.05007637869738242 0 -0.19572946351785711 0.039272048382664133 0 -0.2073344650466164 0.045256152092875389 0 -0.19572946351785711 0.039272048382664133 0 -0.2073344650466164 0.045256152092875389 0 -0.2073344650466164 0.045256152092875389 0 -0.21702036639386221 0.038769314305699548 0 -0.2098237389609823 0.029412342647955388 0 -0.19572946351785711 0.039272048382664133 0 -0.2073344650466164 0.045256152092875389 0 -0.2098237389609823 0.029412342647955388 0 -0.21702036639386221 0.038769314305699548 0 -0.2098237389609823 0.029412342647955388 0 -0.2284051488343061 0.035137669629428533 0 -0.2073344650466164 0.045256152092875389 0 -0.21702036639386221 0.038769314305699548 0 -0.22251811273354419 0.045271092852538893 0 -0.2073344650466164 0.045256152092875389 0 -0.21769334509658461 0.055951218203848879 0 -0.22251811273354419 0.045271092852538893 0 -0.21769334509658461 0.055951218203848879 0 -0.20947987249717179 0.060448397508133619 0 -0.2066297839190599 0.054855205218219752 0 -0.21769334509658461 0.055951218203848879 0 -0.20947987249717179 0.060448397508133619 0 -0.2155587047985415 0.070686690568374386 0 -0.19803765617450109 0.060300476042091433 0 -0.20947987249717179 0.060448397508133619 0 -0.2066297839190599 0.054855205218219752 0 -0.1977866825790292 0.05007637869738242 0 -0.2073344650466164 0.045256152092875389 0 -0.2066297839190599 0.054855205218219752 0 -0.2073344650466164 0.045256152092875389 0 -0.21769334509658461 0.055951218203848879 0 -0.2066297839190599 0.054855205218219752 0 -0.1989264366345522 -0.0080023544535597537 0 -0.1965234412062255 0.0098537758749781944 0 -0.20713549204565579 6.5395444916274768e-05 0 -0.19066530249761049 -0.0041303576494283751 0 -0.18717715497560061 0.0062623078557712403 0 -0.1965234412062255 0.0098537758749781944 0 -0.1852069371874478 0.015311100034367831 0 -0.18717715497560061 0.0062623078557712403 0 -0.1965234412062255 0.0098537758749781944 0 -0.1965234412062255 0.0098537758749781944 0 -0.20113962024173071 0.02227838771243261 0 -0.2107847094499361 0.011405203725301251 0 -0.19572946351785711 0.039272048382664133 0 -0.20113962024173071 0.02227838771243261 0 -0.2098237389609823 0.029412342647955388 0 -0.19572946351785711 0.039272048382664133 0 -0.20113962024173071 0.02227838771243261 0 -0.19029700863621521 0.024089069561314659 0 -0.1965234412062255 0.0098537758749781944 0 -0.20113962024173071 0.02227838771243261 0 -0.19029700863621521 0.024089069561314659 0 -0.1852069371874478 0.015311100034367831 0 -0.1965234412062255 0.0098537758749781944 0 -0.19029700863621521 0.024089069561314659 0 -0.2098237389609823 0.029412342647955388 0 -0.2107847094499361 0.011405203725301251 0 -0.22391801440410891 0.019552636913248388 0 -0.20113962024173071 0.02227838771243261 0 -0.2098237389609823 0.029412342647955388 0 -0.2107847094499361 0.011405203725301251 0 -0.2098237389609823 0.029412342647955388 0 -0.22391801440410891 0.019552636913248388 0 -0.21702438745170211 -0.0043907958627755336 0 -0.2107847094499361 0.011405203725301251 0 -0.20713549204565579 6.5395444916274768e-05 0 -0.21702438745170211 -0.0043907958627755336 0 -0.2107847094499361 0.011405203725301251 0 -0.22391801440410891 0.019552636913248388 0 -0.1965234412062255 0.0098537758749781944 0 -0.2107847094499361 0.011405203725301251 0 -0.20713549204565579 6.5395444916274768e-05 0 -0.22867745033346079 0.0038692188645070222 0 -0.22391801440410891 0.019552636913248388 0 -0.2344599051246074 0.012178015861532989 0 -0.21702438745170211 -0.0043907958627755336 0 -0.22391801440410891 0.019552636913248388 0 -0.21702438745170211 -0.0043907958627755336 0 -0.22867745033346079 0.0038692188645070222 0 -0.22391801440410891 0.019552636913248388 0 -0.22391801440410891 0.019552636913248388 0 -0.2403792472176362 0.02548084658656756 0 -0.2344599051246074 0.012178015861532989 0 -0.2098237389609823 0.029412342647955388 0 -0.22391801440410891 0.019552636913248388 0 -0.2284051488343061 0.035137669629428533 0 -0.22391801440410891 0.019552636913248388 0 -0.2403792472176362 0.02548084658656756 0 -0.2284051488343061 0.035137669629428533 0 -0.22391801440410891 0.019552636913248388 0 -0.2344599051246074 0.012178015861532989 0 -0.22391801440410891 0.019552636913248388 0 -0.2284051488343061 0.035137669629428533 0 -0.2522816967992324 0.037264740289820159 0 -0.25157722050270093 0.012682655753942951 0 -0.2403792472176362 0.02548084658656756 0 -0.25157722050270093 0.012682655753942951 0 -0.2403792472176362 0.02548084658656756 0 -0.2344599051246074 0.012178015861532989 0 -0.25267499080189931 -0.0034516002120552492 0 -0.25157722050270093 0.012682655753942951 0 -0.2401015516947359 0.00075261550232862703 0 -0.25157722050270093 0.012682655753942951 0 -0.2344599051246074 0.012178015861532989 0 -0.2401015516947359 0.00075261550232862703 0 -0.22867745033346079 0.0038692188645070222 0 -0.2344599051246074 0.012178015861532989 0 -0.2401015516947359 0.00075261550232862703 0 -0.21769334509658461 0.055951218203848879 0 -0.23255980098598539 0.056775429521547523 0 -0.2155587047985415 0.070686690568374386 0 -0.23289228326450309 0.050722702345608793 0 -0.22641588552015429 0.052180110730886013 0 -0.22251811273354419 0.045271092852538893 0 -0.23289228326450309 0.050722702345608793 0 -0.23255980098598539 0.056775429521547523 0 -0.22641588552015429 0.052180110730886013 0 -0.21769334509658461 0.055951218203848879 0 -0.23255980098598539 0.056775429521547523 0 -0.22641588552015429 0.052180110730886013 0 -0.21769334509658461 0.055951218203848879 0 -0.22641588552015429 0.052180110730886013 0 -0.22251811273354419 0.045271092852538893 0 -0.21702036639386221 0.038769314305699548 0 -0.22251811273354419 0.045271092852538893 0 -0.2284051488343061 0.035137669629428533 0 -0.23289228326450309 0.050722702345608793 0 -0.22251811273354419 0.045271092852538893 0 -0.2284051488343061 0.035137669629428533 0 -0.23289228326450309 0.050722702345608793 0 -0.2284051488343061 0.035137669629428533 0 -0.2522816967992324 0.037264740289820159 0 -0.2403792472176362 0.02548084658656756 0 -0.2284051488343061 0.035137669629428533 0 -0.2522816967992324 0.037264740289820159 0 -0.23289228326450309 0.050722702345608793 0 -0.2284051488343061 0.035137669629428533 0 -0.2522816967992324 0.037264740289820159 0 -0.23289228326450309 0.050722702345608793 0 -0.23255980098598539 0.056775429521547523 0 -0.2522816967992324 0.037264740289820159 0 -0.23255980098598539 0.056775429521547523 0 -0.2522816967992324 0.037264740289820159 0 -0.23255980098598539 0.056775429521547523 0 -0.24906194248509719 0.058488871325365822 0 -0.23255980098598539 0.056775429521547523 0 -0.24906194248509719 0.058488871325365822 0 -0.23770452364983391 0.071010308971772351 0 -0.26257114212692878 0.06573449919026883 0 -0.24906194248509719 0.058488871325365822 0 -0.23770452364983391 0.071010308971772351 0 -0.25261226255175379 0.080423606239198905 0 -0.23770452364983391 0.071010308971772351 0 -0.23158356521460469 0.085326977986282804 0 -0.25261226255175379 0.080423606239198905 0 -0.23158356521460469 0.085326977986282804 0 -0.24377998071086901 0.096378574065869249 0 -0.23158356521460469 0.085326977986282804 0 -0.21283790517273879 0.076286118753275345 0 -0.22135706029896429 0.097751395037259853 0 -0.23158356521460469 0.085326977986282804 0 -0.22135706029896429 0.097751395037259853 0 -0.24377998071086901 0.096378574065869249 0 -0.23255980098598539 0.056775429521547523 0 -0.21283790517273879 0.076286118753275345 0 -0.23770452364983391 0.071010308971772351 0 -0.23158356521460469 0.085326977986282804 0 -0.21283790517273879 0.076286118753275345 0 -0.23255980098598539 0.056775429521547523 0 -0.23770452364983391 0.071010308971772351 0 -0.21283790517273879 0.076286118753275345 0 -0.23255980098598539 0.056775429521547523 0 -0.21283790517273879 0.076286118753275345 0 -0.2155587047985415 0.070686690568374386 0 -0.23770452364983391 0.071010308971772351 0 -0.21283790517273879 0.076286118753275345 0 -0.19803765617450109 0.060300476042091433 0 -0.20947987249717179 0.060448397508133619 0 -0.2155587047985415 0.070686690568374386 0 -0.19803765617450109 0.060300476042091433 0 -0.20333782300263301 0.070680183335342567 0 -0.2155587047985415 0.070686690568374386 0 -0.19803765617450109 0.060300476042091433 0 -0.2155587047985415 0.070686690568374386 0 -0.21283790517273879 0.076286118753275345 0 -0.19766176801088831 0.079505953929404904 0 -0.20333782300263301 0.070680183335342567 0 -0.21283790517273879 0.076286118753275345 0 -0.19766176801088831 0.079505953929404904 0 -0.20333782300263301 0.070680183335342567 0 -0.21283790517273879 0.076286118753275345 0 -0.2155587047985415 0.070686690568374386 0 -0.21283790517273879 0.076286118753275345 0 -0.1951643137470572 0.093770439387570487 0 -0.22135706029896429 0.097751395037259853 0 -0.21283790517273879 0.076286118753275345 0 -0.1951643137470572 0.093770439387570487 0 -0.21283790517273879 0.076286118753275345 0 -0.19766176801088831 0.079505953929404904 0 -0.1951643137470572 0.093770439387570487 0 -0.18248563084903771 0.082725789105533951 0 -0.19766176801088831 0.079505953929404904 0 -0.1951643137470572 0.093770439387570487 0 -0.1867192510276118 0.077748512173410014 0 -0.18248563084903771 0.082725789105533951 0 -0.19766176801088831 0.079505953929404904 0 -0.18248563084903771 0.082725789105533951 0 -0.19766176801088831 0.079505953929404904 0 -0.1867192510276118 0.077748512173410014 0 -0.19766176801088831 0.079505953929404904 0 -0.19050021368002351 0.072419239531055349 0 -0.19803765617450109 0.060300476042091433 0 -0.19050021368002351 0.072419239531055349 0 -0.18892740292417859 0.064703221589215376 0 -0.19803765617450109 0.060300476042091433 0 -0.20333782300263301 0.070680183335342567 0 -0.19050021368002351 0.072419239531055349 0 -0.20333782300263301 0.070680183335342567 0 -0.19766176801088831 0.079505953929404904 0 -0.19050021368002351 0.072419239531055349 0 -0.17749072232138041 0.1112547600218704 0 -0.19150979458678249 0.1243728737611647 0 -0.1951643137470572 0.093770439387570487 0 -0.19150979458678249 0.1243728737611647 0 -0.1951643137470572 0.093770439387570487 0 -0.20994497012605751 0.11823125198409511 0 -0.1951643137470572 0.093770439387570487 0 -0.20994497012605751 0.11823125198409511 0 -0.22135706029896429 0.097751395037259853 0 -0.20994497012605751 0.11823125198409511 0 -0.2348316268224595 0.11651500804646669 0 -0.2235388627286797 0.12965651036182041 0 -0.20994497012605751 0.11823125198409511 0 -0.22135706029896429 0.097751395037259853 0 -0.2348316268224595 0.11651500804646669 0 -0.22135706029896429 0.097751395037259853 0 -0.24377998071086901 0.096378574065869249 0 -0.2348316268224595 0.11651500804646669 0 -0.25136603029008331 0.1103208693098497 0 -0.24377998071086901 0.096378574065869249 0 -0.2348316268224595 0.11651500804646669 0 -0.25922316449870308 0.12628093809151891 0 -0.25136603029008331 0.1103208693098497 0 -0.2348316268224595 0.11651500804646669 0 -0.25922316449870308 0.12628093809151891 0 -0.2348316268224595 0.11651500804646669 0 -0.2369615480924761 0.1404602413506009 0 -0.2369615480924761 0.1404602413506009 0 -0.2235388627286797 0.12965651036182041 0 -0.2124173058737257 0.14341954006611901 0 -0.2348316268224595 0.11651500804646669 0 -0.2369615480924761 0.1404602413506009 0 -0.2235388627286797 0.12965651036182041 0 -0.2369615480924761 0.1404602413506009 0 -0.22679867445049531 0.16064067306310431 0 -0.2124173058737257 0.14341954006611901 0 -0.2369615480924761 0.1404602413506009 0 -0.247018622616726 0.15992587597476091 0 -0.22679867445049531 0.16064067306310431 0 -0.25846103874104392 0.14702121199507179 0 -0.2369615480924761 0.1404602413506009 0 -0.247018622616726 0.15992587597476091 0 -0.247018622616726 0.15992587597476091 0 -0.23359887481107691 0.1809086922627815 0 -0.247018622616726 0.15992587597476091 0 -0.23359887481107691 0.1809086922627815 0 -0.22679867445049531 0.16064067306310431 0 -0.26439180367967152 0.18225540552070321 0 -0.247018622616726 0.15992587597476091 0 -0.23359887481107691 0.1809086922627815 0 -0.23359887481107691 0.1809086922627815 0 -0.20517995294037331 0.17379218369948349 0 -0.2201791270054278 0.2018915085508021 0 -0.23359887481107691 0.1809086922627815 0 -0.22679867445049531 0.16064067306310431 0 -0.20517995294037331 0.17379218369948349 0 -0.22679867445049531 0.16064067306310431 0 -0.20517995294037331 0.17379218369948349 0 -0.2124173058737257 0.14341954006611901 0 -0.20517995294037331 0.17379218369948349 0 -0.19274338499996449 0.14807478539393409 0 -0.17830044274374979 0.16244982581953471 0 -0.19150979458678249 0.1243728737611647 0 -0.19274338499996449 0.14807478539393409 0 -0.2124173058737257 0.14341954006611901 0 -0.20994497012605751 0.11823125198409511 0 -0.2235388627286797 0.12965651036182041 0 -0.2124173058737257 0.14341954006611901 0 -0.19150979458678249 0.1243728737611647 0 -0.20994497012605751 0.11823125198409511 0 -0.2124173058737257 0.14341954006611901 0 -0.20517995294037331 0.17379218369948349 0 -0.19274338499996449 0.14807478539393409 0 -0.2124173058737257 0.14341954006611901 0 -0.22371849106378741 0.2462845034026982 0 -0.23019370483249479 0.22382880503591951 0 -0.2066863838603582 0.24242880758937649 0 -0.22371849106378741 0.2462845034026982 0 -0.23951274761537589 0.2474853768326048 0 -0.23019370483249479 0.22382880503591951 0 -0.25272375818517617 0.22994970808158929 0 -0.25621817608628389 0.2460965770837312 0 -0.23951274761537589 0.2474853768326048 0 -0.25370102580463139 0.2052288024824625 0 -0.25272375818517617 0.22994970808158929 0 -0.23019370483249479 0.22382880503591951 0 -0.25272375818517617 0.22994970808158929 0 -0.23951274761537589 0.2474853768326048 0 -0.23019370483249479 0.22382880503591951 0 -0.25370102580463139 0.2052288024824625 0 -0.23359887481107691 0.1809086922627815 0 -0.2201791270054278 0.2018915085508021 0 -0.25370102580463139 0.2052288024824625 0 -0.23019370483249479 0.22382880503591951 0 -0.2201791270054278 0.2018915085508021 0 -0.23019370483249479 0.22382880503591951 0 -0.2201791270054278 0.2018915085508021 0 -0.20675937919977869 0.22287432483882261 0 -0.25370102580463139 0.2052288024824625 0 -0.23019370483249479 0.22382880503591951 0 -0.23359887481107691 0.1809086922627815 0 -0.2201791270054278 0.2018915085508021 0 -0.20517995294037331 0.17379218369948349 0 -0.2201791270054278 0.2018915085508021 0 -0.19686056424972551 0.20437535499954981 0 -0.20517995294037331 0.17379218369948349 0 -0.19686056424972551 0.20437535499954981 0 -0.17870530295493239 0.18804735871836689 0 -0.19686056424972551 0.20437535499954981 0 -0.20675937919977869 0.22287432483882261 0 -0.19122946023172571 0.22600186257262461 0 -0.19686056424972551 0.20437535499954981 0 -0.19122946023172571 0.22600186257262461 0 -0.179110163166115 0.21364489161719899 0 -0.2201791270054278 0.2018915085508021 0 -0.19686056424972551 0.20437535499954981 0 -0.20675937919977869 0.22287432483882261 0 -0.2201791270054278 0.2018915085508021 0 -0.20675937919977869 0.22287432483882261 0 -0.23019370483249479 0.22382880503591951 0 -0.2066863838603582 0.24242880758937649 0 -0.23019370483249479 0.22382880503591951 0 -0.20675937919977869 0.22287432483882261 0 -0.2066863838603582 0.24242880758937649 0 -0.20675937919977869 0.22287432483882261 0 -0.19333963139412971 0.24385714112684301 0 -0.20675937919977869 0.22287432483882261 0 -0.19122946023172571 0.22600186257262461 0 -0.19333963139412971 0.24385714112684301 0 -0.19122946023172571 0.22600186257262461 0 -0.19333963139412971 0.24385714112684301 0 -0.17951502337729761 0.2392424245160312 0 -0.20675937919977869 0.22287432483882261 0 -0.19333963139412971 0.24385714112684301 0 -0.2066863838603582 0.24242880758937649 0 -0.18259587964237009 0.2606558300825601 0 -0.19333963139412971 0.24385714112684301 0 -0.2066863838603582 0.24242880758937649 0 -0.21408768962570049 0.25938306782852782 0 -0.22371849106378741 0.2462845034026982 0 -0.2066863838603582 0.24242880758937649 0 -0.1532221513837192 0.25419418888983192 0 -0.17951502337729761 0.2392424245160312 0 -0.15110003921584569 0.22881829817408891 0 -0.18259587964237009 0.2606558300825601 0 -0.19333963139412971 0.24385714112684301 0 -0.17951502337729761 0.2392424245160312 0 -0.17951502337729761 0.2392424245160312 0 -0.1619547442009632 0.2162214427956837 0 -0.179110163166115 0.21364489161719899 0 -0.19122946023172571 0.22600186257262461 0 -0.17951502337729761 0.2392424245160312 0 -0.179110163166115 0.21364489161719899 0 -0.17951502337729761 0.2392424245160312 0 -0.179110163166115 0.21364489161719899 0 -0.17951502337729761 0.2392424245160312 0 -0.1619547442009632 0.2162214427956837 0 -0.15110003921584569 0.22881829817408891 0 -0.1619547442009632 0.2162214427956837 0 -0.179110163166115 0.21364489161719899 0 -0.17870530295493239 0.18804735871836689 0 -0.19686056424972551 0.20437535499954981 0 -0.179110163166115 0.21364489161719899 0 -0.17870530295493239 0.18804735871836689 0 -0.179110163166115 0.21364489161719899 0 -0.17870530295493239 0.18804735871836689 0 -0.1619547442009632 0.2162214427956837 0 -0.17870530295493239 0.18804735871836689 0 -0.15775407484820861 0.18727827749961631 0 -0.14804225966403101 0.20585853828705919 0 -0.15775407484820861 0.18727827749961631 0 -0.13876353146598761 0.18223131465273959 0 -0.1619547442009632 0.2162214427956837 0 -0.14804225966403101 0.20585853828705919 0 -0.15775407484820861 0.18727827749961631 0 -0.13876353146598761 0.18223131465273959 0 -0.1245765098090509 0.17966052017845999 0 -0.1190175871807343 0.20067046473278771 0 -0.14804225966403101 0.20585853828705919 0 -0.13876353146598761 0.18223131465273959 0 -0.1190175871807343 0.20067046473278771 0 -0.14804225966403101 0.20585853828705919 0 -0.13479108425045189 0.2189379304695287 0 -0.1190175871807343 0.20067046473278771 0 -0.13479108425045189 0.2189379304695287 0 -0.12594818007053379 0.2253828658525201 0 -0.1190175871807343 0.20067046473278771 0 -0.1619547442009632 0.2162214427956837 0 -0.14804225966403101 0.20585853828705919 0 -0.15110003921584569 0.22881829817408891 0 -0.14804225966403101 0.20585853828705919 0 -0.15110003921584569 0.22881829817408891 0 -0.13479108425045189 0.2189379304695287 0 -0.15110003921584569 0.22881829817408891 0 -0.13479108425045189 0.2189379304695287 0 -0.1378537507735782 0.22769286600650679 0 -0.15110003921584569 0.22881829817408891 0 -0.1378537507735782 0.22769286600650679 0 -0.13827307027013019 0.2362506378269415 0 -0.13479108425045189 0.2189379304695287 0 -0.12594818007053379 0.2253828658525201 0 -0.1378537507735782 0.22769286600650679 0 -0.12594818007053379 0.2253828658525201 0 -0.1378537507735782 0.22769286600650679 0 -0.13827307027013019 0.2362506378269415 0 -0.12594818007053379 0.2253828658525201 0 -0.13827307027013019 0.2362506378269415 0 -0.1327712538659816 0.24971188635390451 0 -0.12594818007053379 0.2253828658525201 0 -0.1327712538659816 0.24971188635390451 0 -0.1532221513837192 0.25419418888983192 0 -0.15110003921584569 0.22881829817408891 0 -0.13827307027013019 0.2362506378269415 0 -0.1532221513837192 0.25419418888983192 0 -0.13827307027013019 0.2362506378269415 0 -0.1327712538659816 0.24971188635390451 0 -0.16317411874061041 0.14897554401654969 0 -0.16113979031376621 0.12743058591966341 0 -0.1447888583061562 0.1436064118174607 0 -0.16317411874061041 0.14897554401654969 0 -0.16113979031376621 0.12743058591966341 0 -0.17789558253256721 0.1368522929207025 0 -0.17749072232138041 0.1112547600218704 0 -0.16113979031376621 0.12743058591966341 0 -0.17789558253256721 0.1368522929207025 0 -0.19150979458678249 0.1243728737611647 0 -0.19274338499996449 0.14807478539393409 0 -0.17789558253256721 0.1368522929207025 0 -0.16317411874061041 0.14897554401654969 0 -0.17789558253256721 0.1368522929207025 0 -0.17830044274374979 0.16244982581953471 0 -0.17789558253256721 0.1368522929207025 0 -0.17830044274374979 0.16244982581953471 0 -0.19274338499996449 0.14807478539393409 0 -0.17789558253256721 0.1368522929207025 0 -0.17830044274374979 0.16244982581953471 0 -0.20517995294037331 0.17379218369948349 0 -0.17870530295493239 0.18804735871836689 0 -0.17830044274374979 0.16244982581953471 0 -0.17870530295493239 0.18804735871836689 0 -0.17830044274374979 0.16244982581953471 0 -0.17870530295493239 0.18804735871836689 0 -0.17830044274374979 0.16244982581953471 0 -0.15775407484820861 0.18727827749961631 0 -0.17830044274374979 0.16244982581953471 0 -0.15775407484820861 0.18727827749961631 0 -0.15245232938168229 0.1648839185887534 0 -0.16317411874061041 0.14897554401654969 0 -0.17830044274374979 0.16244982581953471 0 -0.15245232938168229 0.1648839185887534 0 -0.15775407484820861 0.18727827749961631 0 -0.15245232938168229 0.1648839185887534 0 -0.13876353146598761 0.18223131465273959 0 -0.13876353146598761 0.18223131465273959 0 -0.12843792629854631 0.15978223771525801 0 -0.1245765098090509 0.17966052017845999 0 -0.15245232938168229 0.1648839185887534 0 -0.13876353146598761 0.18223131465273959 0 -0.12843792629854631 0.15978223771525801 0 -0.12843792629854631 0.15978223771525801 0 -0.1447888583061562 0.1436064118174607 0 -0.12843792629854631 0.15978223771525801 0 -0.1447888583061562 0.1436064118174607 0 -0.1204435081575875 0.14623213693654391 0 -0.16317411874061041 0.14897554401654969 0 -0.15245232938168229 0.1648839185887534 0 -0.1447888583061562 0.1436064118174607 0 -0.15245232938168229 0.1648839185887534 0 -0.12843792629854631 0.15978223771525801 0 -0.1447888583061562 0.1436064118174607 0 -0.16113979031376621 0.12743058591966341 0 -0.1447888583061562 0.1436064118174607 0 -0.14300315410871919 0.1253406317882016 0 -0.16113979031376621 0.12743058591966341 0 -0.1447888583061562 0.1436064118174607 0 -0.1447888583061562 0.1436064118174607 0 -0.12687331202938101 0.13192737382428379 0 -0.1204435081575875 0.14623213693654391 0 -0.1447888583061562 0.1436064118174607 0 -0.14300315410871919 0.1253406317882016 0 -0.12687331202938101 0.13192737382428379 0 -0.12687331202938101 0.13192737382428379 0 -0.1130049083687871 0.13722853083192951 0 -0.10667563132183119 0.1260080396076822 0 -0.12687331202938101 0.13192737382428379 0 -0.1130049083687871 0.13722853083192951 0 -0.1204435081575875 0.14623213693654391 0 -0.10667563132183119 0.1260080396076822 0 -0.081978849477511453 0.1384377215961772 0 -0.096577670607123245 0.1239972751083621 0 -0.10667563132183119 0.1260080396076822 0 -0.1008242758955458 0.1385116675773613 0 -0.081978849477511453 0.1384377215961772 0 -0.10667563132183119 0.1260080396076822 0 -0.081978849477511453 0.1384377215961772 0 -0.1130049083687871 0.13722853083192951 0 -0.10667563132183119 0.1260080396076822 0 -0.1008242758955458 0.1385116675773613 0 -0.1130049083687871 0.13722853083192951 0 -0.1008242758955458 0.1385116675773613 0 -0.1078791741402548 0.14587794917826699 0 -0.094422293866394627 0.1556947047027778 0 -0.094582816169344081 0.14500609667275041 0 -0.1078791741402548 0.14587794917826699 0 -0.1008242758955458 0.1385116675773613 0 -0.094582816169344081 0.14500609667275041 0 -0.1078791741402548 0.14587794917826699 0 -0.12843792629854631 0.15978223771525801 0 -0.1204435081575875 0.14623213693654391 0 -0.1073217141416921 0.15896651377475199 0 -0.1078791741402548 0.14587794917826699 0 -0.1204435081575875 0.14623213693654391 0 -0.1073217141416921 0.15896651377475199 0 -0.1130049083687871 0.13722853083192951 0 -0.1078791741402548 0.14587794917826699 0 -0.1204435081575875 0.14623213693654391 0 -0.12843792629854631 0.15978223771525801 0 -0.1245765098090509 0.17966052017845999 0 -0.1120869942909358 0.17595806361305491 0 -0.1120869942909358 0.17595806361305491 0 -0.1073217141416921 0.15896651377475199 0 -0.12843792629854631 0.15978223771525801 0 -0.1120869942909358 0.17595806361305491 0 -0.12843792629854631 0.15978223771525801 0 -0.1120869942909358 0.17595806361305491 0 -0.1073217141416921 0.15896651377475199 0 -0.1245765098090509 0.17966052017845999 0 -0.1120869942909358 0.17595806361305491 0 -0.1190175871807343 0.20067046473278771 0 -0.1120869942909358 0.17595806361305491 0 -0.1020860412129876 0.1687304780430319 0 -0.095149617161195271 0.19271405424946009 0 -0.1020860412129876 0.1687304780430319 0 -0.095149617161195271 0.19271405424946009 0 -0.1120869942909358 0.17595806361305491 0 -0.095149617161195271 0.19271405424946009 0 -0.1020860412129876 0.1687304780430319 0 -0.093279947424905002 0.17994671451597891 0 -0.095149617161195271 0.19271405424946009 0 -0.1020860412129876 0.1687304780430319 0 -0.089956478385260899 0.16811851343374709 0 -0.093279947424905002 0.17994671451597891 0 -0.094422293866394627 0.1556947047027778 0 -0.1078791741402548 0.14587794917826699 0 -0.1020860412129876 0.1687304780430319 0 -0.1078791741402548 0.14587794917826699 0 -0.1073217141416921 0.15896651377475199 0 -0.1020860412129876 0.1687304780430319 0 -0.1120869942909358 0.17595806361305491 0 -0.1073217141416921 0.15896651377475199 0 -0.1020860412129876 0.1687304780430319 0 -0.1078791741402548 0.14587794917826699 0 -0.1020860412129876 0.1687304780430319 0 -0.094422293866394627 0.1556947047027778 0 -0.1020860412129876 0.1687304780430319 0 -0.089956478385260899 0.16811851343374709 0 -0.094422293866394627 0.1556947047027778 0 -0.089956478385260899 0.16811851343374709 0 -0.084742563178951485 0.15922574422532609 0 -0.089956478385260899 0.16811851343374709 0 -0.080023232193096983 0.1657260639694961 0 -0.084742563178951485 0.15922574422532609 0 -0.089956478385260899 0.16811851343374709 0 -0.080023232193096983 0.1657260639694961 0 -0.081293191825158789 0.17801619480298669 0 -0.080023232193096983 0.1657260639694961 0 -0.084742563178951485 0.15922574422532609 0 -0.074930767296401246 0.15918989644816289 0 -0.081293191825158789 0.17801619480298669 0 -0.095149617161195271 0.19271405424946009 0 -0.073474196407973841 0.19079473501472519 0 -0.081293191825158789 0.17801619480298669 0 -0.095149617161195271 0.19271405424946009 0 -0.093279947424905002 0.17994671451597891 0 -0.081293191825158789 0.17801619480298669 0 -0.095149617161195271 0.19271405424946009 0 -0.089956478385260899 0.16811851343374709 0 -0.093279947424905002 0.17994671451597891 0 -0.081293191825158789 0.17801619480298669 0 -0.064604308801312821 0.18244611143699499 0 -0.069549912031587807 0.17131438064227461 0 -0.073474196407973841 0.19079473501472519 0 -0.081293191825158789 0.17801619480298669 0 -0.069549912031587807 0.17131438064227461 0 -0.073474196407973841 0.19079473501472519 0 -0.069549912031587807 0.17131438064227461 0 -0.073474196407973841 0.19079473501472519 0 -0.064604308801312821 0.18244611143699499 0 -0.069549912031587807 0.17131438064227461 0 -0.062041409668937363 0.1723934095439342 0 -0.084742563178951485 0.15922574422532609 0 -0.074930767296401246 0.15918989644816289 0 -0.074588176879671189 0.15080810715310269 0 -0.080023232193096983 0.1657260639694961 0 -0.074930767296401246 0.15918989644816289 0 -0.06743676648912228 0.16331833535651319 0 -0.081293191825158789 0.17801619480298669 0 -0.069549912031587807 0.17131438064227461 0 -0.06743676648912228 0.16331833535651319 0 -0.080023232193096983 0.1657260639694961 0 -0.081293191825158789 0.17801619480298669 0 -0.06743676648912228 0.16331833535651319 0 -0.081293191825158789 0.17801619480298669 0 -0.06743676648912228 0.16331833535651319 0 -0.069549912031587807 0.17131438064227461 0 -0.062031688412593149 0.16441565219234799 0 -0.062041409668937363 0.1723934095439342 0 -0.069549912031587807 0.17131438064227461 0 -0.06743676648912228 0.16331833535651319 0 -0.062031688412593149 0.16441565219234799 0 -0.06743676648912228 0.16331833535651319 0 -0.06725389334219653 0.15771987894696021 0 -0.062031688412593149 0.16441565219234799 0 -0.074930767296401246 0.15918989644816289 0 -0.06743676648912228 0.16331833535651319 0 -0.06725389334219653 0.15771987894696021 0 -0.081978849477511453 0.1384377215961772 0 -0.05728206763319247 0.1508674035846734 0 -0.06725389334219653 0.15771987894696021 0 -0.074588176879671189 0.15080810715310269 0 -0.05728206763319247 0.1508674035846734 0 -0.074588176879671189 0.15080810715310269 0 -0.081978849477511453 0.1384377215961772 0 -0.05728206763319247 0.1508674035846734 0 -0.081978849477511453 0.1384377215961772 0 -0.06070043620975589 0.134524720015781 0 -0.05728206763319247 0.1508674035846734 0 -0.074930767296401246 0.15918989644816289 0 -0.06725389334219653 0.15771987894696021 0 -0.074588176879671189 0.15080810715310269 0 -0.071786582042575819 0.1280585334591178 0 -0.081978849477511453 0.1384377215961772 0 -0.08034823769671974 0.121089655777625 0 -0.071786582042575819 0.1280585334591178 0 -0.081978849477511453 0.1384377215961772 0 -0.06070043620975589 0.134524720015781 0 -0.071786582042575819 0.1280585334591178 0 -0.06070043620975589 0.134524720015781 0 -0.06411880478631618 0.11818203644688791 0 -0.081978849477511453 0.1384377215961772 0 -0.08034823769671974 0.121089655777625 0 -0.096577670607123245 0.1239972751083621 0 -0.1008242758955458 0.1385116675773613 0 -0.094582816169344081 0.14500609667275041 0 -0.081978849477511453 0.1384377215961772 0 -0.094582816169344081 0.14500609667275041 0 -0.081978849477511453 0.1384377215961772 0 -0.0854808471676783 0.14892295327365951 0 -0.094422293866394627 0.1556947047027778 0 -0.084742563178951485 0.15922574422532609 0 -0.0854808471676783 0.14892295327365951 0 -0.094422293866394627 0.1556947047027778 0 -0.094582816169344081 0.14500609667275041 0 -0.0854808471676783 0.14892295327365951 0 -0.084742563178951485 0.15922574422532609 0 -0.074588176879671189 0.15080810715310269 0 -0.0854808471676783 0.14892295327365951 0 -0.074588176879671189 0.15080810715310269 0 -0.081978849477511453 0.1384377215961772 0 -0.0854808471676783 0.14892295327365951 0 -0.1045487088169635 0.24438495162540061 0 -0.11455994162881621 0.23631135170566109 0 -0.098826177075254387 0.23394696074010041 0 -0.10005120432924321 0.25626016583208688 0 -0.094679029848152713 0.24609146959404629 0 -0.1045487088169635 0.24438495162540061 0 -0.094679029848152713 0.24609146959404629 0 -0.1045487088169635 0.24438495162540061 0 -0.098826177075254387 0.23394696074010041 0 -0.116744543106582 0.25728181003509248 0 -0.1045487088169635 0.24438495162540061 0 -0.11455994162881621 0.23631135170566109 0 -0.116744543106582 0.25728181003509248 0 -0.1327712538659816 0.24971188635390451 0 -0.11455994162881621 0.23631135170566109 0 -0.12594818007053379 0.2253828658525201 0 -0.1327712538659816 0.24971188635390451 0 -0.11455994162881621 0.23631135170566109 0 -0.11455994162881621 0.23631135170566109 0 -0.1144435087069731 0.2232582902708152 0 -0.1063794885369051 0.22193246116811141 0 -0.12594818007053379 0.2253828658525201 0 -0.1144435087069731 0.2232582902708152 0 -0.1108864245916369 0.20940648235696879 0 -0.12594818007053379 0.2253828658525201 0 -0.11455994162881621 0.23631135170566109 0 -0.1144435087069731 0.2232582902708152 0 -0.11455994162881621 0.23631135170566109 0 -0.1063794885369051 0.22193246116811141 0 -0.098826177075254387 0.23394696074010041 0 -0.1063794885369051 0.22193246116811141 0 -0.098826177075254387 0.23394696074010041 0 -0.089950704149474564 0.21660149084549701 0 -0.1063794885369051 0.22193246116811141 0 -0.089950704149474564 0.21660149084549701 0 -0.10053720550511509 0.21148400771379949 0 -0.095149617161195271 0.19271405424946009 0 -0.089950704149474564 0.21660149084549701 0 -0.1063794885369051 0.22193246116811141 0 -0.10053720550511509 0.21148400771379949 0 -0.089950704149474564 0.21660149084549701 0 -0.10053720550511509 0.21148400771379949 0 -0.1108864245916369 0.20940648235696879 0 -0.095149617161195271 0.19271405424946009 0 -0.1063794885369051 0.22193246116811141 0 -0.10053720550511509 0.21148400771379949 0 -0.1108864245916369 0.20940648235696879 0 -0.12594818007053379 0.2253828658525201 0 -0.1190175871807343 0.20067046473278771 0 -0.12594818007053379 0.2253828658525201 0 -0.1108864245916369 0.20940648235696879 0 -0.1190175871807343 0.20067046473278771 0 -0.12594818007053379 0.2253828658525201 0 -0.1108864245916369 0.20940648235696879 0 -0.1144435087069731 0.2232582902708152 0 -0.1063794885369051 0.22193246116811141 0 -0.1108864245916369 0.20940648235696879 0 -0.1120869942909358 0.17595806361305491 0 -0.1190175871807343 0.20067046473278771 0 -0.1108864245916369 0.20940648235696879 0 -0.1190175871807343 0.20067046473278771 0 -0.10682171669235439 0.1942096232944058 0 -0.1120869942909358 0.17595806361305491 0 -0.1190175871807343 0.20067046473278771 0 -0.10682171669235439 0.1942096232944058 0 -0.1108864245916369 0.20940648235696879 0 -0.095149617161195271 0.19271405424946009 0 -0.1108864245916369 0.20940648235696879 0 -0.10682171669235439 0.1942096232944058 0 -0.095149617161195271 0.19271405424946009 0 -0.1120869942909358 0.17595806361305491 0 -0.10682171669235439 0.1942096232944058 0 -0.095149617161195271 0.19271405424946009 0 -0.095149617161195271 0.19271405424946009 0 -0.077398480784349299 0.2102750893871779 0 -0.095149617161195271 0.19271405424946009 0 -0.073474196407973841 0.19079473501472519 0 -0.077398480784349299 0.2102750893871779 0 -0.095149617161195271 0.19271405424946009 0 -0.077398480784349299 0.2102750893871779 0 -0.087241526055590657 0.20514135106535239 0 -0.073474196407973841 0.19079473501472519 0 -0.077398480784349299 0.2102750893871779 0 -0.073474196407973841 0.19079473501472519 0 -0.077398480784349299 0.2102750893871779 0 -0.068984895145132993 0.20348567813270921 0 -0.064604308801312821 0.18244611143699499 0 -0.073474196407973841 0.19079473501472519 0 -0.062951628171730722 0.19451437844324071 0 -0.073474196407973841 0.19079473501472519 0 -0.062951628171730722 0.19451437844324071 0 -0.068984895145132993 0.20348567813270921 0 -0.062951628171730722 0.19451437844324071 0 -0.068984895145132993 0.20348567813270921 0 -0.057478398324341332 0.20606456403591589 0 -0.068984895145132993 0.20348567813270921 0 -0.075683327299925024 0.21197187487555791 0 -0.057478398324341332 0.20606456403591589 0 -0.075683327299925024 0.21197187487555791 0 -0.060700713784132942 0.2267940359372384 0 -0.057478398324341332 0.20606456403591589 0 -0.075683327299925024 0.21197187487555791 0 -0.057478398324341332 0.20606456403591589 0 -0.077398480784349299 0.2102750893871779 0 -0.068984895145132993 0.20348567813270921 0 -0.075683327299925024 0.21197187487555791 0 -0.075683327299925024 0.21197187487555791 0 -0.077884159070199604 0.2126860219832131 0 -0.060700713784132942 0.2267940359372384 0 -0.075683327299925024 0.21197187487555791 0 -0.077884159070199604 0.2126860219832131 0 -0.077398480784349299 0.2102750893871779 0 -0.075683327299925024 0.21197187487555791 0 -0.077884159070199604 0.2126860219832131 0 -0.077398480784349299 0.2102750893871779 0 -0.077884159070199604 0.2126860219832131 0 -0.077398480784349299 0.2102750893871779 0 -0.075683327299925024 0.21197187487555791 0 -0.077884159070199604 0.2126860219832131 0 -0.089950704149474564 0.21660149084549701 0 -0.077884159070199604 0.2126860219832131 0 -0.087241526055590657 0.20514135106535239 0 -0.089950704149474564 0.21660149084549701 0 -0.095149617161195271 0.19271405424946009 0 -0.087241526055590657 0.20514135106535239 0 -0.089950704149474564 0.21660149084549701 0 -0.095149617161195271 0.19271405424946009 0 -0.089950704149474564 0.21660149084549701 0 -0.077398480784349299 0.2102750893871779 0 -0.077884159070199604 0.2126860219832131 0 -0.087241526055590657 0.20514135106535239 0 -0.077884159070199604 0.2126860219832131 0 -0.083666647235009842 0.24139059785004849 0 -0.089950704149474564 0.21660149084549701 0 -0.083666647235009842 0.24139059785004849 0 -0.077884159070199604 0.2126860219832131 0 -0.089950704149474564 0.21660149084549701 0 -0.083666647235009842 0.24139059785004849 0 -0.098826177075254387 0.23394696074010041 0 -0.089950704149474564 0.21660149084549701 0 -0.083666647235009842 0.24139059785004849 0 -0.077884159070199604 0.2126860219832131 0 -0.083666647235009842 0.24139059785004849 0 -0.060700713784132942 0.2267940359372384 0 -0.075683327299925024 0.21197187487555791 0 -0.060700713784132942 0.2267940359372384 0 -0.064077212627390134 0.24851538469076631 0 -0.083666647235009842 0.24139059785004849 0 -0.060700713784132942 0.2267940359372384 0 -0.086302411784292182 0.25447467192259482 0 -0.083666647235009842 0.24139059785004849 0 -0.094679029848152713 0.24609146959404629 0 -0.098826177075254387 0.23394696074010041 0 -0.083666647235009842 0.24139059785004849 0 -0.086302411784292182 0.25447467192259482 0 -0.094679029848152713 0.24609146959404629 0 -0.083666647235009842 0.24139059785004849 0 -0.03068766995985707 0.25286978792993342 0 -0.034335222642673788 0.23481172099035691 0 -0.046578861792199937 0.24361118962503389 0 -0.034335222642673788 0.23481172099035691 0 -0.046578861792199937 0.24361118962503389 0 -0.045510089746351297 0.2289623102588538 0 -0.064077212627390134 0.24851538469076631 0 -0.046578861792199937 0.24361118962503389 0 -0.055802081643016588 0.23164020743468811 0 -0.064077212627390134 0.24851538469076631 0 -0.055802081643016588 0.23164020743468811 0 -0.060700713784132942 0.2267940359372384 0 -0.064077212627390134 0.24851538469076631 0 -0.060700713784132942 0.2267940359372384 0 -0.046578861792199937 0.24361118962503389 0 -0.055802081643016588 0.23164020743468811 0 -0.045510089746351297 0.2289623102588538 0 -0.055802081643016588 0.23164020743468811 0 -0.053252725762674542 0.2222055350902031 0 -0.045510089746351297 0.2289623102588538 0 -0.055802081643016588 0.23164020743468811 0 -0.060700713784132942 0.2267940359372384 0 -0.053252725762674542 0.2222055350902031 0 -0.055802081643016588 0.23164020743468811 0 -0.060700713784132942 0.2267940359372384 0 -0.053252725762674542 0.2222055350902031 0 -0.045510089746351297 0.2289623102588538 0 -0.046772345315528908 0.21756655778431969 0 -0.045510089746351297 0.2289623102588538 0 -0.036443083940353373 0.22210497005765251 0 -0.046772345315528908 0.21756655778431969 0 -0.034335222642673788 0.23481172099035691 0 -0.045510089746351297 0.2289623102588538 0 -0.036443083940353373 0.22210497005765251 0 -0.034335222642673788 0.23481172099035691 0 -0.036443083940353373 0.22210497005765251 0 -0.024866254401544021 0.22078734426404351 0 -0.036443083940353373 0.22210497005765251 0 -0.046772345315528908 0.21756655778431969 0 -0.031637039445344017 0.19767931081015269 0 -0.046772345315528908 0.21756655778431969 0 -0.057478398324341332 0.20606456403591589 0 -0.031637039445344017 0.19767931081015269 0 -0.060700713784132942 0.2267940359372384 0 -0.053252725762674542 0.2222055350902031 0 -0.057478398324341332 0.20606456403591589 0 -0.060700713784132942 0.2267940359372384 0 -0.057478398324341332 0.20606456403591589 0 -0.053252725762674542 0.2222055350902031 0 -0.046772345315528908 0.21756655778431969 0 -0.057478398324341332 0.20606456403591589 0 -0.062951628171730722 0.19451437844324071 0 -0.057478398324341332 0.20606456403591589 0 -0.054948738746262903 0.1897910154656581 0 -0.057478398324341332 0.20606456403591589 0 -0.054948738746262903 0.1897910154656581 0 -0.031637039445344017 0.19767931081015269 0 -0.057478398324341332 0.20606456403591589 0 -0.054948738746262903 0.1897910154656581 0 -0.054948738746262903 0.1897910154656581 0 -0.031637039445344017 0.19767931081015269 0 -0.039999697082172873 0.18418677263352329 0 -0.057478398324341332 0.20606456403591589 0 -0.031637039445344017 0.19767931081015269 0 -0.031637039445344017 0.19767931081015269 0 -0.0057956805663459468 0.1892940575843915 0 -0.031637039445344017 0.19767931081015269 0 -0.0057956805663459468 0.1892940575843915 0 -0.024775833668462071 0.17590936267321361 0 -0.031637039445344017 0.19767931081015269 0 -0.0057956805663459468 0.1892940575843915 0 -0.01019634689217482 0.20814994011246479 0 -0.0057956805663459468 0.1892940575843915 0 -0.01019634689217482 0.20814994011246479 0 0.0090806704795409685 0.20996839310177981 0 -0.01019634689217482 0.20814994011246479 0 0.00014186162909880781 0.2338185852574263 0 0.0090806704795409685 0.20996839310177981 0 -0.036443083940353373 0.22210497005765251 0 -0.031637039445344017 0.19767931081015269 0 -0.024866254401544021 0.22078734426404351 0 -0.031637039445344017 0.19767931081015269 0 -0.01019634689217482 0.20814994011246479 0 -0.024866254401544021 0.22078734426404351 0 -0.034335222642673788 0.23481172099035691 0 -0.024866254401544021 0.22078734426404351 0 -0.01991034591062427 0.239405390953495 0 -0.024866254401544021 0.22078734426404351 0 0.00014186162909880781 0.2338185852574263 0 -0.024866254401544021 0.22078734426404351 0 -0.01991034591062427 0.239405390953495 0 0.00014186162909880781 0.2338185852574263 0 -0.01019634689217482 0.20814994011246479 0 -0.024866254401544021 0.22078734426404351 0 0.00014186162909880781 0.2338185852574263 0 -0.0098044441781452579 0.25473951632571468 0 0.00014186162909880781 0.2338185852574263 0 0.0073806355134042019 0.25529449578482938 0 -0.0098044441781452579 0.25473951632571468 0 -0.01991034591062427 0.239405390953495 0 0.00014186162909880781 0.2338185852574263 0 -0.03068766995985707 0.25286978792993342 0 -0.034335222642673788 0.23481172099035691 0 -0.01991034591062427 0.239405390953495 0 -0.03068766995985707 0.25286978792993342 0 -0.0098044441781452579 0.25473951632571468 0 -0.01991034591062427 0.239405390953495 0 -0.045513089216113363 0.1481501368583191 0 -0.039963318838929777 0.1583549670989208 0 -0.028048700007850699 0.14601834090005769 0 -0.045513089216113363 0.1481501368583191 0 -0.037584816749385713 0.12707105787504261 0 -0.028048700007850699 0.14601834090005769 0 -0.037584816749385713 0.12707105787504261 0 -0.028048700007850699 0.14601834090005769 0 -0.045513089216113363 0.1481501368583191 0 -0.037584816749385713 0.12707105787504261 0 -0.045513089216113363 0.1481501368583191 0 -0.037584816749385713 0.12707105787504261 0 -0.049753839012929922 0.13582205838018921 0 -0.037584816749385713 0.12707105787504261 0 -0.049753839012929922 0.13582205838018921 0 -0.051208231868337763 0.1260313133231428 0 -0.049753839012929922 0.13582205838018921 0 -0.06070043620975589 0.134524720015781 0 -0.052276118599972977 0.1457036522838337 0 -0.051208231868337763 0.1260313133231428 0 -0.06070043620975589 0.134524720015781 0 -0.06411880478631618 0.11818203644688791 0 -0.06070043620975589 0.134524720015781 0 -0.06411880478631618 0.11818203644688791 0 -0.049753839012929922 0.13582205838018921 0 -0.051208231868337763 0.1260313133231428 0 -0.06070043620975589 0.134524720015781 0 -0.06070043620975589 0.134524720015781 0 -0.052276118599972977 0.1457036522838337 0 -0.05728206763319247 0.1508674035846734 0 -0.06070043620975589 0.134524720015781 0 -0.05728206763319247 0.1508674035846734 0 -0.045513089216113363 0.1481501368583191 0 -0.049753839012929922 0.13582205838018921 0 -0.052276118599972977 0.1457036522838337 0 -0.045513089216113363 0.1481501368583191 0 -0.052276118599972977 0.1457036522838337 0 -0.053440893212920608 0.15280063427064891 0 -0.052276118599972977 0.1457036522838337 0 -0.053440893212920608 0.15280063427064891 0 -0.05728206763319247 0.1508674035846734 0 -0.053440893212920608 0.15280063427064891 0 -0.05728206763319247 0.1508674035846734 0 -0.05728206763319247 0.1508674035846734 0 -0.062031688412593149 0.16441565219234799 0 -0.053441361682841117 0.16922921584159559 0 -0.053440893212920608 0.15280063427064891 0 -0.05728206763319247 0.1508674035846734 0 -0.053441361682841117 0.16922921584159559 0 -0.045513089216113363 0.1481501368583191 0 -0.053440893212920608 0.15280063427064891 0 -0.053441361682841117 0.16922921584159559 0 -0.045513089216113363 0.1481501368583191 0 -0.053441361682841117 0.16922921584159559 0 -0.05728206763319247 0.1508674035846734 0 -0.053441361682841117 0.16922921584159559 0 -0.06725389334219653 0.15771987894696021 0 -0.05728206763319247 0.1508674035846734 0 -0.062031688412593149 0.16441565219234799 0 -0.062031688412593149 0.16441565219234799 0 -0.053441361682841117 0.16922921584159559 0 -0.062041409668937363 0.1723934095439342 0 -0.053441361682841117 0.16922921584159559 0 -0.047633738945979477 0.17108968717192211 0 -0.039963318838929777 0.1583549670989208 0 -0.052991971448818453 0.17137768000779441 0 -0.053441361682841117 0.16922921584159559 0 -0.047633738945979477 0.17108968717192211 0 -0.052991971448818453 0.17137768000779441 0 -0.053441361682841117 0.16922921584159559 0 -0.054948738746262903 0.1897910154656581 0 -0.052419079168185397 0.17351746689540021 0 -0.046888846475854867 0.17837904804597579 0 -0.062951628171730722 0.19451437844324071 0 -0.054948738746262903 0.1897910154656581 0 -0.052419079168185397 0.17351746689540021 0 -0.062951628171730722 0.19451437844324071 0 -0.052991971448818453 0.17137768000779441 0 -0.052419079168185397 0.17351746689540021 0 -0.064604308801312821 0.18244611143699499 0 -0.062951628171730722 0.19451437844324071 0 -0.053441361682841117 0.16922921584159559 0 -0.062951628171730722 0.19451437844324071 0 -0.052991971448818453 0.17137768000779441 0 -0.053441361682841117 0.16922921584159559 0 -0.054948738746262903 0.1897910154656581 0 -0.052419079168185397 0.17351746689540021 0 -0.062951628171730722 0.19451437844324071 0 -0.053441361682841117 0.16922921584159559 0 -0.064604308801312821 0.18244611143699499 0 -0.053441361682841117 0.16922921584159559 0 -0.062041409668937363 0.1723934095439342 0 -0.052991971448818453 0.17137768000779441 0 -0.047633738945979477 0.17108968717192211 0 -0.052419079168185397 0.17351746689540021 0 -0.047633738945979477 0.17108968717192211 0 -0.052419079168185397 0.17351746689540021 0 -0.046888846475854867 0.17837904804597579 0 -0.054948738746262903 0.1897910154656581 0 -0.046888846475854867 0.17837904804597579 0 -0.039999697082172873 0.18418677263352329 0 -0.031637039445344017 0.19767931081015269 0 -0.039999697082172873 0.18418677263352329 0 -0.024775833668462071 0.17590936267321361 0 -0.046888846475854867 0.17837904804597579 0 -0.039999697082172873 0.18418677263352329 0 -0.039442978436673673 0.17331029806337539 0 -0.047633738945979477 0.17108968717192211 0 -0.046888846475854867 0.17837904804597579 0 -0.039442978436673673 0.17331029806337539 0 -0.039442978436673673 0.17331029806337539 0 -0.032139483942643897 0.16694135859911591 0 -0.024775833668462071 0.17590936267321361 0 -0.039999697082172873 0.18418677263352329 0 -0.039442978436673673 0.17331029806337539 0 -0.024775833668462071 0.17590936267321361 0 -0.045513089216113363 0.1481501368583191 0 -0.053441361682841117 0.16922921584159559 0 -0.039963318838929777 0.1583549670989208 0 -0.039963318838929777 0.1583549670989208 0 -0.032139483942643897 0.16694135859911591 0 -0.02343924065842673 0.15869802647678349 0 -0.047633738945979477 0.17108968717192211 0 -0.039442978436673673 0.17331029806337539 0 -0.039963318838929777 0.1583549670989208 0 -0.039442978436673673 0.17331029806337539 0 -0.039963318838929777 0.1583549670989208 0 -0.032139483942643897 0.16694135859911591 0 -0.032139483942643897 0.16694135859911591 0 -0.02343924065842673 0.15869802647678349 0 -0.024775833668462071 0.17590936267321361 0 -0.02343924065842673 0.15869802647678349 0 -0.024775833668462071 0.17590936267321361 0 -0.0048034666842798916 0.1614245706846468 0 -0.0057956805663459468 0.1892940575843915 0 -0.024775833668462071 0.17590936267321361 0 -0.0048034666842798916 0.1614245706846468 0 -0.0048034666842798916 0.1614245706846468 0 -0.01090464080839405 0.14353955890474629 0 0.011098566836083609 0.13484946890849181 0 -0.02343924065842673 0.15869802647678349 0 -0.0048034666842798916 0.1614245706846468 0 -0.01090464080839405 0.14353955890474629 0 -0.039963318838929777 0.1583549670989208 0 -0.02343924065842673 0.15869802647678349 0 -0.028048700007850699 0.14601834090005769 0 -0.02343924065842673 0.15869802647678349 0 -0.01090464080839405 0.14353955890474629 0 -0.028048700007850699 0.14601834090005769 0 -0.037584816749385713 0.12707105787504261 0 -0.0187932077553963 0.1304023687453105 0 -0.02482114599867602 0.1199028763409456 0 -0.01090464080839405 0.14353955890474629 0 -0.028048700007850699 0.14601834090005769 0 -0.0187932077553963 0.1304023687453105 0 -0.037584816749385713 0.12707105787504261 0 -0.028048700007850699 0.14601834090005769 0 -0.0187932077553963 0.1304023687453105 0 -0.0064436606074630637 0.13109611639504981 0 -0.007175360702145514 0.1155930690216506 0 0.011098566836083609 0.13484946890849181 0 -0.01090464080839405 0.14353955890474629 0 -0.0064436606074630637 0.13109611639504981 0 0.011098566836083609 0.13484946890849181 0 -0.0187932077553963 0.1304023687453105 0 -0.0064436606074630637 0.13109611639504981 0 -0.007175360702145514 0.1155930690216506 0 -0.01090464080839405 0.14353955890474629 0 -0.0187932077553963 0.1304023687453105 0 -0.0064436606074630637 0.13109611639504981 0 -0.007175360702145514 0.1155930690216506 0 -0.0040088977147468936 0.097024336429998151 0 -0.013655752966245171 0.094180689311720855 0 -0.007175360702145514 0.1155930690216506 0 -0.0040088977147468936 0.097024336429998151 0 0.0025937760044158291 0.1064596481343341 0 -0.007175360702145514 0.1155930690216506 0 -0.013655752966245171 0.094180689311720855 0 -0.02544928824037461 0.096336669134809427 0 -0.029459919491476121 0.1011230655410132 0 -0.021580178673492881 0.1105609364200745 0 -0.037915498494119543 0.10215930426450601 0 -0.007175360702145514 0.1155930690216506 0 -0.02544928824037461 0.096336669134809427 0 -0.007175360702145514 0.1155930690216506 0 -0.02544928824037461 0.096336669134809427 0 -0.0241566231860777 0.1021061234229471 0 -0.02544928824037461 0.096336669134809427 0 -0.029459919491476121 0.1011230655410132 0 -0.035034026511796899 0.0954599165668297 0 -0.02544928824037461 0.096336669134809427 0 -0.029459919491476121 0.1011230655410132 0 -0.0241566231860777 0.1021061234229471 0 -0.02544928824037461 0.096336669134809427 0 -0.0241566231860777 0.1021061234229471 0 -0.029459919491476121 0.1011230655410132 0 -0.0241566231860777 0.1021061234229471 0 -0.021580178673492881 0.1105609364200745 0 -0.02482114599867602 0.1199028763409456 0 -0.021580178673492881 0.1105609364200745 0 -0.032585978911933711 0.11378053360982859 0 -0.007175360702145514 0.1155930690216506 0 -0.0241566231860777 0.1021061234229471 0 -0.021580178673492881 0.1105609364200745 0 -0.0187932077553963 0.1304023687453105 0 -0.007175360702145514 0.1155930690216506 0 -0.02482114599867602 0.1199028763409456 0 -0.007175360702145514 0.1155930690216506 0 -0.02482114599867602 0.1199028763409456 0 -0.021580178673492881 0.1105609364200745 0 -0.01109578586274463 0.07592966442077155 0 -0.01963881101933795 0.057650575484614511 0 -0.0089029190745683329 0.062319161291970238 0 -0.0031702267477386531 0.067180855403790804 0 -0.01109578586274463 0.07592966442077155 0 0.0065236609159091173 0.071671444604676282 0 -0.0031702267477386531 0.067180855403790804 0 -0.0089029190745683329 0.062319161291970238 0 0.00079413703044923156 0.058803151297745167 0 -0.0031702267477386531 0.067180855403790804 0 -0.01109578586274463 0.07592966442077155 0 -0.0089029190745683329 0.062319161291970238 0 -0.0040088977147468936 0.097024336429998151 0 -0.01109578586274463 0.07592966442077155 0 0.011643404763696401 0.092949868607662828 0 -0.0040088977147468936 0.097024336429998151 0 -0.013655752966245171 0.094180689311720855 0 -0.01109578586274463 0.07592966442077155 0 -0.013655752966245171 0.094180689311720855 0 -0.01109578586274463 0.07592966442077155 0 -0.02054943231121421 0.086019707551374502 0 -0.02544928824037461 0.096336669134809427 0 -0.02054943231121421 0.086019707551374502 0 -0.029642132364781061 0.077623064684345475 0 -0.02544928824037461 0.096336669134809427 0 -0.029642132364781061 0.077623064684345475 0 -0.036673455980692451 0.084509049595857907 0 -0.01109578586274463 0.07592966442077155 0 -0.02054943231121421 0.086019707551374502 0 -0.029642132364781061 0.077623064684345475 0 -0.02544928824037461 0.096336669134809427 0 -0.029642132364781061 0.077623064684345475 0 -0.013655752966245171 0.094180689311720855 0 -0.02544928824037461 0.096336669134809427 0 -0.02054943231121421 0.086019707551374502 0 -0.02544928824037461 0.096336669134809427 0 -0.036673455980692451 0.084509049595857907 0 -0.01109578586274463 0.07592966442077155 0 -0.033834976489186493 0.058909460233881362 0 -0.01109578586274463 0.07592966442077155 0 -0.029642132364781061 0.077623064684345475 0 -0.033834976489186493 0.058909460233881362 0 -0.01109578586274463 0.07592966442077155 0 -0.033834976489186493 0.058909460233881362 0 -0.01963881101933795 0.057650575484614511 0 -0.029642132364781061 0.077623064684345475 0 -0.033834976489186493 0.058909460233881362 0 -0.029642132364781061 0.077623064684345475 0 -0.036732086871232597 0.066761861307427367 0 -0.033834976489186493 0.058909460233881362 0 -0.042969512877196837 0.063698159366550891 0 -0.036732086871232597 0.066761861307427367 0 -0.038306240480512441 0.072768089837317376 0 -0.042969512877196837 0.063698159366550891 0 -0.038306240480512441 0.072768089837317376 0 -0.046136221960229658 0.070392563092827029 0 -0.042969512877196837 0.063698159366550891 0 -0.036732086871232597 0.066761861307427367 0 -0.038907572144486188 0.060810532415041758 0 -0.029642132364781061 0.077623064684345475 0 -0.036732086871232597 0.066761861307427367 0 -0.038306240480512441 0.072768089837317376 0 -0.038306240480512441 0.072768089837317376 0 -0.046136221960229658 0.070392563092827029 0 -0.043586306971417507 0.077534071189344175 0 -0.038306240480512441 0.072768089837317376 0 -0.043586306971417507 0.077534071189344175 0 -0.036673455980692451 0.084509049595857907 0 -0.043586306971417507 0.077534071189344175 0 -0.036673455980692451 0.084509049595857907 0 -0.046978765451358998 0.084182386091036676 0 -0.029642132364781061 0.077623064684345475 0 -0.038306240480512441 0.072768089837317376 0 -0.036673455980692451 0.084509049595857907 0 -0.02544928824037461 0.096336669134809427 0 -0.036673455980692451 0.084509049595857907 0 -0.035034026511796899 0.0954599165668297 0 -0.036673455980692451 0.084509049595857907 0 -0.044089979176562301 0.093675305350012283 0 -0.035034026511796899 0.0954599165668297 0 -0.036673455980692451 0.084509049595857907 0 -0.044089979176562301 0.093675305350012283 0 -0.046978765451358998 0.084182386091036676 0 -0.044089979176562301 0.093675305350012283 0 -0.057144835734191893 0.088207312209507505 0 -0.046978765451358998 0.084182386091036676 0 -0.057144835734191893 0.088207312209507505 0 -0.046978765451358998 0.084182386091036676 0 -0.053399249393930842 0.076986192110461482 0 -0.043586306971417507 0.077534071189344175 0 -0.046978765451358998 0.084182386091036676 0 -0.053399249393930842 0.076986192110461482 0 -0.053399249393930842 0.076986192110461482 0 -0.070406408885084593 0.061857930521202607 0 -0.059815066152941319 0.061788281472960463 0 -0.057144835734191893 0.088207312209507505 0 -0.053399249393930842 0.076986192110461482 0 -0.070406408885084593 0.061857930521202607 0 -0.046136221960229658 0.070392563092827029 0 -0.043586306971417507 0.077534071189344175 0 -0.053399249393930842 0.076986192110461482 0 -0.046136221960229658 0.070392563092827029 0 -0.053399249393930842 0.076986192110461482 0 -0.05257832837313995 0.068950164376806455 0 -0.053399249393930842 0.076986192110461482 0 -0.05257832837313995 0.068950164376806455 0 -0.059815066152941319 0.061788281472960463 0 -0.05257832837313995 0.068950164376806455 0 -0.052166049838275927 0.062310195238599278 0 -0.059815066152941319 0.061788281472960463 0 -0.046136221960229658 0.070392563092827029 0 -0.05257832837313995 0.068950164376806455 0 -0.052166049838275927 0.062310195238599278 0 -0.042969512877196837 0.063698159366550891 0 -0.046136221960229658 0.070392563092827029 0 -0.052166049838275927 0.062310195238599278 0 -0.021580178673492881 0.1105609364200745 0 -0.043883262583300407 0.11455669389781301 0 -0.021580178673492881 0.1105609364200745 0 -0.043883262583300407 0.11455669389781301 0 -0.032585978911933711 0.11378053360982859 0 -0.037584816749385713 0.12707105787504261 0 -0.051208231868337763 0.1260313133231428 0 -0.043883262583300407 0.11455669389781301 0 -0.037584816749385713 0.12707105787504261 0 -0.043883262583300407 0.11455669389781301 0 -0.037584816749385713 0.12707105787504261 0 -0.032585978911933711 0.11378053360982859 0 -0.037584816749385713 0.12707105787504261 0 -0.043883262583300407 0.11455669389781301 0 -0.032585978911933711 0.11378053360982859 0 -0.037584816749385713 0.12707105787504261 0 -0.02482114599867602 0.1199028763409456 0 -0.032585978911933711 0.11378053360982859 0 -0.021580178673492881 0.1105609364200745 0 -0.043883262583300407 0.11455669389781301 0 -0.037915498494119543 0.10215930426450601 0 -0.044089979176562301 0.093675305350012283 0 -0.043883262583300407 0.11455669389781301 0 -0.037915498494119543 0.10215930426450601 0 -0.044089979176562301 0.093675305350012283 0 -0.037915498494119543 0.10215930426450601 0 -0.035034026511796899 0.0954599165668297 0 -0.029459919491476121 0.1011230655410132 0 -0.037915498494119543 0.10215930426450601 0 -0.035034026511796899 0.0954599165668297 0 -0.044089979176562301 0.093675305350012283 0 -0.057144835734191893 0.088207312209507505 0 -0.043883262583300407 0.11455669389781301 0 -0.057144835734191893 0.088207312209507505 0 -0.043883262583300407 0.11455669389781301 0 -0.057144835734191893 0.088207312209507505 0 -0.043883262583300407 0.11455669389781301 0 -0.056175626513735713 0.104231459755559 0 -0.056175626513735713 0.104231459755559 0 -0.061770267295803899 0.1005995653590098 0 -0.06411880478631618 0.11818203644688791 0 -0.057144835734191893 0.088207312209507505 0 -0.056175626513735713 0.104231459755559 0 -0.061770267295803899 0.1005995653590098 0 -0.043883262583300407 0.11455669389781301 0 -0.06411880478631618 0.11818203644688791 0 -0.051208231868337763 0.1260313133231428 0 -0.043883262583300407 0.11455669389781301 0 -0.06411880478631618 0.11818203644688791 0 -0.043883262583300407 0.11455669389781301 0 -0.056175626513735713 0.104231459755559 0 -0.06411880478631618 0.11818203644688791 0 -0.071786582042575819 0.1280585334591178 0 -0.06411880478631618 0.11818203644688791 0 -0.08034823769671974 0.121089655777625 0 -0.06411880478631618 0.11818203644688791 0 -0.08034823769671974 0.121089655777625 0 -0.075381325115152609 0.106019298300689 0 -0.06411880478631618 0.11818203644688791 0 -0.08034823769671974 0.121089655777625 0 -0.08034823769671974 0.121089655777625 0 -0.096577670607123245 0.1239972751083621 0 -0.08034823769671974 0.121089655777625 0 -0.092569001324263961 0.1124699312803344 0 -0.096577670607123245 0.1239972751083621 0 -0.08034823769671974 0.121089655777625 0 -0.083967771981719092 0.1102844810624737 0 -0.092569001324263961 0.1124699312803344 0 -0.08034823769671974 0.121089655777625 0 -0.083967771981719092 0.1102844810624737 0 -0.075381325115152609 0.106019298300689 0 -0.087572523790740042 0.10155903889124659 0 -0.082071947835387321 0.094412947715560025 0 -0.09233625647768956 0.091651488650119919 0 -0.083967771981719092 0.1102844810624737 0 -0.092569001324263961 0.1124699312803344 0 -0.087572523790740042 0.10155903889124659 0 -0.083967771981719092 0.1102844810624737 0 -0.087572523790740042 0.10155903889124659 0 -0.075381325115152609 0.106019298300689 0 -0.087572523790740042 0.10155903889124659 0 -0.082071947835387321 0.094412947715560025 0 -0.075381325115152609 0.106019298300689 0 -0.06411880478631618 0.11818203644688791 0 -0.06964180214897181 0.091777453024084701 0 -0.082071947835387321 0.094412947715560025 0 -0.075381325115152609 0.106019298300689 0 -0.06964180214897181 0.091777453024084701 0 -0.06411880478631618 0.11818203644688791 0 -0.075381325115152609 0.106019298300689 0 -0.06964180214897181 0.091777453024084701 0 -0.061770267295803899 0.1005995653590098 0 -0.06411880478631618 0.11818203644688791 0 -0.06964180214897181 0.091777453024084701 0 -0.057144835734191893 0.088207312209507505 0 -0.061770267295803899 0.1005995653590098 0 -0.06964180214897181 0.091777453024084701 0 -0.06964180214897181 0.091777453024084701 0 -0.075164799511626648 0.065372869601281192 0 -0.057144835734191893 0.088207312209507505 0 -0.06964180214897181 0.091777453024084701 0 -0.068089461569968729 0.076803891339018993 0 -0.06964180214897181 0.091777453024084701 0 -0.068089461569968729 0.076803891339018993 0 -0.075164799511626648 0.065372869601281192 0 -0.057144835734191893 0.088207312209507505 0 -0.068089461569968729 0.076803891339018993 0 -0.070406408885084593 0.061857930521202607 0 -0.06964180214897181 0.091777453024084701 0 -0.075164799511626648 0.065372869601281192 0 -0.08073347634316104 0.073575546631144614 0 -0.057144835734191893 0.088207312209507505 0 -0.070406408885084593 0.061857930521202607 0 -0.068089461569968729 0.076803891339018993 0 -0.075164799511626648 0.065372869601281192 0 -0.070406408885084593 0.061857930521202607 0 -0.089923560922876636 0.068178037636278263 0 -0.08578586832533959 0.082170087930996366 0 -0.103675070998617 0.083967309240415983 0 -0.08073347634316104 0.073575546631144614 0 -0.089923560922876636 0.068178037636278263 0 -0.083186879645449088 0.059889597987781727 0 -0.075164799511626648 0.065372869601281192 0 -0.08073347634316104 0.073575546631144614 0 -0.083186879645449088 0.059889597987781727 0 -0.08073347634316104 0.073575546631144614 0 -0.089923560922876636 0.068178037636278263 0 -0.08578586832533959 0.082170087930996366 0 -0.06964180214897181 0.091777453024084701 0 -0.08073347634316104 0.073575546631144614 0 -0.08578586832533959 0.082170087930996366 0 -0.082071947835387321 0.094412947715560025 0 -0.06964180214897181 0.091777453024084701 0 -0.08578586832533959 0.082170087930996366 0 -0.082071947835387321 0.094412947715560025 0 -0.08578586832533959 0.082170087930996366 0 -0.09233625647768956 0.091651488650119919 0 -0.09233625647768956 0.091651488650119919 0 -0.103675070998617 0.083967309240415983 0 -0.10429444750695741 0.1014886749251958 0 -0.08578586832533959 0.082170087930996366 0 -0.09233625647768956 0.091651488650119919 0 -0.103675070998617 0.083967309240415983 0 -0.103675070998617 0.083967309240415983 0 -0.1198812247159142 0.095002477965890675 0 -0.10429444750695741 0.1014886749251958 0 -0.089923560922876636 0.068178037636278263 0 -0.103675070998617 0.083967309240415983 0 -0.10785209906359081 0.065371441260914459 0 -0.12533951967512769 0.078274991835817334 0 -0.103675070998617 0.083967309240415983 0 -0.10785209906359081 0.065371441260914459 0 -0.12533951967512769 0.078274991835817334 0 -0.10785209906359081 0.065371441260914459 0 -0.1248745965026067 0.059896082918310993 0 -0.12533951967512769 0.078274991835817334 0 -0.103675070998617 0.083967309240415983 0 -0.1198812247159142 0.095002477965890675 0 -0.13137241316615089 0.11357835761918721 0 -0.1198812247159142 0.095002477965890675 0 -0.10429444750695741 0.1014886749251958 0 -0.13137241316615089 0.11357835761918721 0 -0.12687331202938101 0.13192737382428379 0 -0.10667563132183119 0.1260080396076822 0 -0.13137241316615089 0.11357835761918721 0 -0.10667563132183119 0.1260080396076822 0 -0.1062978327852654 0.11550845570815239 0 -0.13137241316615089 0.11357835761918721 0 -0.1062978327852654 0.11550845570815239 0 -0.10429444750695741 0.1014886749251958 0 -0.13137241316615089 0.11357835761918721 0 -0.10667563132183119 0.1260080396076822 0 -0.10667563132183119 0.1260080396076822 0 -0.1062978327852654 0.11550845570815239 0 -0.096577670607123245 0.1239972751083621 0 -0.092569001324263961 0.1124699312803344 0 -0.1062978327852654 0.11550845570815239 0 -0.096577670607123245 0.1239972751083621 0 -0.092569001324263961 0.1124699312803344 0 -0.1062978327852654 0.11550845570815239 0 -0.10429444750695741 0.1014886749251958 0 -0.092569001324263961 0.1124699312803344 0 -0.087572523790740042 0.10155903889124659 0 -0.10429444750695741 0.1014886749251958 0 -0.087572523790740042 0.10155903889124659 0 -0.09233625647768956 0.091651488650119919 0 -0.10429444750695741 0.1014886749251958 0 -0.10370969952600501 0.019997694726909911 0 -0.098524362227562057 0.035744340183224317 0 -0.08645931971955316 0.02325136753113614 0 -0.10370969952600501 0.019997694726909911 0 -0.08645931971955316 0.02325136753113614 0 -0.091682611010439896 0.0063963380850077774 0 -0.10370969952600501 0.019997694726909911 0 -0.1180188049733784 0.030804183747700629 0 -0.098524362227562057 0.035744340183224317 0 -0.10370969952600501 0.019997694726909911 0 -0.10877227824827949 0.0075748546359299482 0 -0.091682611010439896 0.0063963380850077774 0 -0.1029392013539359 -0.0085751277431150782 0 -0.10877227824827949 0.0075748546359299482 0 -0.091682611010439896 0.0063963380850077774 0 -0.10370969952600501 0.019997694726909911 0 -0.10877227824827949 0.0075748546359299482 0 -0.11835839359799651 0.016938700943610479 0 -0.1029392013539359 -0.0085751277431150782 0 -0.12735709500343681 0.004015926865657337 0 -0.10877227824827949 0.0075748546359299482 0 -0.12735709500343681 0.004015926865657337 0 -0.10877227824827949 0.0075748546359299482 0 -0.11835839359799651 0.016938700943610479 0 -0.1339340902388827 0.022300844741854581 0 -0.11835839359799651 0.016938700943610479 0 -0.1180188049733784 0.030804183747700629 0 -0.10370969952600501 0.019997694726909911 0 -0.11835839359799651 0.016938700943610479 0 -0.1180188049733784 0.030804183747700629 0 -0.1180188049733784 0.030804183747700629 0 -0.1128457876968547 0.048091259023394652 0 -0.098524362227562057 0.035744340183224317 0 -0.13626681081840961 0.042829268155062397 0 -0.1128457876968547 0.048091259023394652 0 -0.13626681081840961 0.042829268155062397 0 -0.1180188049733784 0.030804183747700629 0 -0.1128457876968547 0.048091259023394652 0 -0.13626681081840961 0.042829268155062397 0 -0.1128457876968547 0.048091259023394652 0 -0.1248745965026067 0.059896082918310993 0 -0.10785209906359081 0.065371441260914459 0 -0.1128457876968547 0.048091259023394652 0 -0.1248745965026067 0.059896082918310993 0 -0.1128457876968547 0.048091259023394652 0 -0.089424764575299687 0.053353249891726941 0 -0.089923560922876636 0.068178037636278263 0 -0.10785209906359081 0.065371441260914459 0 -0.089424764575299687 0.053353249891726941 0 -0.10785209906359081 0.065371441260914459 0 -0.1128457876968547 0.048091259023394652 0 -0.089424764575299687 0.053353249891726941 0 -0.1128457876968547 0.048091259023394652 0 -0.098524362227562057 0.035744340183224317 0 -0.089424764575299687 0.053353249891726941 0 -0.098524362227562057 0.035744340183224317 0 -0.080687796874281473 0.038968286178477703 0 -0.08645931971955316 0.02325136753113614 0 -0.098524362227562057 0.035744340183224317 0 -0.080687796874281473 0.038968286178477703 0 -0.089424764575299687 0.053353249891726941 0 -0.080687796874281473 0.038968286178477703 0 -0.089424764575299687 0.053353249891726941 0 -0.083186879645449088 0.059889597987781727 0 -0.075164799511626648 0.065372869601281192 0 -0.080687796874281473 0.038968286178477703 0 -0.083186879645449088 0.059889597987781727 0 -0.089923560922876636 0.068178037636278263 0 -0.089424764575299687 0.053353249891726941 0 -0.083186879645449088 0.059889597987781727 0 -0.075164799511626648 0.065372869601281192 0 -0.080687796874281473 0.038968286178477703 0 -0.071303082845968715 0.053347503409362687 0 -0.075164799511626648 0.065372869601281192 0 -0.080687796874281473 0.038968286178477703 0 -0.075164799511626648 0.065372869601281192 0 -0.070406408885084593 0.061857930521202607 0 -0.071303082845968715 0.053347503409362687 0 -0.071303082845968715 0.053347503409362687 0 -0.064856269609628314 0.055117702274744398 0 -0.065400139349222536 0.045420728471107522 0 -0.070406408885084593 0.061857930521202607 0 -0.071303082845968715 0.053347503409362687 0 -0.064856269609628314 0.055117702274744398 0 -0.070406408885084593 0.061857930521202607 0 -0.064856269609628314 0.055117702274744398 0 -0.059815066152941319 0.061788281472960463 0 -0.080687796874281473 0.038968286178477703 0 -0.065400139349222536 0.045420728471107522 0 -0.063264057366842208 0.031259222641012697 0 -0.080687796874281473 0.038968286178477703 0 -0.063264057366842208 0.031259222641012697 0 -0.073460039823911166 0.024685388153665749 0 -0.080687796874281473 0.038968286178477703 0 -0.071303082845968715 0.053347503409362687 0 -0.065400139349222536 0.045420728471107522 0 -0.063264057366842208 0.031259222641012697 0 -0.073460039823911166 0.024685388153665749 0 -0.061440697951084179 0.017621877449499421 0 -0.073460039823911166 0.024685388153665749 0 -0.076769634387976737 0.01135693610240161 0 -0.061440697951084179 0.017621877449499421 0 -0.080687796874281473 0.038968286178477703 0 -0.073460039823911166 0.024685388153665749 0 -0.08645931971955316 0.02325136753113614 0 -0.073460039823911166 0.024685388153665749 0 -0.08645931971955316 0.02325136753113614 0 -0.076769634387976737 0.01135693610240161 0 -0.08645931971955316 0.02325136753113614 0 -0.091682611010439896 0.0063963380850077774 0 -0.076769634387976737 0.01135693610240161 0 -0.091682611010439896 0.0063963380850077774 0 -0.078933949510919491 0.00072378658541613432 0 -0.076769634387976737 0.01135693610240161 0 -0.086097875964997059 -0.0058870606910941042 0 -0.091682611010439896 0.0063963380850077774 0 -0.078933949510919491 0.00072378658541613432 0 -0.078933949510919491 0.00072378658541613432 0 -0.076769634387976737 0.01135693610240161 0 -0.068462160169621672 0.0025537029525893409 0 -0.068462160169621672 0.0025537029525893409 0 -0.057836245250817257 0.0062936453779614283 0 -0.061440697951084179 0.017621877449499421 0 -0.076769634387976737 0.01135693610240161 0 -0.068462160169621672 0.0025537029525893409 0 -0.061440697951084179 0.017621877449499421 0 -0.057836245250817257 0.0062936453779614283 0 -0.061440697951084179 0.017621877449499421 0 -0.042678209040760022 0.019440128409622049 0 -0.057836245250817257 0.0062936453779614283 0 -0.042678209040760022 0.019440128409622049 0 -0.044352522143416888 0.0050416822031405977 0 -0.063264057366842208 0.031259222641012697 0 -0.042678209040760022 0.019440128409622049 0 -0.05195897498334151 0.039592758420259042 0 -0.063264057366842208 0.031259222641012697 0 -0.061440697951084179 0.017621877449499421 0 -0.042678209040760022 0.019440128409622049 0 -0.042678209040760022 0.019440128409622049 0 -0.038256592764973757 0.039174794321751791 0 -0.042678209040760022 0.019440128409622049 0 -0.038256592764973757 0.039174794321751791 0 -0.027511467414372541 0.03001296694831072 0 -0.042678209040760022 0.019440128409622049 0 -0.028180513839983729 0.018098474401369 0 -0.027511467414372541 0.03001296694831072 0 -0.042678209040760022 0.019440128409622049 0 -0.032770024037711037 0.0084985419153508525 0 -0.028180513839983729 0.018098474401369 0 -0.032770024037711037 0.0084985419153508525 0 -0.03614709390981162 0.0015378833132510439 0 -0.044352522143416888 0.0050416822031405977 0 -0.029539197120254941 -0.00051038393964639519 0 -0.032770024037711037 0.0084985419153508525 0 -0.03614709390981162 0.0015378833132510439 0 -0.042678209040760022 0.019440128409622049 0 -0.032770024037711037 0.0084985419153508525 0 -0.044352522143416888 0.0050416822031405977 0 -0.042969512877196837 0.063698159366550891 0 -0.047980875447113908 0.056604040506729722 0 -0.052166049838275927 0.062310195238599278 0 -0.047980875447113908 0.056604040506729722 0 -0.052166049838275927 0.062310195238599278 0 -0.055804220694704088 0.051985500715961808 0 -0.064856269609628314 0.055117702274744398 0 -0.059815066152941319 0.061788281472960463 0 -0.055804220694704088 0.051985500715961808 0 -0.052166049838275927 0.062310195238599278 0 -0.059815066152941319 0.061788281472960463 0 -0.055804220694704088 0.051985500715961808 0 -0.064856269609628314 0.055117702274744398 0 -0.065400139349222536 0.045420728471107522 0 -0.055804220694704088 0.051985500715961808 0 -0.047980875447113908 0.056604040506729722 0 -0.055804220694704088 0.051985500715961808 0 -0.046350630683546529 0.050276175962098407 0 -0.055804220694704088 0.051985500715961808 0 -0.05195897498334151 0.039592758420259042 0 -0.046350630683546529 0.050276175962098407 0 -0.065400139349222536 0.045420728471107522 0 -0.055804220694704088 0.051985500715961808 0 -0.05195897498334151 0.039592758420259042 0 -0.065400139349222536 0.045420728471107522 0 -0.063264057366842208 0.031259222641012697 0 -0.05195897498334151 0.039592758420259042 0 -0.042678209040760022 0.019440128409622049 0 -0.05195897498334151 0.039592758420259042 0 -0.038256592764973757 0.039174794321751791 0 -0.05195897498334151 0.039592758420259042 0 -0.038256592764973757 0.039174794321751791 0 -0.046350630683546529 0.050276175962098407 0 -0.038256592764973757 0.039174794321751791 0 -0.033834976489186493 0.058909460233881362 0 -0.038256592764973757 0.039174794321751791 0 -0.038513274033404883 0.055407770980391423 0 -0.033834976489186493 0.058909460233881362 0 -0.038256592764973757 0.039174794321751791 0 -0.046350630683546529 0.050276175962098407 0 -0.038513274033404883 0.055407770980391423 0 -0.038256592764973757 0.039174794321751791 0 -0.033834976489186493 0.058909460233881362 0 -0.02879531395286377 0.050132256585483953 0 -0.046350630683546529 0.050276175962098407 0 -0.038513274033404883 0.055407770980391423 0 -0.042914570065583427 0.057802329486214707 0 -0.036732086871232597 0.066761861307427367 0 -0.033834976489186493 0.058909460233881362 0 -0.038907572144486188 0.060810532415041758 0 -0.038513274033404883 0.055407770980391423 0 -0.033834976489186493 0.058909460233881362 0 -0.038513274033404883 0.055407770980391423 0 -0.033834976489186493 0.058909460233881362 0 -0.038907572144486188 0.060810532415041758 0 -0.042969512877196837 0.063698159366550891 0 -0.038907572144486188 0.060810532415041758 0 -0.042914570065583427 0.057802329486214707 0 -0.038513274033404883 0.055407770980391423 0 -0.038907572144486188 0.060810532415041758 0 -0.042914570065583427 0.057802329486214707 0 -0.047980875447113908 0.056604040506729722 0 -0.046350630683546529 0.050276175962098407 0 -0.042914570065583427 0.057802329486214707 0 -0.042969512877196837 0.063698159366550891 0 -0.047980875447113908 0.056604040506729722 0 -0.042914570065583427 0.057802329486214707 0 -0.033834976489186493 0.058909460233881362 0 -0.01963881101933795 0.057650575484614511 0 -0.02879531395286377 0.050132256585483953 0 -0.01963881101933795 0.057650575484614511 0 -0.02879531395286377 0.050132256585483953 0 -0.02345087553795689 0.044794196301688183 0 -0.01963881101933795 0.057650575484614511 0 -0.02345087553795689 0.044794196301688183 0 -0.012175026131353321 0.050402421608982242 0 -0.02345087553795689 0.044794196301688183 0 -0.014695186475719159 0.0359408453649432 0 -0.012175026131353321 0.050402421608982242 0 -0.038256592764973757 0.039174794321751791 0 -0.02879531395286377 0.050132256585483953 0 -0.02345087553795689 0.044794196301688183 0 -0.038256592764973757 0.039174794321751791 0 -0.02345087553795689 0.044794196301688183 0 -0.027511467414372541 0.03001296694831072 0 -0.02345087553795689 0.044794196301688183 0 -0.014695186475719159 0.0359408453649432 0 -0.027511467414372541 0.03001296694831072 0 -0.014695186475719159 0.0359408453649432 0 -0.0023331541944977092 0.045311556235899067 0 0.00074240361007229996 0.028778475488121531 0 -0.014695186475719159 0.0359408453649432 0 -0.0023331541944977092 0.045311556235899067 0 -0.012175026131353321 0.050402421608982242 0 -0.0023331541944977092 0.045311556235899067 0 -0.012175026131353321 0.050402421608982242 0 0.00079413703044923156 0.058803151297745167 0 -0.012175026131353321 0.050402421608982242 0 -0.0089029190745683329 0.062319161291970238 0 0.00079413703044923156 0.058803151297745167 0 -0.01963881101933795 0.057650575484614511 0 -0.012175026131353321 0.050402421608982242 0 -0.0089029190745683329 0.062319161291970238 0 -0.021996997598287969 0.010981086364913869 0 -0.02112675760807068 0.0030512678310729521 0 -0.0083058662928979787 0.012079608812324741 0 -0.021996997598287969 0.010981086364913869 0 -0.01661374249992489 0.02103319015209278 0 -0.0083058662928979787 0.012079608812324741 0 -0.021996997598287969 0.010981086364913869 0 -0.02112675760807068 0.0030512678310729521 0 -0.02631380729169577 0.0053104208567875946 0 -0.029539197120254941 -0.00051038393964639519 0 -0.02112675760807068 0.0030512678310729521 0 -0.02631380729169577 0.0053104208567875946 0 -0.029539197120254941 -0.00051038393964639519 0 -0.032770024037711037 0.0084985419153508525 0 -0.02631380729169577 0.0053104208567875946 0 -0.032770024037711037 0.0084985419153508525 0 -0.021996997598287969 0.010981086364913869 0 -0.02631380729169577 0.0053104208567875946 0 -0.032770024037711037 0.0084985419153508525 0 -0.021996997598287969 0.010981086364913869 0 -0.028180513839983729 0.018098474401369 0 -0.028180513839983729 0.018098474401369 0 -0.027511467414372541 0.03001296694831072 0 -0.01661374249992489 0.02103319015209278 0 -0.014695186475719159 0.0359408453649432 0 -0.027511467414372541 0.03001296694831072 0 -0.01661374249992489 0.02103319015209278 0 -0.021996997598287969 0.010981086364913869 0 -0.028180513839983729 0.018098474401369 0 -0.01661374249992489 0.02103319015209278 0 -0.01661374249992489 0.02103319015209278 0 0.00074240361007229996 0.028778475488121531 0 -0.0083058662928979787 0.012079608812324741 0 0.0060294939382754481 0.01286563290641534 0 0.00074240361007229996 0.028778475488121531 0 -0.014695186475719159 0.0359408453649432 0 -0.01661374249992489 0.02103319015209278 0 0.00074240361007229996 0.028778475488121531 0 -0.0083058662928979787 0.012079608812324741 0 0.00074240361007229996 0.028778475488121531 0 -0.01661374249992489 0.02103319015209278 0 -0.0083058662928979787 0.012079608812324741 0 0.00074240361007229996 0.028778475488121531 0 -0.0072764121498596901 -0.0036325873431357339 0 -0.0083058662928979787 0.012079608812324741 0 0.0012074066645448821 -0.00065723147797176382 0 -0.0072764121498596901 -0.0036325873431357339 0 -0.013607688627124061 -0.00178224205395049 0 -0.0083058662928979787 0.012079608812324741 0 -0.017354136195868258 -0.0046192578634720229 0 -0.0083058662928979787 0.012079608812324741 0 -0.017354136195868258 -0.0046192578634720229 0 -0.013607688627124061 -0.00178224205395049 0 -0.0083058662928979787 0.012079608812324741 0 -0.0083058662928979787 0.012079608812324741 0 0.0060294939382754481 0.01286563290641534 0 0.0012074066645448821 -0.00065723147797176382 0 -0.017354136195868258 -0.0046192578634720229 0 -0.02112675760807068 0.0030512678310729521 0 -0.0083058662928979787 0.012079608812324741 0 0.0060294939382754481 0.01286563290641534 0 0.0012074066645448821 -0.00065723147797176382 0 0.01265631079038235 -0.01012693536007268 0 0.0060294939382754481 0.01286563290641534 0 0.020311547060899309 0.014329649790385431 0 0.01265631079038235 -0.01012693536007268 0 0.00074240361007229996 0.028778475488121531 0 0.015746539320639769 0.024046632949657649 0 0.022626785018342459 0.038544513255683338 0 0.0060294939382754481 0.01286563290641534 0 0.00074240361007229996 0.028778475488121531 0 0.015746539320639769 0.024046632949657649 0 0.0060294939382754481 0.01286563290641534 0 0.015746539320639769 0.024046632949657649 0 0.020311547060899309 0.014329649790385431 0 0.015746539320639769 0.024046632949657649 0 0.029022466975609298 0.02571489330768258 0 0.020311547060899309 0.014329649790385431 0 0.015746539320639769 0.024046632949657649 0 0.029022466975609298 0.02571489330768258 0 0.022626785018342459 0.038544513255683338 0 0.020311547060899309 0.014329649790385431 0 0.034885408484197772 0.0062912350017927032 0 0.01265631079038235 -0.01012693536007268 0 0.029022466975609298 0.02571489330768258 0 0.020311547060899309 0.014329649790385431 0 0.034885408484197772 0.0062912350017927032 0 0.00079413703044923156 0.058803151297745167 0 0.01366790099406239 0.052632887419703241 0 0.0065236609159091173 0.071671444604676282 0 -0.0023331541944977092 0.045311556235899067 0 0.00079413703044923156 0.058803151297745167 0 0.01366790099406239 0.052632887419703241 0 0.00074240361007229996 0.028778475488121531 0 0.01366790099406239 0.052632887419703241 0 0.022626785018342459 0.038544513255683338 0 0.00074240361007229996 0.028778475488121531 0 0.022626785018342459 0.038544513255683338 0 -0.0023331541944977092 0.045311556235899067 0 0.00074240361007229996 0.028778475488121531 0 0.01366790099406239 0.052632887419703241 0 0.00074240361007229996 0.028778475488121531 0 0.01366790099406239 0.052632887419703241 0 0.029022466975609298 0.02571489330768258 0 0.022626785018342459 0.038544513255683338 0 0.037630953216902623 0.033668105561091018 0 0.01366790099406239 0.052632887419703241 0 0.022626785018342459 0.038544513255683338 0 0.025434983742737761 0.055249644843112657 0 0.022626785018342459 0.038544513255683338 0 0.025434983742737761 0.055249644843112657 0 0.034616451435572633 0.051242168749322393 0 0.025434983742737761 0.055249644843112657 0 0.034062632092931817 0.061255223706808547 0 0.02703491536905472 0.067401080742933134 0 0.01366790099406239 0.052632887419703241 0 0.025434983742737761 0.055249644843112657 0 0.02703491536905472 0.067401080742933134 0 0.034616451435572633 0.051242168749322393 0 0.044511166426612833 0.04831055102324476 0 0.060132464308973767 0.062986029428160187 0 0.034616451435572633 0.051242168749322393 0 0.060132464308973767 0.062986029428160187 0 0.044258496001147778 0.063884183083345675 0 0.034062632092931817 0.061255223706808547 0 0.034616451435572633 0.051242168749322393 0 0.044258496001147778 0.063884183083345675 0 0.025434983742737761 0.055249644843112657 0 0.034062632092931817 0.061255223706808547 0 0.034616451435572633 0.051242168749322393 0 0.022626785018342459 0.038544513255683338 0 0.044511166426612833 0.04831055102324476 0 0.022626785018342459 0.038544513255683338 0 0.034616451435572633 0.051242168749322393 0 0.044511166426612833 0.04831055102324476 0 0.022626785018342459 0.038544513255683338 0 0.044511166426612833 0.04831055102324476 0 0.037630953216902623 0.033668105561091018 0 0.044511166426612833 0.04831055102324476 0 0.037630953216902623 0.033668105561091018 0 0.0484135161167236 0.034205204957136963 0 0.0484135161167236 0.034205204957136963 0 0.060669767880595721 0.038134724015348051 0 0.0518117103670514 0.042737821036878322 0 0.0484135161167236 0.034205204957136963 0 0.060669767880595721 0.038134724015348051 0 0.057623658326613529 0.02352368721002385 0 0.060669767880595721 0.038134724015348051 0 0.0518117103670514 0.042737821036878322 0 0.059559274975242667 0.047504887075434543 0 0.044511166426612833 0.04831055102324476 0 0.0518117103670514 0.042737821036878322 0 0.059559274975242667 0.047504887075434543 0 0.044511166426612833 0.04831055102324476 0 0.0484135161167236 0.034205204957136963 0 0.0518117103670514 0.042737821036878322 0 0.044511166426612833 0.04831055102324476 0 0.066395547834883203 0.05807658879080619 0 0.060132464308973767 0.062986029428160187 0 0.034616451435572633 0.051242168749322393 0 0.060132464308973767 0.062986029428160187 0 0.044511166426612833 0.04831055102324476 0 0.066395547834883203 0.05807658879080619 0 0.044511166426612833 0.04831055102324476 0 0.059559274975242667 0.047504887075434543 0 0.066395547834883203 0.05807658879080619 0 0.034885408484197772 0.0062912350017927032 0 0.052968053050369737 0.0090809173488315582 0 0.042517259973231587 -0.011683923625132649 0 0.034885408484197772 0.0062912350017927032 0 0.043580831547224863 0.021565365261707499 0 0.052968053050369737 0.0090809173488315582 0 0.029022466975609298 0.02571489330768258 0 0.034885408484197772 0.0062912350017927032 0 0.043580831547224863 0.021565365261707499 0 0.029022466975609298 0.02571489330768258 0 0.037630953216902623 0.033668105561091018 0 0.043580831547224863 0.021565365261707499 0 0.037630953216902623 0.033668105561091018 0 0.0484135161167236 0.034205204957136963 0 0.043580831547224863 0.021565365261707499 0 0.057623658326613529 0.02352368721002385 0 0.052968053050369737 0.0090809173488315582 0 0.071708216805815503 0.016768608491387289 0 0.043580831547224863 0.021565365261707499 0 0.057623658326613529 0.02352368721002385 0 0.052968053050369737 0.0090809173488315582 0 0.0484135161167236 0.034205204957136963 0 0.043580831547224863 0.021565365261707499 0 0.057623658326613529 0.02352368721002385 0 0.052968053050369737 0.0090809173488315582 0 0.071708216805815503 0.016768608491387289 0 0.067492943165135169 -0.0019794682467893379 0 0.083930998993742512 0.0059737405228527038 0 0.071708216805815503 0.016768608491387289 0 0.067492943165135169 -0.0019794682467893379 0 0.083930998993742512 0.0059737405228527038 0 0.098495163759696414 0.0029673617968291321 0 0.094917995650245529 0.021722354499223519 0 0.083930998993742512 0.0059737405228527038 0 0.071708216805815503 0.016768608491387289 0 0.094917995650245529 0.021722354499223519 0 0.071708216805815503 0.016768608491387289 0 0.07449934060461412 0.03258063005354956 0 0.094917995650245529 0.021722354499223519 0 0.07449934060461412 0.03258063005354956 0 0.087237150257314613 0.037926204838731957 0 0.094917995650245529 0.021722354499223519 0 0.057623658326613529 0.02352368721002385 0 0.071708216805815503 0.016768608491387289 0 0.07449934060461412 0.03258063005354956 0 0.060669767880595721 0.038134724015348051 0 0.057623658326613529 0.02352368721002385 0 0.07449934060461412 0.03258063005354956 0 0.060669767880595721 0.038134724015348051 0 0.069155187538762042 0.045022305850501279 0 0.07449934060461412 0.03258063005354956 0 0.060669767880595721 0.038134724015348051 0 0.059559274975242667 0.047504887075434543 0 0.069155187538762042 0.045022305850501279 0 0.069155187538762042 0.045022305850501279 0 0.07449934060461412 0.03258063005354956 0 0.079692196512252927 0.044953406994506007 0 0.059559274975242667 0.047504887075434543 0 0.069155187538762042 0.045022305850501279 0 0.067326156772233525 0.050603546620565112 0 0.059559274975242667 0.047504887075434543 0 0.066395547834883203 0.05807658879080619 0 0.067326156772233525 0.050603546620565112 0 0.066395547834883203 0.05807658879080619 0 0.067326156772233525 0.050603546620565112 0 0.074194616740046182 0.051810404765518438 0 0.069155187538762042 0.045022305850501279 0 0.067326156772233525 0.050603546620565112 0 0.074194616740046182 0.051810404765518438 0 0.069155187538762042 0.045022305850501279 0 0.074194616740046182 0.051810404765518438 0 0.079692196512252927 0.044953406994506007 0 0.066395547834883203 0.05807658879080619 0 0.074194616740046182 0.051810404765518438 0 0.080343143758095259 0.058335218209008277 0 0.066395547834883203 0.05807658879080619 0 0.080343143758095259 0.058335218209008277 0 0.08827992924315356 0.067842626558367619 0 0.080343143758095259 0.058335218209008277 0 0.083306510346727383 0.05351440315152866 0 0.090416084875221875 0.058235299142909973 0 0.074194616740046182 0.051810404765518438 0 0.083306510346727383 0.05351440315152866 0 0.079692196512252927 0.044953406994506007 0 0.083306510346727383 0.05351440315152866 0 0.089760373586053266 0.048866493307206167 0 0.079692196512252927 0.044953406994506007 0 0.074194616740046182 0.051810404765518438 0 0.080343143758095259 0.058335218209008277 0 0.083306510346727383 0.05351440315152866 0 0.083306510346727383 0.05351440315152866 0 0.089760373586053266 0.048866493307206167 0 0.090416084875221875 0.058235299142909973 0 0.089760373586053266 0.048866493307206167 0 0.090416084875221875 0.058235299142909973 0 0.099395501669828634 0.055681054702382278 0 0.080343143758095259 0.058335218209008277 0 0.090416084875221875 0.058235299142909973 0 0.08827992924315356 0.067842626558367619 0 0.087237150257314613 0.037926204838731957 0 0.098930039005792711 0.04227996871225087 0 0.094917995650245529 0.021722354499223519 0 0.07449934060461412 0.03258063005354956 0 0.079692196512252927 0.044953406994506007 0 0.087237150257314613 0.037926204838731957 0 0.089760373586053266 0.048866493307206167 0 0.079692196512252927 0.044953406994506007 0 0.087237150257314613 0.037926204838731957 0 0.089760373586053266 0.048866493307206167 0 0.087237150257314613 0.037926204838731957 0 0.098930039005792711 0.04227996871225087 0 0.10894092886672049 0.033503019923715648 0 0.098930039005792711 0.04227996871225087 0 0.11550376979223601 0.054551475820320147 0 0.10894092886672049 0.033503019923715648 0 0.098930039005792711 0.04227996871225087 0 0.094917995650245529 0.021722354499223519 0 0.098930039005792711 0.04227996871225087 0 0.099395501669828634 0.055681054702382278 0 0.11550376979223601 0.054551475820320147 0 0.099395501669828634 0.055681054702382278 0 0.11550376979223601 0.054551475820320147 0 0.10561354398445311 0.069921878226714862 0 0.090416084875221875 0.058235299142909973 0 0.099395501669828634 0.055681054702382278 0 0.095618088847860577 0.065038419849084594 0 0.089760373586053266 0.048866493307206167 0 0.098930039005792711 0.04227996871225087 0 0.099395501669828634 0.055681054702382278 0 0.10894092886672049 0.033503019923715648 0 0.11961069471150609 0.02296590295220987 0 0.12977361784467401 0.039215218793308727 0 0.10894092886672049 0.033503019923715648 0 0.11550376979223601 0.054551475820320147 0 0.12977361784467401 0.039215218793308727 0 0.11961069471150609 0.02296590295220987 0 0.1158546052028349 0.0064685721448778594 0 0.094917995650245529 0.021722354499223519 0 0.11961069471150609 0.02296590295220987 0 0.1158546052028349 0.0064685721448778594 0 0.13894824890776639 0.02136224913872127 0 0.1158546052028349 0.0064685721448778594 0 0.098495163759696414 0.0029673617968291321 0 0.094917995650245529 0.021722354499223519 0 0.10894092886672049 0.033503019923715648 0 0.11961069471150609 0.02296590295220987 0 0.094917995650245529 0.021722354499223519 0 0.097728221435088053 0.099184528615223033 0 0.110275064223293 0.10236359857942121 0 0.11116449005577619 0.086473750785835857 0 0.099894961061174667 0.1104201015940532 0 0.11150799601301251 0.1117412241471519 0 0.110275064223293 0.10236359857942121 0 0.097728221435088053 0.099184528615223033 0 0.099894961061174667 0.1104201015940532 0 0.110275064223293 0.10236359857942121 0 0.097728221435088053 0.099184528615223033 0 0.099894961061174667 0.1104201015940532 0 0.084925795867796111 0.1103515185161017 0 0.099894961061174667 0.1104201015940532 0 0.096984900528893664 0.1212489081817222 0 0.084925795867796111 0.1103515185161017 0 0.099894961061174667 0.1104201015940532 0 0.096984900528893664 0.1212489081817222 0 0.10712684862241641 0.1210429748963526 0 0.096984900528893664 0.1212489081817222 0 0.10712684862241641 0.1210429748963526 0 0.10589272808503949 0.13156516273042271 0 0.099894961061174667 0.1104201015940532 0 0.10712684862241641 0.1210429748963526 0 0.11150799601301251 0.1117412241471519 0 0.10712684862241641 0.1210429748963526 0 0.11150799601301251 0.1117412241471519 0 0.1187293914863337 0.1182846474287873 0 0.11150799601301251 0.1117412241471519 0 0.1187293914863337 0.1182846474287873 0 0.1197878353292403 0.1092484053650479 0 0.10712684862241641 0.1210429748963526 0 0.1187293914863337 0.1182846474287873 0 0.114987521205969 0.1268010028982309 0 0.1187293914863337 0.1182846474287873 0 0.12813823657366311 0.12049833089676459 0 0.12624189261331301 0.1140678077034443 0 0.1187293914863337 0.1182846474287873 0 0.12212988809696081 0.1249307776834532 0 0.12813823657366311 0.12049833089676459 0 0.1187293914863337 0.1182846474287873 0 0.12212988809696081 0.1249307776834532 0 0.114987521205969 0.1268010028982309 0 0.1187293914863337 0.1182846474287873 0 0.1197878353292403 0.1092484053650479 0 0.12624189261331301 0.1140678077034443 0 0.1216961693062274 0.1020981758197984 0 0.110275064223293 0.10236359857942121 0 0.11116449005577619 0.086473750785835857 0 0.1197878353292403 0.1092484053650479 0 0.1216961693062274 0.1020981758197984 0 0.1302764983332621 0.10693497851168419 0 0.1216961693062274 0.1020981758197984 0 0.11116449005577619 0.086473750785835857 0 0.13668050292917741 0.098217611464673699 0 0.1197878353292403 0.1092484053650479 0 0.1216961693062274 0.1020981758197984 0 0.110275064223293 0.10236359857942121 0 0.11150799601301251 0.1117412241471519 0 0.1197878353292403 0.1092484053650479 0 0.110275064223293 0.10236359857942121 0 0.11116449005577619 0.086473750785835857 0 0.1207366242219714 0.074251990558816788 0 0.1300820653953097 0.084166932106396392 0 0.11116449005577619 0.086473750785835857 0 0.13668050292917741 0.098217611464673699 0 0.11116449005577619 0.086473750785835857 0 0.1207366242219714 0.074251990558816788 0 0.10561354398445311 0.069921878226714862 0 0.11550376979223601 0.054551475820320147 0 0.1207366242219714 0.074251990558816788 0 0.13255022158949201 0.068763676371196639 0 0.11550376979223601 0.054551475820320147 0 0.1207366242219714 0.074251990558816788 0 0.10561354398445311 0.069921878226714862 0 0.11116449005577619 0.086473750785835857 0 0.10561354398445311 0.069921878226714862 0 0.085648477182374977 0.074729890106998029 0 0.10561354398445311 0.069921878226714862 0 0.095618088847860577 0.065038419849084594 0 0.085648477182374977 0.074729890106998029 0 0.099395501669828634 0.055681054702382278 0 0.10561354398445311 0.069921878226714862 0 0.095618088847860577 0.065038419849084594 0 0.11116449005577619 0.086473750785835857 0 0.085648477182374977 0.074729890106998029 0 0.11116449005577619 0.086473750785835857 0 0.090808031879269946 0.087622927320568048 0 0.085648477182374977 0.074729890106998029 0 0.097728221435088053 0.099184528615223033 0 0.11116449005577619 0.086473750785835857 0 0.090808031879269946 0.087622927320568048 0 0.097728221435088053 0.099184528615223033 0 0.090808031879269946 0.087622927320568048 0 0.080235742217082393 0.093435287859391092 0 0.090808031879269946 0.087622927320568048 0 0.078675001300488379 0.083882301042573534 0 0.085648477182374977 0.074729890106998029 0 0.090808031879269946 0.087622927320568048 0 0.078675001300488379 0.083882301042573534 0 0.080235742217082393 0.093435287859391092 0 0.066395547834883203 0.05807658879080619 0 0.08827992924315356 0.067842626558367619 0 0.085648477182374977 0.074729890106998029 0 0.095618088847860577 0.065038419849084594 0 0.08827992924315356 0.067842626558367619 0 0.085648477182374977 0.074729890106998029 0 0.090416084875221875 0.058235299142909973 0 0.095618088847860577 0.065038419849084594 0 0.08827992924315356 0.067842626558367619 0 0.066395547834883203 0.05807658879080619 0 0.085648477182374977 0.074729890106998029 0 0.060132464308973767 0.062986029428160187 0 0.066395547834883203 0.05807658879080619 0 0.08827992924315356 0.067842626558367619 0 0.085648477182374977 0.074729890106998029 0 0.068637102026180674 0.07792917868559901 0 0.060132464308973767 0.062986029428160187 0 0.085648477182374977 0.074729890106998029 0 0.060132464308973767 0.062986029428160187 0 0.078675001300488379 0.083882301042573534 0 0.085648477182374977 0.074729890106998029 0 0.068637102026180674 0.07792917868559901 0 0.080235742217082393 0.093435287859391092 0 0.069503799956795384 0.087722797055870286 0 0.068523875558259784 0.095111972458496966 0 0.078675001300488379 0.083882301042573534 0 0.080235742217082393 0.093435287859391092 0 0.069503799956795384 0.087722797055870286 0 0.078675001300488379 0.083882301042573534 0 0.068637102026180674 0.07792917868559901 0 0.069503799956795384 0.087722797055870286 0 0.068637102026180674 0.07792917868559901 0 0.069503799956795384 0.087722797055870286 0 0.060111091978902922 0.083782113849914977 0 0.069503799956795384 0.087722797055870286 0 0.06135777996986308 0.093915161513068182 0 0.060111091978902922 0.083782113849914977 0 0.069503799956795384 0.087722797055870286 0 0.068523875558259784 0.095111972458496966 0 0.06135777996986308 0.093915161513068182 0 0.068523875558259784 0.095111972458496966 0 0.071520258741129425 0.10189571548122769 0 0.062413973273008162 0.1018934272394761 0 0.068523875558259784 0.095111972458496966 0 0.062413973273008162 0.1018934272394761 0 0.06135777996986308 0.093915161513068182 0 0.071520258741129425 0.10189571548122769 0 0.072821304814728441 0.1108529925529516 0 0.063718101814298073 0.11016590081819259 0 0.071520258741129425 0.10189571548122769 0 0.063718101814298073 0.11016590081819259 0 0.062413973273008162 0.1018934272394761 0 0.071520258741129425 0.10189571548122769 0 0.084925795867796111 0.1103515185161017 0 0.072821304814728441 0.1108529925529516 0 0.080235742217082393 0.093435287859391092 0 0.068523875558259784 0.095111972458496966 0 0.071520258741129425 0.10189571548122769 0 0.097728221435088053 0.099184528615223033 0 0.080235742217082393 0.093435287859391092 0 0.084925795867796111 0.1103515185161017 0 0.080235742217082393 0.093435287859391092 0 0.071520258741129425 0.10189571548122769 0 0.084925795867796111 0.1103515185161017 0 0.084925795867796111 0.1103515185161017 0 0.074154959480044275 0.1204842858357125 0 0.087075880893963842 0.12621803440601359 0 0.096984900528893664 0.1212489081817222 0 0.084925795867796111 0.1103515185161017 0 0.087075880893963842 0.12621803440601359 0 0.084925795867796111 0.1103515185161017 0 0.074154959480044275 0.1204842858357125 0 0.072821304814728441 0.1108529925529516 0 0.074154959480044275 0.1204842858357125 0 0.072821304814728441 0.1108529925529516 0 0.063718101814298073 0.11016590081819259 0 0.074154959480044275 0.1204842858357125 0 0.063718101814298073 0.11016590081819259 0 0.060124536552058239 0.11864948812996751 0 0.074154959480044275 0.1204842858357125 0 0.060124536552058239 0.11864948812996751 0 0.061109117960118017 0.12720913792676911 0 0.060124536552058239 0.11864948812996751 0 0.052595679859244633 0.1236025024456274 0 0.054913207086597561 0.11271600588853189 0 0.060124536552058239 0.11864948812996751 0 0.052595679859244633 0.1236025024456274 0 0.061109117960118017 0.12720913792676911 0 0.052595679859244633 0.1236025024456274 0 0.054913207086597561 0.11271600588853189 0 0.046771683079868627 0.1089772416004138 0 0.063718101814298073 0.11016590081819259 0 0.060124536552058239 0.11864948812996751 0 0.054913207086597561 0.11271600588853189 0 0.063718101814298073 0.11016590081819259 0 0.062413973273008162 0.1018934272394761 0 0.053620768430252298 0.1031656988462608 0 0.063718101814298073 0.11016590081819259 0 0.054913207086597561 0.11271600588853189 0 0.053620768430252298 0.1031656988462608 0 0.06135777996986308 0.093915161513068182 0 0.053620768430252298 0.1031656988462608 0 0.051535176025136201 0.090416251810209708 0 0.062413973273008162 0.1018934272394761 0 0.06135777996986308 0.093915161513068182 0 0.053620768430252298 0.1031656988462608 0 0.053620768430252298 0.1031656988462608 0 0.042875633238578528 0.09739353282270094 0 0.051535176025136201 0.090416251810209708 0 0.053620768430252298 0.1031656988462608 0 0.046771683079868627 0.1089772416004138 0 0.042875633238578528 0.09739353282270094 0 0.054913207086597561 0.11271600588853189 0 0.053620768430252298 0.1031656988462608 0 0.046771683079868627 0.1089772416004138 0 0.046771683079868627 0.1089772416004138 0 0.042875633238578528 0.09739353282270094 0 0.034382595390138257 0.1099700727945534 0 0.042875633238578528 0.09739353282270094 0 0.034382595390138257 0.1099700727945534 0 0.030708755379597181 0.088685576768743155 0 0.034382595390138257 0.1099700727945534 0 0.030708755379597181 0.088685576768743155 0 0.052595679859244633 0.1236025024456274 0 0.046771683079868627 0.1089772416004138 0 0.034382595390138257 0.1099700727945534 0 0.034382595390138257 0.1099700727945534 0 0.02520709702204247 0.1232263280856261 0 0.037354296692750887 0.12718670835402709 0 0.052595679859244633 0.1236025024456274 0 0.034382595390138257 0.1099700727945534 0 0.037354296692750887 0.12718670835402709 0 0.034382595390138257 0.1099700727945534 0 0.037354296692750887 0.12718670835402709 0 0.052595679859244633 0.1236025024456274 0 0.034382595390138257 0.1099700727945534 0 0.060132464308973767 0.062986029428160187 0 0.051537231586459821 0.0703604747810012 0 0.044258496001147778 0.063884183083345675 0 0.051537231586459821 0.0703604747810012 0 0.045053238281461433 0.071665999821029613 0 0.044258496001147778 0.063884183083345675 0 0.060132464308973767 0.062986029428160187 0 0.058160070023191839 0.074213970699792686 0 0.051537231586459821 0.0703604747810012 0 0.068637102026180674 0.07792917868559901 0 0.060132464308973767 0.062986029428160187 0 0.058160070023191839 0.074213970699792686 0 0.051537231586459821 0.0703604747810012 0 0.049495561811348857 0.078896267932753172 0 0.045053238281461433 0.071665999821029613 0 0.058160070023191839 0.074213970699792686 0 0.051537231586459821 0.0703604747810012 0 0.049495561811348857 0.078896267932753172 0 0.049495561811348857 0.078896267932753172 0 0.051535176025136201 0.090416251810209708 0 0.041750220721871581 0.085344735896560275 0 0.049495561811348857 0.078896267932753172 0 0.060111091978902922 0.083782113849914977 0 0.051535176025136201 0.090416251810209708 0 0.068637102026180674 0.07792917868559901 0 0.058160070023191839 0.074213970699792686 0 0.060111091978902922 0.083782113849914977 0 0.058160070023191839 0.074213970699792686 0 0.049495561811348857 0.078896267932753172 0 0.060111091978902922 0.083782113849914977 0 0.06135777996986308 0.093915161513068182 0 0.060111091978902922 0.083782113849914977 0 0.051535176025136201 0.090416251810209708 0 0.042875633238578528 0.09739353282270094 0 0.051535176025136201 0.090416251810209708 0 0.041750220721871581 0.085344735896560275 0 0.042875633238578528 0.09739353282270094 0 0.041750220721871581 0.085344735896560275 0 0.030708755379597181 0.088685576768743155 0 0.041750220721871581 0.085344735896560275 0 0.037489048909448763 0.07466528487264068 0 0.030708755379597181 0.088685576768743155 0 0.049495561811348857 0.078896267932753172 0 0.041750220721871581 0.085344735896560275 0 0.037489048909448763 0.07466528487264068 0 0.037489048909448763 0.07466528487264068 0 0.02703491536905472 0.067401080742933134 0 0.030708755379597181 0.088685576768743155 0 0.049495561811348857 0.078896267932753172 0 0.045053238281461433 0.071665999821029613 0 0.037489048909448763 0.07466528487264068 0 0.045053238281461433 0.071665999821029613 0 0.037489048909448763 0.07466528487264068 0 0.037579666130808903 0.067774354445351542 0 0.034062632092931817 0.061255223706808547 0 0.037579666130808903 0.067774354445351542 0 0.02703491536905472 0.067401080742933134 0 0.037489048909448763 0.07466528487264068 0 0.037579666130808903 0.067774354445351542 0 0.02703491536905472 0.067401080742933134 0 0.034062632092931817 0.061255223706808547 0 0.037579666130808903 0.067774354445351542 0 0.044258496001147778 0.063884183083345675 0 0.045053238281461433 0.071665999821029613 0 0.037579666130808903 0.067774354445351542 0 0.044258496001147778 0.063884183083345675 0 0.02703491536905472 0.067401080742933134 0 0.030708755379597181 0.088685576768743155 0 0.01366790099406239 0.052632887419703241 0 0.026593398378051959 0.076487299351285121 0 0.01366790099406239 0.052632887419703241 0 0.02703491536905472 0.067401080742933134 0 0.026593398378051959 0.076487299351285121 0 0.02703491536905472 0.067401080742933134 0 0.026593398378051959 0.076487299351285121 0 0.030708755379597181 0.088685576768743155 0 0.01366790099406239 0.052632887419703241 0 0.026593398378051959 0.076487299351285121 0 0.01611389888654503 0.070322973248010373 0 0.026593398378051959 0.076487299351285121 0 0.01611389888654503 0.070322973248010373 0 0.01767063525815666 0.080500261616376856 0 0.01767063525815666 0.080500261616376856 0 0.030708755379597181 0.088685576768743155 0 0.011643404763696401 0.092949868607662828 0 0.026593398378051959 0.076487299351285121 0 0.01767063525815666 0.080500261616376856 0 0.030708755379597181 0.088685576768743155 0 0.01767063525815666 0.080500261616376856 0 0.011643404763696401 0.092949868607662828 0 0.0065236609159091173 0.071671444604676282 0 -0.01109578586274463 0.07592966442077155 0 0.011643404763696401 0.092949868607662828 0 0.0065236609159091173 0.071671444604676282 0 -0.01109578586274463 0.07592966442077155 0 0.011643404763696401 0.092949868607662828 0 0.01366790099406239 0.052632887419703241 0 0.01611389888654503 0.070322973248010373 0 0.0065236609159091173 0.071671444604676282 0 0.01611389888654503 0.070322973248010373 0 0.01767063525815666 0.080500261616376856 0 0.0065236609159091173 0.071671444604676282 0 -0.0031702267477386531 0.067180855403790804 0 0.00079413703044923156 0.058803151297745167 0 0.0065236609159091173 0.071671444604676282 0 0.034382595390138257 0.1099700727945534 0 0.02520709702204247 0.1232263280856261 0 0.01356063639681436 0.11371506303709419 0 0.02520709702204247 0.1232263280856261 0 0.01356063639681436 0.11371506303709419 0 0.011098566836083609 0.13484946890849181 0 0.034382595390138257 0.1099700727945534 0 0.011643404763696401 0.092949868607662828 0 0.01356063639681436 0.11371506303709419 0 0.034382595390138257 0.1099700727945534 0 0.011643404763696401 0.092949868607662828 0 0.034382595390138257 0.1099700727945534 0 0.030708755379597181 0.088685576768743155 0 0.011643404763696401 0.092949868607662828 0 -0.0040088977147468936 0.097024336429998151 0 0.011643404763696401 0.092949868607662828 0 0.0025937760044158291 0.1064596481343341 0 0.011643404763696401 0.092949868607662828 0 0.0025937760044158291 0.1064596481343341 0 0.01356063639681436 0.11371506303709419 0 -0.007175360702145514 0.1155930690216506 0 0.0025937760044158291 0.1064596481343341 0 0.01356063639681436 0.11371506303709419 0 -0.007175360702145514 0.1155930690216506 0 0.01356063639681436 0.11371506303709419 0 0.011098566836083609 0.13484946890849181 0 -0.007175360702145514 0.1155930690216506 0 0.011098566836083609 0.13484946890849181 0 0.02520709702204247 0.1232263280856261 0 0.011098566836083609 0.13484946890849181 0 0.028759663239593541 0.13617761485890201 0 0.02520709702204247 0.1232263280856261 0 0.028759663239593541 0.13617761485890201 0 0.037354296692750887 0.12718670835402709 0 0.011098566836083609 0.13484946890849181 0 0.029372494374312729 0.15410586879533311 0 0.013538337341477229 0.1636201682865295 0 0.011098566836083609 0.13484946890849181 0 0.028759663239593541 0.13617761485890201 0 0.029372494374312729 0.15410586879533311 0 0.011098566836083609 0.13484946890849181 0 0.029372494374312729 0.15410586879533311 0 -0.0048034666842798916 0.1614245706846468 0 0.011098566836083609 0.13484946890849181 0 0.013538337341477229 0.1636201682865295 0 -0.0057956805663459468 0.1892940575843915 0 -0.0048034666842798916 0.1614245706846468 0 0.013538337341477229 0.1636201682865295 0 -0.0057956805663459468 0.1892940575843915 0 0.013538337341477229 0.1636201682865295 0 0.020045678312652242 0.18090880435863019 0 -0.0057956805663459468 0.1892940575843915 0 0.020045678312652242 0.18090880435863019 0 0.029372494374312729 0.15410586879533311 0 0.013538337341477229 0.1636201682865295 0 0.020045678312652242 0.18090880435863019 0 0.029372494374312729 0.15410586879533311 0 0.045887037191650451 0.17252355113286891 0 0.04813315871709322 0.1541455757588851 0 0.029372494374312729 0.15410586879533311 0 0.020045678312652242 0.18090880435863019 0 0.045887037191650451 0.17252355113286891 0 0.020045678312652242 0.18090880435863019 0 0.045887037191650451 0.17252355113286891 0 0.020045678312652242 0.18090880435863019 0 0.045887037191650451 0.17252355113286891 0 0.041991232206495782 0.1919910870650737 0 0.045887037191650451 0.17252355113286891 0 0.060802696405823108 0.1787365445376432 0 0.041991232206495782 0.1919910870650737 0 0.045887037191650451 0.17252355113286891 0 0.071728396070648653 0.1641382979071076 0 0.045887037191650451 0.17252355113286891 0 0.060802696405823108 0.1787365445376432 0 0.071728396070648653 0.1641382979071076 0 0.045887037191650451 0.17252355113286891 0 0.059657673584757237 0.15824269734654939 0 0.04813315871709322 0.1541455757588851 0 0.045887037191650451 0.17252355113286891 0 0.059657673584757237 0.15824269734654939 0 0.071728396070648653 0.1641382979071076 0 0.059657673584757237 0.15824269734654939 0 0.04813315871709322 0.1541455757588851 0 0.060329678829100349 0.1474246815113264 0 0.04813315871709322 0.1541455757588851 0 0.050215372913412007 0.1458935282758238 0 0.060329678829100349 0.1474246815113264 0 0.050215372913412007 0.1458935282758238 0 0.060329678829100349 0.1474246815113264 0 0.052072656112092337 0.13760051191958289 0 0.050215372913412007 0.1458935282758238 0 0.052072656112092337 0.13760051191958289 0 0.040325997995362128 0.14440334391350099 0 0.060329678829100349 0.1474246815113264 0 0.062159468211553673 0.13737243366585769 0 0.052072656112092337 0.13760051191958289 0 0.062159468211553673 0.13737243366585769 0 0.054733357378362921 0.13083888414419281 0 0.052072656112092337 0.13760051191958289 0 0.052595679859244633 0.1236025024456274 0 0.054733357378362921 0.13083888414419281 0 0.061109117960118017 0.12720913792676911 0 0.062159468211553673 0.13737243366585769 0 0.054733357378362921 0.13083888414419281 0 0.061109117960118017 0.12720913792676911 0 0.052595679859244633 0.1236025024456274 0 0.054733357378362921 0.13083888414419281 0 0.046346625143134958 0.1312929959830558 0 0.054733357378362921 0.13083888414419281 0 0.052072656112092337 0.13760051191958289 0 0.046346625143134958 0.1312929959830558 0 0.037354296692750887 0.12718670835402709 0 0.040325997995362128 0.14440334391350099 0 0.046346625143134958 0.1312929959830558 0 0.037354296692750887 0.12718670835402709 0 0.040325997995362128 0.14440334391350099 0 0.028759663239593541 0.13617761485890201 0 0.037354296692750887 0.12718670835402709 0 0.040325997995362128 0.14440334391350099 0 0.052072656112092337 0.13760051191958289 0 0.046346625143134958 0.1312929959830558 0 0.040325997995362128 0.14440334391350099 0 0.052595679859244633 0.1236025024456274 0 0.046346625143134958 0.1312929959830558 0 0.037354296692750887 0.12718670835402709 0 0.028759663239593541 0.13617761485890201 0 0.029372494374312729 0.15410586879533311 0 0.040325997995362128 0.14440334391350099 0 0.029372494374312729 0.15410586879533311 0 0.04813315871709322 0.1541455757588851 0 0.040325997995362128 0.14440334391350099 0 0.04813315871709322 0.1541455757588851 0 0.050215372913412007 0.1458935282758238 0 0.040325997995362128 0.14440334391350099 0 0.025149977659741599 0.24684982625080901 0 0.00014186162909880781 0.2338185852574263 0 0.02177620002751179 0.22559840920251981 0 0.025149977659741599 0.24684982625080901 0 0.00014186162909880781 0.2338185852574263 0 0.025149977659741599 0.24684982625080901 0 0.00014186162909880781 0.2338185852574263 0 0.0073806355134042019 0.25529449578482938 0 0.00014186162909880781 0.2338185852574263 0 0.02177620002751179 0.22559840920251981 0 0.0090806704795409685 0.20996839310177981 0 0.025149977659741599 0.24684982625080901 0 0.02177620002751179 0.22559840920251981 0 0.039960986899899173 0.22780444499479169 0 0.02177620002751179 0.22559840920251981 0 0.0090806704795409685 0.20996839310177981 0 0.034547503469278373 0.20955079640779209 0 0.0090806704795409685 0.20996839310177981 0 0.02162293693503077 0.1981024475624624 0 0.034547503469278373 0.20955079640779209 0 -0.0057956805663459468 0.1892940575843915 0 0.0090806704795409685 0.20996839310177981 0 0.02162293693503077 0.1981024475624624 0 -0.0057956805663459468 0.1892940575843915 0 0.020045678312652242 0.18090880435863019 0 0.02162293693503077 0.1981024475624624 0 0.020045678312652242 0.18090880435863019 0 0.02162293693503077 0.1981024475624624 0 0.041991232206495782 0.1919910870650737 0 0.02162293693503077 0.1981024475624624 0 0.041991232206495782 0.1919910870650737 0 0.034547503469278373 0.20955079640779209 0 0.041991232206495782 0.1919910870650737 0 0.05849467095877426 0.1965416733816682 0 0.050764695011206777 0.20916964222725651 0 0.060802696405823108 0.1787365445376432 0 0.041991232206495782 0.1919910870650737 0 0.05849467095877426 0.1965416733816682 0 0.050764695011206777 0.20916964222725651 0 0.066981886553135278 0.20878848804672309 0 0.05849467095877426 0.1965416733816682 0 0.050764695011206777 0.20916964222725651 0 0.066981886553135278 0.20878848804672309 0 0.050764695011206777 0.20916964222725651 0 0.061514006406540499 0.23071042489022231 0 0.066981886553135278 0.20878848804672309 0 0.050764695011206777 0.20916964222725651 0 0.034547503469278373 0.20955079640779209 0 0.039960986899899173 0.22780444499479169 0 0.050764695011206777 0.20916964222725651 0 0.034547503469278373 0.20955079640779209 0 0.041991232206495782 0.1919910870650737 0 0.050764695011206777 0.20916964222725651 0 0.034547503469278373 0.20955079640779209 0 0.02177620002751179 0.22559840920251981 0 0.034547503469278373 0.20955079640779209 0 0.039960986899899173 0.22780444499479169 0 0.039960986899899173 0.22780444499479169 0 0.061514006406540499 0.23071042489022231 0 0.045472231705318063 0.24424317023843681 0 0.050764695011206777 0.20916964222725651 0 0.039960986899899173 0.22780444499479169 0 0.061514006406540499 0.23071042489022231 0 0.061514006406540499 0.23071042489022231 0 0.056046126259945157 0.25263236173372139 0 0.061514006406540499 0.23071042489022231 0 0.056046126259945157 0.25263236173372139 0 0.067905867336300579 0.25358800162702 0 0.061514006406540499 0.23071042489022231 0 0.045472231705318063 0.24424317023843681 0 0.056046126259945157 0.25263236173372139 0 0.025149977659741599 0.24684982625080901 0 0.039960986899899173 0.22780444499479169 0 0.045472231705318063 0.24424317023843681 0 0.092857250133516089 0.24175825718487831 0 0.078525547080241467 0.2465942846531784 0 0.093798877441032588 0.2579700649065903 0 0.092857250133516089 0.24175825718487831 0 0.078525547080241467 0.2465942846531784 0 0.081986142109724491 0.22560265144644431 0 0.061514006406540499 0.23071042489022231 0 0.078525547080241467 0.2465942846531784 0 0.067905867336300579 0.25358800162702 0 0.061514006406540499 0.23071042489022231 0 0.078525547080241467 0.2465942846531784 0 0.081986142109724491 0.22560265144644431 0 0.061514006406540499 0.23071042489022231 0 0.081986142109724491 0.22560265144644431 0 0.066981886553135278 0.20878848804672309 0 0.061514006406540499 0.23071042489022231 0 0.066981886553135278 0.20878848804672309 0 0.081986142109724491 0.22560265144644431 0 0.09236794217301933 0.20819183719001669 0 0.066981886553135278 0.20878848804672309 0 0.09236794217301933 0.20819183719001669 0 0.066981886553135278 0.20878848804672309 0 0.09236794217301933 0.20819183719001669 0 0.066981886553135278 0.20878848804672309 0 0.071445073857882777 0.19089458628000441 0 0.060802696405823108 0.1787365445376432 0 0.05849467095877426 0.1965416733816682 0 0.071445073857882777 0.19089458628000441 0 0.066981886553135278 0.20878848804672309 0 0.071445073857882777 0.19089458628000441 0 0.05849467095877426 0.1965416733816682 0 0.066981886553135278 0.20878848804672309 0 0.071445073857882777 0.19089458628000441 0 0.09236794217301933 0.20819183719001669 0 0.071445073857882777 0.19089458628000441 0 0.086464584236575506 0.1862285865309723 0 0.09236794217301933 0.20819183719001669 0 0.086464584236575506 0.1862285865309723 0 0.1023855527362314 0.18749689463882899 0 0.09236794217301933 0.20819183719001669 0 0.11775399779290339 0.20759518633331239 0 0.1023855527362314 0.18749689463882899 0 0.11775399779290339 0.20759518633331239 0 0.1023855527362314 0.18749689463882899 0 0.12550986450034471 0.186594373040398 0 0.09236794217301933 0.20819183719001669 0 0.11775399779290339 0.20759518633331239 0 0.09236794217301933 0.20819183719001669 0 0.11775399779290339 0.20759518633331239 0 0.10906069526472741 0.22998953009969161 0 0.092857250133516089 0.24175825718487831 0 0.081986142109724491 0.22560265144644431 0 0.10906069526472741 0.22998953009969161 0 0.081986142109724491 0.22560265144644431 0 0.09236794217301933 0.20819183719001669 0 0.10906069526472741 0.22998953009969161 0 0.11775399779290339 0.20759518633331239 0 0.10906069526472741 0.22998953009969161 0 0.1382648444377183 0.22719855966067881 0 0.10906069526472741 0.22998953009969161 0 0.12787711237058769 0.24521089126939841 0 0.1100607559553454 0.25396994184181759 0 0.092857250133516089 0.24175825718487831 0 0.10906069526472741 0.22998953009969161 0 0.1100607559553454 0.25396994184181759 0 0.081151633673542972 0.15313158297098389 0 0.083920606388658545 0.14050817004821939 0 0.0975697549496468 0.15575304468134629 0 0.081151633673542972 0.15313158297098389 0 0.083920606388658545 0.14050817004821939 0 0.071387777285217918 0.15212681924726251 0 0.074154959480044275 0.1204842858357125 0 0.087075880893963842 0.12621803440601359 0 0.083920606388658545 0.14050817004821939 0 0.087075880893963842 0.12621803440601359 0 0.083920606388658545 0.14050817004821939 0 0.097906888154765004 0.1362305538396491 0 0.062159468211553673 0.13737243366585769 0 0.061109117960118017 0.12720913792676911 0 0.083920606388658545 0.14050817004821939 0 0.074154959480044275 0.1204842858357125 0 0.061109117960118017 0.12720913792676911 0 0.083920606388658545 0.14050817004821939 0 0.061109117960118017 0.12720913792676911 0 0.083920606388658545 0.14050817004821939 0 0.062159468211553673 0.13737243366585769 0 0.083920606388658545 0.14050817004821939 0 0.069449382678632612 0.1443580261181665 0 0.060329678829100349 0.1474246815113264 0 0.062159468211553673 0.13737243366585769 0 0.069449382678632612 0.1443580261181665 0 0.060329678829100349 0.1474246815113264 0 0.069449382678632612 0.1443580261181665 0 0.071387777285217918 0.15212681924726251 0 0.083920606388658545 0.14050817004821939 0 0.069449382678632612 0.1443580261181665 0 0.071387777285217918 0.15212681924726251 0 0.059657673584757237 0.15824269734654939 0 0.060329678829100349 0.1474246815113264 0 0.071387777285217918 0.15212681924726251 0 0.059657673584757237 0.15824269734654939 0 0.071387777285217918 0.15212681924726251 0 0.071728396070648653 0.1641382979071076 0 0.081151633673542972 0.15313158297098389 0 0.071387777285217918 0.15212681924726251 0 0.071728396070648653 0.1641382979071076 0 0.071445073857882777 0.19089458628000441 0 0.075908261162629706 0.17300068451328551 0 0.086464584236575506 0.1862285865309723 0 0.060802696405823108 0.1787365445376432 0 0.071445073857882777 0.19089458628000441 0 0.075908261162629706 0.17300068451328551 0 0.071445073857882777 0.19089458628000441 0 0.075908261162629706 0.17300068451328551 0 0.060802696405823108 0.1787365445376432 0 0.071728396070648653 0.1641382979071076 0 0.075908261162629706 0.17300068451328551 0 0.086464584236575506 0.1862285865309723 0 0.090216091253114361 0.17155893003272579 0 0.1023855527362314 0.18749689463882899 0 0.075908261162629706 0.17300068451328551 0 0.086464584236575506 0.1862285865309723 0 0.090216091253114361 0.17155893003272579 0 0.081151633673542972 0.15313158297098389 0 0.071728396070648653 0.1641382979071076 0 0.0975697549496468 0.15575304468134629 0 0.071728396070648653 0.1641382979071076 0 0.090216091253114361 0.17155893003272579 0 0.0975697549496468 0.15575304468134629 0 0.071728396070648653 0.1641382979071076 0 0.075908261162629706 0.17300068451328551 0 0.090216091253114361 0.17155893003272579 0 0.071728396070648653 0.1641382979071076 0 0.0975697549496468 0.15575304468134629 0 0.090216091253114361 0.17155893003272579 0 0.1064810698159025 0.16893633516972181 0 0.0975697549496468 0.15575304468134629 0 0.1064810698159025 0.16893633516972181 0 0.1067320948171991 0.1538072021696697 0 0.0975697549496468 0.15575304468134629 0 0.090216091253114361 0.17155893003272579 0 0.1064810698159025 0.16893633516972181 0 0.1023855527362314 0.18749689463882899 0 0.1064810698159025 0.16893633516972181 0 0.12954358324573961 0.16710623429112001 0 0.12550986450034471 0.186594373040398 0 0.1064810698159025 0.16893633516972181 0 0.1023855527362314 0.18749689463882899 0 0.12550986450034471 0.186594373040398 0 0.1064810698159025 0.16893633516972181 0 0.1067320948171991 0.1538072021696697 0 0.12954358324573961 0.16710623429112001 0 0.1067320948171991 0.1538072021696697 0 0.1262856736452258 0.1537478882528979 0 0.12954358324573961 0.16710623429112001 0 0.1067320948171991 0.1538072021696697 0 0.12954358324573961 0.16710623429112001 0 0.1148569119608701 0.14824987142416859 0 0.1067320948171991 0.1538072021696697 0 0.1262856736452258 0.1537478882528979 0 0.118317888191051 0.14254191757659121 0 0.1148569119608701 0.14824987142416859 0 0.1262856736452258 0.1537478882528979 0 0.118317888191051 0.14254191757659121 0 0.12756241452120801 0.13893694775055651 0 0.1262856736452258 0.1537478882528979 0 0.1148569119608701 0.14824987142416859 0 0.1067320948171991 0.1538072021696697 0 0.1080919911900045 0.14290247769751591 0 0.118317888191051 0.14254191757659121 0 0.1148569119608701 0.14824987142416859 0 0.1080919911900045 0.14290247769751591 0 0.083920606388658545 0.14050817004821939 0 0.1067320948171991 0.1538072021696697 0 0.1067320948171991 0.1538072021696697 0 0.1080919911900045 0.14290247769751591 0 0.097906888154765004 0.1362305538396491 0 0.083920606388658545 0.14050817004821939 0 0.1067320948171991 0.1538072021696697 0 0.097906888154765004 0.1362305538396491 0 0.083920606388658545 0.14050817004821939 0 0.1067320948171991 0.1538072021696697 0 0.0975697549496468 0.15575304468134629 0 0.096984900528893664 0.1212489081817222 0 0.097906888154765004 0.1362305538396491 0 0.10589272808503949 0.13156516273042271 0 0.096984900528893664 0.1212489081817222 0 0.087075880893963842 0.12621803440601359 0 0.097906888154765004 0.1362305538396491 0 0.1080919911900045 0.14290247769751591 0 0.097906888154765004 0.1362305538396491 0 0.10589272808503949 0.13156516273042271 0 0.1080919911900045 0.14290247769751591 0 0.10589272808503949 0.13156516273042271 0 0.11327312463209829 0.13597294690712769 0 0.10712684862241641 0.1210429748963526 0 0.10589272808503949 0.13156516273042271 0 0.114987521205969 0.1268010028982309 0 0.10589272808503949 0.13156516273042271 0 0.114987521205969 0.1268010028982309 0 0.11327312463209829 0.13597294690712769 0 0.114987521205969 0.1268010028982309 0 0.11327312463209829 0.13597294690712769 0 0.1203000125167645 0.13336293759413789 0 0.118317888191051 0.14254191757659121 0 0.1080919911900045 0.14290247769751591 0 0.11327312463209829 0.13597294690712769 0 0.118317888191051 0.14254191757659121 0 0.1203000125167645 0.13336293759413789 0 0.12756241452120801 0.13893694775055651 0 0.118317888191051 0.14254191757659121 0 0.11327312463209829 0.13597294690712769 0 0.1203000125167645 0.13336293759413789 0 0.12212988809696081 0.1249307776834532 0 0.114987521205969 0.1268010028982309 0 0.1203000125167645 0.13336293759413789 0 0.12212988809696081 0.1249307776834532 0 0.1203000125167645 0.13336293759413789 0 0.12788127083107459 0.1291064789800366 0 0.12788127083107459 0.1291064789800366 0 0.13409394305489639 0.1257339851238449 0 0.12813823657366311 0.12049833089676459 0 0.12788127083107459 0.1291064789800366 0 0.13410827310584911 0.13282331674432049 0 0.13409394305489639 0.1257339851238449 0 0.12788127083107459 0.1291064789800366 0 0.12756241452120801 0.13893694775055651 0 0.13410827310584911 0.13282331674432049 0 0.1203000125167645 0.13336293759413789 0 0.12788127083107459 0.1291064789800366 0 0.12756241452120801 0.13893694775055651 0 0.13410827310584911 0.13282331674432049 0 0.14295710802469111 0.12768772724150559 0 0.13848136883728299 0.14203914735535511 0 0.12756241452120801 0.13893694775055651 0 0.13410827310584911 0.13282331674432049 0 0.13848136883728299 0.14203914735535511 0 0.13410827310584911 0.13282331674432049 0 0.13409394305489639 0.1257339851238449 0 0.14295710802469111 0.12768772724150559 0 0.14295710802469111 0.12768772724150559 0 0.15698787762036359 0.14007723406829989 0 0.15364605026385231 0.1227496740475859 0 0.14295710802469111 0.12768772724150559 0 0.13848136883728299 0.14203914735535511 0 0.15698787762036359 0.14007723406829989 0 0.13848136883728299 0.14203914735535511 0 0.1441447949138806 0.1573716891147208 0 0.15698787762036359 0.14007723406829989 0 0.1441447949138806 0.1573716891147208 0 0.1598153361361678 0.15982657838785511 0 0.15698787762036359 0.14007723406829989 0 0.13848136883728299 0.14203914735535511 0 0.1262856736452258 0.1537478882528979 0 0.1441447949138806 0.1573716891147208 0 0.12756241452120801 0.13893694775055651 0 0.13848136883728299 0.14203914735535511 0 0.1262856736452258 0.1537478882528979 0 0.1262856736452258 0.1537478882528979 0 0.12954358324573961 0.16710623429112001 0 0.1441447949138806 0.1573716891147208 0 0.12954358324573961 0.16710623429112001 0 0.12550986450034471 0.186594373040398 0 0.15375492999850379 0.1814330523327968 0 0.12954358324573961 0.16710623429112001 0 0.15375492999850379 0.1814330523327968 0 0.1441447949138806 0.1573716891147208 0 0.15375492999850379 0.1814330523327968 0 0.1441447949138806 0.1573716891147208 0 0.1598153361361678 0.15982657838785511 0 0.1598153361361678 0.15982657838785511 0 0.17205847002769489 0.1711246398383999 0 0.17247097746626519 0.1464629757798975 0 0.15375492999850379 0.1814330523327968 0 0.1598153361361678 0.15982657838785511 0 0.17205847002769489 0.1711246398383999 0 0.15375492999850379 0.1814330523327968 0 0.17205847002769489 0.1711246398383999 0 0.18411838942066619 0.18828130780555291 0 0.17205847002769489 0.1711246398383999 0 0.18411838942066619 0.18828130780555291 0 0.19050902449260759 0.164433536692701 0 0.17205847002769489 0.1711246398383999 0 0.17247097746626519 0.1464629757798975 0 0.19050902449260759 0.164433536692701 0 0.17247097746626519 0.1464629757798975 0 0.1903693880120208 0.14015559280000461 0 0.19050902449260759 0.164433536692701 0 0.17247097746626519 0.1464629757798975 0 0.18002451345814399 0.12716596121819479 0 0.1903693880120208 0.14015559280000461 0 0.17247097746626519 0.1464629757798975 0 0.18002451345814399 0.12716596121819479 0 0.16417220099380411 0.12505127510387981 0 0.15698787762036359 0.14007723406829989 0 0.16417220099380411 0.12505127510387981 0 0.15364605026385231 0.1227496740475859 0 0.17247097746626519 0.1464629757798975 0 0.15698787762036359 0.14007723406829989 0 0.16417220099380411 0.12505127510387981 0 0.1598153361361678 0.15982657838785511 0 0.17247097746626519 0.1464629757798975 0 0.15698787762036359 0.14007723406829989 0 0.14702044576598061 0.2478904659134552 0 0.1382648444377183 0.22719855966067881 0 0.15828943790025421 0.22969507774947781 0 0.14702044576598061 0.2478904659134552 0 0.12787711237058769 0.24521089126939841 0 0.1382648444377183 0.22719855966067881 0 0.10906069526472741 0.22998953009969161 0 0.12787711237058769 0.24521089126939841 0 0.1382648444377183 0.22719855966067881 0 0.1382648444377183 0.22719855966067881 0 0.14314005341278749 0.20699853547660821 0 0.15828943790025421 0.22969507774947781 0 0.14314005341278749 0.20699853547660821 0 0.16852610903267151 0.206401884619904 0 0.11775399779290339 0.20759518633331239 0 0.1382648444377183 0.22719855966067881 0 0.14314005341278749 0.20699853547660821 0 0.11775399779290339 0.20759518633331239 0 0.14314005341278749 0.20699853547660821 0 0.11775399779290339 0.20759518633331239 0 0.12550986450034471 0.186594373040398 0 0.14314005341278749 0.20699853547660821 0 0.15375492999850379 0.1814330523327968 0 0.14314005341278749 0.20699853547660821 0 0.16852610903267151 0.206401884619904 0 0.12550986450034471 0.186594373040398 0 0.15375492999850379 0.1814330523327968 0 0.14314005341278749 0.20699853547660821 0 0.15375492999850379 0.1814330523327968 0 0.18411838942066619 0.18828130780555291 0 0.16852610903267151 0.206401884619904 0 0.18411838942066619 0.18828130780555291 0 0.16852610903267151 0.206401884619904 0 0.1878214256448299 0.20672411698152671 0 0.16852610903267151 0.206401884619904 0 0.17766068788986381 0.23020170431202469 0 0.1878214256448299 0.20672411698152671 0 0.14314005341278749 0.20699853547660821 0 0.16852610903267151 0.206401884619904 0 0.15828943790025421 0.22969507774947781 0 0.16852610903267151 0.206401884619904 0 0.15828943790025421 0.22969507774947781 0 0.17766068788986381 0.23020170431202469 0 0.17766068788986381 0.23020170431202469 0 0.19353513124668931 0.22246748781277501 0 0.1878214256448299 0.20672411698152671 0 0.17766068788986381 0.23020170431202469 0 0.18692125413578081 0.24552837502103991 0 0.19379669244916639 0.23440003217329089 0 0.17766068788986381 0.23020170431202469 0 0.18692125413578081 0.24552837502103991 0 0.16774616909827719 0.2460930353984315 0 0.15828943790025421 0.22969507774947781 0 0.17766068788986381 0.23020170431202469 0 0.16774616909827719 0.2460930353984315 0 0.14702044576598061 0.2478904659134552 0 0.15828943790025421 0.22969507774947781 0 0.16774616909827719 0.2460930353984315 0 0.21557305570370441 0.24515722135805329 0 0.2029257889591993 0.24295866219667439 0 0.23007231546290949 0.2334513308517342 0 0.2029257889591993 0.24295866219667439 0 0.23007231546290949 0.2334513308517342 0 0.21557305570370441 0.24515722135805329 0 0.2029257889591993 0.24295866219667439 0 0.20107379594449931 0.25686311186437227 0 0.18692125413578081 0.24552837502103991 0 0.2029257889591993 0.24295866219667439 0 0.20107379594449931 0.25686311186437227 0 0.18692125413578081 0.24552837502103991 0 0.19379669244916639 0.23440003217329089 0 0.2029257889591993 0.24295866219667439 0 0.17766068788986381 0.23020170431202469 0 0.19379669244916639 0.23440003217329089 0 0.19353513124668931 0.22246748781277501 0 0.19379669244916639 0.23440003217329089 0 0.2029257889591993 0.24295866219667439 0 0.20920449219815451 0.22515354045629349 0 0.19379669244916639 0.23440003217329089 0 0.19353513124668931 0.22246748781277501 0 0.20920449219815451 0.22515354045629349 0 0.2029257889591993 0.24295866219667439 0 0.20920449219815451 0.22515354045629349 0 0.23007231546290949 0.2334513308517342 0 0.19353513124668931 0.22246748781277501 0 0.20920449219815451 0.22515354045629349 0 0.20732414099141369 0.20672295990195361 0 0.20920449219815451 0.22515354045629349 0 0.20732414099141369 0.20672295990195361 0 0.22783619495118521 0.20973527166224001 0 0.19353513124668931 0.22246748781277501 0 0.20732414099141369 0.20672295990195361 0 0.1878214256448299 0.20672411698152671 0 0.18411838942066619 0.18828130780555291 0 0.1878214256448299 0.20672411698152671 0 0.20343121377691101 0.18825927067945539 0 0.20732414099141369 0.20672295990195361 0 0.1878214256448299 0.20672411698152671 0 0.20343121377691101 0.18825927067945539 0 0.20732414099141369 0.20672295990195361 0 0.20343121377691101 0.18825927067945539 0 0.2219787971027708 0.18678942035429349 0 0.20732414099141369 0.20672295990195361 0 0.22783619495118521 0.20973527166224001 0 0.2219787971027708 0.18678942035429349 0 0.24528107816237801 0.1907036486386274 0 0.22783619495118521 0.20973527166224001 0 0.2219787971027708 0.18678942035429349 0 0.24528107816237801 0.1907036486386274 0 0.25242827713160498 0.21540237912569379 0 0.24528107816237801 0.1907036486386274 0 0.22783619495118521 0.20973527166224001 0 0.25242827713160498 0.21540237912569379 0 0.20920449219815451 0.22515354045629349 0 0.22783619495118521 0.20973527166224001 0 0.23007231546290949 0.2334513308517342 0 0.23007231546290949 0.2334513308517342 0 0.25242827713160498 0.21540237912569379 0 0.23007231546290949 0.2334513308517342 0 0.25511338863332461 0.22468137717712711 0 0.25242827713160498 0.21540237912569379 0 0.23007231546290949 0.2334513308517342 0 0.25511338863332461 0.22468137717712711 0 0.23007231546290949 0.2334513308517342 0 0.2457442494512444 0.24022391879071339 0 0.25511338863332461 0.22468137717712711 0 0.22783619495118521 0.20973527166224001 0 0.23007231546290949 0.2334513308517342 0 0.25242827713160498 0.21540237912569379 0 0.2457442494512444 0.24022391879071339 0 0.23628031136540401 0.25597328662156199 0 0.26221447651104962 0.2479993693513689 0 0.23007231546290949 0.2334513308517342 0 0.2457442494512444 0.24022391879071339 0 0.23628031136540401 0.25597328662156199 0 0.21557305570370441 0.24515722135805329 0 0.23007231546290949 0.2334513308517342 0 0.23628031136540401 0.25597328662156199 0 0.21557305570370441 0.24515722135805329 0 0.23007231546290949 0.2334513308517342 0 0.21023583046185859 0.14706018503428281 0 0.22521494488481819 0.12557893006429149 0 0.2001236667938262 0.1180422718546187 0 0.18002451345814399 0.12716596121819479 0 0.1903693880120208 0.14015559280000461 0 0.2001236667938262 0.1180422718546187 0 0.21023583046185859 0.14706018503428281 0 0.1903693880120208 0.14015559280000461 0 0.2001236667938262 0.1180422718546187 0 0.21023583046185859 0.14706018503428281 0 0.1903693880120208 0.14015559280000461 0 0.19050902449260759 0.164433536692701 0 0.18411838942066619 0.18828130780555291 0 0.20343121377691101 0.18825927067945539 0 0.19050902449260759 0.164433536692701 0 0.20343121377691101 0.18825927067945539 0 0.19050902449260759 0.164433536692701 0 0.20962662881846919 0.1707346457134423 0 0.20343121377691101 0.18825927067945539 0 0.20962662881846919 0.1707346457134423 0 0.2219787971027708 0.18678942035429349 0 0.21023583046185859 0.14706018503428281 0 0.20962662881846919 0.1707346457134423 0 0.2254160648188453 0.164078398330023 0 0.21023583046185859 0.14706018503428281 0 0.19050902449260759 0.164433536692701 0 0.20962662881846919 0.1707346457134423 0 0.20962662881846919 0.1707346457134423 0 0.2254160648188453 0.164078398330023 0 0.2219787971027708 0.18678942035429349 0 0.2254160648188453 0.164078398330023 0 0.2219787971027708 0.18678942035429349 0 0.23714843650665229 0.1758398884969993 0 0.24528107816237801 0.1907036486386274 0 0.2219787971027708 0.18678942035429349 0 0.23714843650665229 0.1758398884969993 0 0.24528107816237801 0.1907036486386274 0 0.23714843650665229 0.1758398884969993 0 0.25292738168467233 0.17649485219682931 0 0.2254160648188453 0.164078398330023 0 0.24653130607993951 0.16237692388552691 0 0.23688534306575301 0.1458043597726891 0 0.23714843650665229 0.1758398884969993 0 0.24653130607993951 0.16237692388552691 0 0.25292738168467233 0.17649485219682931 0 0.2254160648188453 0.164078398330023 0 0.23714843650665229 0.1758398884969993 0 0.24653130607993951 0.16237692388552691 0 0.24653130607993951 0.16237692388552691 0 0.2496536413094039 0.15044712256699261 0 0.23688534306575301 0.1458043597726891 0 0.2496536413094039 0.15044712256699261 0 0.23688534306575301 0.1458043597726891 0 0.25004344172447263 0.14019424959050239 0 0.21023583046185859 0.14706018503428281 0 0.2254160648188453 0.164078398330023 0 0.23688534306575301 0.1458043597726891 0 0.21023583046185859 0.14706018503428281 0 0.23688534306575301 0.1458043597726891 0 0.22521494488481819 0.12557893006429149 0 0.22521494488481819 0.12557893006429149 0 0.25030622297580962 0.13311558827396619 0 0.23688534306575301 0.1458043597726891 0 0.22521494488481819 0.12557893006429149 0 0.25030622297580962 0.13311558827396619 0 0.23688534306575301 0.1458043597726891 0 0.25004344172447263 0.14019424959050239 0 0.25030622297580962 0.13311558827396619 0 0.22521494488481819 0.12557893006429149 0 0.2369469616243938 0.1144798656387125 0 0.25030622297580962 0.13311558827396619 0 0.2369469616243938 0.1144798656387125 0 0.25094552198087999 0.11589449234768209 0 0.25030622297580962 0.13311558827396619 0 0.2369469616243938 0.1144798656387125 0 0.25158482098595109 0.098673396421397969 0 0.25094552198087999 0.11589449234768209 0 0.2369469616243938 0.1144798656387125 0 0.2308580048349978 0.09939168424622695 0 0.25158482098595109 0.098673396421397969 0 0.2308580048349978 0.09939168424622695 0 0.2177667053289645 0.10879872465146249 0 0.21723881235993189 0.092441087960636145 0 0.2369469616243938 0.1144798656387125 0 0.2308580048349978 0.09939168424622695 0 0.2177667053289645 0.10879872465146249 0 0.22521494488481819 0.12557893006429149 0 0.2369469616243938 0.1144798656387125 0 0.2177667053289645 0.10879872465146249 0 0.2177667053289645 0.10879872465146249 0 0.1970849337058638 0.1019164286603922 0 0.2001236667938262 0.1180422718546187 0 0.22521494488481819 0.12557893006429149 0 0.2177667053289645 0.10879872465146249 0 0.2001236667938262 0.1180422718546187 0 0.22521494488481819 0.12557893006429149 0 0.2001236667938262 0.1180422718546187 0 0.1970849337058638 0.1019164286603922 0 0.20420713705815571 0.090978010823124941 0 0.21723881235993189 0.092441087960636145 0 0.1970849337058638 0.1019164286603922 0 0.21723881235993189 0.092441087960636145 0 0.2177667053289645 0.10879872465146249 0 0.1970849337058638 0.1019164286603922 0 0.21723881235993189 0.092441087960636145 0 0.1970849337058638 0.1019164286603922 0 0.1916307843626972 0.08827444688259839 0 0.17503238870283441 0.11050561364494491 0 0.2001236667938262 0.1180422718546187 0 0.17503238870283441 0.11050561364494491 0 0.1970849337058638 0.1019164286603922 0 0.2001236667938262 0.1180422718546187 0 0.17503238870283441 0.11050561364494491 0 0.1916307843626972 0.08827444688259839 0 0.2082291800225603 0.066043280120252124 0 0.19067723801237901 0.065525043857756982 0 0.1916307843626972 0.08827444688259839 0 0.2082291800225603 0.066043280120252124 0 0.1916307843626972 0.08827444688259839 0 0.21087401780412959 0.081280079788873041 0 0.20420713705815571 0.090978010823124941 0 0.1970849337058638 0.1019164286603922 0 0.1916307843626972 0.08827444688259839 0 0.20420713705815571 0.090978010823124941 0 0.1916307843626972 0.08827444688259839 0 0.21087401780412959 0.081280079788873041 0 0.2082291800225603 0.066043280120252124 0 0.21087401780412959 0.081280079788873041 0 0.20420713705815571 0.090978010823124941 0 0.21723881235993189 0.092441087960636145 0 0.21087401780412959 0.081280079788873041 0 0.21723881235993189 0.092441087960636145 0 0.22613356481757629 0.0775902723280468 0 0.21087401780412959 0.081280079788873041 0 0.2082291800225603 0.066043280120252124 0 0.22613356481757629 0.0775902723280468 0 0.2082291800225603 0.066043280120252124 0 0.22613356481757629 0.0775902723280468 0 0.2082291800225603 0.066043280120252124 0 0.2259496113806885 0.070300708218039992 0 0.21450653174737461 0.057635669175196122 0 0.2259496113806885 0.070300708218039992 0 0.21450653174737461 0.057635669175196122 0 0.2082291800225603 0.066043280120252124 0 0.2259496113806885 0.070300708218039992 0 0.22613356481757629 0.0775902723280468 0 0.2259496113806885 0.070300708218039992 0 0.2248665156508784 0.061611733455129589 0 0.21450653174737461 0.057635669175196122 0 0.2259496113806885 0.070300708218039992 0 0.22613356481757629 0.0775902723280468 0 0.23739269101400209 0.082965747260884265 0 0.2259496113806885 0.070300708218039992 0 0.23739269101400209 0.082965747260884265 0 0.237967452106535 0.070105640596903412 0 0.2259496113806885 0.070300708218039992 0 0.23739269101400209 0.082965747260884265 0 0.2259496113806885 0.070300708218039992 0 0.2330718446673557 0.064441819436705627 0 0.2248665156508784 0.061611733455129589 0 0.2259496113806885 0.070300708218039992 0 0.2330718446673557 0.064441819436705627 0 0.237967452106535 0.070105640596903412 0 0.2308580048349978 0.09939168424622695 0 0.21723881235993189 0.092441087960636145 0 0.23739269101400209 0.082965747260884265 0 0.21723881235993189 0.092441087960636145 0 0.22613356481757629 0.0775902723280468 0 0.23739269101400209 0.082965747260884265 0 0.21723881235993189 0.092441087960636145 0 0.23739269101400209 0.082965747260884265 0 0.23739269101400209 0.082965747260884265 0 0.25158482098595109 0.098673396421397969 0 0.23739269101400209 0.082965747260884265 0 0.25243039498113262 0.075895774732197205 0 0.25158482098595109 0.098673396421397969 0 0.2308580048349978 0.09939168424622695 0 0.23739269101400209 0.082965747260884265 0 0.25158482098595109 0.098673396421397969 0 0.23739269101400209 0.082965747260884265 0 0.25243039498113262 0.075895774732197205 0 0.23934469018649959 0.064583282500140851 0 0.237967452106535 0.070105640596903412 0 0.24496427956833819 0.066036472520138348 0 0.2330718446673557 0.064441819436705627 0 0.23934469018649959 0.064583282500140851 0 0.2376257901407148 0.059976102198904507 0 0.2330718446673557 0.064441819436705627 0 0.23934469018649959 0.064583282500140851 0 0.237967452106535 0.070105640596903412 0 0.23739269101400209 0.082965747260884265 0 0.237967452106535 0.070105640596903412 0 0.24429048066179679 0.072622021298478806 0 0.24429048066179679 0.072622021298478806 0 0.24842415088314279 0.069033451464499671 0 0.25243039498113262 0.075895774732197205 0 0.23739269101400209 0.082965747260884265 0 0.24429048066179679 0.072622021298478806 0 0.25243039498113262 0.075895774732197205 0 0.24842415088314279 0.069033451464499671 0 0.24853219730195361 0.063845178725116872 0 0.25274476311700622 0.067427493409812952 0 0.237967452106535 0.070105640596903412 0 0.24429048066179679 0.072622021298478806 0 0.24496427956833819 0.066036472520138348 0 0.24429048066179679 0.072622021298478806 0 0.24842415088314279 0.069033451464499671 0 0.24496427956833819 0.066036472520138348 0 0.23934469018649959 0.064583282500140851 0 0.24496427956833819 0.066036472520138348 0 0.24309408444955441 0.062356377748052388 0 0.24496427956833819 0.066036472520138348 0 0.24602681454492631 0.062964227281045088 0 0.24309408444955441 0.062356377748052388 0 0.24496427956833819 0.066036472520138348 0 0.24602681454492631 0.062964227281045088 0 0.24853219730195361 0.063845178725116872 0 0.24842415088314279 0.069033451464499671 0 0.24496427956833819 0.066036472520138348 0 0.24853219730195361 0.063845178725116872 0 0.24751669685985911 0.059618880130872708 0 0.24309408444955441 0.062356377748052388 0 0.2376257901407148 0.059976102198904507 0 0.24751669685985911 0.059618880130872708 0 0.24426241142214139 0.049994713685017962 0 0.2310385276818335 0.053106641608170198 0 0.24751669685985911 0.059618880130872708 0 0.2376257901407148 0.059976102198904507 0 0.2310385276818335 0.053106641608170198 0 0.24751669685985911 0.059618880130872708 0 0.2310385276818335 0.053106641608170198 0 0.24853219730195361 0.063845178725116872 0 0.24751669685985911 0.059618880130872708 0 0.2530174900015254 0.0600809219264858 0 0.24602681454492631 0.062964227281045088 0 0.24853219730195361 0.063845178725116872 0 0.24751669685985911 0.059618880130872708 0 0.24602681454492631 0.062964227281045088 0 0.24751669685985911 0.059618880130872708 0 0.24309408444955441 0.062356377748052388 0 0.23934469018649959 0.064583282500140851 0 0.24309408444955441 0.062356377748052388 0 0.2376257901407148 0.059976102198904507 0 0.24426241142214139 0.049994713685017962 0 0.23928634064401511 0.040096757013566242 0 0.2310385276818335 0.053106641608170198 0 0.24751669685985911 0.059618880130872708 0 0.24426241142214139 0.049994713685017962 0 0.25102243244437311 0.053297338652025752 0 0.24426241142214139 0.049994713685017962 0 0.25174039047255609 0.044464402284776217 0 0.25102243244437311 0.053297338652025752 0 0.23928634064401511 0.040096757013566242 0 0.2320502206633881 0.021165953515508481 0 0.25044211127373811 0.032849993626191502 0 0.23928634064401511 0.040096757013566242 0 0.25044211127373811 0.032849993626191502 0 0.25174039047255609 0.044464402284776217 0 0.24426241142214139 0.049994713685017962 0 0.23928634064401511 0.040096757013566242 0 0.25174039047255609 0.044464402284776217 0 0.22618438235043381 0.038998837361733103 0 0.2320502206633881 0.021165953515508481 0 0.20963369093729961 0.03941564640516447 0 0.23928634064401511 0.040096757013566242 0 0.22618438235043381 0.038998837361733103 0 0.2320502206633881 0.021165953515508481 0 0.22618438235043381 0.038998837361733103 0 0.2310385276818335 0.053106641608170198 0 0.21456035850380811 0.046594403085467223 0 0.23928634064401511 0.040096757013566242 0 0.22618438235043381 0.038998837361733103 0 0.2310385276818335 0.053106641608170198 0 0.2310385276818335 0.053106641608170198 0 0.21456035850380811 0.046594403085467223 0 0.2248665156508784 0.061611733455129589 0 0.2310385276818335 0.053106641608170198 0 0.21456035850380811 0.046594403085467223 0 0.2248665156508784 0.061611733455129589 0 0.21456035850380811 0.046594403085467223 0 0.2330718446673557 0.064441819436705627 0 0.2248665156508784 0.061611733455129589 0 0.23150027442910881 0.059501590197602497 0 0.2248665156508784 0.061611733455129589 0 0.23150027442910881 0.059501590197602497 0 0.2310385276818335 0.053106641608170198 0 0.2330718446673557 0.064441819436705627 0 0.2376257901407148 0.059976102198904507 0 0.23150027442910881 0.059501590197602497 0 0.2376257901407148 0.059976102198904507 0 0.23150027442910881 0.059501590197602497 0 0.2310385276818335 0.053106641608170198 0 0.2320502206633881 0.021165953515508481 0 0.22999165343287109 0.0038227322559807589 0 0.25446675038947358 0.0029162606258486688 0 0.2320502206633881 0.021165953515508481 0 0.2600935707136679 0.019574361616358959 0 0.25446675038947358 0.0029162606258486688 0 0.22999165343287109 0.0038227322559807589 0 0.25446675038947358 0.0029162606258486688 0 0.24138147174972829 -0.0061427828714447699 0 0.2320502206633881 0.021165953515508481 0 0.25446675038947358 0.0029162606258486688 0 0.2320502206633881 0.021165953515508481 0 0.2600935707136679 0.019574361616358959 0 0.25044211127373811 0.032849993626191502 0 0.2320502206633881 0.021165953515508481 0 0.20963369093729961 0.03941564640516447 0 0.22999165343287109 0.0038227322559807589 0 0.21340461703840111 0.0096506044731711187 0 0.21351355446813719 -0.0021103410187178909 0 0.2320502206633881 0.021165953515508481 0 0.22999165343287109 0.0038227322559807589 0 0.21340461703840111 0.0096506044731711187 0 0.21340461703840111 0.0096506044731711187 0 0.1998105265397013 0.00335350757378736 0 0.21351355446813719 -0.0021103410187178909 0 0.21340461703840111 0.0096506044731711187 0 0.20371525389429951 0.01279949030761077 0 0.2082588668535221 0.02245160931237615 0 0.21340461703840111 0.0096506044731711187 0 0.20371525389429951 0.01279949030761077 0 0.1998105265397013 0.00335350757378736 0 0.2320502206633881 0.021165953515508481 0 0.2082588668535221 0.02245160931237615 0 0.20963369093729961 0.03941564640516447 0 0.2320502206633881 0.021165953515508481 0 0.21340461703840111 0.0096506044731711187 0 0.2082588668535221 0.02245160931237615 0 0.2082588668535221 0.02245160931237615 0 0.19338700514557339 0.015742239871108451 0 0.20963369093729961 0.03941564640516447 0 0.19338700514557339 0.015742239871108451 0 0.1989601287501698 0.040429129743079398 0 0.18048502430789731 0.01998114488410483 0 0.1989601287501698 0.040429129743079398 0 0.18048502430789731 0.01998114488410483 0 0.19338700514557339 0.015742239871108451 0 0.20963369093729961 0.03941564640516447 0 0.20371525389429951 0.01279949030761077 0 0.2082588668535221 0.02245160931237615 0 0.19338700514557339 0.015742239871108451 0 0.19338700514557339 0.015742239871108451 0 0.1998105265397013 0.00335350757378736 0 0.17714031935384769 -0.0079311666629475405 0 0.20371525389429951 0.01279949030761077 0 0.19338700514557339 0.015742239871108451 0 0.1998105265397013 0.00335350757378736 0 0.21450653174737461 0.057635669175196122 0 0.2029561920580818 0.044851916216142339 0 0.21450653174737461 0.057635669175196122 0 0.2029561920580818 0.044851916216142339 0 0.2021088015620611 0.053433964061651712 0 0.21450653174737461 0.057635669175196122 0 0.21456035850380811 0.046594403085467223 0 0.2029561920580818 0.044851916216142339 0 0.2082291800225603 0.066043280120252124 0 0.21450653174737461 0.057635669175196122 0 0.2021088015620611 0.053433964061651712 0 0.2248665156508784 0.061611733455129589 0 0.21450653174737461 0.057635669175196122 0 0.21456035850380811 0.046594403085467223 0 0.2082291800225603 0.066043280120252124 0 0.21450653174737461 0.057635669175196122 0 0.22618438235043381 0.038998837361733103 0 0.21456035850380811 0.046594403085467223 0 0.20963369093729961 0.03941564640516447 0 0.21456035850380811 0.046594403085467223 0 0.20963369093729961 0.03941564640516447 0 0.21456035850380811 0.046594403085467223 0 0.20530753189452691 0.042937648913457381 0 0.2029561920580818 0.044851916216142339 0 0.20963369093729961 0.03941564640516447 0 0.20530753189452691 0.042937648913457381 0 0.1989601287501698 0.040429129743079398 0 0.21456035850380811 0.046594403085467223 0 0.20530753189452691 0.042937648913457381 0 0.21456035850380811 0.046594403085467223 0 0.20963369093729961 0.03941564640516447 0 0.20530753189452691 0.042937648913457381 0 0.20963369093729961 0.03941564640516447 0 0.20530753189452691 0.042937648913457381 0 0.20530753189452691 0.042937648913457381 0 0.2029561920580818 0.044851916216142339 0 0.1989601287501698 0.040429129743079398 0 0.1774654858828027 0.031934360706524292 0 0.2029561920580818 0.044851916216142339 0 0.1989601287501698 0.040429129743079398 0 0.19971656766465989 0.047489351670260083 0 0.1989601287501698 0.040429129743079398 0 0.19133087755196571 0.045131483978966998 0 0.19971656766465989 0.047489351670260083 0 0.2029561920580818 0.044851916216142339 0 0.19971656766465989 0.047489351670260083 0 0.19338700514557339 0.015742239871108451 0 0.20963369093729961 0.03941564640516447 0 0.1989601287501698 0.040429129743079398 0 0.1989601287501698 0.040429129743079398 0 0.19133087755196571 0.045131483978966998 0 0.18298678422305309 0.040980100737508622 0 0.20530753189452691 0.042937648913457381 0 0.2029561920580818 0.044851916216142339 0 0.1989601287501698 0.040429129743079398 0 0.20530753189452691 0.042937648913457381 0 0.1989601287501698 0.040429129743079398 0 0.2029561920580818 0.044851916216142339 0 0.1989601287501698 0.040429129743079398 0 0.2082291800225603 0.066043280120252124 0 0.18513553631762919 0.051149603126408108 0 0.2021088015620611 0.053433964061651712 0 0.19971656766465989 0.047489351670260083 0 0.18513553631762919 0.051149603126408108 0 0.2082291800225603 0.066043280120252124 0 0.2021088015620611 0.053433964061651712 0 0.18513553631762919 0.051149603126408108 0 0.19067723801237901 0.065525043857756982 0 0.2082291800225603 0.066043280120252124 0 0.18513553631762919 0.051149603126408108 0 0.19133087755196571 0.045131483978966998 0 0.19971656766465989 0.047489351670260083 0 0.18513553631762919 0.051149603126408108 0 0.2029561920580818 0.044851916216142339 0 0.2021088015620611 0.053433964061651712 0 0.19971656766465989 0.047489351670260083 0 0.17734631865053521 0.060730067185729229 0 0.18513553631762919 0.051149603126408108 0 0.16725106424272049 0.052894846580172288 0 0.19067723801237901 0.065525043857756982 0 0.17734631865053521 0.060730067185729229 0 0.18513553631762919 0.051149603126408108 0 0.18298678422305309 0.040980100737508622 0 0.1774654858828027 0.031934360706524292 0 0.1620418926126978 0.036255926132564682 0 0.19133087755196571 0.045131483978966998 0 0.18513553631762919 0.051149603126408108 0 0.18298678422305309 0.040980100737508622 0 0.18513553631762919 0.051149603126408108 0 0.18298678422305309 0.040980100737508622 0 0.1620418926126978 0.036255926132564682 0 0.1989601287501698 0.040429129743079398 0 0.18298678422305309 0.040980100737508622 0 0.1774654858828027 0.031934360706524292 0 0.18513553631762919 0.051149603126408108 0 0.1620418926126978 0.036255926132564682 0 0.1620418926126978 0.036255926132564682 0 0.16725106424272049 0.052894846580172288 0 0.15541952745182569 0.04677658384696623 0 0.18513553631762919 0.051149603126408108 0 0.1620418926126978 0.036255926132564682 0 0.16725106424272049 0.052894846580172288 0 0.16725106424272049 0.052894846580172288 0 0.15507694825043991 0.057889849327421902 0 0.15541952745182569 0.04677658384696623 0 0.16725106424272049 0.052894846580172288 0 0.15507694825043991 0.057889849327421902 0 0.1653937448538241 0.067538194789913991 0 0.17734631865053521 0.060730067185729229 0 0.16725106424272049 0.052894846580172288 0 0.1653937448538241 0.067538194789913991 0 0.18048502430789731 0.01998114488410483 0 0.1657030786406338 0.0084270166623369204 0 0.17714031935384769 -0.0079311666629475405 0 0.19338700514557339 0.015742239871108451 0 0.17714031935384769 -0.0079311666629475405 0 0.19338700514557339 0.015742239871108451 0 0.18048502430789731 0.01998114488410483 0 0.17714031935384769 -0.0079311666629475405 0 0.1989601287501698 0.040429129743079398 0 0.1774654858828027 0.031934360706524292 0 0.18048502430789731 0.01998114488410483 0 0.1774654858828027 0.031934360706524292 0 0.18048502430789731 0.01998114488410483 0 0.16935520337559401 0.020657770454092759 0 0.1774654858828027 0.031934360706524292 0 0.15597084301543529 0.02343959166996953 0 0.1774654858828027 0.031934360706524292 0 0.1620418926126978 0.036255926132564682 0 0.15597084301543529 0.02343959166996953 0 0.1774654858828027 0.031934360706524292 0 0.16935520337559401 0.020657770454092759 0 0.15597084301543529 0.02343959166996953 0 0.16935520337559401 0.020657770454092759 0 0.1657030786406338 0.0084270166623369204 0 0.15597084301543529 0.02343959166996953 0 0.18048502430789731 0.01998114488410483 0 0.16935520337559401 0.020657770454092759 0 0.1657030786406338 0.0084270166623369204 0 0.1657030786406338 0.0084270166623369204 0 0.14883794818754281 0.01110572894874149 0 0.15480995508657039 -0.001084596553268768 0 0.1657030786406338 0.0084270166623369204 0 0.14883794818754281 0.01110572894874149 0 0.15597084301543529 0.02343959166996953 0 0.14883794818754281 0.01110572894874149 0 0.13464870039648349 0.00080453217212592717 0 0.15480995508657039 -0.001084596553268768 0 0.14883794818754281 0.01110572894874149 0 0.13894824890776639 0.02136224913872127 0 0.13464870039648349 0.00080453217212592717 0 0.1620418926126978 0.036255926132564682 0 0.13894824890776639 0.02136224913872127 0 0.14883794818754281 0.01110572894874149 0 0.15597084301543529 0.02343959166996953 0 0.13894824890776639 0.02136224913872127 0 0.1620418926126978 0.036255926132564682 0 0.15597084301543529 0.02343959166996953 0 0.13894824890776639 0.02136224913872127 0 0.11961069471150609 0.02296590295220987 0 0.13894824890776639 0.02136224913872127 0 0.12977361784467401 0.039215218793308727 0 0.1158546052028349 0.0064685721448778594 0 0.13894824890776639 0.02136224913872127 0 0.1158546052028349 0.0064685721448778594 0 0.13894824890776639 0.02136224913872127 0 0.13464870039648349 0.00080453217212592717 0 0.14278372382386809 0.048416123664777412 0 0.1428601767931531 0.062084067640591357 0 0.15507694825043991 0.057889849327421902 0 0.14278372382386809 0.048416123664777412 0 0.15507694825043991 0.057889849327421902 0 0.15541952745182569 0.04677658384696623 0 0.1620418926126978 0.036255926132564682 0 0.13894824890776639 0.02136224913872127 0 0.14579340212816641 0.038405220315267663 0 0.1620418926126978 0.036255926132564682 0 0.15541952745182569 0.04677658384696623 0 0.14579340212816641 0.038405220315267663 0 0.14278372382386809 0.048416123664777412 0 0.15541952745182569 0.04677658384696623 0 0.14579340212816641 0.038405220315267663 0 0.14278372382386809 0.048416123664777412 0 0.14579340212816641 0.038405220315267663 0 0.12977361784467401 0.039215218793308727 0 0.13894824890776639 0.02136224913872127 0 0.14579340212816641 0.038405220315267663 0 0.12977361784467401 0.039215218793308727 0 0.11550376979223601 0.054551475820320147 0 0.12977361784467401 0.039215218793308727 0 0.1326943019686847 0.054606112458038862 0 0.11550376979223601 0.054551475820320147 0 0.1326943019686847 0.054606112458038862 0 0.13255022158949201 0.068763676371196639 0 0.14278372382386809 0.048416123664777412 0 0.12977361784467401 0.039215218793308727 0 0.1326943019686847 0.054606112458038862 0 0.14278372382386809 0.048416123664777412 0 0.1428601767931531 0.062084067640591357 0 0.1326943019686847 0.054606112458038862 0 0.1428601767931531 0.062084067640591357 0 0.1326943019686847 0.054606112458038862 0 0.13255022158949201 0.068763676371196639 0 0.1207366242219714 0.074251990558816788 0 0.13255022158949201 0.068763676371196639 0 0.13578085374332971 0.077614708003019631 0 0.13255022158949201 0.068763676371196639 0 0.13578085374332971 0.077614708003019631 0 0.1430759120552613 0.073085192731263071 0 0.1428601767931531 0.062084067640591357 0 0.13255022158949201 0.068763676371196639 0 0.1430759120552613 0.073085192731263071 0 0.1428601767931531 0.062084067640591357 0 0.1430759120552613 0.073085192731263071 0 0.15260580868734391 0.069203578475014266 0 0.1430759120552613 0.073085192731263071 0 0.14969883640752091 0.076610515579137797 0 0.14563192422462459 0.083183778073064013 0 0.13578085374332971 0.077614708003019631 0 0.1430759120552613 0.073085192731263071 0 0.14563192422462459 0.083183778073064013 0 0.1430759120552613 0.073085192731263071 0 0.14969883640752091 0.076610515579137797 0 0.15260580868734391 0.069203578475014266 0 0.14969883640752091 0.076610515579137797 0 0.15260580868734391 0.069203578475014266 0 0.15677919641446331 0.080277826610221981 0 0.1428601767931531 0.062084067640591357 0 0.15507694825043991 0.057889849327421902 0 0.15260580868734391 0.069203578475014266 0 0.1506819444987289 0.088437751930635633 0 0.14868901735932749 0.09586058707093438 0 0.157853861938485 0.092527754269896317 0 0.1506819444987289 0.088437751930635633 0 0.15677919641446331 0.080277826610221981 0 0.157853861938485 0.092527754269896317 0 0.14969883640752091 0.076610515579137797 0 0.14563192422462459 0.083183778073064013 0 0.15677919641446331 0.080277826610221981 0 0.1506819444987289 0.088437751930635633 0 0.14563192422462459 0.083183778073064013 0 0.15677919641446331 0.080277826610221981 0 0.14563192422462459 0.083183778073064013 0 0.1444557225567443 0.090338813629061501 0 0.13888671887288589 0.088270852986767859 0 0.1506819444987289 0.088437751930635633 0 0.14563192422462459 0.083183778073064013 0 0.1444557225567443 0.090338813629061501 0 0.1444557225567443 0.090338813629061501 0 0.14209274384079601 0.094639397504520467 0 0.14868901735932749 0.09586058707093438 0 0.1506819444987289 0.088437751930635633 0 0.1444557225567443 0.090338813629061501 0 0.14868901735932749 0.09586058707093438 0 0.1444557225567443 0.090338813629061501 0 0.13888671887288589 0.088270852986767859 0 0.14209274384079601 0.094639397504520467 0 0.13888671887288589 0.088270852986767859 0 0.13668050292917741 0.098217611464673699 0 0.14209274384079601 0.094639397504520467 0 0.13888671887288589 0.088270852986767859 0 0.1300820653953097 0.084166932106396392 0 0.13668050292917741 0.098217611464673699 0 0.11116449005577619 0.086473750785835857 0 0.1300820653953097 0.084166932106396392 0 0.13668050292917741 0.098217611464673699 0 0.13578085374332971 0.077614708003019631 0 0.13888671887288589 0.088270852986767859 0 0.1300820653953097 0.084166932106396392 0 0.13578085374332971 0.077614708003019631 0 0.14563192422462459 0.083183778073064013 0 0.13888671887288589 0.088270852986767859 0 0.1207366242219714 0.074251990558816788 0 0.13578085374332971 0.077614708003019631 0 0.1300820653953097 0.084166932106396392 0 0.1216961693062274 0.1020981758197984 0 0.1302764983332621 0.10693497851168419 0 0.13668050292917741 0.098217611464673699 0 0.1302764983332621 0.10693497851168419 0 0.13758713408363871 0.1043360441680015 0 0.13668050292917741 0.098217611464673699 0 0.1302764983332621 0.10693497851168419 0 0.1360833458267342 0.1084620534226548 0 0.13758713408363871 0.1043360441680015 0 0.1360833458267342 0.1084620534226548 0 0.13758713408363871 0.1043360441680015 0 0.14314356584317489 0.10755645506983 0 0.13758713408363871 0.1043360441680015 0 0.13668050292917741 0.098217611464673699 0 0.14175175748584509 0.1005091223711649 0 0.13668050292917741 0.098217611464673699 0 0.14209274384079601 0.094639397504520467 0 0.14175175748584509 0.1005091223711649 0 0.12813823657366311 0.12049833089676459 0 0.13246275659848361 0.1130811342378658 0 0.13708322035591489 0.118794437000363 0 0.12212988809696081 0.1249307776834532 0 0.12788127083107459 0.1291064789800366 0 0.12813823657366311 0.12049833089676459 0 0.1197878353292403 0.1092484053650479 0 0.1302764983332621 0.10693497851168419 0 0.12624189261331301 0.1140678077034443 0 0.12813823657366311 0.12049833089676459 0 0.12624189261331301 0.1140678077034443 0 0.13246275659848361 0.1130811342378658 0 0.1302764983332621 0.10693497851168419 0 0.12624189261331301 0.1140678077034443 0 0.13246275659848361 0.1130811342378658 0 0.138866780176991 0.11235807520418389 0 0.13708322035591489 0.118794437000363 0 0.14572099158606311 0.1154247658161887 0 0.1360833458267342 0.1084620534226548 0 0.13246275659848361 0.1130811342378658 0 0.138866780176991 0.11235807520418389 0 0.1302764983332621 0.10693497851168419 0 0.1360833458267342 0.1084620534226548 0 0.13246275659848361 0.1130811342378658 0 0.1360833458267342 0.1084620534226548 0 0.138866780176991 0.11235807520418389 0 0.14314356584317489 0.10755645506983 0 0.13246275659848361 0.1130811342378658 0 0.138866780176991 0.11235807520418389 0 0.13708322035591489 0.118794437000363 0 0.13409394305489639 0.1257339851238449 0 0.14295710802469111 0.12768772724150559 0 0.13708322035591489 0.118794437000363 0 0.13409394305489639 0.1257339851238449 0 0.12813823657366311 0.12049833089676459 0 0.13708322035591489 0.118794437000363 0 0.14572099158606311 0.1154247658161887 0 0.15364605026385231 0.1227496740475859 0 0.15839207309433961 0.10550736800805539 0 0.14295710802469111 0.12768772724150559 0 0.13708322035591489 0.118794437000363 0 0.14572099158606311 0.1154247658161887 0 0.14295710802469111 0.12768772724150559 0 0.14572099158606311 0.1154247658161887 0 0.15364605026385231 0.1227496740475859 0 0.138866780176991 0.11235807520418389 0 0.14572099158606311 0.1154247658161887 0 0.14314356584317489 0.10755645506983 0 0.14572099158606311 0.1154247658161887 0 0.14314356584317489 0.10755645506983 0 0.15839207309433961 0.10550736800805539 0 0.14175175748584509 0.1005091223711649 0 0.15839207309433961 0.10550736800805539 0 0.14175175748584509 0.1005091223711649 0 0.14314356584317489 0.10755645506983 0 0.15839207309433961 0.10550736800805539 0 0.14175175748584509 0.1005091223711649 0 0.14868901735932749 0.09586058707093438 0 0.15839207309433961 0.10550736800805539 0 0.14209274384079601 0.094639397504520467 0 0.14175175748584509 0.1005091223711649 0 0.14868901735932749 0.09586058707093438 0 0.13758713408363871 0.1043360441680015 0 0.14175175748584509 0.1005091223711649 0 0.14314356584317489 0.10755645506983 0 0.14868901735932749 0.09586058707093438 0 0.15839207309433961 0.10550736800805539 0 0.157853861938485 0.092527754269896317 0 0.15839207309433961 0.10550736800805539 0 0.17503238870283441 0.11050561364494491 0 0.15839207309433961 0.10550736800805539 0 0.1705578526620479 0.095927182961129481 0 0.157853861938485 0.092527754269896317 0 0.15839207309433961 0.10550736800805539 0 0.1705578526620479 0.095927182961129481 0 0.17503238870283441 0.11050561364494491 0 0.16417220099380411 0.12505127510387981 0 0.15839207309433961 0.10550736800805539 0 0.17503238870283441 0.11050561364494491 0 0.16417220099380411 0.12505127510387981 0 0.15364605026385231 0.1227496740475859 0 0.15839207309433961 0.10550736800805539 0 0.16417220099380411 0.12505127510387981 0 0.17503238870283441 0.11050561364494491 0 0.18002451345814399 0.12716596121819479 0 0.16417220099380411 0.12505127510387981 0 0.17503238870283441 0.11050561364494491 0 0.18002451345814399 0.12716596121819479 0 0.2001236667938262 0.1180422718546187 0 0.17503238870283441 0.11050561364494491 0 0.1916307843626972 0.08827444688259839 0 0.1705578526620479 0.095927182961129481 0 0.17503238870283441 0.11050561364494491 0 0.1916307843626972 0.08827444688259839 0 0.17503238870283441 0.11050561364494491 0 0.1916307843626972 0.08827444688259839 0 0.17935943521264269 0.07135827912697662 0 0.16988015521188329 0.08282073200015258 0 0.1916307843626972 0.08827444688259839 0 0.1705578526620479 0.095927182961129481 0 0.16988015521188329 0.08282073200015258 0 0.19067723801237901 0.065525043857756982 0 0.1916307843626972 0.08827444688259839 0 0.17935943521264269 0.07135827912697662 0 0.19067723801237901 0.065525043857756982 0 0.17734631865053521 0.060730067185729229 0 0.17935943521264269 0.07135827912697662 0 0.17734631865053521 0.060730067185729229 0 0.17935943521264269 0.07135827912697662 0 0.1653937448538241 0.067538194789913991 0 0.17935943521264269 0.07135827912697662 0 0.1653937448538241 0.067538194789913991 0 0.16988015521188329 0.08282073200015258 0 0.15507694825043991 0.057889849327421902 0 0.15260580868734391 0.069203578475014266 0 0.1653937448538241 0.067538194789913991 0 0.15260580868734391 0.069203578475014266 0 0.1653937448538241 0.067538194789913991 0 0.15677919641446331 0.080277826610221981 0 0.1653937448538241 0.067538194789913991 0 0.15677919641446331 0.080277826610221981 0 0.16988015521188329 0.08282073200015258 0 0.15677919641446331 0.080277826610221981 0 0.157853861938485 0.092527754269896317 0 0.16988015521188329 0.08282073200015258 0 0.1705578526620479 0.095927182961129481 0 0.157853861938485 0.092527754269896317 0 0.16988015521188329 0.08282073200015258 0 0.099456207782380623 0.4822659283708195 0 0.1141892196830592 0.48396198267476093 0 0.11304725129434449 0.46767028325629811 0 0.099456207782380623 0.4822659283708195 0 0.11304725129434449 0.46767028325629811 0 0.096803680563272876 0.46646214520586099 0 0.099456207782380623 0.4822659283708195 0 0.10782601469385079 0.5 0 0.078267650747156567 0.50000000000000133 0 0.099456207782380623 0.4822659283708195 0 0.10782601469385079 0.5 0 0.1141892196830592 0.48396198267476093 0 0.10782601469385079 0.5 0 0.1249193769550877 0.49369376296818718 0 0.1141892196830592 0.48396198267476093 0 0.1249193769550877 0.49369376296818718 0 0.1141892196830592 0.48396198267476093 0 0.12569724768963239 0.47617993877849962 0 0.10782601469385079 0.5 0 0.1249193769550877 0.49369376296818718 0 0.13738437864054501 0.5 0 0.1141892196830592 0.48396198267476093 0 0.11304725129434449 0.46767028325629811 0 0.12569724768963239 0.47617993877849962 0 0.11304725129434449 0.46767028325629811 0 0.1267882431275838 0.46370707134437261 0 0.12569724768963239 0.47617993877849962 0 0.11304725129434449 0.46767028325629811 0 0.1221607865463437 0.4507156547582637 0 0.1004821270038239 0.44949914822431608 0 0.11304725129434449 0.46767028325629811 0 0.1221607865463437 0.4507156547582637 0 0.1267882431275838 0.46370707134437261 0 0.1221607865463437 0.4507156547582637 0 0.1004821270038239 0.44949914822431608 0 0.12259086230274099 0.42947812748907283 0 0.1004821270038239 0.44949914822431608 0 0.096803680563272876 0.46646214520586099 0 0.084307548883437972 0.45862843933572522 0 0.11304725129434449 0.46767028325629811 0 0.1004821270038239 0.44949914822431608 0 0.096803680563272876 0.46646214520586099 0 0.084307548883437972 0.45862843933572522 0 0.070120974899159305 0.46867166915081548 0 0.08254081050968877 0.47642281665818748 0 0.096803680563272876 0.46646214520586099 0 0.084307548883437972 0.45862843933572522 0 0.08254081050968877 0.47642281665818748 0 0.084307548883437972 0.45862843933572522 0 0.083205653112744402 0.44008551456546158 0 0.070599818540594342 0.45171728711773013 0 0.1004821270038239 0.44949914822431608 0 0.084307548883437972 0.45862843933572522 0 0.083205653112744402 0.44008551456546158 0 0.1004821270038239 0.44949914822431608 0 0.083205653112744402 0.44008551456546158 0 0.095892719888732866 0.42453745382262881 0 0.070599818540594342 0.45171728711773013 0 0.057347956450285731 0.44480695268810438 0 0.068330088192809502 0.43602814955066621 0 0.083205653112744402 0.44008551456546158 0 0.070599818540594342 0.45171728711773013 0 0.068330088192809502 0.43602814955066621 0 0.070599818540594342 0.45171728711773013 0 0.070120974899159305 0.46867166915081548 0 0.05832870883015126 0.45973880463956351 0 0.084307548883437972 0.45862843933572522 0 0.070599818540594342 0.45171728711773013 0 0.070120974899159305 0.46867166915081548 0 0.070120974899159305 0.46867166915081548 0 0.08254081050968877 0.47642281665818748 0 0.061557047466102868 0.48310025102256282 0 0.070120974899159305 0.46867166915081548 0 0.061557047466102868 0.48310025102256282 0 0.05832870883015126 0.45973880463956351 0 0.099456207782380623 0.4822659283708195 0 0.096803680563272876 0.46646214520586099 0 0.08254081050968877 0.47642281665818748 0 0.099456207782380623 0.4822659283708195 0 0.08254081050968877 0.47642281665818748 0 0.078267650747156567 0.50000000000000133 0 0.078267650747156567 0.50000000000000133 0 0.049166882519808157 0.5 0 0.061557047466102868 0.48310025102256282 0 0.08254081050968877 0.47642281665818748 0 0.078267650747156567 0.50000000000000133 0 0.061557047466102868 0.48310025102256282 0 0.078267650747156567 0.50000000000000133 0 0.061557047466102868 0.48310025102256282 0 0.049166882519808157 0.5 0 0.061557047466102868 0.48310025102256282 0 0.038208171894904559 0.48286056860770488 0 0.061557047466102868 0.48310025102256282 0 0.044846444185049857 0.46620050204512359 0 0.05832870883015126 0.45973880463956351 0 0.061557047466102868 0.48310025102256282 0 0.044846444185049857 0.46620050204512359 0 0.061557047466102868 0.48310025102256282 0 0.038208171894904559 0.48286056860770488 0 0.044846444185049857 0.46620050204512359 0 0.038208171894904559 0.48286056860770488 0 0.029572045059576241 0.469060477695939 0 0.044846444185049857 0.46620050204512359 0 0.049166882519808157 0.5 0 0.038208171894904559 0.48286056860770488 0 0.020066114292459799 0.5 0 0.038208171894904559 0.48286056860770488 0 0.020066114292459799 0.5 0 0.021055159894441029 0.48095839664786189 0 0.038208171894904559 0.48286056860770488 0 0.029572045059576241 0.469060477695939 0 0.021055159894441029 0.48095839664786189 0 0.029572045059576241 0.469060477695939 0 0.021055159894441029 0.48095839664786189 0 0.01561460841948897 0.46598216811131982 0 0.021055159894441029 0.48095839664786189 0 0.0030933759349822849 0.48266358315495572 0 0.01561460841948897 0.46598216811131982 0 0.0030933759349822849 0.48266358315495572 0 0.01561460841948897 0.46598216811131982 0 0.0036787250480955699 0.47408322248379448 0 0.0030933759349822849 0.48266358315495572 0 0.01561460841948897 0.46598216811131982 0 -0.0016340076521478781 0.48633642657919801 0 0.0036787250480955699 0.47408322248379448 0 0.0030933759349822849 0.48266358315495572 0 0.020066114292459799 0.5 0 0.021055159894441029 0.48095839664786189 0 0.0030933759349822849 0.48266358315495572 0 -0.0090346539348886701 0.5 0 -0.0016340076521478781 0.48633642657919801 0 0.020066114292459799 0.5 0 -0.0016340076521478781 0.48633642657919801 0 0.020066114292459799 0.5 0 0.0030933759349822849 0.48266358315495572 0 -0.0030841453677343121 0.43636499760021141 0 -0.002359076509941094 0.46135071208970457 0 0.010470448459028871 0.45111158928184719 0 -0.0030841453677343121 0.43636499760021141 0 0.010470448459028871 0.45111158928184719 0 0.017893296784651399 0.43894227458572882 0 -0.002359076509941094 0.46135071208970457 0 0.010470448459028871 0.45111158928184719 0 0.01561460841948897 0.46598216811131982 0 -0.002359076509941094 0.46135071208970457 0 0.0036787250480955699 0.47408322248379448 0 0.01561460841948897 0.46598216811131982 0 0.010470448459028871 0.45111158928184719 0 0.01561460841948897 0.46598216811131982 0 0.0281358409039968 0.44930075306768458 0 0.029572045059576241 0.469060477695939 0 0.01561460841948897 0.46598216811131982 0 0.0281358409039968 0.44930075306768458 0 0.01561460841948897 0.46598216811131982 0 0.0281358409039968 0.44930075306768458 0 0.010470448459028871 0.45111158928184719 0 0.0281358409039968 0.44930075306768458 0 0.017893296784651399 0.43894227458572882 0 0.0281358409039968 0.44930075306768458 0 0.017893296784651399 0.43894227458572882 0 0.03800042812263172 0.43615865433005307 0 0.0281358409039968 0.44930075306768458 0 0.017893296784651399 0.43894227458572882 0 0.0281358409039968 0.44930075306768458 0 0.04587361322417214 0.448769157871174 0 0.03800042812263172 0.43615865433005307 0 0.0281358409039968 0.44930075306768458 0 0.03800042812263172 0.43615865433005307 0 0.04587361322417214 0.448769157871174 0 0.049411209704934803 0.43621283219101809 0 0.03800042812263172 0.43615865433005307 0 0.029572045059576241 0.469060477695939 0 0.0281358409039968 0.44930075306768458 0 0.044846444185049857 0.46620050204512359 0 0.0281358409039968 0.44930075306768458 0 0.04587361322417214 0.448769157871174 0 0.044846444185049857 0.46620050204512359 0 0.0281358409039968 0.44930075306768458 0 0.044846444185049857 0.46620050204512359 0 0.04587361322417214 0.448769157871174 0 0.044846444185049857 0.46620050204512359 0 0.05832870883015126 0.45973880463956351 0 0.04587361322417214 0.448769157871174 0 0.057347956450285731 0.44480695268810438 0 0.049411209704934803 0.43621283219101809 0 0.04587361322417214 0.448769157871174 0 0.05832870883015126 0.45973880463956351 0 0.057347956450285731 0.44480695268810438 0 0.070599818540594342 0.45171728711773013 0 0.05832870883015126 0.45973880463956351 0 0.057347956450285731 0.44480695268810438 0 0.057347956450285731 0.44480695268810438 0 0.058238482531349368 0.43512174465279091 0 0.068330088192809502 0.43602814955066621 0 0.057347956450285731 0.44480695268810438 0 0.058238482531349368 0.43512174465279091 0 0.049411209704934803 0.43621283219101809 0 0.058238482531349368 0.43512174465279091 0 0.05412352915042095 0.42739076434297479 0 0.063786863135573219 0.4234822836218442 0 0.05412352915042095 0.42739076434297479 0 0.047865015341267358 0.42301655559242213 0 0.049411209704934803 0.43621283219101809 0 0.05412352915042095 0.42739076434297479 0 0.047865015341267358 0.42301655559242213 0 0.058238482531349368 0.43512174465279091 0 0.05412352915042095 0.42739076434297479 0 0.049411209704934803 0.43621283219101809 0 0.047865015341267358 0.42301655559242213 0 0.055388731832649349 0.41299308245440008 0 0.044385004541519633 0.40583709082877739 0 0.055388731832649349 0.41299308245440008 0 0.057103340742871267 0.4006394318358022 0 0.0691327228978319 0.40699071288372829 0 0.05412352915042095 0.42739076434297479 0 0.055388731832649349 0.41299308245440008 0 0.063786863135573219 0.4234822836218442 0 0.047865015341267358 0.42301655559242213 0 0.055388731832649349 0.41299308245440008 0 0.05412352915042095 0.42739076434297479 0 0.047865015341267358 0.42301655559242213 0 0.055388731832649349 0.41299308245440008 0 0.055388731832649349 0.41299308245440008 0 0.044385004541519633 0.40583709082877739 0 0.057103340742871267 0.4006394318358022 0 0.047865015341267358 0.42301655559242213 0 0.030398582533070099 0.41080889326869052 0 0.044385004541519633 0.40583709082877739 0 0.047865015341267358 0.42301655559242213 0 0.035686717363660143 0.42423985257235269 0 0.030398582533070099 0.41080889326869052 0 0.047865015341267358 0.42301655559242213 0 0.030398582533070099 0.41080889326869052 0 0.047865015341267358 0.42301655559242213 0 0.049411209704934803 0.43621283219101809 0 0.03800042812263172 0.43615865433005307 0 0.047865015341267358 0.42301655559242213 0 0.03800042812263172 0.43615865433005307 0 0.047865015341267358 0.42301655559242213 0 0.035686717363660143 0.42423985257235269 0 0.03800042812263172 0.43615865433005307 0 0.035686717363660143 0.42423985257235269 0 0.03800042812263172 0.43615865433005307 0 0.0264828434576714 0.42697530709824522 0 0.017893296784651399 0.43894227458572882 0 0.0264828434576714 0.42697530709824522 0 0.013451351612083251 0.42022136891186163 0 0.017893296784651399 0.43894227458572882 0 0.03800042812263172 0.43615865433005307 0 0.0264828434576714 0.42697530709824522 0 0.030398582533070099 0.41080889326869052 0 0.013451351612083251 0.42022136891186163 0 0.012932149724872831 0.39860123094495892 0 0.0264828434576714 0.42697530709824522 0 0.030398582533070099 0.41080889326869052 0 0.013451351612083251 0.42022136891186163 0 0.035686717363660143 0.42423985257235269 0 0.0264828434576714 0.42697530709824522 0 0.030398582533070099 0.41080889326869052 0 -0.0038092142255275289 0.41137928311071797 0 0.013451351612083251 0.42022136891186163 0 0.012932149724872831 0.39860123094495892 0 -0.0030841453677343121 0.43636499760021141 0 0.017893296784651399 0.43894227458572882 0 0.013451351612083251 0.42022136891186163 0 -0.0030841453677343121 0.43636499760021141 0 -0.0038092142255275289 0.41137928311071797 0 0.013451351612083251 0.42022136891186163 0 -0.0045342830833226501 0.3863935686212247 0 0.012932149724872831 0.39860123094495892 0 0.0079023355216259559 0.37348921158265391 0 0.012932149724872831 0.39860123094495892 0 0.025375843575522711 0.38021681034322929 0 0.0079023355216259559 0.37348921158265391 0 -0.0045342830833226501 0.3863935686212247 0 0.012932149724872831 0.39860123094495892 0 -0.0045342830833226501 0.3863935686212247 0 -0.0038092142255275289 0.41137928311071797 0 0.012932149724872831 0.39860123094495892 0 0.030398582533070099 0.41080889326869052 0 0.012932149724872831 0.39860123094495892 0 0.030398582533070099 0.41080889326869052 0 0.012932149724872831 0.39860123094495892 0 0.030218872497922818 0.39559608178221078 0 0.012932149724872831 0.39860123094495892 0 0.030218872497922818 0.39559608178221078 0 0.025375843575522711 0.38021681034322929 0 0.025375843575522711 0.38021681034322929 0 0.045236422390978262 0.39339421550307069 0 0.045418656597819553 0.37354288132317159 0 0.030218872497922818 0.39559608178221078 0 0.025375843575522711 0.38021681034322929 0 0.045236422390978262 0.39339421550307069 0 0.030398582533070099 0.41080889326869052 0 0.030218872497922818 0.39559608178221078 0 0.044385004541519633 0.40583709082877739 0 0.030218872497922818 0.39559608178221078 0 0.045236422390978262 0.39339421550307069 0 0.044385004541519633 0.40583709082877739 0 0.045236422390978262 0.39339421550307069 0 0.057103340742871267 0.4006394318358022 0 0.06607043693335328 0.38973814947632979 0 0.045236422390978262 0.39339421550307069 0 0.044385004541519633 0.40583709082877739 0 0.057103340742871267 0.4006394318358022 0 0.045236422390978262 0.39339421550307069 0 0.06607043693335328 0.38973814947632979 0 0.045418656597819553 0.37354288132317159 0 0.06607043693335328 0.38973814947632979 0 0.066778362586220691 0.36264744131756171 0 0.045418656597819553 0.37354288132317159 0 0.06607043693335328 0.38973814947632979 0 0.086713905658550791 0.37461406501925459 0 0.066778362586220691 0.36264744131756171 0 0.091303312773641829 0.3995757594209417 0 0.1025776524751303 0.38486691706586951 0 0.086713905658550791 0.37461406501925459 0 0.06607043693335328 0.38973814947632979 0 0.091303312773641829 0.3995757594209417 0 0.086713905658550791 0.37461406501925459 0 0.091303312773641829 0.3995757594209417 0 0.086713905658550791 0.37461406501925459 0 0.06607043693335328 0.38973814947632979 0 0.091303312773641829 0.3995757594209417 0 0.0691327228978319 0.40699071288372829 0 0.057103340742871267 0.4006394318358022 0 0.06607043693335328 0.38973814947632979 0 0.0691327228978319 0.40699071288372829 0 0.055388731832649349 0.41299308245440008 0 0.0691327228978319 0.40699071288372829 0 0.063786863135573219 0.4234822836218442 0 0.0691327228978319 0.40699071288372829 0 0.077714875811277062 0.4214876261871765 0 0.063786863135573219 0.4234822836218442 0 0.083205653112744402 0.44008551456546158 0 0.077714875811277062 0.4214876261871765 0 0.068330088192809502 0.43602814955066621 0 0.058238482531349368 0.43512174465279091 0 0.068330088192809502 0.43602814955066621 0 0.063786863135573219 0.4234822836218442 0 0.077714875811277062 0.4214876261871765 0 0.068330088192809502 0.43602814955066621 0 0.063786863135573219 0.4234822836218442 0 0.083205653112744402 0.44008551456546158 0 0.077714875811277062 0.4214876261871765 0 0.095892719888732866 0.42453745382262881 0 0.091303312773641829 0.3995757594209417 0 0.0691327228978319 0.40699071288372829 0 0.077714875811277062 0.4214876261871765 0 0.091303312773641829 0.3995757594209417 0 0.095892719888732866 0.42453745382262881 0 0.091303312773641829 0.3995757594209417 0 0.077714875811277062 0.4214876261871765 0 0.095892719888732866 0.42453745382262881 0 0.091303312773641829 0.3995757594209417 0 0.095892719888732866 0.42453745382262881 0 0.115428724103706 0.40267530492779557 0 0.1004821270038239 0.44949914822431608 0 0.095892719888732866 0.42453745382262881 0 0.12259086230274099 0.42947812748907283 0 0.1004821270038239 0.44949914822431608 0 0.095892719888732866 0.42453745382262881 0 0.095892719888732866 0.42453745382262881 0 0.12259086230274099 0.42947812748907283 0 0.115428724103706 0.40267530492779557 0 0.115428724103706 0.40267530492779557 0 0.119448870245615 0.38256434187866972 0 0.13692284990477191 0.38930777957628943 0 0.119448870245615 0.38256434187866972 0 0.1025776524751303 0.38486691706586951 0 0.1087205780393706 0.3656269003386084 0 0.115428724103706 0.40267530492779557 0 0.119448870245615 0.38256434187866972 0 0.1025776524751303 0.38486691706586951 0 0.1025776524751303 0.38486691706586951 0 0.1087205780393706 0.3656269003386084 0 0.086713905658550791 0.37461406501925459 0 0.091303312773641829 0.3995757594209417 0 0.115428724103706 0.40267530492779557 0 0.1025776524751303 0.38486691706586951 0 0.1087205780393706 0.3656269003386084 0 0.1202868522871179 0.34060046584014031 0 0.0915497208986496 0.34709204532757532 0 0.1087205780393706 0.3656269003386084 0 0.0915497208986496 0.34709204532757532 0 0.086713905658550791 0.37461406501925459 0 0.119448870245615 0.38256434187866972 0 0.1087205780393706 0.3656269003386084 0 0.13274728415341139 0.36410634055334368 0 0.1087205780393706 0.3656269003386084 0 0.1202868522871179 0.34060046584014031 0 0.13274728415341139 0.36410634055334368 0 0.1202868522871179 0.34060046584014031 0 0.1104734498024164 0.31171603628350752 0 0.14183880654046921 0.32250528078568202 0 0.1202868522871179 0.34060046584014031 0 0.1016552612267161 0.33013161519950079 0 0.1104734498024164 0.31171603628350752 0 0.1016552612267161 0.33013161519950079 0 0.081254576285268804 0.3210829637434266 0 0.1104734498024164 0.31171603628350752 0 0.1202868522871179 0.34060046584014031 0 0.1016552612267161 0.33013161519950079 0 0.0915497208986496 0.34709204532757532 0 0.081254576285268804 0.3210829637434266 0 0.072654821413094289 0.33942743407960763 0 0.0915497208986496 0.34709204532757532 0 0.1016552612267161 0.33013161519950079 0 0.081254576285268804 0.3210829637434266 0 0.0915497208986496 0.34709204532757532 0 0.081254576285268804 0.3210829637434266 0 0.06358813508901956 0.32234581427363851 0 0.071244474661197085 0.3036312559279935 0 0.081254576285268804 0.3210829637434266 0 0.06358813508901956 0.32234581427363851 0 0.072654821413094289 0.33942743407960763 0 0.06358813508901956 0.32234581427363851 0 0.072654821413094289 0.33942743407960763 0 0.055199983679349987 0.34246375673151652 0 0.072654821413094289 0.33942743407960763 0 0.066778362586220691 0.36264744131756171 0 0.055199983679349987 0.34246375673151652 0 0.072654821413094289 0.33942743407960763 0 0.0915497208986496 0.34709204532757532 0 0.066778362586220691 0.36264744131756171 0 0.0915497208986496 0.34709204532757532 0 0.086713905658550791 0.37461406501925459 0 0.066778362586220691 0.36264744131756171 0 0.066778362586220691 0.36264744131756171 0 0.044951457965310811 0.3555124197003488 0 0.045418656597819553 0.37354288132317159 0 0.066778362586220691 0.36264744131756171 0 0.044951457965310811 0.3555124197003488 0 0.055199983679349987 0.34246375673151652 0 0.044951457965310811 0.3555124197003488 0 0.021903196078839001 0.35746348141110651 0 0.035457090884324839 0.34144453771838768 0 0.044951457965310811 0.3555124197003488 0 0.035457090884324839 0.34144453771838768 0 0.055199983679349987 0.34246375673151652 0 0.044951457965310811 0.3555124197003488 0 0.045418656597819553 0.37354288132317159 0 0.021903196078839001 0.35746348141110651 0 0.025375843575522711 0.38021681034322929 0 0.021903196078839001 0.35746348141110651 0 0.0079023355216259559 0.37348921158265391 0 0.025375843575522711 0.38021681034322929 0 0.045418656597819553 0.37354288132317159 0 0.021903196078839001 0.35746348141110651 0 0.021903196078839001 0.35746348141110651 0 0.017151683724365509 0.3376665205351736 0 0.035457090884324839 0.34144453771838768 0 0.021903196078839001 0.35746348141110651 0 0.0095650341834115256 0.34490192427506011 0 0.017151683724365509 0.3376665205351736 0 0.021903196078839001 0.35746348141110651 0 0.0095650341834115256 0.34490192427506011 0 0.0061318462344260851 0.35417601161121459 0 -0.0050552824635438226 0.34569829691311771 0 0.0095650341834115256 0.34490192427506011 0 0.0061318462344260851 0.35417601161121459 0 0.021903196078839001 0.35746348141110651 0 0.0061318462344260851 0.35417601161121459 0 0.0079023355216259559 0.37348921158265391 0 -0.0052616759920083916 0.36132776784546622 0 0.0061318462344260851 0.35417601161121459 0 0.0079023355216259559 0.37348921158265391 0 0.0087281755863181168 0.33049580891976171 0 0.020410497070949891 0.30832150289807031 0 0.0056044744337335906 0.31412092038659428 0 0.0087281755863181168 0.33049580891976171 0 0.020410497070949891 0.30832150289807031 0 -0.003280447873963227 0.32161399115684158 0 0.0056044744337335906 0.31412092038659428 0 0.0087281755863181168 0.33049580891976171 0 0.0064742168078369342 0.3347740657525386 0 0.0087281755863181168 0.33049580891976171 0 -0.0050552824635438226 0.34569829691311771 0 0.0095650341834115256 0.34490192427506011 0 0.0064742168078369342 0.3347740657525386 0 0.0095650341834115256 0.34490192427506011 0 0.0064742168078369342 0.3347740657525386 0 0.017151683724365509 0.3376665205351736 0 0.0064742168078369342 0.3347740657525386 0 0.0087281755863181168 0.33049580891976171 0 0.017151683724365509 0.3376665205351736 0 0.0087281755863181168 0.33049580891976171 0 0.025353163704189718 0.33024288796319817 0 0.017151683724365509 0.3376665205351736 0 0.0087281755863181168 0.33049580891976171 0 0.025353163704189718 0.33024288796319817 0 0.025353163704189718 0.33024288796319817 0 0.017151683724365509 0.3376665205351736 0 0.035457090884324839 0.34144453771838768 0 0.0087281755863181168 0.33049580891976171 0 0.025353163704189718 0.33024288796319817 0 0.020410497070949891 0.30832150289807031 0 0.025353163704189718 0.33024288796319817 0 0.038017806832533571 0.30672300381527179 0 0.020410497070949891 0.30832150289807031 0 0.025353163704189718 0.33024288796319817 0 0.045812945845809312 0.32351293560108041 0 0.038017806832533571 0.30672300381527179 0 0.025353163704189718 0.33024288796319817 0 0.045812945845809312 0.32351293560108041 0 0.035457090884324839 0.34144453771838768 0 0.045812945845809312 0.32351293560108041 0 0.035457090884324839 0.34144453771838768 0 0.055199983679349987 0.34246375673151652 0 0.06358813508901956 0.32234581427363851 0 0.045812945845809312 0.32351293560108041 0 0.055199983679349987 0.34246375673151652 0 0.06358813508901956 0.32234581427363851 0 0.045812945845809312 0.32351293560108041 0 0.055148108477292443 0.3057593846019967 0 0.055148108477292443 0.3057593846019967 0 0.047586914097201803 0.29032131063477928 0 0.038017806832533571 0.30672300381527179 0 0.055148108477292443 0.3057593846019967 0 0.047586914097201803 0.29032131063477928 0 0.066935962560195753 0.28615893812798288 0 0.047586914097201803 0.29032131063477928 0 0.050578246113349837 0.27455429857722041 0 0.066935962560195753 0.28615893812798288 0 0.047586914097201803 0.29032131063477928 0 0.032092818555581597 0.28614719687637868 0 0.038017806832533571 0.30672300381527179 0 0.047586914097201803 0.29032131063477928 0 0.032092818555581597 0.28614719687637868 0 0.050578246113349837 0.27455429857722041 0 0.045812945845809312 0.32351293560108041 0 0.055148108477292443 0.3057593846019967 0 0.038017806832533571 0.30672300381527179 0 0.032092818555581597 0.28614719687637868 0 0.038017806832533571 0.30672300381527179 0 0.020410497070949891 0.30832150289807031 0 0.032092818555581597 0.28614719687637868 0 0.020410497070949891 0.30832150289807031 0 0.032092818555581597 0.28614719687637868 0 0.020410497070949891 0.30832150289807031 0 0.0083336089875100904 0.29343585490586271 0 0.032092818555581597 0.28614719687637868 0 0.0083336089875100904 0.29343585490586271 0 0.021382191810826279 0.2686960609189637 0 -0.0088759444352828343 0.31092800175718183 0 0.0056044744337335906 0.31412092038659428 0 0.0083336089875100904 0.29343585490586271 0 0.0056044744337335906 0.31412092038659428 0 0.020410497070949891 0.30832150289807031 0 0.0083336089875100904 0.29343585490586271 0 0.0073806355134042019 0.25529449578482938 0 3.3590645499582607e-05 0.27236849017123349 0 0.021382191810826279 0.2686960609189637 0 0.0083336089875100904 0.29343585490586271 0 3.3590645499582607e-05 0.27236849017123349 0 0.021382191810826279 0.2686960609189637 0 0.025149977659741599 0.24684982625080901 0 0.0073806355134042019 0.25529449578482938 0 0.021382191810826279 0.2686960609189637 0 0.025149977659741599 0.24684982625080901 0 0.021382191810826279 0.2686960609189637 0 0.043775140040213267 0.26397289085468728 0 0.025149977659741599 0.24684982625080901 0 0.045472231705318063 0.24424317023843681 0 0.050158093690384618 0.2598810672441918 0 0.025149977659741599 0.24684982625080901 0 0.050158093690384618 0.2598810672441918 0 0.025149977659741599 0.24684982625080901 0 0.043775140040213267 0.26397289085468728 0 0.050158093690384618 0.2598810672441918 0 0.032092818555581597 0.28614719687637868 0 0.043775140040213267 0.26397289085468728 0 0.032092818555581597 0.28614719687637868 0 0.021382191810826279 0.2686960609189637 0 0.043775140040213267 0.26397289085468728 0 0.032092818555581597 0.28614719687637868 0 0.043775140040213267 0.26397289085468728 0 0.050578246113349837 0.27455429857722041 0 0.050578246113349837 0.27455429857722041 0 0.063875668081316214 0.2678607518654692 0 0.066935962560195753 0.28615893812798288 0 0.043775140040213267 0.26397289085468728 0 0.050578246113349837 0.27455429857722041 0 0.050158093690384618 0.2598810672441918 0 0.050578246113349837 0.27455429857722041 0 0.056046126259945157 0.25263236173372139 0 0.063875668081316214 0.2678607518654692 0 0.050578246113349837 0.27455429857722041 0 0.050158093690384618 0.2598810672441918 0 0.056046126259945157 0.25263236173372139 0 0.045472231705318063 0.24424317023843681 0 0.050158093690384618 0.2598810672441918 0 0.056046126259945157 0.25263236173372139 0 0.050578246113349837 0.27455429857722041 0 0.056046126259945157 0.25263236173372139 0 0.078525547080241467 0.2465942846531784 0 0.067905867336300579 0.25358800162702 0 0.079567988853459573 0.27014218499250892 0 0.067905867336300579 0.25358800162702 0 0.079567988853459573 0.27014218499250892 0 0.063875668081316214 0.2678607518654692 0 0.056046126259945157 0.25263236173372139 0 0.067905867336300579 0.25358800162702 0 0.063875668081316214 0.2678607518654692 0 0.078525547080241467 0.2465942846531784 0 0.079567988853459573 0.27014218499250892 0 0.093798877441032588 0.2579700649065903 0 0.079567988853459573 0.27014218499250892 0 0.063875668081316214 0.2678607518654692 0 0.066935962560195753 0.28615893812798288 0 0.079567988853459573 0.27014218499250892 0 0.066935962560195753 0.28615893812798288 0 0.087430381393448858 0.29852998767476718 0 0.066935962560195753 0.28615893812798288 0 0.071244474661197085 0.3036312559279935 0 0.087430381393448858 0.29852998767476718 0 0.055148108477292443 0.3057593846019967 0 0.066935962560195753 0.28615893812798288 0 0.071244474661197085 0.3036312559279935 0 0.06358813508901956 0.32234581427363851 0 0.055148108477292443 0.3057593846019967 0 0.071244474661197085 0.3036312559279935 0 0.081254576285268804 0.3210829637434266 0 0.087430381393448858 0.29852998767476718 0 0.1104734498024164 0.31171603628350752 0 0.081254576285268804 0.3210829637434266 0 0.071244474661197085 0.3036312559279935 0 0.087430381393448858 0.29852998767476718 0 0.079567988853459573 0.27014218499250892 0 0.087430381393448858 0.29852998767476718 0 0.1079828451826004 0.27738565586056829 0 0.087430381393448858 0.29852998767476718 0 0.1104734498024164 0.31171603628350752 0 0.1079828451826004 0.27738565586056829 0 0.1104734498024164 0.31171603628350752 0 0.1079828451826004 0.27738565586056829 0 0.13401849175413849 0.29214957311260448 0 0.1079828451826004 0.27738565586056829 0 0.13401849175413849 0.29214957311260448 0 0.1100607559553454 0.25396994184181759 0 0.1079828451826004 0.27738565586056829 0 0.13366986361514199 0.26692500362740812 0 0.12787711237058769 0.24521089126939841 0 0.1100607559553454 0.25396994184181759 0 0.13366986361514199 0.26692500362740812 0 0.092857250133516089 0.24175825718487831 0 0.1100607559553454 0.25396994184181759 0 0.093798877441032588 0.2579700649065903 0 0.1100607559553454 0.25396994184181759 0 0.093798877441032588 0.2579700649065903 0 0.1079828451826004 0.27738565586056829 0 0.079567988853459573 0.27014218499250892 0 0.093798877441032588 0.2579700649065903 0 0.1079828451826004 0.27738565586056829 0 0.13366986361514199 0.26692500362740812 0 0.1558685034792309 0.28595093384994291 0 0.15959452244756481 0.26367036214955358 0 0.14702044576598061 0.2478904659134552 0 0.13366986361514199 0.26692500362740812 0 0.15959452244756481 0.26367036214955358 0 0.14702044576598061 0.2478904659134552 0 0.12787711237058769 0.24521089126939841 0 0.13366986361514199 0.26692500362740812 0 0.1079828451826004 0.27738565586056829 0 0.13366986361514199 0.26692500362740812 0 0.13401849175413849 0.29214957311260448 0 0.1104734498024164 0.31171603628350752 0 0.13401849175413849 0.29214957311260448 0 0.14183880654046921 0.32250528078568202 0 0.13401849175413849 0.29214957311260448 0 0.16005413832567669 0.30691349036464077 0 0.14183880654046921 0.32250528078568202 0 0.13401849175413849 0.29214957311260448 0 0.16005413832567669 0.30691349036464077 0 0.13401849175413849 0.29214957311260448 0 0.1558685034792309 0.28595093384994291 0 0.16005413832567669 0.30691349036464077 0 0.13366986361514199 0.26692500362740812 0 0.13401849175413849 0.29214957311260448 0 0.1558685034792309 0.28595093384994291 0 0.1558685034792309 0.28595093384994291 0 0.1700220001876428 0.28782965529906401 0 0.16005413832567669 0.30691349036464077 0 0.1558685034792309 0.28595093384994291 0 0.1700220001876428 0.28782965529906401 0 0.17370236977615991 0.27502287964280692 0 0.1700220001876428 0.28782965529906401 0 0.16005413832567669 0.30691349036464077 0 0.1764196225356903 0.29880027385689728 0 0.16005413832567669 0.30691349036464077 0 0.1764196225356903 0.29880027385689728 0 0.18686192329242929 0.31378732528256248 0 0.1764196225356903 0.29880027385689728 0 0.18674031124236579 0.30201460306836742 0 0.19086383386244751 0.2907864273273883 0 0.1764196225356903 0.29880027385689728 0 0.18674031124236579 0.30201460306836742 0 0.18686192329242929 0.31378732528256248 0 0.1700220001876428 0.28782965529906401 0 0.18013512871176271 0.28566990799825959 0 0.17370236977615991 0.27502287964280692 0 0.1700220001876428 0.28782965529906401 0 0.1764196225356903 0.29880027385689728 0 0.18013512871176271 0.28566990799825959 0 0.1764196225356903 0.29880027385689728 0 0.18013512871176271 0.28566990799825959 0 0.19086383386244751 0.2907864273273883 0 0.18013512871176271 0.28566990799825959 0 0.1896678171968729 0.27591030386514148 0 0.19086383386244751 0.2907864273273883 0 0.18251379545819379 0.26835647973838378 0 0.17370236977615991 0.27502287964280692 0 0.1896678171968729 0.27591030386514148 0 0.18013512871176271 0.28566990799825959 0 0.17370236977615991 0.27502287964280692 0 0.1896678171968729 0.27591030386514148 0 0.18251379545819379 0.26835647973838378 0 0.17370236977615991 0.27502287964280692 0 0.17699066645021869 0.2595722272450377 0 0.17370236977615991 0.27502287964280692 0 0.15959452244756481 0.26367036214955358 0 0.17699066645021869 0.2595722272450377 0 0.1558685034792309 0.28595093384994291 0 0.17370236977615991 0.27502287964280692 0 0.15959452244756481 0.26367036214955358 0 0.16774616909827719 0.2460930353984315 0 0.15959452244756481 0.26367036214955358 0 0.17699066645021869 0.2595722272450377 0 0.14702044576598061 0.2478904659134552 0 0.16774616909827719 0.2460930353984315 0 0.15959452244756481 0.26367036214955358 0 0.18692125413578081 0.24552837502103991 0 0.16774616909827719 0.2460930353984315 0 0.17699066645021869 0.2595722272450377 0 0.18692125413578081 0.24552837502103991 0 0.17699066645021869 0.2595722272450377 0 0.19242781921148469 0.26384338938458129 0 0.18251379545819379 0.26835647973838378 0 0.17699066645021869 0.2595722272450377 0 0.19242781921148469 0.26384338938458129 0 0.18692125413578081 0.24552837502103991 0 0.19242781921148469 0.26384338938458129 0 0.20107379594449931 0.25686311186437227 0 0.18692125413578081 0.24552837502103991 0 0.20107379594449931 0.25686311186437227 0 0.19242781921148469 0.26384338938458129 0 0.20107379594449931 0.25686311186437227 0 0.2008998280478862 0.26959186196165702 0 0.19242781921148469 0.26384338938458129 0 0.20107379594449931 0.25686311186437227 0 0.19242781921148469 0.26384338938458129 0 0.1896678171968729 0.27591030386514148 0 0.2008998280478862 0.26959186196165702 0 0.18251379545819379 0.26835647973838378 0 0.19242781921148469 0.26384338938458129 0 0.1896678171968729 0.27591030386514148 0 0.1896678171968729 0.27591030386514148 0 0.2008998280478862 0.26959186196165702 0 0.20354188417430641 0.281093168015905 0 0.2008998280478862 0.26959186196165702 0 0.2177878237122676 0.27024933667828532 0 0.20354188417430641 0.281093168015905 0 0.2177878237122676 0.27024933667828532 0 0.20354188417430641 0.281093168015905 0 0.2166033006779626 0.28924568688104418 0 0.21557305570370441 0.24515722135805329 0 0.20107379594449931 0.25686311186437227 0 0.2177878237122676 0.27024933667828532 0 0.20107379594449931 0.25686311186437227 0 0.2177878237122676 0.27024933667828532 0 0.20107379594449931 0.25686311186437227 0 0.2008998280478862 0.26959186196165702 0 0.2177878237122676 0.27024933667828532 0 0.21557305570370441 0.24515722135805329 0 0.20107379594449931 0.25686311186437227 0 0.21557305570370441 0.24515722135805329 0 0.2177878237122676 0.27024933667828532 0 0.23628031136540401 0.25597328662156199 0 0.2177878237122676 0.27024933667828532 0 0.23628031136540401 0.25597328662156199 0 0.23450185148003599 0.28363556149219821 0 0.2177878237122676 0.27024933667828532 0 0.23450185148003599 0.28363556149219821 0 0.2166033006779626 0.28924568688104418 0 0.2177878237122676 0.27024933667828532 0 0.23450185148003599 0.28363556149219821 0 0.23628031136540401 0.25597328662156199 0 0.23450185148003599 0.28363556149219821 0 0.25102838231212438 0.26850893423506528 0 0.23450185148003599 0.28363556149219821 0 0.25953152444998728 0.28294166139542631 0 0.25102838231212438 0.26850893423506528 0 0.23628031136540401 0.25597328662156199 0 0.25102838231212438 0.26850893423506528 0 0.26221447651104962 0.2479993693513689 0 0.2297645605960125 0.30261029929826411 0 0.25121587924780342 0.29702178630611242 0 0.2484846271056145 0.31037308609574782 0 0.2297645605960125 0.30261029929826411 0 0.23798581837376781 0.31938142953188831 0 0.2484846271056145 0.31037308609574782 0 0.2297645605960125 0.30261029929826411 0 0.25121587924780342 0.29702178630611242 0 0.23450185148003599 0.28363556149219821 0 0.2297645605960125 0.30261029929826411 0 0.25121587924780342 0.29702178630611242 0 0.23450185148003599 0.28363556149219821 0 0.25121587924780342 0.29702178630611242 0 0.23450185148003599 0.28363556149219821 0 0.25953152444998728 0.28294166139542631 0 0.25121587924780342 0.29702178630611242 0 0.23450185148003599 0.28363556149219821 0 0.2297645605960125 0.30261029929826411 0 0.2166033006779626 0.28924568688104418 0 0.2297645605960125 0.30261029929826411 0 0.20831324194422091 0.30819881229041318 0 0.2297645605960125 0.30261029929826411 0 0.20831324194422091 0.30819881229041318 0 0.21977364325038071 0.31928170538083578 0 0.20831324194422091 0.30819881229041318 0 0.2166033006779626 0.28924568688104418 0 0.20288664267638859 0.29424953150154581 0 0.2297645605960125 0.30261029929826411 0 0.20831324194422091 0.30819881229041318 0 0.2166033006779626 0.28924568688104418 0 0.20354188417430641 0.281093168015905 0 0.2166033006779626 0.28924568688104418 0 0.20288664267638859 0.29424953150154581 0 0.20354188417430641 0.281093168015905 0 0.20288664267638859 0.29424953150154581 0 0.19086383386244751 0.2907864273273883 0 0.20288664267638859 0.29424953150154581 0 0.19086383386244751 0.2907864273273883 0 0.19511095272300569 0.3019235629929784 0 0.1896678171968729 0.27591030386514148 0 0.20354188417430641 0.281093168015905 0 0.19086383386244751 0.2907864273273883 0 0.20831324194422091 0.30819881229041318 0 0.18686192329242929 0.31378732528256248 0 0.20831324194422091 0.30819881229041318 0 0.19511095272300569 0.3019235629929784 0 0.18686192329242929 0.31378732528256248 0 0.20831324194422091 0.30819881229041318 0 0.20288664267638859 0.29424953150154581 0 0.19511095272300569 0.3019235629929784 0 0.18674031124236579 0.30201460306836742 0 0.19086383386244751 0.2907864273273883 0 0.19511095272300569 0.3019235629929784 0 0.18674031124236579 0.30201460306836742 0 0.19511095272300569 0.3019235629929784 0 0.18686192329242929 0.31378732528256248 0 0.20141288137377081 0.31920030670374799 0 0.18686192329242929 0.31378732528256248 0 0.18608978489721489 0.32167740761667712 0 0.20831324194422091 0.30819881229041318 0 0.20141288137377081 0.31920030670374799 0 0.18686192329242929 0.31378732528256248 0 0.20141288137377081 0.31920030670374799 0 0.21212543146875301 0.33644132486871342 0 0.18608978489721489 0.32167740761667712 0 0.21212543146875301 0.33644132486871342 0 0.18608978489721489 0.32167740761667712 0 0.19231113454718349 0.34165597013868199 0 0.21212543146875301 0.33644132486871342 0 0.18608978489721489 0.32167740761667712 0 0.20831324194422091 0.30819881229041318 0 0.20141288137377081 0.31920030670374799 0 0.21977364325038071 0.31928170538083578 0 0.20141288137377081 0.31920030670374799 0 0.21212543146875301 0.33644132486871342 0 0.21977364325038071 0.31928170538083578 0 0.21977364325038071 0.31928170538083578 0 0.2290399257457596 0.32985805959198788 0 0.23798581837376781 0.31938142953188831 0 0.2297645605960125 0.30261029929826411 0 0.21977364325038071 0.31928170538083578 0 0.23798581837376781 0.31938142953188831 0 0.21212543146875301 0.33644132486871342 0 0.21977364325038071 0.31928170538083578 0 0.2290399257457596 0.32985805959198788 0 0.21212543146875301 0.33644132486871342 0 0.23060518033342339 0.33807106122714048 0 0.2290399257457596 0.32985805959198788 0 0.21212543146875301 0.33644132486871342 0 0.23060518033342339 0.33807106122714048 0 0.23816107804029091 0.35120524212074949 0 0.23060518033342339 0.33807106122714048 0 0.2290399257457596 0.32985805959198788 0 0.2430942860788903 0.33477961832711151 0 0.23060518033342339 0.33807106122714048 0 0.2430942860788903 0.33477961832711151 0 0.23816107804029091 0.35120524212074949 0 0.2484846271056145 0.31037308609574782 0 0.23798581837376781 0.31938142953188831 0 0.25508783524565293 0.32209220201309929 0 0.2430942860788903 0.33477961832711151 0 0.23798581837376781 0.31938142953188831 0 0.25508783524565293 0.32209220201309929 0 0.2290399257457596 0.32985805959198788 0 0.2430942860788903 0.33477961832711151 0 0.23798581837376781 0.31938142953188831 0 0.23439037865920059 0.35560025357312369 0 0.2386764282036242 0.37725286527910618 0 0.24311907173897271 0.36013203008567057 0 0.23439037865920059 0.35560025357312369 0 0.2386764282036242 0.37725286527910618 0 0.2492643002430574 0.365916522193315 0 0.24311907173897271 0.36013203008567057 0 0.2386764282036242 0.37725286527910618 0 0.2492643002430574 0.365916522193315 0 0.2386764282036242 0.37725286527910618 0 0.25383912625151372 0.37755129754335942 0 0.24311907173897271 0.36013203008567057 0 0.23816107804029091 0.35120524212074949 0 0.2641967246118288 0.36596915937278562 0 0.2430942860788903 0.33477961832711151 0 0.23816107804029091 0.35120524212074949 0 0.26173146881309822 0.35734024057335978 0 0.24311907173897271 0.36013203008567057 0 0.23816107804029091 0.35120524212074949 0 0.23439037865920059 0.35560025357312369 0 0.21212543146875301 0.33644132486871342 0 0.23816107804029091 0.35120524212074949 0 0.21848510057545151 0.35453686872473111 0 0.23816107804029091 0.35120524212074949 0 0.23439037865920059 0.35560025357312369 0 0.21848510057545151 0.35453686872473111 0 0.21212543146875301 0.33644132486871342 0 0.23816107804029091 0.35120524212074949 0 0.23439037865920059 0.35560025357312369 0 0.22513916990612379 0.36868200325308897 0 0.2386764282036242 0.37725286527910618 0 0.23439037865920059 0.35560025357312369 0 0.22513916990612379 0.36868200325308897 0 0.21848510057545151 0.35453686872473111 0 0.22513916990612379 0.36868200325308897 0 0.20931495008602691 0.36890180222237801 0 0.21961872799640589 0.38146559318592133 0 0.22513916990612379 0.36868200325308897 0 0.20931495008602691 0.36890180222237801 0 0.21848510057545151 0.35453686872473111 0 0.20931495008602691 0.36890180222237801 0 0.21848510057545151 0.35453686872473111 0 0.2018014651714847 0.35413555731190122 0 0.21212543146875301 0.33644132486871342 0 0.21848510057545151 0.35453686872473111 0 0.2018014651714847 0.35413555731190122 0 0.19231113454718349 0.34165597013868199 0 0.2018014651714847 0.35413555731190122 0 0.1832131523033072 0.3569188224833833 0 0.19231113454718349 0.34165597013868199 0 0.21212543146875301 0.33644132486871342 0 0.2018014651714847 0.35413555731190122 0 0.20931495008602691 0.36890180222237801 0 0.2018014651714847 0.35413555731190122 0 0.19217836357317111 0.36996972767433872 0 0.20931495008602691 0.36890180222237801 0 0.19217836357317111 0.36996972767433872 0 0.20289108470775991 0.38370682355227331 0 0.2018014651714847 0.35413555731190122 0 0.19217836357317111 0.36996972767433872 0 0.1832131523033072 0.3569188224833833 0 0.19217836357317111 0.36996972767433872 0 0.17197644233242751 0.37002706837148541 0 0.1832131523033072 0.3569188224833833 0 0.17197644233242751 0.37002706837148541 0 0.16866852787741549 0.35230522619665788 0 0.1832131523033072 0.3569188224833833 0 0.17197644233242751 0.37002706837148541 0 0.16866852787741549 0.35230522619665788 0 0.15186920095361911 0.35620033980905319 0 0.17197644233242751 0.37002706837148541 0 0.15186920095361911 0.35620033980905319 0 0.15185568245476189 0.37707061606136422 0 0.16866852787741549 0.35230522619665788 0 0.1579580049025659 0.33927316190663209 0 0.15186920095361911 0.35620033980905319 0 0.16866852787741549 0.35230522619665788 0 0.1832131523033072 0.3569188224833833 0 0.17832583889515771 0.33910673841273542 0 0.19231113454718349 0.34165597013868199 0 0.1832131523033072 0.3569188224833833 0 0.17832583889515771 0.33910673841273542 0 0.17832583889515771 0.33910673841273542 0 0.18608978489721489 0.32167740761667712 0 0.16647560889869609 0.32578562508456149 0 0.19231113454718349 0.34165597013868199 0 0.17832583889515771 0.33910673841273542 0 0.18608978489721489 0.32167740761667712 0 0.16005413832567669 0.30691349036464077 0 0.18608978489721489 0.32167740761667712 0 0.16005413832567669 0.30691349036464077 0 0.18686192329242929 0.31378732528256248 0 0.18608978489721489 0.32167740761667712 0 0.16005413832567669 0.30691349036464077 0 0.18608978489721489 0.32167740761667712 0 0.16647560889869609 0.32578562508456149 0 0.17832583889515771 0.33910673841273542 0 0.16647560889869609 0.32578562508456149 0 0.1579580049025659 0.33927316190663209 0 0.16866852787741549 0.35230522619665788 0 0.17832583889515771 0.33910673841273542 0 0.1579580049025659 0.33927316190663209 0 0.16647560889869609 0.32578562508456149 0 0.1579580049025659 0.33927316190663209 0 0.14183880654046921 0.32250528078568202 0 0.1579580049025659 0.33927316190663209 0 0.14183880654046921 0.32250528078568202 0 0.14054269679001921 0.34363296691054102 0 0.16005413832567669 0.30691349036464077 0 0.16647560889869609 0.32578562508456149 0 0.14183880654046921 0.32250528078568202 0 0.1202868522871179 0.34060046584014031 0 0.14183880654046921 0.32250528078568202 0 0.14054269679001921 0.34363296691054102 0 0.1202868522871179 0.34060046584014031 0 0.14054269679001921 0.34363296691054102 0 0.13274728415341139 0.36410634055334368 0 0.13274728415341139 0.36410634055334368 0 0.15186920095361911 0.35620033980905319 0 0.15185568245476189 0.37707061606136422 0 0.14054269679001921 0.34363296691054102 0 0.13274728415341139 0.36410634055334368 0 0.15186920095361911 0.35620033980905319 0 0.1579580049025659 0.33927316190663209 0 0.14054269679001921 0.34363296691054102 0 0.15186920095361911 0.35620033980905319 0 0.15352992747694119 0.40026604784697911 0 0.13692284990477191 0.38930777957628943 0 0.1397509022148696 0.40843688002483958 0 0.15352992747694119 0.40026604784697911 0 0.15185568245476189 0.37707061606136422 0 0.13692284990477191 0.38930777957628943 0 0.13274728415341139 0.36410634055334368 0 0.15185568245476189 0.37707061606136422 0 0.13692284990477191 0.38930777957628943 0 0.119448870245615 0.38256434187866972 0 0.13274728415341139 0.36410634055334368 0 0.13692284990477191 0.38930777957628943 0 0.115428724103706 0.40267530492779557 0 0.13692284990477191 0.38930777957628943 0 0.1397509022148696 0.40843688002483958 0 0.12259086230274099 0.42947812748907283 0 0.1397509022148696 0.40843688002483958 0 0.14363603346764281 0.42707530835579988 0 0.12259086230274099 0.42947812748907283 0 0.115428724103706 0.40267530492779557 0 0.1397509022148696 0.40843688002483958 0 0.12259086230274099 0.42947812748907283 0 0.14363603346764281 0.42707530835579988 0 0.13510526379757609 0.44116740875256688 0 0.14363603346764281 0.42707530835579988 0 0.16526304614212209 0.42908608809292892 0 0.1507341445198021 0.44370602134863157 0 0.14363603346764281 0.42707530835579988 0 0.15527295380072001 0.4153931176925994 0 0.16526304614212209 0.42908608809292892 0 0.14363603346764281 0.42707530835579988 0 0.1507341445198021 0.44370602134863157 0 0.13510526379757609 0.44116740875256688 0 0.1397509022148696 0.40843688002483958 0 0.14363603346764281 0.42707530835579988 0 0.15527295380072001 0.4153931176925994 0 0.15352992747694119 0.40026604784697911 0 0.1397509022148696 0.40843688002483958 0 0.15527295380072001 0.4153931176925994 0 0.15527295380072001 0.4153931176925994 0 0.1711416470664554 0.41062619466687539 0 0.16526304614212209 0.42908608809292892 0 0.15352992747694119 0.40026604784697911 0 0.15527295380072001 0.4153931176925994 0 0.1711416470664554 0.41062619466687539 0 0.16526304614212209 0.42908608809292892 0 0.1809560021812836 0.43814832633623357 0 0.16598328874466911 0.44273574664910909 0 0.16526304614212209 0.42908608809292892 0 0.18469425222239219 0.42125941149134333 0 0.1809560021812836 0.43814832633623357 0 0.1711416470664554 0.41062619466687539 0 0.16526304614212209 0.42908608809292892 0 0.18469425222239219 0.42125941149134333 0 0.1711416470664554 0.41062619466687539 0 0.18469425222239219 0.42125941149134333 0 0.1843100454414533 0.40126956181167389 0 0.1711416470664554 0.41062619466687539 0 0.1843100454414533 0.40126956181167389 0 0.16952276405911931 0.3912061138884545 0 0.1843100454414533 0.40126956181167389 0 0.16952276405911931 0.3912061138884545 0 0.18589276442329861 0.38606835492789338 0 0.15352992747694119 0.40026604784697911 0 0.1711416470664554 0.41062619466687539 0 0.16952276405911931 0.3912061138884545 0 0.15352992747694119 0.40026604784697911 0 0.15185568245476189 0.37707061606136422 0 0.16952276405911931 0.3912061138884545 0 0.17197644233242751 0.37002706837148541 0 0.15185568245476189 0.37707061606136422 0 0.16952276405911931 0.3912061138884545 0 0.17197644233242751 0.37002706837148541 0 0.16952276405911931 0.3912061138884545 0 0.18589276442329861 0.38606835492789338 0 0.19217836357317111 0.36996972767433872 0 0.17197644233242751 0.37002706837148541 0 0.18589276442329861 0.38606835492789338 0 0.18589276442329861 0.38606835492789338 0 0.20289108470775991 0.38370682355227331 0 0.19700705340585539 0.39579078134538831 0 0.19217836357317111 0.36996972767433872 0 0.18589276442329861 0.38606835492789338 0 0.20289108470775991 0.38370682355227331 0 0.19700705340585539 0.39579078134538831 0 0.21316338490038089 0.39704202397260657 0 0.19877798755638451 0.41086714246249401 0 0.1843100454414533 0.40126956181167389 0 0.19700705340585539 0.39579078134538831 0 0.19877798755638451 0.41086714246249401 0 0.1843100454414533 0.40126956181167389 0 0.18589276442329861 0.38606835492789338 0 0.19700705340585539 0.39579078134538831 0 0.20289108470775991 0.38370682355227331 0 0.19700705340585539 0.39579078134538831 0 0.21316338490038089 0.39704202397260657 0 0.20931495008602691 0.36890180222237801 0 0.20289108470775991 0.38370682355227331 0 0.21961872799640589 0.38146559318592133 0 0.20289108470775991 0.38370682355227331 0 0.21316338490038089 0.39704202397260657 0 0.21961872799640589 0.38146559318592133 0 0.22513916990612379 0.36868200325308897 0 0.21961872799640589 0.38146559318592133 0 0.2386764282036242 0.37725286527910618 0 0.21961872799640589 0.38146559318592133 0 0.22852735017452019 0.39320804083607441 0 0.2386764282036242 0.37725286527910618 0 0.21316338490038089 0.39704202397260657 0 0.21961872799640589 0.38146559318592133 0 0.22852735017452019 0.39320804083607441 0 0.21316338490038089 0.39704202397260657 0 0.22852735017452019 0.39320804083607441 0 0.22983145469658259 0.40925978250573319 0 0.21316338490038089 0.39704202397260657 0 0.22983145469658259 0.40925978250573319 0 0.22852735017452019 0.39320804083607441 0 0.2429624777480478 0.39890547698508871 0 0.22983145469658259 0.40925978250573319 0 0.2429624777480478 0.39890547698508871 0 0.2386764282036242 0.37725286527910618 0 0.22852735017452019 0.39320804083607441 0 0.2429624777480478 0.39890547698508871 0 0.2386764282036242 0.37725286527910618 0 0.2429624777480478 0.39890547698508871 0 0.2386764282036242 0.37725286527910618 0 0.25341304662754638 0.38974012394171498 0 0.2386764282036242 0.37725286527910618 0 0.25383912625151372 0.37755129754335942 0 0.25341304662754638 0.38974012394171498 0 0.24649952449278431 0.42147754103885982 0 0.22996656543308741 0.44177288309861867 0 0.24946733303660301 0.43176723098649622 0 0.24649952449278431 0.42147754103885982 0 0.22996656543308741 0.44177288309861867 0 0.24649952449278431 0.42147754103885982 0 0.22738899126970491 0.42458926785457718 0 0.22996656543308741 0.44177288309861867 0 0.24946733303660301 0.43176723098649622 0 0.24649952449278431 0.42147754103885982 0 0.2429624777480478 0.39890547698508871 0 0.24649952449278431 0.42147754103885982 0 0.24649952449278431 0.42147754103885982 0 0.22983145469658259 0.40925978250573319 0 0.22738899126970491 0.42458926785457718 0 0.24649952449278431 0.42147754103885982 0 0.22983145469658259 0.40925978250573319 0 0.2429624777480478 0.39890547698508871 0 0.24649952449278431 0.42147754103885982 0 0.22983145469658259 0.40925978250573319 0 0.21316338490038089 0.39704202397260657 0 0.22983145469658259 0.40925978250573319 0 0.21370806227123909 0.41789950377956148 0 0.22983145469658259 0.40925978250573319 0 0.22738899126970491 0.42458926785457718 0 0.21370806227123909 0.41789950377956148 0 0.22738899126970491 0.42458926785457718 0 0.21739304288862979 0.43200563017257382 0 0.22996656543308741 0.44177288309861867 0 0.22738899126970491 0.42458926785457718 0 0.21739304288862979 0.43200563017257382 0 0.21370806227123909 0.41789950377956148 0 0.21739304288862979 0.43200563017257382 0 0.1999317510848099 0.43097584272053618 0 0.2111195299095035 0.44359306409302351 0 0.21739304288862979 0.43200563017257382 0 0.21370806227123909 0.41789950377956148 0 0.1999317510848099 0.43097584272053618 0 0.21370806227123909 0.41789950377956148 0 0.19877798755638451 0.41086714246249401 0 0.1999317510848099 0.43097584272053618 0 0.21316338490038089 0.39704202397260657 0 0.21370806227123909 0.41789950377956148 0 0.19877798755638451 0.41086714246249401 0 0.18469425222239219 0.42125941149134333 0 0.19877798755638451 0.41086714246249401 0 0.1999317510848099 0.43097584272053618 0 0.18469425222239219 0.42125941149134333 0 0.1843100454414533 0.40126956181167389 0 0.19877798755638451 0.41086714246249401 0 0.18469425222239219 0.42125941149134333 0 0.1999317510848099 0.43097584272053618 0 0.1809560021812836 0.43814832633623357 0 0.1999317510848099 0.43097584272053618 0 0.19479511809318301 0.4526549487178691 0 0.2111195299095035 0.44359306409302351 0 0.1999317510848099 0.43097584272053618 0 0.19479511809318301 0.4526549487178691 0 0.1809560021812836 0.43814832633623357 0 0.19479511809318301 0.4526549487178691 0 0.213169792932182 0.46047172596691099 0 0.19211155850092579 0.47790980627879082 0 0.19479511809318301 0.4526549487178691 0 0.19211155850092579 0.47790980627879082 0 0.18348770279874721 0.46143911161818069 0 0.213169792932182 0.46047172596691099 0 0.2111195299095035 0.44359306409302351 0 0.22996656543308741 0.44177288309861867 0 0.19479511809318301 0.4526549487178691 0 0.213169792932182 0.46047172596691099 0 0.2111195299095035 0.44359306409302351 0 0.21739304288862979 0.43200563017257382 0 0.2111195299095035 0.44359306409302351 0 0.22996656543308741 0.44177288309861867 0 0.22996656543308741 0.44177288309861867 0 0.22854105436186559 0.46372788353366717 0 0.24141841662185301 0.45603819576859073 0 0.213169792932182 0.46047172596691099 0 0.22854105436186559 0.46372788353366717 0 0.221321310837439 0.47674074212904899 0 0.213169792932182 0.46047172596691099 0 0.22996656543308741 0.44177288309861867 0 0.22854105436186559 0.46372788353366717 0 0.24141841662185301 0.45603819576859073 0 0.23645949407781469 0.47608243786178739 0 0.25047151807745072 0.47036873115219768 0 0.22854105436186559 0.46372788353366717 0 0.24141841662185301 0.45603819576859073 0 0.23645949407781469 0.47608243786178739 0 0.24141841662185301 0.45603819576859073 0 0.25047151807745072 0.47036873115219768 0 0.25477099823403621 0.45804476415031298 0 0.24141841662185301 0.45603819576859073 0 0.25282491994113748 0.44831200937164878 0 0.25477099823403621 0.45804476415031298 0 0.22996656543308741 0.44177288309861867 0 0.24141841662185301 0.45603819576859073 0 0.24583280085865111 0.44361242472787987 0 0.24946733303660301 0.43176723098649622 0 0.22996656543308741 0.44177288309861867 0 0.24583280085865111 0.44361242472787987 0 0.24141841662185301 0.45603819576859073 0 0.24583280085865111 0.44361242472787987 0 0.25282491994113748 0.44831200937164878 0 0.24904418528453851 0.48634810883828161 0 0.23645949407781469 0.47608243786178739 0 0.23352830384551029 0.49999999999999978 0 0.24904418528453851 0.48634810883828161 0 0.23352830384551029 0.49999999999999978 0 0.25181722630913472 0.5 0 0.24904418528453851 0.48634810883828161 0 0.23645949407781469 0.47608243786178739 0 0.25047151807745072 0.47036873115219768 0 0.23645949407781469 0.47608243786178739 0 0.221321310837439 0.47674074212904899 0 0.23352830384551029 0.49999999999999978 0 0.22854105436186559 0.46372788353366717 0 0.23645949407781469 0.47608243786178739 0 0.221321310837439 0.47674074212904899 0 0.23352830384551029 0.49999999999999978 0 0.2128199311732181 0.48895490313939532 0 0.21702906166474581 0.5 0 0.23352830384551029 0.49999999999999978 0 0.2128199311732181 0.48895490313939532 0 0.221321310837439 0.47674074212904899 0 0.23352830384551029 0.49999999999999978 0 0.2128199311732181 0.48895490313939532 0 0.2128199311732181 0.48895490313939532 0 0.21702906166474581 0.5 0 0.20052981948398141 0.49999999999999989 0 0.213169792932182 0.46047172596691099 0 0.221321310837439 0.47674074212904899 0 0.19211155850092579 0.47790980627879082 0 0.221321310837439 0.47674074212904899 0 0.2128199311732181 0.48895490313939532 0 0.19211155850092579 0.47790980627879082 0 0.2128199311732181 0.48895490313939532 0 0.19211155850092579 0.47790980627879082 0 0.2128199311732181 0.48895490313939532 0 0.20052981948398141 0.49999999999999989 0 0.19295831529489699 0.4905304616351287 0 0.2128199311732181 0.48895490313939532 0 0.19211155850092579 0.47790980627879082 0 0.19295831529489699 0.4905304616351287 0 0.20052981948398141 0.49999999999999989 0 0.1839227339461352 0.49861489743603538 0 0.20052981948398141 0.49999999999999989 0 0.19295831529489699 0.4905304616351287 0 0.1839227339461352 0.49861489743603538 0 0.19211155850092579 0.47790980627879082 0 0.19295831529489699 0.4905304616351287 0 0.1809625144841838 0.48570342190566712 0 0.1839227339461352 0.49861489743603538 0 0.1809625144841838 0.48570342190566712 0 0.16731564840828889 0.49722979487207219 0 0.1839227339461352 0.49861489743603538 0 0.16731564840828889 0.49722979487207219 0 0.1839227339461352 0.49861489743603538 0 0.1669427425872391 0.49999999999999922 0 0.16731564840828889 0.49722979487207219 0 0.19295831529489699 0.4905304616351287 0 0.1839227339461352 0.49861489743603538 0 0.1809625144841838 0.48570342190566712 0 0.1809625144841838 0.48570342190566712 0 0.16731564840828889 0.49722979487207219 0 0.16935941711846161 0.48204725214512889 0 0.16731564840828889 0.49722979487207219 0 0.157708884996551 0.48584061526662409 0 0.14611751268168829 0.49546177892012921 0 0.16731564840828889 0.49722979487207219 0 0.14611751268168829 0.49546177892012921 0 0.1669427425872391 0.49999999999999922 0 0.16731564840828889 0.49722979487207219 0 0.14611751268168829 0.49546177892012921 0 0.1669427425872391 0.49999999999999922 0 0.16731564840828889 0.49722979487207219 0 0.16731564840828889 0.49722979487207219 0 0.16935941711846161 0.48204725214512889 0 0.16731564840828889 0.49722979487207219 0 0.157708884996551 0.48584061526662409 0 0.16935941711846161 0.48204725214512889 0 0.16382575626869561 0.4735735187060508 0 0.15802571703479451 0.46684670821381258 0 0.1531189490294651 0.47544631339495541 0 0.157708884996551 0.48584061526662409 0 0.16382575626869561 0.4735735187060508 0 0.1531189490294651 0.47544631339495541 0 0.157708884996551 0.48584061526662409 0 0.16382575626869561 0.4735735187060508 0 0.16935941711846161 0.48204725214512889 0 0.16935941711846161 0.48204725214512889 0 0.17140318582863401 0.46686470941818559 0 0.16382575626869561 0.4735735187060508 0 0.16935941711846161 0.48204725214512889 0 0.17140318582863401 0.46686470941818559 0 0.1809625144841838 0.48570342190566712 0 0.16935941711846161 0.48204725214512889 0 0.17140318582863401 0.46686470941818559 0 0.19211155850092579 0.47790980627879082 0 0.1809625144841838 0.48570342190566712 0 0.17140318582863401 0.46686470941818559 0 0.19211155850092579 0.47790980627879082 0 0.17140318582863401 0.46686470941818559 0 0.19479511809318301 0.4526549487178691 0 0.18348770279874721 0.46143911161818069 0 0.17341546959919829 0.45191605883299152 0 0.19211155850092579 0.47790980627879082 0 0.18348770279874721 0.46143911161818069 0 0.17140318582863401 0.46686470941818559 0 0.18348770279874721 0.46143911161818069 0 0.17341546959919829 0.45191605883299152 0 0.17140318582863401 0.46686470941818559 0 0.17341546959919829 0.45191605883299152 0 0.17140318582863401 0.46686470941818559 0 0.19479511809318301 0.4526549487178691 0 0.1809560021812836 0.43814832633623357 0 0.17341546959919829 0.45191605883299152 0 0.1809560021812836 0.43814832633623357 0 0.17341546959919829 0.45191605883299152 0 0.16598328874466911 0.44273574664910909 0 0.17341546959919829 0.45191605883299152 0 0.16598328874466911 0.44273574664910909 0 0.15954778128093949 0.4508222386347599 0 0.16598328874466911 0.44273574664910909 0 0.15954778128093949 0.4508222386347599 0 0.1507341445198021 0.44370602134863157 0 0.16526304614212209 0.42908608809292892 0 0.16598328874466911 0.44273574664910909 0 0.1507341445198021 0.44370602134863157 0 0.16382575626869561 0.4735735187060508 0 0.1651762257979181 0.46354347419730452 0 0.17140318582863401 0.46686470941818559 0 0.1651762257979181 0.46354347419730452 0 0.17140318582863401 0.46686470941818559 0 0.17341546959919829 0.45191605883299152 0 0.1651762257979181 0.46354347419730452 0 0.17140318582863401 0.46686470941818559 0 0.17341546959919829 0.45191605883299152 0 0.15954778128093949 0.4508222386347599 0 0.1651762257979181 0.46354347419730452 0 0.15954778128093949 0.4508222386347599 0 0.1651762257979181 0.46354347419730452 0 0.1582471669695637 0.45974252444074731 0 0.16382575626869561 0.4735735187060508 0 0.1651762257979181 0.46354347419730452 0 0.15802571703479451 0.46684670821381258 0 0.1651762257979181 0.46354347419730452 0 0.1582471669695637 0.45974252444074731 0 0.15802571703479451 0.46684670821381258 0 0.14976048710833001 0.46192771033000529 0 0.1507341445198021 0.44370602134863157 0 0.136404492151351 0.45486193181106682 0 0.1582471669695637 0.45974252444074731 0 0.15802571703479451 0.46684670821381258 0 0.14976048710833001 0.46192771033000529 0 0.15802571703479451 0.46684670821381258 0 0.14976048710833001 0.46192771033000529 0 0.1531189490294651 0.47544631339495541 0 0.15954778128093949 0.4508222386347599 0 0.1582471669695637 0.45974252444074731 0 0.14976048710833001 0.46192771033000529 0 0.14976048710833001 0.46192771033000529 0 0.136404492151351 0.45486193181106682 0 0.13663143795624749 0.46910754811773492 0 0.15954778128093949 0.4508222386347599 0 0.14976048710833001 0.46192771033000529 0 0.1507341445198021 0.44370602134863157 0 0.1507341445198021 0.44370602134863157 0 0.13510526379757609 0.44116740875256688 0 0.136404492151351 0.45486193181106682 0 0.1221607865463437 0.4507156547582637 0 0.12259086230274099 0.42947812748907283 0 0.13510526379757609 0.44116740875256688 0 0.1221607865463437 0.4507156547582637 0 0.13510526379757609 0.44116740875256688 0 0.136404492151351 0.45486193181106682 0 0.136404492151351 0.45486193181106682 0 0.1267882431275838 0.46370707134437261 0 0.13663143795624749 0.46910754811773492 0 0.1221607865463437 0.4507156547582637 0 0.136404492151351 0.45486193181106682 0 0.1267882431275838 0.46370707134437261 0 0.1267882431275838 0.46370707134437261 0 0.12569724768963239 0.47617993877849962 0 0.13663143795624749 0.46910754811773492 0 0.12569724768963239 0.47617993877849962 0 0.13663143795624749 0.46910754811773492 0 0.1364132019148096 0.48384982340983701 0 0.13663143795624749 0.46910754811773492 0 0.1364132019148096 0.48384982340983701 0 0.14361111091913481 0.47574478002545789 0 0.1249193769550877 0.49369376296818718 0 0.1364132019148096 0.48384982340983701 0 0.14611751268168829 0.49546177892012921 0 0.1249193769550877 0.49369376296818718 0 0.14611751268168829 0.49546177892012921 0 0.1249193769550877 0.49369376296818718 0 0.12569724768963239 0.47617993877849962 0 0.1364132019148096 0.48384982340983701 0 0.1249193769550877 0.49369376296818718 0 0.13738437864054501 0.5 0 0.14611751268168829 0.49546177892012921 0 0.1364132019148096 0.48384982340983701 0 0.14611751268168829 0.49546177892012921 0 0.14718343377546941 0.48347361591025501 0 0.1669427425872391 0.49999999999999922 0 0.13738437864054501 0.5 0 0.14611751268168829 0.49546177892012921 0 0.157708884996551 0.48584061526662409 0 0.14611751268168829 0.49546177892012921 0 0.14718343377546941 0.48347361591025501 0 0.157708884996551 0.48584061526662409 0 0.1531189490294651 0.47544631339495541 0 0.14718343377546941 0.48347361591025501 0 0.14976048710833001 0.46192771033000529 0 0.1531189490294651 0.47544631339495541 0 0.14361111091913481 0.47574478002545789 0 0.14976048710833001 0.46192771033000529 0 0.13663143795624749 0.46910754811773492 0 0.14361111091913481 0.47574478002545789 0 0.1364132019148096 0.48384982340983701 0 0.14361111091913481 0.47574478002545789 0 0.14718343377546941 0.48347361591025501 0 0.1531189490294651 0.47544631339495541 0 0.14361111091913481 0.47574478002545789 0 0.14718343377546941 0.48347361591025501 0 0.35832214194920592 0.47929915408112939 0 0.34611268429232461 0.46591887339206078 0 0.3375369348076922 0.4829399206954248 0 0.35832214194920592 0.47929915408112939 0 0.35850557312216419 0.5 0 0.3375369348076922 0.4829399206954248 0 0.35850557312216419 0.5 0 0.37801407526051067 0.48065415083330842 0 0.38797204790529932 0.5 0 0.35832214194920592 0.47929915408112939 0 0.35850557312216419 0.5 0 0.37801407526051067 0.48065415083330842 0 0.35832214194920592 0.47929915408112939 0 0.36980735363827261 0.46050290225189661 0 0.37801407526051067 0.48065415083330842 0 0.36980735363827261 0.46050290225189661 0 0.34502769605759259 0.44546544446971242 0 0.36959298495063608 0.43610817863788948 0 0.35832214194920592 0.47929915408112939 0 0.36980735363827261 0.46050290225189661 0 0.34611268429232461 0.46591887339206078 0 0.36980735363827261 0.46050290225189661 0 0.34502769605759259 0.44546544446971242 0 0.34611268429232461 0.46591887339206078 0 0.36980735363827261 0.46050290225189661 0 0.34611268429232461 0.46591887339206078 0 0.34611268429232461 0.46591887339206078 0 0.3317687487832644 0.45597005559148451 0 0.32241801494637662 0.47133484453222518 0 0.34502769605759259 0.44546544446971242 0 0.34611268429232461 0.46591887339206078 0 0.3317687487832644 0.45597005559148451 0 0.34611268429232461 0.46591887339206078 0 0.32241801494637662 0.47133484453222518 0 0.34502769605759259 0.44546544446971242 0 0.3317687487832644 0.45597005559148451 0 0.32480939915707069 0.44218818576869201 0 0.34502769605759259 0.44546544446971242 0 0.32480939915707069 0.44218818576869201 0 0.33523501366627878 0.43221560569608392 0 0.3107318966111981 0.4514989769174147 0 0.3227404476219688 0.42624713816244092 0 0.3317687487832644 0.45597005559148451 0 0.32480939915707069 0.44218818576869201 0 0.3107318966111981 0.4514989769174147 0 0.32480939915707069 0.44218818576869201 0 0.3107318966111981 0.4514989769174147 0 0.3227404476219688 0.42624713816244092 0 0.3317687487832644 0.45597005559148451 0 0.32241801494637662 0.47133484453222518 0 0.3107318966111981 0.4514989769174147 0 0.32241801494637662 0.47133484453222518 0 0.3375369348076922 0.4829399206954248 0 0.31372501333874958 0.48784291822244708 0 0.34611268429232461 0.46591887339206078 0 0.32241801494637662 0.47133484453222518 0 0.3375369348076922 0.4829399206954248 0 0.35850557312216419 0.5 0 0.3375369348076922 0.4829399206954248 0 0.32903909833902928 0.5 0 0.32903909833902928 0.5 0 0.31372501333874958 0.48784291822244708 0 0.29957262355589431 0.5 0 0.3375369348076922 0.4829399206954248 0 0.32903909833902928 0.5 0 0.31372501333874958 0.48784291822244708 0 0.31372501333874958 0.48784291822244708 0 0.30130976803097798 0.48891801032572652 0 0.29957262355589431 0.5 0 0.31372501333874958 0.48784291822244708 0 0.30130976803097798 0.48891801032572652 0 0.29872334560042851 0.47675081567238892 0 0.30130976803097798 0.48891801032572652 0 0.29957262355589431 0.5 0 0.28978827390519868 0.49553967616935518 0 0.32241801494637662 0.47133484453222518 0 0.29872334560042851 0.47675081567238892 0 0.32241801494637662 0.47133484453222518 0 0.31372501333874958 0.48784291822244708 0 0.29872334560042851 0.47675081567238892 0 0.29872334560042851 0.47675081567238892 0 0.28397488520641462 0.48012192141307769 0 0.28978827390519868 0.49553967616935518 0 0.29872334560042851 0.47675081567238892 0 0.28929399795500932 0.47058792179259418 0 0.29703527816799058 0.46117092995693892 0 0.29872334560042851 0.47675081567238892 0 0.28929399795500932 0.47058792179259418 0 0.28397488520641462 0.48012192141307769 0 0.29872334560042851 0.47675081567238892 0 0.28397488520641462 0.48012192141307769 0 0.28929399795500932 0.47058792179259418 0 0.28397488520641462 0.48012192141307769 0 0.27920072977811172 0.47805830749059319 0 0.28397488520641462 0.48012192141307769 0 0.28978827390519868 0.49553967616935518 0 0.27010614877275918 0.50000000000000067 0 0.29957262355589431 0.5 0 0.28978827390519868 0.49553967616935518 0 0.27010614877275918 0.50000000000000067 0 0.30130976803097798 0.48891801032572652 0 0.29872334560042851 0.47675081567238892 0 0.28978827390519868 0.49553967616935518 0 0.29872334560042851 0.47675081567238892 0 0.28978827390519868 0.49553967616935518 0 0.28397488520641462 0.48012192141307769 0 0.27010614877275918 0.50000000000000067 0 0.27920072977811172 0.47805830749059319 0 0.27010614877275918 0.50000000000000067 0 0.26909437115437917 0.48384867389528768 0 0.26130641782501518 0.49139676135406141 0 0.27010614877275918 0.50000000000000067 0 0.27920072977811172 0.47805830749059319 0 0.26909437115437917 0.48384867389528768 0 0.27010614877275918 0.50000000000000067 0 0.27920072977811172 0.47805830749059319 0 0.27920072977811172 0.47805830749059319 0 0.27306774476234302 0.47644699960251641 0 0.26909437115437917 0.48384867389528768 0 0.27920072977811172 0.47805830749059319 0 0.27306774476234302 0.47644699960251641 0 0.27643472525740193 0.46726539210963169 0 0.26824582816420722 0.47348896141386071 0 0.27306774476234302 0.47644699960251641 0 0.27643472525740193 0.46726539210963169 0 0.26824582816420722 0.47348896141386071 0 0.26909437115437917 0.48384867389528768 0 0.25993240985832161 0.47939275616227872 0 0.26824582816420722 0.47348896141386071 0 0.27306774476234302 0.47644699960251641 0 0.26909437115437917 0.48384867389528768 0 0.24904418528453851 0.48634810883828161 0 0.25993240985832161 0.47939275616227872 0 0.25047151807745072 0.47036873115219768 0 0.26824582816420722 0.47348896141386071 0 0.25993240985832161 0.47939275616227872 0 0.26165523792153211 0.46576309323832682 0 0.25993240985832161 0.47939275616227872 0 0.25047151807745072 0.47036873115219768 0 0.26165523792153211 0.46576309323832682 0 0.27010614877275918 0.50000000000000067 0 0.25181722630913472 0.5 0 0.26130641782501518 0.49139676135406141 0 0.24904418528453851 0.48634810883828161 0 0.25993240985832161 0.47939275616227872 0 0.26130641782501518 0.49139676135406141 0 0.24904418528453851 0.48634810883828161 0 0.25181722630913472 0.5 0 0.26130641782501518 0.49139676135406141 0 0.26909437115437917 0.48384867389528768 0 0.25993240985832161 0.47939275616227872 0 0.26130641782501518 0.49139676135406141 0 0.26490489917960358 0.45079530358348557 0 0.25548676926057468 0.44017180441404491 0 0.26331147225899149 0.43380076267102891 0 0.24946733303660301 0.43176723098649622 0 0.24583280085865111 0.44361242472787987 0 0.25548676926057468 0.44017180441404491 0 0.24583280085865111 0.44361242472787987 0 0.25548676926057468 0.44017180441404491 0 0.25282491994113748 0.44831200937164878 0 0.26490489917960358 0.45079530358348557 0 0.25548676926057468 0.44017180441404491 0 0.25282491994113748 0.44831200937164878 0 0.26490489917960358 0.45079530358348557 0 0.25282491994113748 0.44831200937164878 0 0.25477099823403621 0.45804476415031298 0 0.25047151807745072 0.47036873115219768 0 0.25477099823403621 0.45804476415031298 0 0.26165523792153211 0.46576309323832682 0 0.26490489917960358 0.45079530358348557 0 0.25477099823403621 0.45804476415031298 0 0.26165523792153211 0.46576309323832682 0 0.26490489917960358 0.45079530358348557 0 0.27160577401557351 0.46248804296782559 0 0.27679169795675967 0.45600994403837303 0 0.26490489917960358 0.45079530358348557 0 0.26165523792153211 0.46576309323832682 0 0.27160577401557351 0.46248804296782559 0 0.26824582816420722 0.47348896141386071 0 0.27160577401557351 0.46248804296782559 0 0.27643472525740193 0.46726539210963169 0 0.26824582816420722 0.47348896141386071 0 0.26165523792153211 0.46576309323832682 0 0.27160577401557351 0.46248804296782559 0 0.27160577401557351 0.46248804296782559 0 0.27643472525740193 0.46726539210963169 0 0.27679169795675967 0.45600994403837303 0 0.27643472525740193 0.46726539210963169 0 0.27679169795675967 0.45600994403837303 0 0.28829531078346382 0.45611661498118572 0 0.27903440424894049 0.4453257315987294 0 0.26331147225899149 0.43380076267102891 0 0.26490489917960358 0.45079530358348557 0 0.27903440424894049 0.4453257315987294 0 0.26331147225899149 0.43380076267102891 0 0.26490489917960358 0.45079530358348557 0 0.27679169795675967 0.45600994403837303 0 0.27903440424894049 0.4453257315987294 0 0.27903440424894049 0.4453257315987294 0 0.2917470315179379 0.44281751567604499 0 0.28179675760275558 0.42932557237874241 0 0.27679169795675967 0.45600994403837303 0 0.27903440424894049 0.4453257315987294 0 0.28829531078346382 0.45611661498118572 0 0.27903440424894049 0.4453257315987294 0 0.2917470315179379 0.44281751567604499 0 0.28829531078346382 0.45611661498118572 0 0.2917470315179379 0.44281751567604499 0 0.28829531078346382 0.45611661498118572 0 0.29813183988985342 0.45090032042111128 0 0.27920072977811172 0.47805830749059319 0 0.27643472525740193 0.46726539210963169 0 0.28829531078346382 0.45611661498118572 0 0.28929399795500932 0.47058792179259418 0 0.27920072977811172 0.47805830749059319 0 0.28829531078346382 0.45611661498118572 0 0.27920072977811172 0.47805830749059319 0 0.28829531078346382 0.45611661498118572 0 0.28829531078346382 0.45611661498118572 0 0.29703527816799058 0.46117092995693892 0 0.29813183988985342 0.45090032042111128 0 0.28929399795500932 0.47058792179259418 0 0.28829531078346382 0.45611661498118572 0 0.29703527816799058 0.46117092995693892 0 0.29872334560042851 0.47675081567238892 0 0.29703527816799058 0.46117092995693892 0 0.3107318966111981 0.4514989769174147 0 0.29872334560042851 0.47675081567238892 0 0.3107318966111981 0.4514989769174147 0 0.32241801494637662 0.47133484453222518 0 0.29872334560042851 0.47675081567238892 0 0.3107318966111981 0.4514989769174147 0 0.29703527816799058 0.46117092995693892 0 0.29813183988985342 0.45090032042111128 0 0.3107318966111981 0.4514989769174147 0 0.30159082278473881 0.44219288247638061 0 0.3107318966111981 0.4514989769174147 0 0.30884109342504262 0.43428586920116352 0 0.2917470315179379 0.44281751567604499 0 0.30159082278473881 0.44219288247638061 0 0.29850225247966211 0.43146173016616862 0 0.2917470315179379 0.44281751567604499 0 0.30159082278473881 0.44219288247638061 0 0.29813183988985342 0.45090032042111128 0 0.30159082278473881 0.44219288247638061 0 0.29813183988985342 0.45090032042111128 0 0.3107318966111981 0.4514989769174147 0 0.30884109342504262 0.43428586920116352 0 0.29850225247966211 0.43146173016616862 0 0.30862162828234507 0.42004495563460759 0 0.29850225247966211 0.43146173016616862 0 0.30862162828234507 0.42004495563460759 0 0.29547148538100448 0.41817397575591742 0 0.30159082278473881 0.44219288247638061 0 0.30884109342504262 0.43428586920116352 0 0.29850225247966211 0.43146173016616862 0 0.30862162828234507 0.42004495563460759 0 0.30304430461131138 0.40735012112542651 0 0.3196782615082488 0.40265332564926309 0 0.30862162828234507 0.42004495563460759 0 0.30304430461131138 0.40735012112542651 0 0.29547148538100448 0.41817397575591742 0 0.30304430461131138 0.40735012112542651 0 0.29062365375375682 0.40708788978866228 0 0.29547148538100448 0.41817397575591742 0 0.29062365375375682 0.40708788978866228 0 0.29547148538100448 0.41817397575591742 0 0.28288479604298378 0.41446876034122271 0 0.29547148538100448 0.41817397575591742 0 0.28288479604298378 0.41446876034122271 0 0.28179675760275558 0.42932557237874241 0 0.29062365375375682 0.40708788978866228 0 0.28288479604298378 0.41446876034122271 0 0.28001120465417539 0.40182109974822727 0 0.29850225247966211 0.43146173016616862 0 0.29547148538100448 0.41817397575591742 0 0.28179675760275558 0.42932557237874241 0 0.2917470315179379 0.44281751567604499 0 0.29850225247966211 0.43146173016616862 0 0.28179675760275558 0.42932557237874241 0 0.28179675760275558 0.42932557237874241 0 0.27042562322166658 0.41684269204638819 0 0.26331147225899149 0.43380076267102891 0 0.27903440424894049 0.4453257315987294 0 0.28179675760275558 0.42932557237874241 0 0.26331147225899149 0.43380076267102891 0 0.27042562322166658 0.41684269204638819 0 0.26380858941988822 0.4002294757553399 0 0.28001120465417539 0.40182109974822727 0 0.28288479604298378 0.41446876034122271 0 0.28179675760275558 0.42932557237874241 0 0.27042562322166658 0.41684269204638819 0 0.28288479604298378 0.41446876034122271 0 0.27042562322166658 0.41684269204638819 0 0.28001120465417539 0.40182109974822727 0 0.24649952449278431 0.42147754103885982 0 0.25492995388566009 0.41993008507457552 0 0.26380858941988822 0.4002294757553399 0 0.27042562322166658 0.41684269204638819 0 0.25492995388566009 0.41993008507457552 0 0.26380858941988822 0.4002294757553399 0 0.24649952449278431 0.42147754103885982 0 0.26380858941988822 0.4002294757553399 0 0.2429624777480478 0.39890547698508871 0 0.24649952449278431 0.42147754103885982 0 0.26380858941988822 0.4002294757553399 0 0.24946733303660301 0.43176723098649622 0 0.24649952449278431 0.42147754103885982 0 0.26331147225899149 0.43380076267102891 0 0.24649952449278431 0.42147754103885982 0 0.25492995388566009 0.41993008507457552 0 0.26331147225899149 0.43380076267102891 0 0.24649952449278431 0.42147754103885982 0 0.26331147225899149 0.43380076267102891 0 0.27042562322166658 0.41684269204638819 0 0.25492995388566009 0.41993008507457552 0 0.26331147225899149 0.43380076267102891 0 0.24946733303660301 0.43176723098649622 0 0.25548676926057468 0.44017180441404491 0 0.26331147225899149 0.43380076267102891 0 0.26350653962281989 0.38010735630523079 0 0.25341304662754638 0.38974012394171498 0 0.26380858941988822 0.4002294757553399 0 0.26350653962281989 0.38010735630523079 0 0.25383912625151372 0.37755129754335942 0 0.25710864090743918 0.37145542319719338 0 0.26350653962281989 0.38010735630523079 0 0.25383912625151372 0.37755129754335942 0 0.25341304662754638 0.38974012394171498 0 0.2429624777480478 0.39890547698508871 0 0.25341304662754638 0.38974012394171498 0 0.26380858941988822 0.4002294757553399 0 0.26380858941988822 0.4002294757553399 0 0.28001120465417539 0.40182109974822727 0 0.28036865154730628 0.37990086281960789 0 0.26350653962281989 0.38010735630523079 0 0.28036865154730628 0.37990086281960789 0 0.2641967246118288 0.36596915937278562 0 0.26380858941988822 0.4002294757553399 0 0.28036865154730628 0.37990086281960789 0 0.26350653962281989 0.38010735630523079 0 0.26380858941988822 0.4002294757553399 0 0.28036865154730628 0.37990086281960789 0 0.28036865154730628 0.37990086281960789 0 0.29170647807930872 0.39362549197251728 0 0.2987730087010142 0.37934426936791982 0 0.28036865154730628 0.37990086281960789 0 0.29170647807930872 0.39362549197251728 0 0.28001120465417539 0.40182109974822727 0 0.28036865154730628 0.37990086281960789 0 0.29170647807930872 0.39362549197251728 0 0.29062365375375682 0.40708788978866228 0 0.28001120465417539 0.40182109974822727 0 0.29170647807930872 0.39362549197251728 0 0.30304430461131138 0.40735012112542651 0 0.29062365375375682 0.40708788978866228 0 0.29170647807930872 0.39362549197251728 0 0.30304430461131138 0.40735012112542651 0 0.30637452063024528 0.39219955594670219 0 0.3196782615082488 0.40265332564926309 0 0.30304430461131138 0.40735012112542651 0 0.29170647807930872 0.39362549197251728 0 0.30304430461131138 0.40735012112542651 0 0.29170647807930872 0.39362549197251728 0 0.30637452063024528 0.39219955594670219 0 0.30637452063024528 0.39219955594670219 0 0.2987730087010142 0.37934426936791982 0 0.31661607539452802 0.37905951313608538 0 0.29170647807930872 0.39362549197251728 0 0.30637452063024528 0.39219955594670219 0 0.2987730087010142 0.37934426936791982 0 0.31661607539452802 0.37905951313608538 0 0.32905198958534931 0.38831461949406398 0 0.3196782615082488 0.40265332564926309 0 0.31661607539452802 0.37905951313608538 0 0.32905198958534931 0.38831461949406398 0 0.33389487655237682 0.3658352592629312 0 0.32905198958534931 0.38831461949406398 0 0.34270248502322931 0.38427053755298168 0 0.33389487655237682 0.3658352592629312 0 0.32905198958534931 0.38831461949406398 0 0.34270248502322931 0.38427053755298168 0 0.33272146632259869 0.40525883785771122 0 0.34270248502322931 0.38427053755298168 0 0.33272146632259869 0.40525883785771122 0 0.34270248502322931 0.38427053755298168 0 0.33272146632259869 0.40525883785771122 0 0.34670895149724801 0.40816004440777182 0 0.31661607539452802 0.37905951313608538 0 0.3196782615082488 0.40265332564926309 0 0.32905198958534931 0.38831461949406398 0 0.33272146632259869 0.40525883785771122 0 0.3196782615082488 0.40265332564926309 0 0.30637452063024528 0.39219955594670219 0 0.31661607539452802 0.37905951313608538 0 0.3196782615082488 0.40265332564926309 0 0.3196782615082488 0.40265332564926309 0 0.3227404476219688 0.42624713816244092 0 0.30862162828234507 0.42004495563460759 0 0.3196782615082488 0.40265332564926309 0 0.3227404476219688 0.42624713816244092 0 0.33272146632259869 0.40525883785771122 0 0.3196782615082488 0.40265332564926309 0 0.3227404476219688 0.42624713816244092 0 0.33272146632259869 0.40525883785771122 0 0.3227404476219688 0.42624713816244092 0 0.32480939915707069 0.44218818576869201 0 0.3227404476219688 0.42624713816244092 0 0.3107318966111981 0.4514989769174147 0 0.30884109342504262 0.43428586920116352 0 0.3227404476219688 0.42624713816244092 0 0.32480939915707069 0.44218818576869201 0 0.3227404476219688 0.42624713816244092 0 0.33523501366627878 0.43221560569608392 0 0.30884109342504262 0.43428586920116352 0 0.30862162828234507 0.42004495563460759 0 0.3227404476219688 0.42624713816244092 0 0.34502769605759259 0.44546544446971242 0 0.33523501366627878 0.43221560569608392 0 0.34795858503051302 0.425881111768525 0 0.3227404476219688 0.42624713816244092 0 0.33523501366627878 0.43221560569608392 0 0.33659904832278342 0.4201421825902541 0 0.33523501366627878 0.43221560569608392 0 0.33659904832278342 0.4201421825902541 0 0.34795858503051302 0.425881111768525 0 0.33272146632259869 0.40525883785771122 0 0.3227404476219688 0.42624713816244092 0 0.33659904832278342 0.4201421825902541 0 0.33272146632259869 0.40525883785771122 0 0.33659904832278342 0.4201421825902541 0 0.34670895149724801 0.40816004440777182 0 0.33659904832278342 0.4201421825902541 0 0.34670895149724801 0.40816004440777182 0 0.34795858503051302 0.425881111768525 0 0.34670895149724801 0.40816004440777182 0 0.34795858503051302 0.425881111768525 0 0.36336601300371613 0.41450991002864218 0 0.34670895149724801 0.40816004440777182 0 0.36336601300371613 0.41450991002864218 0 0.35690611128064731 0.3988976866485166 0 0.34502769605759259 0.44546544446971242 0 0.34795858503051302 0.425881111768525 0 0.36959298495063608 0.43610817863788948 0 0.34795858503051302 0.425881111768525 0 0.36959298495063608 0.43610817863788948 0 0.36336601300371613 0.41450991002864218 0 0.36959298495063608 0.43610817863788948 0 0.36336601300371613 0.41450991002864218 0 0.38530342098431941 0.41064856824057122 0 0.36336601300371613 0.41450991002864218 0 0.3736470799201031 0.39378130610698531 0 0.38530342098431941 0.41064856824057122 0 0.3736470799201031 0.39378130610698531 0 0.3601059063978746 0.38125551426405008 0 0.35690611128064731 0.3988976866485166 0 0.36336601300371613 0.41450991002864218 0 0.3736470799201031 0.39378130610698531 0 0.35690611128064731 0.3988976866485166 0 0.3736470799201031 0.39378130610698531 0 0.3601059063978746 0.38125551426405008 0 0.37414389550204002 0.36898578533419818 0 0.34270248502322931 0.38427053755298168 0 0.3601059063978746 0.38125551426405008 0 0.35690611128064731 0.3988976866485166 0 0.34270248502322931 0.38427053755298168 0 0.3601059063978746 0.38125551426405008 0 0.35268350372385993 0.36328223724825232 0 0.34270248502322931 0.38427053755298168 0 0.34670895149724801 0.40816004440777182 0 0.35690611128064731 0.3988976866485166 0 0.35268350372385993 0.36328223724825232 0 0.36266452242448938 0.34229393694352239 0 0.35030182712711511 0.35130594720886232 0 0.35268350372385993 0.36328223724825232 0 0.36266452242448938 0.34229393694352239 0 0.35030182712711511 0.35130594720886232 0 0.35146565257524442 0.34420791440797271 0 0.36266452242448938 0.34229393694352239 0 0.35030182712711511 0.35130594720886232 0 0.35146565257524442 0.34420791440797271 0 0.34269927497721508 0.34493512072036142 0 0.35030182712711511 0.35130594720886232 0 0.35268350372385993 0.36328223724825232 0 0.33389487655237682 0.3658352592629312 0 0.34270248502322931 0.38427053755298168 0 0.35268350372385993 0.36328223724825232 0 0.3601059063978746 0.38125551426405008 0 0.35268350372385993 0.36328223724825232 0 0.37414389550204002 0.36898578533419818 0 0.35268350372385993 0.36328223724825232 0 0.37414389550204002 0.36898578533419818 0 0.36300645299402812 0.35604351837507042 0 0.37414389550204002 0.36898578533419818 0 0.37228166628853332 0.35471301169251829 0 0.36300645299402812 0.35604351837507042 0 0.35268350372385993 0.36328223724825232 0 0.36300645299402812 0.35604351837507042 0 0.36266452242448938 0.34229393694352239 0 0.37228166628853332 0.35471301169251829 0 0.36300645299402812 0.35604351837507042 0 0.36840829020790361 0.34668560051738673 0 0.36300645299402812 0.35604351837507042 0 0.36840829020790361 0.34668560051738673 0 0.36266452242448938 0.34229393694352239 0 0.36840829020790361 0.34668560051738673 0 0.36266452242448938 0.34229393694352239 0 0.36587418437400321 0.34278907974668538 0 0.37228166628853332 0.35471301169251829 0 0.36840829020790361 0.34668560051738673 0 0.37486749369974542 0.34694596905823039 0 0.37486749369974542 0.34694596905823039 0 0.37256750073976291 0.34304532959464751 0 0.37670219357667811 0.34177383067972761 0 0.36840829020790361 0.34668560051738673 0 0.37486749369974542 0.34694596905823039 0 0.37256750073976291 0.34304532959464751 0 0.36124897776362869 0.33531944770056321 0 0.36266452242448938 0.34229393694352239 0 0.36411885078159001 0.32644375487552563 0 0.37256750073976291 0.34304532959464751 0 0.36916640720496519 0.34145859007673351 0 0.37369311900952262 0.33836265764115908 0 0.37256750073976291 0.34304532959464751 0 0.37369311900952262 0.33836265764115908 0 0.37670219357667811 0.34177383067972761 0 0.36266452242448938 0.34229393694352239 0 0.37014896644917339 0.316543878568457 0 0.36770298492566261 0.33637877995368609 0 0.36266452242448938 0.34229393694352239 0 0.37368960646642962 0.31911015363466272 0 0.36770298492566261 0.33637877995368609 0 0.36985494237623989 0.33311962493185521 0 0.37368960646642962 0.31911015363466272 0 0.36266452242448938 0.34229393694352239 0 0.37368960646642962 0.31911015363466272 0 0.36266452242448938 0.34229393694352239 0 0.37014896644917339 0.316543878568457 0 0.36411885078159001 0.32644375487552563 0 0.36840829020790361 0.34668560051738673 0 0.36916640720496519 0.34145859007673351 0 0.36587418437400321 0.34278907974668538 0 0.36840829020790361 0.34668560051738673 0 0.37256750073976291 0.34304532959464751 0 0.36916640720496519 0.34145859007673351 0 0.36916640720496519 0.34145859007673351 0 0.36587418437400321 0.34278907974668538 0 0.36708394454210669 0.33994961910346172 0 0.36916640720496519 0.34145859007673351 0 0.37010024416019238 0.33739894816112592 0 0.36708394454210669 0.33994961910346172 0 0.36916640720496519 0.34145859007673351 0 0.37010024416019238 0.33739894816112592 0 0.37369311900952262 0.33836265764115908 0 0.36770298492566261 0.33637877995368609 0 0.37010024416019238 0.33739894816112592 0 0.36708394454210669 0.33994961910346172 0 0.37010024416019238 0.33739894816112592 0 0.37369311900952262 0.33836265764115908 0 0.3722735272100694 0.33425106354392481 0 0.3722735272100694 0.33425106354392481 0 0.37245621682226088 0.32924087979990557 0 0.375263113682131 0.33313320718557798 0 0.37369311900952262 0.33836265764115908 0 0.3722735272100694 0.33425106354392481 0 0.375263113682131 0.33313320718557798 0 0.3722735272100694 0.33425106354392481 0 0.37245621682226088 0.32924087979990557 0 0.36985494237623989 0.33311962493185521 0 0.37245621682226088 0.32924087979990557 0 0.37577016905582622 0.32787937856968757 0 0.375263113682131 0.33313320718557798 0 0.37010024416019238 0.33739894816112592 0 0.3722735272100694 0.33425106354392481 0 0.36985494237623989 0.33311962493185521 0 0.36770298492566261 0.33637877995368609 0 0.37010024416019238 0.33739894816112592 0 0.36985494237623989 0.33311962493185521 0 0.36128237795215928 0.33126347269122047 0 0.36124897776362869 0.33531944770056321 0 0.36411885078159001 0.32644375487552563 0 0.36150631125237548 0.32912422255951068 0 0.36128237795215928 0.33126347269122047 0 0.36411885078159001 0.32644375487552563 0 0.36150631125237548 0.32912422255951068 0 0.35994194411877378 0.32646204206530971 0 0.35835984371964152 0.33045614064968309 0 0.36128237795215928 0.33126347269122047 0 0.35899626180536931 0.33430086833413269 0 0.35835984371964152 0.33045614064968309 0 0.36150631125237548 0.32912422255951068 0 0.36128237795215928 0.33126347269122047 0 0.35835984371964152 0.33045614064968309 0 0.36128237795215928 0.33126347269122047 0 0.36124897776362869 0.33531944770056321 0 0.35899626180536931 0.33430086833413269 0 0.36124897776362869 0.33531944770056321 0 0.36001134864139028 0.33778823672905661 0 0.35899626180536931 0.33430086833413269 0 0.36124897776362869 0.33531944770056321 0 0.36001134864139028 0.33778823672905661 0 0.36266452242448938 0.34229393694352239 0 0.36001134864139028 0.33778823672905661 0 0.36266452242448938 0.34229393694352239 0 0.3582225103283424 0.33883319475427592 0 0.36266452242448938 0.34229393694352239 0 0.36587418437400321 0.34278907974668538 0 0.36708394454210669 0.33994961910346172 0 0.36770298492566261 0.33637877995368609 0 0.36266452242448938 0.34229393694352239 0 0.36708394454210669 0.33994961910346172 0 0.36266452242448938 0.34229393694352239 0 0.37368960646642962 0.31911015363466272 0 0.37014896644917339 0.316543878568457 0 0.37014896644917339 0.316543878568457 0 0.36604953812300478 0.31497278055865852 0 0.36630954626425261 0.31087512405144152 0 0.37499251130121058 0.31593455150060828 0 0.37014896644917339 0.316543878568457 0 0.37695808612291098 0.31120865645681561 0 0.37499251130121058 0.31593455150060828 0 0.37368960646642962 0.31911015363466272 0 0.37014896644917339 0.316543878568457 0 0.37014896644917339 0.316543878568457 0 0.36646072203027302 0.32009490443849897 0 0.3659238024377004 0.31770243144255911 0 0.37014896644917339 0.316543878568457 0 0.3659238024377004 0.31770243144255911 0 0.36604953812300478 0.31497278055865852 0 0.37245621682226088 0.32924087979990557 0 0.36985494237623989 0.33311962493185521 0 0.37368960646642962 0.31911015363466272 0 0.37245621682226088 0.32924087979990557 0 0.37368960646642962 0.31911015363466272 0 0.37506056064123422 0.32471797871916308 0 0.37245621682226088 0.32924087979990557 0 0.37577016905582622 0.32787937856968757 0 0.37506056064123422 0.32471797871916308 0 0.37014896644917339 0.316543878568457 0 0.36411885078159001 0.32644375487552563 0 0.36646072203027302 0.32009490443849897 0 0.36411885078159001 0.32644375487552563 0 0.35994194411877378 0.32646204206530971 0 0.36132202517978662 0.32303080634539388 0 0.36150631125237548 0.32912422255951068 0 0.36411885078159001 0.32644375487552563 0 0.35994194411877378 0.32646204206530971 0 0.36132202517978662 0.32303080634539388 0 0.36348301458407639 0.32047903077872458 0 0.35962675317161102 0.31893041505789499 0 0.36411885078159001 0.32644375487552563 0 0.36132202517978662 0.32303080634539388 0 0.36348301458407639 0.32047903077872458 0 0.36411885078159001 0.32644375487552563 0 0.36348301458407639 0.32047903077872458 0 0.36646072203027302 0.32009490443849897 0 0.36348301458407639 0.32047903077872458 0 0.36646072203027302 0.32009490443849897 0 0.3659238024377004 0.31770243144255911 0 0.3659238024377004 0.31770243144255911 0 0.36344593390349789 0.31667187251247519 0 0.36604953812300478 0.31497278055865852 0 0.36348301458407639 0.32047903077872458 0 0.3659238024377004 0.31770243144255911 0 0.36344593390349789 0.31667187251247519 0 0.36348301458407639 0.32047903077872458 0 0.36344593390349789 0.31667187251247519 0 0.35962675317161102 0.31893041505789499 0 0.36344593390349789 0.31667187251247519 0 0.35962675317161102 0.31893041505789499 0 0.35878641637012221 0.31305233625990619 0 0.36344593390349789 0.31667187251247519 0 0.36331333565659901 0.31283202127524651 0 0.35878641637012221 0.31305233625990619 0 0.36331333565659901 0.31283202127524651 0 0.36604953812300478 0.31497278055865852 0 0.36630954626425261 0.31087512405144152 0 0.36344593390349789 0.31667187251247519 0 0.36331333565659901 0.31283202127524651 0 0.36604953812300478 0.31497278055865852 0 0.35878641637012221 0.31305233625990619 0 0.35512602374864599 0.31718053618965047 0 0.35090510471213721 0.31152713165908658 0 0.35512602374864599 0.31718053618965047 0 0.34983435518440159 0.31943204998396652 0 0.35090510471213721 0.31152713165908658 0 0.35962675317161102 0.31893041505789499 0 0.35878641637012221 0.31305233625990619 0 0.35512602374864599 0.31718053618965047 0 0.35962675317161102 0.31893041505789499 0 0.35512602374864599 0.31718053618965047 0 0.35673455485560862 0.32229528426682241 0 0.35512602374864599 0.31718053618965047 0 0.35673455485560862 0.32229528426682241 0 0.34983435518440159 0.31943204998396652 0 0.35673455485560862 0.32229528426682241 0 0.35060422568955008 0.32587015674736058 0 0.34983435518440159 0.31943204998396652 0 0.35994194411877378 0.32646204206530971 0 0.36132202517978662 0.32303080634539388 0 0.35673455485560862 0.32229528426682241 0 0.36132202517978662 0.32303080634539388 0 0.35962675317161102 0.31893041505789499 0 0.35673455485560862 0.32229528426682241 0 0.35994194411877378 0.32646204206530971 0 0.35673455485560862 0.32229528426682241 0 0.35627338036128769 0.32705738058013539 0 0.35994194411877378 0.32646204206530971 0 0.35627338036128769 0.32705738058013539 0 0.35835984371964152 0.33045614064968309 0 0.35627338036128769 0.32705738058013539 0 0.35060422568955008 0.32587015674736058 0 0.35398721241228231 0.33095327650953749 0 0.35673455485560862 0.32229528426682241 0 0.35627338036128769 0.32705738058013539 0 0.35060422568955008 0.32587015674736058 0 0.35060422568955008 0.32587015674736058 0 0.34514221143703899 0.32919058107390442 0 0.34284551192874652 0.32364904383841531 0 0.35060422568955008 0.32587015674736058 0 0.34983435518440159 0.31943204998396652 0 0.34284551192874652 0.32364904383841531 0 0.34983435518440159 0.31943204998396652 0 0.34480088275632298 0.31606258733578418 0 0.35090510471213721 0.31152713165908658 0 0.34983435518440159 0.31943204998396652 0 0.34480088275632298 0.31606258733578418 0 0.34284551192874652 0.32364904383841531 0 0.35146565257524442 0.34420791440797271 0 0.36266452242448938 0.34229393694352239 0 0.35562031764263757 0.34031424282986023 0 0.35302683950207769 0.33602013814058929 0 0.35562031764263757 0.34031424282986023 0 0.35672120529774148 0.33684362974708199 0 0.35202203774268331 0.33965573310897551 0 0.35302683950207769 0.33602013814058929 0 0.35562031764263757 0.34031424282986023 0 0.35146565257524442 0.34420791440797271 0 0.35202203774268331 0.33965573310897551 0 0.35562031764263757 0.34031424282986023 0 0.36266452242448938 0.34229393694352239 0 0.35562031764263757 0.34031424282986023 0 0.3582225103283424 0.33883319475427592 0 0.35562031764263757 0.34031424282986023 0 0.3582225103283424 0.33883319475427592 0 0.35672120529774148 0.33684362974708199 0 0.36001134864139028 0.33778823672905661 0 0.3582225103283424 0.33883319475427592 0 0.35672120529774148 0.33684362974708199 0 0.36001134864139028 0.33778823672905661 0 0.35672120529774148 0.33684362974708199 0 0.35899626180536931 0.33430086833413269 0 0.35899626180536931 0.33430086833413269 0 0.35641212776078268 0.33381706902087938 0 0.35835984371964152 0.33045614064968309 0 0.35672120529774148 0.33684362974708199 0 0.35899626180536931 0.33430086833413269 0 0.35641212776078268 0.33381706902087938 0 0.35627338036128769 0.32705738058013539 0 0.35835984371964152 0.33045614064968309 0 0.35398721241228231 0.33095327650953749 0 0.35641212776078268 0.33381706902087938 0 0.35835984371964152 0.33045614064968309 0 0.35398721241228231 0.33095327650953749 0 0.35302683950207769 0.33602013814058929 0 0.35641212776078268 0.33381706902087938 0 0.35398721241228231 0.33095327650953749 0 0.35302683950207769 0.33602013814058929 0 0.35398721241228231 0.33095327650953749 0 0.34924685744035389 0.33249877391857741 0 0.35302683950207769 0.33602013814058929 0 0.35672120529774148 0.33684362974708199 0 0.35641212776078268 0.33381706902087938 0 0.35302683950207769 0.33602013814058929 0 0.34924685744035389 0.33249877391857741 0 0.34788509595764172 0.33882226599831611 0 0.35060422568955008 0.32587015674736058 0 0.34924685744035389 0.33249877391857741 0 0.34514221143703899 0.32919058107390442 0 0.35060422568955008 0.32587015674736058 0 0.35398721241228231 0.33095327650953749 0 0.34924685744035389 0.33249877391857741 0 0.34924685744035389 0.33249877391857741 0 0.34514221143703899 0.32919058107390442 0 0.34474234507332802 0.33433591834825649 0 0.34924685744035389 0.33249877391857741 0 0.34474234507332802 0.33433591834825649 0 0.34788509595764172 0.33882226599831611 0 0.34474234507332802 0.33433591834825649 0 0.34788509595764172 0.33882226599831611 0 0.34057592936449049 0.33809639891542392 0 0.35146565257524442 0.34420791440797271 0 0.34788509595764172 0.33882226599831611 0 0.34269927497721508 0.34493512072036142 0 0.35202203774268331 0.33965573310897551 0 0.35302683950207769 0.33602013814058929 0 0.34788509595764172 0.33882226599831611 0 0.35146565257524442 0.34420791440797271 0 0.35202203774268331 0.33965573310897551 0 0.34788509595764172 0.33882226599831611 0 0.34057592936449049 0.33809639891542392 0 0.33318390910610529 0.34358855052096038 0 0.34269927497721508 0.34493512072036142 0 0.34788509595764172 0.33882226599831611 0 0.34057592936449049 0.33809639891542392 0 0.34269927497721508 0.34493512072036142 0 0.34474234507332802 0.33433591834825649 0 0.34057592936449049 0.33809639891542392 0 0.33946855119551672 0.33096103471374028 0 0.34514221143703899 0.32919058107390442 0 0.34474234507332802 0.33433591834825649 0 0.33946855119551672 0.33096103471374028 0 0.34057592936449049 0.33809639891542392 0 0.33946855119551672 0.33096103471374028 0 0.33283637980140879 0.33469331179832718 0 0.33946855119551672 0.33096103471374028 0 0.33283637980140879 0.33469331179832718 0 0.33464693517381472 0.32630086361949601 0 0.33283637980140879 0.33469331179832718 0 0.33464693517381472 0.32630086361949601 0 0.3250964778074269 0.32978689602061512 0 0.34057592936449049 0.33809639891542392 0 0.33283637980140879 0.33469331179832718 0 0.33318390910610529 0.34358855052096038 0 0.33283637980140879 0.33469331179832718 0 0.33318390910610529 0.34358855052096038 0 0.32611481079287369 0.33974729713420021 0 0.34480088275632298 0.31606258733578418 0 0.33769186663180051 0.31814262317354819 0 0.34192449374142192 0.30753297203612773 0 0.34480088275632298 0.31606258733578418 0 0.33769186663180051 0.31814262317354819 0 0.34284551192874652 0.32364904383841531 0 0.33946855119551672 0.33096103471374028 0 0.34284551192874652 0.32364904383841531 0 0.33464693517381472 0.32630086361949601 0 0.33769186663180051 0.31814262317354819 0 0.34284551192874652 0.32364904383841531 0 0.33464693517381472 0.32630086361949601 0 0.34514221143703899 0.32919058107390442 0 0.33946855119551672 0.33096103471374028 0 0.34284551192874652 0.32364904383841531 0 0.33769186663180051 0.31814262317354819 0 0.33464693517381472 0.32630086361949601 0 0.32994282367798861 0.32057227217232959 0 0.33464693517381472 0.32630086361949601 0 0.32994282367798861 0.32057227217232959 0 0.3250964778074269 0.32978689602061512 0 0.33769186663180051 0.31814262317354819 0 0.32994282367798861 0.32057227217232959 0 0.32867162081685902 0.31028670060733149 0 0.32176892132522322 0.32006025561378759 0 0.31440941436971798 0.31242774502049953 0 0.32867162081685902 0.31028670060733149 0 0.32994282367798861 0.32057227217232959 0 0.32176892132522322 0.32006025561378759 0 0.32867162081685902 0.31028670060733149 0 0.32176892132522322 0.32006025561378759 0 0.31484893044661 0.32778579360563193 0 0.3250964778074269 0.32978689602061512 0 0.32994282367798861 0.32057227217232959 0 0.32176892132522322 0.32006025561378759 0 0.3250964778074269 0.32978689602061512 0 0.32176892132522322 0.32006025561378759 0 0.31484893044661 0.32778579360563193 0 0.31440941436971798 0.31242774502049953 0 0.32611481079287369 0.33974729713420021 0 0.3250964778074269 0.32978689602061512 0 0.31767498628904178 0.33862919533695518 0 0.32611481079287369 0.33974729713420021 0 0.31767498628904178 0.33862919533695518 0 0.32336406622478242 0.34852958887145069 0 0.33283637980140879 0.33469331179832718 0 0.32611481079287369 0.33974729713420021 0 0.3250964778074269 0.32978689602061512 0 0.31484893044661 0.32778579360563193 0 0.31767498628904178 0.33862919533695518 0 0.30654896287530792 0.34033791233229299 0 0.31484893044661 0.32778579360563193 0 0.3250964778074269 0.32978689602061512 0 0.31767498628904178 0.33862919533695518 0 0.31767498628904178 0.33862919533695518 0 0.31315570067328902 0.3464643712977632 0 0.32336406622478242 0.34852958887145069 0 0.31315570067328902 0.3464643712977632 0 0.31355388928080707 0.35546570062290778 0 0.32336406622478242 0.34852958887145069 0 0.32336406622478242 0.34852958887145069 0 0.33442175170730049 0.35218858713626039 0 0.32437013183195901 0.3602157298059272 0 0.31355388928080707 0.35546570062290778 0 0.32336406622478242 0.34852958887145069 0 0.32437013183195901 0.3602157298059272 0 0.33318390910610529 0.34358855052096038 0 0.32611481079287369 0.33974729713420021 0 0.32336406622478242 0.34852958887145069 0 0.35030182712711511 0.35130594720886232 0 0.33442175170730049 0.35218858713626039 0 0.33389487655237682 0.3658352592629312 0 0.33318390910610529 0.34358855052096038 0 0.32336406622478242 0.34852958887145069 0 0.33442175170730049 0.35218858713626039 0 0.35030182712711511 0.35130594720886232 0 0.33442175170730049 0.35218858713626039 0 0.34269927497721508 0.34493512072036142 0 0.33318390910610529 0.34358855052096038 0 0.33442175170730049 0.35218858713626039 0 0.34269927497721508 0.34493512072036142 0 0.34270248502322931 0.38427053755298168 0 0.35268350372385993 0.36328223724825232 0 0.33389487655237682 0.3658352592629312 0 0.33442175170730049 0.35218858713626039 0 0.33389487655237682 0.3658352592629312 0 0.32437013183195901 0.3602157298059272 0 0.31661607539452802 0.37905951313608538 0 0.33389487655237682 0.3658352592629312 0 0.32437013183195901 0.3602157298059272 0 0.31661607539452802 0.37905951313608538 0 0.31355388928080707 0.35546570062290778 0 0.32437013183195901 0.3602157298059272 0 0.31661607539452802 0.37905951313608538 0 0.31355388928080707 0.35546570062290778 0 0.31661607539452802 0.37905951313608538 0 0.31355388928080707 0.35546570062290778 0 0.30541822204374358 0.36584678197342768 0 0.2987730087010142 0.37934426936791982 0 0.31661607539452802 0.37905951313608538 0 0.30541822204374358 0.36584678197342768 0 0.30541822204374358 0.36584678197342768 0 0.30393955747459928 0.35096595789874813 0 0.29215410451095353 0.36543341035917859 0 0.2987730087010142 0.37934426936791982 0 0.30541822204374358 0.36584678197342768 0 0.29215410451095353 0.36543341035917859 0 0.31315570067328902 0.3464643712977632 0 0.30393955747459928 0.35096595789874813 0 0.30654896287530792 0.34033791233229299 0 0.31315570067328902 0.3464643712977632 0 0.31355388928080707 0.35546570062290778 0 0.30393955747459928 0.35096595789874813 0 0.31355388928080707 0.35546570062290778 0 0.30541822204374358 0.36584678197342768 0 0.30393955747459928 0.35096595789874813 0 0.30393955747459928 0.35096595789874813 0 0.29215410451095353 0.36543341035917859 0 0.30393955747459928 0.35096595789874813 0 0.29720735802849829 0.34424744790442102 0 0.29027641861796738 0.35164951467646482 0 0.30393955747459928 0.35096595789874813 0 0.29720735802849829 0.34424744790442102 0 0.30654896287530792 0.34033791233229299 0 0.29720735802849829 0.34424744790442102 0 0.29027641861796738 0.35164951467646482 0 0.28998304713239348 0.34105976447064218 0 0.30393955747459928 0.35096595789874813 0 0.29027641861796738 0.35164951467646482 0 0.29215410451095353 0.36543341035917859 0 0.29027641861796738 0.35164951467646482 0 0.29215410451095353 0.36543341035917859 0 0.27920137084664282 0.3573603676334649 0 0.29027641861796738 0.35164951467646482 0 0.27920137084664282 0.3573603676334649 0 0.28068773357058369 0.34198453751068081 0 0.29027641861796738 0.35164951467646482 0 0.28068773357058369 0.34198453751068081 0 0.28998304713239348 0.34105976447064218 0 0.28036865154730628 0.37990086281960789 0 0.29215410451095353 0.36543341035917859 0 0.27920137084664282 0.3573603676334649 0 0.28036865154730628 0.37990086281960789 0 0.2987730087010142 0.37934426936791982 0 0.29215410451095353 0.36543341035917859 0 0.28036865154730628 0.37990086281960789 0 0.29215410451095353 0.36543341035917859 0 0.28036865154730628 0.37990086281960789 0 0.27920137084664282 0.3573603676334649 0 0.26173146881309822 0.35734024057335978 0 0.28036865154730628 0.37990086281960789 0 0.26173146881309822 0.35734024057335978 0 0.28036865154730628 0.37990086281960789 0 0.26173146881309822 0.35734024057335978 0 0.2641967246118288 0.36596915937278562 0 0.27920137084664282 0.3573603676334649 0 0.27030047393074008 0.3474963096498429 0 0.26173146881309822 0.35734024057335978 0 0.27920137084664282 0.3573603676334649 0 0.27030047393074008 0.3474963096498429 0 0.28068773357058369 0.34198453751068081 0 0.2430942860788903 0.33477961832711151 0 0.26173146881309822 0.35734024057335978 0 0.27030047393074008 0.3474963096498429 0 0.26173146881309822 0.35734024057335978 0 0.26240083601839698 0.33727672217147331 0 0.23816107804029091 0.35120524212074949 0 0.26173146881309822 0.35734024057335978 0 0.2641967246118288 0.36596915937278562 0 0.23816107804029091 0.35120524212074949 0 0.2641967246118288 0.36596915937278562 0 0.2492643002430574 0.365916522193315 0 0.24311907173897271 0.36013203008567057 0 0.2641967246118288 0.36596915937278562 0 0.2492643002430574 0.365916522193315 0 0.25710864090743918 0.37145542319719338 0 0.2641967246118288 0.36596915937278562 0 0.2492643002430574 0.365916522193315 0 0.25383912625151372 0.37755129754335942 0 0.25710864090743918 0.37145542319719338 0 0.26350653962281989 0.38010735630523079 0 0.25710864090743918 0.37145542319719338 0 0.2641967246118288 0.36596915937278562 0 0.2484846271056145 0.31037308609574782 0 0.25508783524565293 0.32209220201309929 0 0.26836904206483531 0.31075971332937607 0 0.25508783524565293 0.32209220201309929 0 0.26240083601839698 0.33727672217147331 0 0.26677092012209491 0.32204036282613252 0 0.25508783524565293 0.32209220201309929 0 0.26677092012209491 0.32204036282613252 0 0.26836904206483531 0.31075971332937607 0 0.2430942860788903 0.33477961832711151 0 0.25508783524565293 0.32209220201309929 0 0.26240083601839698 0.33727672217147331 0 0.2430942860788903 0.33477961832711151 0 0.26173146881309822 0.35734024057335978 0 0.26240083601839698 0.33727672217147331 0 0.26240083601839698 0.33727672217147331 0 0.27184092000699639 0.33891315949469752 0 0.27388917516664008 0.32964775149744319 0 0.26240083601839698 0.33727672217147331 0 0.27388917516664008 0.32964775149744319 0 0.26677092012209491 0.32204036282613252 0 0.27030047393074008 0.3474963096498429 0 0.26240083601839698 0.33727672217147331 0 0.27184092000699639 0.33891315949469752 0 0.27030047393074008 0.3474963096498429 0 0.27184092000699639 0.33891315949469752 0 0.28068773357058369 0.34198453751068081 0 0.27184092000699639 0.33891315949469752 0 0.28068773357058369 0.34198453751068081 0 0.27388917516664008 0.32964775149744319 0 0.28068773357058369 0.34198453751068081 0 0.27388917516664008 0.32964775149744319 0 0.28570907475377572 0.33188311037056872 0 0.27388917516664008 0.32964775149744319 0 0.26677092012209491 0.32204036282613252 0 0.28178409254690689 0.31684790712797722 0 0.27388917516664008 0.32964775149744319 0 0.28178409254690689 0.31684790712797722 0 0.28570907475377572 0.33188311037056872 0 0.26677092012209491 0.32204036282613252 0 0.28178409254690689 0.31684790712797722 0 0.26836904206483531 0.31075971332937607 0 0.28178409254690689 0.31684790712797722 0 0.29262159606390598 0.32453461147271162 0 0.29660332646403359 0.30785121346786842 0 0.28178409254690689 0.31684790712797722 0 0.29262159606390598 0.32453461147271162 0 0.28570907475377572 0.33188311037056872 0 0.28068773357058369 0.34198453751068081 0 0.28570907475377572 0.33188311037056872 0 0.28998304713239348 0.34105976447064218 0 0.29262159606390598 0.32453461147271162 0 0.28570907475377572 0.33188311037056872 0 0.29603465069114282 0.33553421189107618 0 0.29720735802849829 0.34424744790442102 0 0.29603465069114282 0.33553421189107618 0 0.28998304713239348 0.34105976447064218 0 0.28570907475377572 0.33188311037056872 0 0.29603465069114282 0.33553421189107618 0 0.28998304713239348 0.34105976447064218 0 0.29720735802849829 0.34424744790442102 0 0.29603465069114282 0.33553421189107618 0 0.30654896287530792 0.34033791233229299 0 0.29603465069114282 0.33553421189107618 0 0.30654896287530792 0.34033791233229299 0 0.30445412428221041 0.32558903425911379 0 0.29262159606390598 0.32453461147271162 0 0.29603465069114282 0.33553421189107618 0 0.30445412428221041 0.32558903425911379 0 0.31484893044661 0.32778579360563193 0 0.30654896287530792 0.34033791233229299 0 0.30445412428221041 0.32558903425911379 0 0.31767498628904178 0.33862919533695518 0 0.31315570067328902 0.3464643712977632 0 0.30654896287530792 0.34033791233229299 0 0.30445412428221041 0.32558903425911379 0 0.29660332646403359 0.30785121346786842 0 0.31440941436971798 0.31242774502049953 0 0.29262159606390598 0.32453461147271162 0 0.30445412428221041 0.32558903425911379 0 0.29660332646403359 0.30785121346786842 0 0.31484893044661 0.32778579360563193 0 0.30445412428221041 0.32558903425911379 0 0.31440941436971798 0.31242774502049953 0 0.30822946874662033 0.29998271616579031 0 0.29660332646403359 0.30785121346786842 0 0.31440941436971798 0.31242774502049953 0 0.30822946874662033 0.29998271616579031 0 0.30055108247350393 0.28416894361273021 0 0.29660332646403359 0.30785121346786842 0 0.30822946874662033 0.29998271616579031 0 0.30055108247350393 0.28416894361273021 0 0.32109763140443309 0.29547610107375327 0 0.30055108247350393 0.28416894361273021 0 0.29660332646403359 0.30785121346786842 0 0.27430616976337108 0.29100628718303567 0 0.30055108247350393 0.28416894361273021 0 0.27430616976337108 0.29100628718303567 0 0.28443506245096839 0.27205148705280008 0 0.30055108247350393 0.28416894361273021 0 0.27430616976337108 0.29100628718303567 0 0.28178409254690689 0.31684790712797722 0 0.29660332646403359 0.30785121346786842 0 0.27430616976337108 0.29100628718303567 0 0.28178409254690689 0.31684790712797722 0 0.26836904206483531 0.31075971332937607 0 0.27430616976337108 0.29100628718303567 0 0.28178409254690689 0.31684790712797722 0 0.27430616976337108 0.29100628718303567 0 0.27430616976337108 0.29100628718303567 0 0.25121587924780342 0.29702178630611242 0 0.27430616976337108 0.29100628718303567 0 0.25953152444998728 0.28294166139542631 0 0.25121587924780342 0.29702178630611242 0 0.26836904206483531 0.31075971332937607 0 0.27430616976337108 0.29100628718303567 0 0.25121587924780342 0.29702178630611242 0 0.26836904206483531 0.31075971332937607 0 0.25121587924780342 0.29702178630611242 0 0.2484846271056145 0.31037308609574782 0 0.26836904206483531 0.31075971332937607 0 0.25121587924780342 0.29702178630611242 0 0.25102838231212438 0.26850893423506528 0 0.26790857605335527 0.26889798384773289 0 0.26221447651104962 0.2479993693513689 0 0.26790857605335527 0.26889798384773289 0 0.26221447651104962 0.2479993693513689 0 0.25953152444998728 0.28294166139542631 0 0.25102838231212438 0.26850893423506528 0 0.26790857605335527 0.26889798384773289 0 0.27430616976337108 0.29100628718303567 0 0.26790857605335527 0.26889798384773289 0 0.28443506245096839 0.27205148705280008 0 0.27430616976337108 0.29100628718303567 0 0.25953152444998728 0.28294166139542631 0 0.26790857605335527 0.26889798384773289 0 0.27430616976337108 0.29100628718303567 0 0.26790857605335527 0.26889798384773289 0 0.26790857605335527 0.26889798384773289 0 0.28119448123381058 0.25405304303149878 0 0.26221447651104962 0.2479993693513689 0 0.26790857605335527 0.26889798384773289 0 0.28119448123381058 0.25405304303149878 0 0.28443506245096839 0.27205148705280008 0 0.28119448123381058 0.25405304303149878 0 0.28443506245096839 0.27205148705280008 0 0.2982150027308012 0.26213117758900317 0 0.28119448123381058 0.25405304303149878 0 0.2982150027308012 0.26213117758900317 0 0.30328699804120918 0.24394477185791469 0 0.30055108247350393 0.28416894361273021 0 0.28443506245096839 0.27205148705280008 0 0.2982150027308012 0.26213117758900317 0 0.30055108247350393 0.28416894361273021 0 0.2982150027308012 0.26213117758900317 0 0.31879452400631653 0.25919465198291952 0 0.2982150027308012 0.26213117758900317 0 0.31879452400631653 0.25919465198291952 0 0.30328699804120918 0.24394477185791469 0 0.31879452400631653 0.25919465198291952 0 0.33092809789354199 0.24744869965648561 0 0.31845456220733243 0.24449663650262579 0 0.31879452400631653 0.25919465198291952 0 0.33565265393095528 0.25675142138279861 0 0.33982225619875311 0.26765994074234428 0 0.31879452400631653 0.25919465198291952 0 0.33982225619875311 0.26765994074234428 0 0.31879452400631653 0.25919465198291952 0 0.33565265393095528 0.25675142138279861 0 0.33092809789354199 0.24744869965648561 0 0.33565265393095528 0.25675142138279861 0 0.33982225619875311 0.26765994074234428 0 0.34536281311255052 0.25941060478944128 0 0.33565265393095528 0.25675142138279861 0 0.3433555784436142 0.25004320974280247 0 0.33092809789354199 0.24744869965648561 0 0.33565265393095528 0.25675142138279861 0 0.3433555784436142 0.25004320974280247 0 0.34536281311255052 0.25941060478944128 0 0.31879452400631653 0.25919465198291952 0 0.33982225619875311 0.26765994074234428 0 0.32679599518363661 0.27733160004242491 0 0.33982225619875311 0.26765994074234428 0 0.32679599518363661 0.27733160004242491 0 0.34056182851336592 0.28206143899133118 0 0.30055108247350393 0.28416894361273021 0 0.32679599518363661 0.27733160004242491 0 0.30055108247350393 0.28416894361273021 0 0.31879452400631653 0.25919465198291952 0 0.32679599518363661 0.27733160004242491 0 0.32679599518363661 0.27733160004242491 0 0.32109763140443309 0.29547610107375327 0 0.33248404658197278 0.28876668272462419 0 0.30055108247350393 0.28416894361273021 0 0.32679599518363661 0.27733160004242491 0 0.32109763140443309 0.29547610107375327 0 0.32109763140443309 0.29547610107375327 0 0.31440941436971798 0.31242774502049953 0 0.32867162081685902 0.31028670060733149 0 0.30822946874662033 0.29998271616579031 0 0.32109763140443309 0.29547610107375327 0 0.31440941436971798 0.31242774502049953 0 0.32867162081685902 0.31028670060733149 0 0.33472549883669622 0.29791121211074773 0 0.34192449374142192 0.30753297203612773 0 0.32109763140443309 0.29547610107375327 0 0.32867162081685902 0.31028670060733149 0 0.33472549883669622 0.29791121211074773 0 0.33472549883669622 0.29791121211074773 0 0.34281583705185747 0.29966479619329672 0 0.34192449374142192 0.30753297203612773 0 0.33769186663180051 0.31814262317354819 0 0.32867162081685902 0.31028670060733149 0 0.34192449374142192 0.30753297203612773 0 0.32679599518363661 0.27733160004242491 0 0.33248404658197278 0.28876668272462419 0 0.34056182851336592 0.28206143899133118 0 0.32109763140443309 0.29547610107375327 0 0.33472549883669622 0.29791121211074773 0 0.33248404658197278 0.28876668272462419 0 0.33472549883669622 0.29791121211074773 0 0.33248404658197278 0.28876668272462419 0 0.34417327957572558 0.29277050597204329 0 0.33472549883669622 0.29791121211074773 0 0.34281583705185747 0.29966479619329672 0 0.34417327957572558 0.29277050597204329 0 0.33248404658197278 0.28876668272462419 0 0.34056182851336592 0.28206143899133118 0 0.34417327957572558 0.29277050597204329 0 0.34056182851336592 0.28206143899133118 0 0.34979868535227071 0.28728326233729501 0 0.34417327957572558 0.29277050597204329 0 0.34056182851336592 0.28206143899133118 0 0.34979868535227071 0.28728326233729501 0 0.35183199075491411 0.27966461044832719 0 0.34417327957572558 0.29277050597204329 0 0.35334053836337709 0.29410458558147129 0 0.34972900846361488 0.30172704795696642 0 0.34979868535227071 0.28728326233729501 0 0.34417327957572558 0.29277050597204329 0 0.35334053836337709 0.29410458558147129 0 0.34979868535227071 0.28728326233729501 0 0.35334053836337709 0.29410458558147129 0 0.35722235408413222 0.28831366276426512 0 0.35334053836337709 0.29410458558147129 0 0.35826071325737319 0.3003277240158499 0 0.36091512844171192 0.29433704443458902 0 0.35334053836337709 0.29410458558147129 0 0.35722235408413222 0.28831366276426512 0 0.36091512844171192 0.29433704443458902 0 0.34979868535227071 0.28728326233729501 0 0.35722235408413222 0.28831366276426512 0 0.35183199075491411 0.27966461044832719 0 0.35722235408413222 0.28831366276426512 0 0.36152496379752869 0.28359539021876212 0 0.35183199075491411 0.27966461044832719 0 0.34480088275632298 0.31606258733578418 0 0.34192449374142192 0.30753297203612773 0 0.35090510471213721 0.31152713165908658 0 0.34192449374142192 0.30753297203612773 0 0.35090510471213721 0.31152713165908658 0 0.34972900846361488 0.30172704795696642 0 0.34281583705185747 0.29966479619329672 0 0.34417327957572558 0.29277050597204329 0 0.34972900846361488 0.30172704795696642 0 0.34281583705185747 0.29966479619329672 0 0.34192449374142192 0.30753297203612773 0 0.34972900846361488 0.30172704795696642 0 0.34972900846361488 0.30172704795696642 0 0.35826071325737319 0.3003277240158499 0 0.35721607615581658 0.30656573559573969 0 0.35334053836337709 0.29410458558147129 0 0.34972900846361488 0.30172704795696642 0 0.35826071325737319 0.3003277240158499 0 0.35090510471213721 0.31152713165908658 0 0.34972900846361488 0.30172704795696642 0 0.35721607615581658 0.30656573559573969 0 0.35878641637012221 0.31305233625990619 0 0.35090510471213721 0.31152713165908658 0 0.35721607615581658 0.30656573559573969 0 0.37014896644917339 0.316543878568457 0 0.37763341047385651 0.29079382019339128 0 0.37014896644917339 0.316543878568457 0 0.37108481648816682 0.30013899891886681 0 0.36845835323010317 0.30596496181531441 0 0.37014896644917339 0.316543878568457 0 0.37763341047385651 0.29079382019339128 0 0.37695808612291098 0.31120865645681561 0 0.37014896644917339 0.316543878568457 0 0.37108481648816682 0.30013899891886681 0 0.37763341047385651 0.29079382019339128 0 0.36630954626425261 0.31087512405144152 0 0.36228941999803421 0.30896529616435242 0 0.36543096483439103 0.3064802843427199 0 0.36331333565659901 0.31283202127524651 0 0.36630954626425261 0.31087512405144152 0 0.36228941999803421 0.30896529616435242 0 0.36331333565659901 0.31283202127524651 0 0.35878641637012221 0.31305233625990619 0 0.36228941999803421 0.30896529616435242 0 0.35878641637012221 0.31305233625990619 0 0.35721607615581658 0.30656573559573969 0 0.36228941999803421 0.30896529616435242 0 0.35721607615581658 0.30656573559573969 0 0.36228941999803421 0.30896529616435242 0 0.36268018070702418 0.30398627546106088 0 0.36630954626425261 0.31087512405144152 0 0.36543096483439103 0.3064802843427199 0 0.36845835323010317 0.30596496181531441 0 0.36228941999803421 0.30896529616435242 0 0.36543096483439103 0.3064802843427199 0 0.36268018070702418 0.30398627546106088 0 0.36543096483439103 0.3064802843427199 0 0.36607900901995372 0.30349396637540749 0 0.36845835323010317 0.30596496181531441 0 0.36607900901995372 0.30349396637540749 0 0.36268018070702418 0.30398627546106088 0 0.36558719123160882 0.29969948119116269 0 0.36607900901995372 0.30349396637540749 0 0.36558719123160882 0.29969948119116269 0 0.36823835509664099 0.30133882906677939 0 0.36543096483439103 0.3064802843427199 0 0.36607900901995372 0.30349396637540749 0 0.36268018070702418 0.30398627546106088 0 0.35826071325737319 0.3003277240158499 0 0.35721607615581658 0.30656573559573969 0 0.36268018070702418 0.30398627546106088 0 0.35826071325737319 0.3003277240158499 0 0.36268018070702418 0.30398627546106088 0 0.36558719123160882 0.29969948119116269 0 0.35826071325737319 0.3003277240158499 0 0.36558719123160882 0.29969948119116269 0 0.36091512844171192 0.29433704443458902 0 0.36871223371641282 0.29817542324200702 0 0.37108481648816682 0.30013899891886681 0 0.37014933742706652 0.29575476169949788 0 0.36558719123160882 0.29969948119116269 0 0.36871223371641282 0.29817542324200702 0 0.36734652779664789 0.29411680932906442 0 0.36558719123160882 0.29969948119116269 0 0.36871223371641282 0.29817542324200702 0 0.36823835509664099 0.30133882906677939 0 0.36871223371641282 0.29817542324200702 0 0.37108481648816682 0.30013899891886681 0 0.36823835509664099 0.30133882906677939 0 0.37108481648816682 0.30013899891886681 0 0.36823835509664099 0.30133882906677939 0 0.36845835323010317 0.30596496181531441 0 0.36607900901995372 0.30349396637540749 0 0.36823835509664099 0.30133882906677939 0 0.36845835323010317 0.30596496181531441 0 0.37014896644917339 0.316543878568457 0 0.36630954626425261 0.31087512405144152 0 0.36845835323010317 0.30596496181531441 0 0.36812955944888692 0.28419813691800921 0 0.36084998839118931 0.2761252295017701 0 0.37969218042614078 0.28371066929036243 0 0.36152496379752869 0.28359539021876212 0 0.36812955944888692 0.28419813691800921 0 0.36084998839118931 0.2761252295017701 0 0.36414496955441777 0.28941104037434479 0 0.36911771796651938 0.28986917351547109 0 0.36812955944888692 0.28419813691800921 0 0.36152496379752869 0.28359539021876212 0 0.36414496955441777 0.28941104037434479 0 0.36812955944888692 0.28419813691800921 0 0.35722235408413222 0.28831366276426512 0 0.36152496379752869 0.28359539021876212 0 0.36414496955441777 0.28941104037434479 0 0.35722235408413222 0.28831366276426512 0 0.36091512844171192 0.29433704443458902 0 0.36414496955441777 0.28941104037434479 0 0.36558719123160882 0.29969948119116269 0 0.36091512844171192 0.29433704443458902 0 0.36734652779664789 0.29411680932906442 0 0.36091512844171192 0.29433704443458902 0 0.36414496955441777 0.28941104037434479 0 0.36734652779664789 0.29411680932906442 0 0.36414496955441777 0.28941104037434479 0 0.36911771796651938 0.28986917351547109 0 0.36734652779664789 0.29411680932906442 0 0.36911771796651938 0.28986917351547109 0 0.37026464520563152 0.29279186409727531 0 0.36734652779664789 0.29411680932906442 0 0.37108481648816682 0.30013899891886681 0 0.37306860395079622 0.29341917559567809 0 0.37763341047385651 0.29079382019339128 0 0.36911771796651938 0.28986917351547109 0 0.37026464520563152 0.29279186409727531 0 0.37237913536365119 0.29056320862162688 0 0.36871223371641282 0.29817542324200702 0 0.36734652779664789 0.29411680932906442 0 0.37014933742706652 0.29575476169949788 0 0.37026464520563152 0.29279186409727531 0 0.36734652779664789 0.29411680932906442 0 0.37014933742706652 0.29575476169949788 0 0.37108481648816682 0.30013899891886681 0 0.37014933742706652 0.29575476169949788 0 0.37306860395079622 0.29341917559567809 0 0.37026464520563152 0.29279186409727531 0 0.37014933742706652 0.29575476169949788 0 0.37306860395079622 0.29341917559567809 0 0.36911771796651938 0.28986917351547109 0 0.37237913536365119 0.29056320862162688 0 0.37333201972158658 0.2878654242033048 0 0.37306860395079622 0.29341917559567809 0 0.37237913536365119 0.29056320862162688 0 0.37763341047385651 0.29079382019339128 0 0.37237913536365119 0.29056320862162688 0 0.37333201972158658 0.2878654242033048 0 0.37763341047385651 0.29079382019339128 0 0.37026464520563152 0.29279186409727531 0 0.37306860395079622 0.29341917559567809 0 0.37237913536365119 0.29056320862162688 0 0.37333201972158658 0.2878654242033048 0 0.36812955944888692 0.28419813691800921 0 0.37969218042614078 0.28371066929036243 0 0.36911771796651938 0.28986917351547109 0 0.37333201972158658 0.2878654242033048 0 0.36812955944888692 0.28419813691800921 0 0.36084998839118931 0.2761252295017701 0 0.37969218042614078 0.28371066929036243 0 0.36084998839118931 0.2761252295017701 0 0.37017340450925651 0.266060206293324 0 0.3539366042426153 0.26554047293381039 0 0.36084998839118931 0.2761252295017701 0 0.38460708535355081 0.26680105137204091 0 0.36084998839118931 0.2761252295017701 0 0.37017340450925651 0.266060206293324 0 0.38460708535355081 0.26680105137204091 0 0.3539366042426153 0.26554047293381039 0 0.38129994004966872 0.25577407136566988 0 0.37169426656027921 0.24972740256563611 0 0.37017340450925651 0.266060206293324 0 0.3539366042426153 0.26554047293381039 0 0.38129994004966872 0.25577407136566988 0 0.3539366042426153 0.26554047293381039 0 0.37169426656027921 0.24972740256563611 0 0.36205361842742478 0.24882498742118489 0 0.3539366042426153 0.26554047293381039 0 0.38129994004966872 0.25577407136566988 0 0.3539366042426153 0.26554047293381039 0 0.35175757775775729 0.2532797976346674 0 0.36205361842742478 0.24882498742118489 0 0.3433555784436142 0.25004320974280247 0 0.35175757775775729 0.2532797976346674 0 0.34536281311255052 0.25941060478944128 0 0.33982225619875311 0.26765994074234428 0 0.3539366042426153 0.26554047293381039 0 0.34536281311255052 0.25941060478944128 0 0.3539366042426153 0.26554047293381039 0 0.35175757775775729 0.2532797976346674 0 0.34536281311255052 0.25941060478944128 0 0.33982225619875311 0.26765994074234428 0 0.36084998839118931 0.2761252295017701 0 0.33982225619875311 0.26765994074234428 0 0.36084998839118931 0.2761252295017701 0 0.3539366042426153 0.26554047293381039 0 0.33982225619875311 0.26765994074234428 0 0.36084998839118931 0.2761252295017701 0 0.35183199075491411 0.27966461044832719 0 0.33982225619875311 0.26765994074234428 0 0.34056182851336592 0.28206143899133118 0 0.35183199075491411 0.27966461044832719 0 0.36152496379752869 0.28359539021876212 0 0.36084998839118931 0.2761252295017701 0 0.35183199075491411 0.27966461044832719 0 0.36084998839118931 0.2761252295017701 0 0.35183199075491411 0.27966461044832719 0 0.39945440726228237 0.27350419034528239 0 0.38460708535355081 0.26680105137204091 0 0.40768566828284042 0.25774317622192677 0 0.39945440726228237 0.27350419034528239 0 0.4092682188351508 0.26816031590002881 0 0.40768566828284042 0.25774317622192677 0 0.39945440726228237 0.27350419034528239 0 0.38460708535355081 0.26680105137204091 0 0.3904751567012596 0.27530993325585928 0 0.39945440726228237 0.27350419034528239 0 0.3904751567012596 0.27530993325585928 0 0.39488150240831521 0.28173053148540511 0 0.39945440726228237 0.27350419034528239 0 0.40366985246608472 0.28285995447659418 0 0.40929088926209078 0.279020096056181 0 0.39945440726228237 0.27350419034528239 0 0.4092682188351508 0.26816031590002881 0 0.40929088926209078 0.279020096056181 0 0.39945440726228237 0.27350419034528239 0 0.39488150240831521 0.28173053148540511 0 0.40366985246608472 0.28285995447659418 0 0.38783836144724232 0.2556839199238965 0 0.38129994004966872 0.25577407136566988 0 0.40866327585672191 0.24600766979752939 0 0.38460708535355081 0.26680105137204091 0 0.40768566828284042 0.25774317622192677 0 0.38783836144724232 0.2556839199238965 0 0.40768566828284042 0.25774317622192677 0 0.40866327585672191 0.24600766979752939 0 0.38783836144724232 0.2556839199238965 0 0.38460708535355081 0.26680105137204091 0 0.40768566828284042 0.25774317622192677 0 0.38129994004966872 0.25577407136566988 0 0.40866327585672191 0.24600766979752939 0 0.38783836144724232 0.2556839199238965 0 0.38129994004966872 0.25577407136566988 0 0.38460708535355081 0.26680105137204091 0 0.38783836144724232 0.2556839199238965 0 0.38460708535355081 0.26680105137204091 0 0.38129994004966872 0.25577407136566988 0 0.37169426656027921 0.24972740256563611 0 0.38106847269238292 0.24536179082341181 0 0.37017340450925651 0.266060206293324 0 0.38129994004966872 0.25577407136566988 0 0.38460708535355081 0.26680105137204091 0 0.36084998839118931 0.2761252295017701 0 0.38460708535355081 0.26680105137204091 0 0.37969218042614078 0.28371066929036243 0 0.38460708535355081 0.26680105137204091 0 0.3904751567012596 0.27530993325585928 0 0.37969218042614078 0.28371066929036243 0 0.38460708535355081 0.26680105137204091 0 0.37969218042614078 0.28371066929036243 0 0.3904751567012596 0.27530993325585928 0 0.37969218042614078 0.28371066929036243 0 0.39488150240831521 0.28173053148540511 0 0.37969218042614078 0.28371066929036243 0 0.37763341047385651 0.29079382019339128 0 0.40259214502479168 0.29292967641552992 0 0.37763341047385651 0.29079382019339128 0 0.4027243230010164 0.30147339632314252 0 0.37969218042614078 0.28371066929036243 0 0.37763341047385651 0.29079382019339128 0 0.37333201972158658 0.2878654242033048 0 0.37969218042614078 0.28371066929036243 0 0.37763341047385651 0.29079382019339128 0 0.37763341047385651 0.29079382019339128 0 0.37695808612291098 0.31120865645681561 0 0.38599374742651271 0.30414296713942529 0 0.37763341047385651 0.29079382019339128 0 0.38599374742651271 0.30414296713942529 0 0.4027243230010164 0.30147339632314252 0 0.37695808612291098 0.31120865645681561 0 0.38599374742651271 0.30414296713942529 0 0.38754735899376969 0.31282171123814728 0 0.38599374742651271 0.30414296713942529 0 0.4027243230010164 0.30147339632314252 0 0.38754735899376969 0.31282171123814728 0 0.4027243230010164 0.30147339632314252 0 0.3956366020903157 0.32248231082130752 0 0.38754735899376969 0.31282171123814728 0 0.37969218042614078 0.28371066929036243 0 0.40259214502479168 0.29292967641552992 0 0.37969218042614078 0.28371066929036243 0 0.39488150240831521 0.28173053148540511 0 0.40259214502479168 0.29292967641552992 0 0.37763341047385651 0.29079382019339128 0 0.4027243230010164 0.30147339632314252 0 0.40259214502479168 0.29292967641552992 0 0.4027243230010164 0.30147339632314252 0 0.40259214502479168 0.29292967641552992 0 0.41139710839419091 0.29189735433941028 0 0.40259214502479168 0.29292967641552992 0 0.40366985246608472 0.28285995447659418 0 0.41139710839419091 0.29189735433941028 0 0.39488150240831521 0.28173053148540511 0 0.40259214502479168 0.29292967641552992 0 0.40366985246608472 0.28285995447659418 0 0.40366985246608472 0.28285995447659418 0 0.41139710839419091 0.29189735433941028 0 0.40929088926209078 0.279020096056181 0 0.41139710839419091 0.29189735433941028 0 0.42781523552817591 0.31215297245289481 0 0.42226183937510081 0.28327127115801121 0 0.41139710839419091 0.29189735433941028 0 0.42226183937510081 0.28327127115801121 0 0.40929088926209078 0.279020096056181 0 0.4027243230010164 0.30147339632314252 0 0.41139710839419091 0.29189735433941028 0 0.42781523552817591 0.31215297245289481 0 0.4027243230010164 0.30147339632314252 0 0.42781523552817591 0.31215297245289481 0 0.41357021602424721 0.32279281759874212 0 0.4027243230010164 0.30147339632314252 0 0.42781523552817591 0.31215297245289481 0 0.42781523552817591 0.31215297245289481 0 0.42226183937510081 0.28327127115801121 0 0.42781523552817591 0.31215297245289481 0 0.42226183937510081 0.28327127115801121 0 0.44120727567718632 0.28746005308771089 0 0.42226183937510081 0.28327127115801121 0 0.43023391716603732 0.27040224467912161 0 0.44120727567718632 0.28746005308771089 0 0.42226183937510081 0.28327127115801121 0 0.43023391716603732 0.27040224467912161 0 0.41664462513020523 0.25422696758609492 0 0.43023391716603732 0.27040224467912161 0 0.43692075095235122 0.26433370861442979 0 0.44373838257505849 0.27050131303512348 0 0.42226183937510081 0.28327127115801121 0 0.4092682188351508 0.26816031590002881 0 0.41664462513020523 0.25422696758609492 0 0.42226183937510081 0.28327127115801121 0 0.41664462513020523 0.25422696758609492 0 0.42226183937510081 0.28327127115801121 0 0.4092682188351508 0.26816031590002881 0 0.40929088926209078 0.279020096056181 0 0.40768566828284042 0.25774317622192677 0 0.41664462513020523 0.25422696758609492 0 0.40866327585672191 0.24600766979752939 0 0.40768566828284042 0.25774317622192677 0 0.41664462513020523 0.25422696758609492 0 0.4092682188351508 0.26816031590002881 0 0.40768566828284042 0.25774317622192677 0 0.41664462513020523 0.25422696758609492 0 0.42749544465446981 0.25699566217507153 0 0.45166362976964691 0.25106894999712381 0 0.43076425121212841 0.2486853010718087 0 0.41664462513020523 0.25422696758609492 0 0.42749544465446981 0.25699566217507153 0 0.43076425121212841 0.2486853010718087 0 0.43023391716603732 0.27040224467912161 0 0.41664462513020523 0.25422696758609492 0 0.42749544465446981 0.25699566217507153 0 0.41664462513020523 0.25422696758609492 0 0.43076425121212841 0.2486853010718087 0 0.42749544465446981 0.25699566217507153 0 0.43692075095235122 0.26433370861442979 0 0.44456450099631911 0.26043047377218492 0 0.43023391716603732 0.27040224467912161 0 0.42749544465446981 0.25699566217507153 0 0.43692075095235122 0.26433370861442979 0 0.42749544465446981 0.25699566217507153 0 0.45166362976964691 0.25106894999712381 0 0.42749544465446981 0.25699566217507153 0 0.44456450099631911 0.26043047377218492 0 0.45166362976964691 0.25106894999712381 0 0.43692075095235122 0.26433370861442979 0 0.44456450099631911 0.26043047377218492 0 0.44373838257505849 0.27050131303512348 0 0.44456450099631911 0.26043047377218492 0 0.44373838257505849 0.27050131303512348 0 0.45508065662597141 0.26402805921732958 0 0.44456450099631911 0.26043047377218492 0 0.45166362976964691 0.25106894999712381 0 0.45508065662597141 0.26402805921732958 0 0.44373838257505849 0.27050131303512348 0 0.45472874274978531 0.27586911806656422 0 0.44120727567718632 0.28746005308771089 0 0.43023391716603732 0.27040224467912161 0 0.44373838257505849 0.27050131303512348 0 0.44120727567718632 0.28746005308771089 0 0.44373838257505849 0.27050131303512348 0 0.45472874274978531 0.27586911806656422 0 0.45508065662597141 0.26402805921732958 0 0.45472874274978531 0.27586911806656422 0 0.46665275363318931 0.27127710252775639 0 0.46192346945889701 0.28817835066990299 0 0.45472874274978531 0.27586911806656422 0 0.46665275363318931 0.27127710252775639 0 0.45508065662597141 0.26402805921732958 0 0.45166362976964691 0.25106894999712381 0 0.46652816171208539 0.25830808769848879 0 0.47583181488482379 0.2451422378191761 0 0.45166362976964691 0.25106894999712381 0 0.45508065662597141 0.26402805921732958 0 0.46652816171208539 0.25830808769848879 0 0.46665275363318931 0.27127710252775639 0 0.45508065662597141 0.26402805921732958 0 0.46652816171208539 0.25830808769848879 0 0.46665275363318931 0.27127710252775639 0 0.46652816171208539 0.25830808769848879 0 0.48341195364679568 0.26002408893105827 0 0.46652816171208539 0.25830808769848879 0 0.48341195364679568 0.26002408893105827 0 0.47583181488482379 0.2451422378191761 0 0.46665275363318931 0.27127710252775639 0 0.48341195364679568 0.26002408893105827 0 0.48138518434246891 0.28130646820503019 0 0.46665275363318931 0.27127710252775639 0 0.48138518434246891 0.28130646820503019 0 0.46192346945889701 0.28817835066990299 0 0.5 0.26671351767664991 0 0.5 0.29421150971207138 0 0.48138518434246891 0.28130646820503019 0 0.48341195364679568 0.26002408893105827 0 0.5 0.26671351767664991 0 0.48138518434246891 0.28130646820503019 0 0.48341195364679568 0.26002408893105827 0 0.5 0.26671351767664991 0 0.50000000000000067 0.2392155256412283 0 0.5 0.29421150971207138 0 0.47556093647901088 0.30733800586058863 0 0.5 0.32170950174749302 0 0.5 0.29421150971207138 0 0.48138518434246891 0.28130646820503019 0 0.47556093647901088 0.30733800586058863 0 0.48138518434246891 0.28130646820503019 0 0.47556093647901088 0.30733800586058863 0 0.46192346945889701 0.28817835066990299 0 0.47556093647901088 0.30733800586058863 0 0.45214514511688908 0.30370412902975941 0 0.45421880844117613 0.32339126307769928 0 0.47556093647901088 0.30733800586058863 0 0.46192346945889701 0.28817835066990299 0 0.45214514511688908 0.30370412902975941 0 0.46192346945889701 0.28817835066990299 0 0.44120727567718632 0.28746005308771089 0 0.45214514511688908 0.30370412902975941 0 0.45472874274978531 0.27586911806656422 0 0.46192346945889701 0.28817835066990299 0 0.44120727567718632 0.28746005308771089 0 0.42781523552817591 0.31215297245289481 0 0.44120727567718632 0.28746005308771089 0 0.45214514511688908 0.30370412902975941 0 0.42781523552817591 0.31215297245289481 0 0.45421880844117613 0.32339126307769928 0 0.43298436918619881 0.33903622913929549 0 0.42781523552817591 0.31215297245289481 0 0.45214514511688908 0.30370412902975941 0 0.45421880844117613 0.32339126307769928 0 0.42781523552817591 0.31215297245289481 0 0.45421880844117613 0.32339126307769928 0 0.45421880844117613 0.32339126307769928 0 0.45970761232660212 0.34692044601787542 0 0.43298436918619881 0.33903622913929549 0 0.45421880844117613 0.32339126307769928 0 0.48062238135417568 0.33462955370250519 0 0.45421880844117613 0.32339126307769928 0 0.48062238135417568 0.33462955370250519 0 0.45970761232660212 0.34692044601787542 0 0.47556093647901088 0.30733800586058863 0 0.45421880844117613 0.32339126307769928 0 0.48062238135417568 0.33462955370250519 0 0.48062238135417568 0.33462955370250519 0 0.5 0.32170950174749302 0 0.5 0.34920749378291471 0 0.47556093647901088 0.30733800586058863 0 0.48062238135417568 0.33462955370250519 0 0.5 0.32170950174749302 0 0.5 0.34920749378291471 0 0.48254603458521478 0.3522402998402685 0 0.5 0.37670548581833618 0 0.48062238135417568 0.33462955370250519 0 0.5 0.34920749378291471 0 0.48254603458521478 0.3522402998402685 0 0.48254603458521478 0.3522402998402685 0 0.46972057754862501 0.36630584452178799 0 0.45970761232660212 0.34692044601787542 0 0.48062238135417568 0.33462955370250519 0 0.48254603458521478 0.3522402998402685 0 0.45970761232660212 0.34692044601787542 0 0.48254603458521478 0.3522402998402685 0 0.46972057754862501 0.36630584452178799 0 0.5 0.37670548581833618 0 0.46972057754862501 0.36630584452178799 0 0.43815350284422228 0.36591948582569622 0 0.45848938469160699 0.38276388730883248 0 0.46972057754862501 0.36630584452178799 0 0.45970761232660212 0.34692044601787542 0 0.43815350284422228 0.36591948582569622 0 0.45970761232660212 0.34692044601787542 0 0.43815350284422228 0.36591948582569622 0 0.43298436918619881 0.33903622913929549 0 0.43815350284422228 0.36591948582569622 0 0.4167242930516859 0.35972934744593471 0 0.42344095457037051 0.38268701701273461 0 0.4167242930516859 0.35972934744593471 0 0.40101385701800268 0.38518895784325291 0 0.4167242930516859 0.35972934744593471 0 0.40181680918128981 0.35947395412181382 0 0.40101385701800268 0.38518895784325291 0 0.4167242930516859 0.35972934744593471 0 0.40869055031553031 0.33881917925707022 0 0.40181680918128981 0.35947395412181382 0 0.4167242930516859 0.35972934744593471 0 0.43298436918619881 0.33903622913929549 0 0.40869055031553031 0.33881917925707022 0 0.43815350284422228 0.36591948582569622 0 0.4167242930516859 0.35972934744593471 0 0.43298436918619881 0.33903622913929549 0 0.43815350284422228 0.36591948582569622 0 0.43298436918619881 0.33903622913929549 0 0.42781523552817591 0.31215297245289481 0 0.43298436918619881 0.33903622913929549 0 0.42781523552817591 0.31215297245289481 0 0.43298436918619881 0.33903622913929549 0 0.41357021602424721 0.32279281759874212 0 0.43298436918619881 0.33903622913929549 0 0.41357021602424721 0.32279281759874212 0 0.40869055031553031 0.33881917925707022 0 0.40869055031553031 0.33881917925707022 0 0.39369601167170543 0.33564153172070438 0 0.39209274976778918 0.34814598654190299 0 0.40869055031553031 0.33881917925707022 0 0.39369601167170543 0.33564153172070438 0 0.3956366020903157 0.32248231082130752 0 0.39369601167170543 0.33564153172070438 0 0.3956366020903157 0.32248231082130752 0 0.38362385659697051 0.32926172455430031 0 0.39369601167170543 0.33564153172070438 0 0.38635485741833753 0.33883185827426582 0 0.39209274976778918 0.34814598654190299 0 0.41357021602424721 0.32279281759874212 0 0.40869055031553031 0.33881917925707022 0 0.3956366020903157 0.32248231082130752 0 0.4027243230010164 0.30147339632314252 0 0.41357021602424721 0.32279281759874212 0 0.3956366020903157 0.32248231082130752 0 0.3956366020903157 0.32248231082130752 0 0.38754735899376969 0.31282171123814728 0 0.38479800915553353 0.32074741934569512 0 0.38754735899376969 0.31282171123814728 0 0.38479800915553353 0.32074741934569512 0 0.37917338616632867 0.3168755173424983 0 0.3956366020903157 0.32248231082130752 0 0.38479800915553353 0.32074741934569512 0 0.38362385659697051 0.32926172455430031 0 0.38479800915553353 0.32074741934569512 0 0.37832625022041982 0.32264150287239662 0 0.38362385659697051 0.32926172455430031 0 0.37577016905582622 0.32787937856968757 0 0.37832625022041982 0.32264150287239662 0 0.38362385659697051 0.32926172455430031 0 0.37577016905582622 0.32787937856968757 0 0.37506056064123422 0.32471797871916308 0 0.37832625022041982 0.32264150287239662 0 0.37368960646642962 0.31911015363466272 0 0.37506056064123422 0.32471797871916308 0 0.37832625022041982 0.32264150287239662 0 0.37695808612291098 0.31120865645681561 0 0.38754735899376969 0.31282171123814728 0 0.37917338616632867 0.3168755173424983 0 0.38479800915553353 0.32074741934569512 0 0.37832625022041982 0.32264150287239662 0 0.37917338616632867 0.3168755173424983 0 0.37368960646642962 0.31911015363466272 0 0.37832625022041982 0.32264150287239662 0 0.37917338616632867 0.3168755173424983 0 0.37499251130121058 0.31593455150060828 0 0.37368960646642962 0.31911015363466272 0 0.37917338616632867 0.3168755173424983 0 0.37499251130121058 0.31593455150060828 0 0.37695808612291098 0.31120865645681561 0 0.37917338616632867 0.3168755173424983 0 0.38635485741833753 0.33883185827426582 0 0.3795813787571668 0.3363772241379393 0 0.38278029029805521 0.34473282441648212 0 0.39369601167170543 0.33564153172070438 0 0.38635485741833753 0.33883185827426582 0 0.38362385659697051 0.32926172455430031 0 0.38635485741833753 0.33883185827426582 0 0.38362385659697051 0.32926172455430031 0 0.3795813787571668 0.3363772241379393 0 0.37577016905582622 0.32787937856968757 0 0.38362385659697051 0.32926172455430031 0 0.37868435463470768 0.3315773541462857 0 0.38362385659697051 0.32926172455430031 0 0.37868435463470768 0.3315773541462857 0 0.3795813787571668 0.3363772241379393 0 0.37577016905582622 0.32787937856968757 0 0.37868435463470768 0.3315773541462857 0 0.375263113682131 0.33313320718557798 0 0.37868435463470768 0.3315773541462857 0 0.375263113682131 0.33313320718557798 0 0.3795813787571668 0.3363772241379393 0 0.37369311900952262 0.33836265764115908 0 0.3795813787571668 0.3363772241379393 0 0.37670219357667811 0.34177383067972761 0 0.3795813787571668 0.3363772241379393 0 0.37670219357667811 0.34177383067972761 0 0.38278029029805521 0.34473282441648212 0 0.37369311900952262 0.33836265764115908 0 0.375263113682131 0.33313320718557798 0 0.3795813787571668 0.3363772241379393 0 0.3809821990389497 0.35490418517770578 0 0.39056259575344082 0.36548629952090861 0 0.39209274976778918 0.34814598654190299 0 0.37486749369974542 0.34694596905823039 0 0.37670219357667811 0.34177383067972761 0 0.38278029029805521 0.34473282441648212 0 0.37486749369974542 0.34694596905823039 0 0.38278029029805521 0.34473282441648212 0 0.3809821990389497 0.35490418517770578 0 0.38278029029805521 0.34473282441648212 0 0.3809821990389497 0.35490418517770578 0 0.39209274976778918 0.34814598654190299 0 0.38635485741833753 0.33883185827426582 0 0.38278029029805521 0.34473282441648212 0 0.39209274976778918 0.34814598654190299 0 0.37228166628853332 0.35471301169251829 0 0.37486749369974542 0.34694596905823039 0 0.3809821990389497 0.35490418517770578 0 0.37414389550204002 0.36898578533419818 0 0.3809821990389497 0.35490418517770578 0 0.39056259575344082 0.36548629952090861 0 0.37414389550204002 0.36898578533419818 0 0.39056259575344082 0.36548629952090861 0 0.40101385701800268 0.38518895784325291 0 0.37414389550204002 0.36898578533419818 0 0.37228166628853332 0.35471301169251829 0 0.3809821990389497 0.35490418517770578 0 0.39056259575344082 0.36548629952090861 0 0.40181680918128981 0.35947395412181382 0 0.40101385701800268 0.38518895784325291 0 0.39056259575344082 0.36548629952090861 0 0.40181680918128981 0.35947395412181382 0 0.39209274976778918 0.34814598654190299 0 0.40869055031553031 0.33881917925707022 0 0.40181680918128981 0.35947395412181382 0 0.39209274976778918 0.34814598654190299 0 0.40101385701800268 0.38518895784325291 0 0.38530342098431941 0.41064856824057122 0 0.40101385701800268 0.38518895784325291 0 0.38530342098431941 0.41064856824057122 0 0.41521715527738928 0.40390661881175682 0 0.3736470799201031 0.39378130610698531 0 0.37414389550204002 0.36898578533419818 0 0.40101385701800268 0.38518895784325291 0 0.3736470799201031 0.39378130610698531 0 0.40101385701800268 0.38518895784325291 0 0.38530342098431941 0.41064856824057122 0 0.36959298495063608 0.43610817863788948 0 0.38530342098431941 0.41064856824057122 0 0.36959298495063608 0.43610817863788948 0 0.38530342098431941 0.41064856824057122 0 0.3889231515195431 0.43141286456833011 0 0.3889231515195431 0.43141286456833011 0 0.40362265567455102 0.42304679086704539 0 0.39942544658573009 0.43872588670818857 0 0.40362265567455102 0.42304679086704539 0 0.41248490446316177 0.43293377153942381 0 0.39942544658573009 0.43872588670818857 0 0.38530342098431941 0.41064856824057122 0 0.3889231515195431 0.43141286456833011 0 0.40362265567455102 0.42304679086704539 0 0.38530342098431941 0.41064856824057122 0 0.40362265567455102 0.42304679086704539 0 0.41521715527738928 0.40390661881175682 0 0.40362265567455102 0.42304679086704539 0 0.42233359500988371 0.42307221464191669 0 0.41521715527738928 0.40390661881175682 0 0.40362265567455102 0.42304679086704539 0 0.41248490446316177 0.43293377153942381 0 0.42233359500988371 0.42307221464191669 0 0.41248490446316177 0.43293377153942381 0 0.42233359500988371 0.42307221464191669 0 0.42326813014219627 0.43909650749986368 0 0.42233359500988371 0.42307221464191669 0 0.43681876433844857 0.43497208046478802 0 0.42326813014219627 0.43909650749986368 0 0.42233359500988371 0.42307221464191669 0 0.43681876433844857 0.43497208046478802 0 0.43655617137350622 0.42038510460191503 0 0.42233359500988371 0.42307221464191669 0 0.42830887421762198 0.41018013153495869 0 0.41521715527738928 0.40390661881175682 0 0.42233359500988371 0.42307221464191669 0 0.42830887421762198 0.41018013153495869 0 0.43655617137350622 0.42038510460191503 0 0.42830887421762198 0.41018013153495869 0 0.43655617137350622 0.42038510460191503 0 0.439625884597032 0.40642404903869822 0 0.42978568865087441 0.39901034440009059 0 0.42344095457037051 0.38268701701273461 0 0.4433226365022459 0.39280274251209668 0 0.42978568865087441 0.39901034440009059 0 0.41521715527738928 0.40390661881175682 0 0.42344095457037051 0.38268701701273461 0 0.42830887421762198 0.41018013153495869 0 0.42978568865087441 0.39901034440009059 0 0.439625884597032 0.40642404903869822 0 0.42830887421762198 0.41018013153495869 0 0.42978568865087441 0.39901034440009059 0 0.41521715527738928 0.40390661881175682 0 0.4167242930516859 0.35972934744593471 0 0.40101385701800268 0.38518895784325291 0 0.42344095457037051 0.38268701701273461 0 0.40101385701800268 0.38518895784325291 0 0.41521715527738928 0.40390661881175682 0 0.42344095457037051 0.38268701701273461 0 0.43815350284422228 0.36591948582569622 0 0.42344095457037051 0.38268701701273461 0 0.4433226365022459 0.39280274251209668 0 0.43815350284422228 0.36591948582569622 0 0.4433226365022459 0.39280274251209668 0 0.43815350284422228 0.36591948582569622 0 0.4433226365022459 0.39280274251209668 0 0.45848938469160699 0.38276388730883248 0 0.4433226365022459 0.39280274251209668 0 0.4587292321942566 0.40377894109977869 0 0.44849177016026981 0.41968599919849731 0 0.4433226365022459 0.39280274251209668 0 0.44849177016026981 0.41968599919849731 0 0.42978568865087441 0.39901034440009059 0 0.4433226365022459 0.39280274251209668 0 0.439625884597032 0.40642404903869822 0 0.4433226365022459 0.39280274251209668 0 0.4587292321942566 0.40377894109977869 0 0.45848938469160699 0.38276388730883248 0 0.4587292321942566 0.40377894109977869 0 0.45848938469160699 0.38276388730883248 0 0.47720201034463561 0.39055994944820821 0 0.46972057754862501 0.36630584452178799 0 0.45848938469160699 0.38276388730883248 0 0.47720201034463561 0.39055994944820821 0 0.46972057754862501 0.36630584452178799 0 0.47720201034463561 0.39055994944820821 0 0.5 0.37670548581833618 0 0.47720201034463561 0.39055994944820821 0 0.5 0.40420347785375749 0 0.47329291580914951 0.41490179660840648 0 0.4587292321942566 0.40377894109977869 0 0.47720201034463561 0.39055994944820821 0 0.47329291580914951 0.41490179660840648 0 0.47720201034463561 0.39055994944820821 0 0.5 0.40420347785375749 0 0.5 0.37670548581833618 0 0.48546521128148462 0.42572005307568972 0 0.49999999999999828 0.43170146988917901 0 0.48502495584706629 0.44181750450007778 0 0.49999999999999828 0.43170146988917901 0 0.48502495584706629 0.44181750450007778 0 0.5 0.40420347785375749 0 0.48546521128148462 0.42572005307568972 0 0.47329291580914951 0.41490179660840648 0 0.5 0.40420347785375749 0 0.48546521128148462 0.42572005307568972 0 0.49999999999999828 0.43170146988917901 0 0.48546521128148462 0.42572005307568972 0 0.47462076711180717 0.43403653248997731 0 0.48502495584706629 0.44181750450007778 0 0.47329291580914951 0.41490179660840648 0 0.47462076711180717 0.43403653248997731 0 0.45927084092720188 0.43580976915473651 0 0.48546521128148462 0.42572005307568972 0 0.47329291580914951 0.41490179660840648 0 0.47462076711180717 0.43403653248997731 0 0.45927084092720188 0.43580976915473651 0 0.44849177016026981 0.41968599919849731 0 0.47329291580914951 0.41490179660840648 0 0.45927084092720188 0.43580976915473651 0 0.44849177016026981 0.41968599919849731 0 0.45927084092720188 0.43580976915473651 0 0.44849177016026981 0.41968599919849731 0 0.45165089640657707 0.43611575462809582 0 0.4587292321942566 0.40377894109977869 0 0.47329291580914951 0.41490179660840648 0 0.44849177016026981 0.41968599919849731 0 0.4433226365022459 0.39280274251209668 0 0.44849177016026981 0.41968599919849731 0 0.439625884597032 0.40642404903869822 0 0.43655617137350622 0.42038510460191503 0 0.44849177016026981 0.41968599919849731 0 0.439625884597032 0.40642404903869822 0 0.44849177016026981 0.41968599919849731 0 0.439625884597032 0.40642404903869822 0 0.44849177016026981 0.41968599919849731 0 0.45165089640657707 0.43611575462809582 0 0.44386952542921521 0.4295111469185629 0 0.44849177016026981 0.41968599919849731 0 0.45165089640657707 0.43611575462809582 0 0.45165089640657707 0.43611575462809582 0 0.44386952542921521 0.4295111469185629 0 0.44519082659473158 0.43782150968735878 0 0.43655617137350622 0.42038510460191503 0 0.44849177016026981 0.41968599919849731 0 0.44386952542921521 0.4295111469185629 0 0.43681876433844857 0.43497208046478802 0 0.43655617137350622 0.42038510460191503 0 0.44386952542921521 0.4295111469185629 0 0.43681876433844857 0.43497208046478802 0 0.44386952542921521 0.4295111469185629 0 0.44519082659473158 0.43782150968735878 0 0.43681876433844857 0.43497208046478802 0 0.44519082659473158 0.43782150968735878 0 0.44362096681603608 0.44566090358066651 0 0.43681876433844857 0.43497208046478802 0 0.44362096681603608 0.44566090358066651 0 0.43343701099378978 0.44857281610427868 0 0.44362096681603608 0.44566090358066651 0 0.44110505044236059 0.45564825146568327 0 0.43343701099378978 0.44857281610427868 0 0.44362096681603608 0.44566090358066651 0 0.45255374853073171 0.45216262504332899 0 0.45221828903371142 0.44335246171580328 0 0.44362096681603608 0.44566090358066651 0 0.45255374853073171 0.45216262504332899 0 0.44110505044236059 0.45564825146568327 0 0.44519082659473158 0.43782150968735878 0 0.44362096681603608 0.44566090358066651 0 0.45221828903371142 0.44335246171580328 0 0.45165089640657707 0.43611575462809582 0 0.44519082659473158 0.43782150968735878 0 0.45221828903371142 0.44335246171580328 0 0.45255374853073171 0.45216262504332899 0 0.44518446721829791 0.46873079822848901 0 0.44110505044236059 0.45564825146568327 0 0.44518446721829791 0.46873079822848901 0 0.44110505044236059 0.45564825146568327 0 0.43072905865294731 0.46311411437165317 0 0.47284597636140308 0.45611600571247141 0 0.46302896313844299 0.47272331085799019 0 0.45255374853073171 0.45216262504332899 0 0.44518446721829791 0.46873079822848901 0 0.47004991169413368 0.45193353911097589 0 0.47004991169413368 0.45193353911097589 0 0.47284597636140308 0.45611600571247141 0 0.46302896313844299 0.47272331085799019 0 0.44518446721829791 0.46873079822848901 0 0.47004991169413368 0.45193353911097589 0 0.46302896313844299 0.47272331085799019 0 0.44518446721829791 0.46873079822848901 0 0.47004991169413368 0.45193353911097589 0 0.45927084092720188 0.43580976915473651 0 0.47004991169413368 0.45193353911097589 0 0.45927084092720188 0.43580976915473651 0 0.45930684530103161 0.44617181272829648 0 0.47004991169413368 0.45193353911097589 0 0.47462076711180717 0.43403653248997731 0 0.45927084092720188 0.43580976915473651 0 0.47004991169413368 0.45193353911097589 0 0.45255374853073171 0.45216262504332899 0 0.45930684530103161 0.44617181272829648 0 0.47004991169413368 0.45193353911097589 0 0.45927084092720188 0.43580976915473651 0 0.45221828903371142 0.44335246171580328 0 0.45930684530103161 0.44617181272829648 0 0.45927084092720188 0.43580976915473651 0 0.45165089640657707 0.43611575462809582 0 0.45221828903371142 0.44335246171580328 0 0.45255374853073171 0.45216262504332899 0 0.45221828903371142 0.44335246171580328 0 0.45930684530103161 0.44617181272829648 0 0.47462076711180717 0.43403653248997731 0 0.47004991169413368 0.45193353911097589 0 0.48502495584706629 0.44181750450007778 0 0.48189680466807888 0.45106209462173341 0 0.47450081081676521 0.45331654521044668 0 0.48502495584706629 0.44181750450007778 0 0.47004991169413368 0.45193353911097589 0 0.48502495584706629 0.44181750450007778 0 0.47004991169413368 0.45193353911097589 0 0.47450081081676521 0.45331654521044668 0 0.48502495584706629 0.44181750450007778 0 0.47284597636140308 0.45611600571247141 0 0.48050552008400071 0.46757346096286262 0 0.46302896313844299 0.47272331085799019 0 0.47004991169413368 0.45193353911097589 0 0.47284597636140308 0.45611600571247141 0 0.47004991169413368 0.45193353911097589 0 0.47450081081676521 0.45331654521044668 0 0.47284597636140308 0.45611600571247141 0 0.47450081081676521 0.45331654521044668 0 0.47284597636140308 0.45611600571247141 0 0.47951191807974908 0.45654698881850991 0 0.47450081081676521 0.45331654521044668 0 0.47284597636140308 0.45611600571247141 0 0.47284597636140308 0.45611600571247141 0 0.48050552008400071 0.46757346096286262 0 0.47284597636140308 0.45611600571247141 0 0.48050552008400071 0.46757346096286262 0 0.47951191807974908 0.45654698881850991 0 0.48189680466807888 0.45106209462173341 0 0.47951191807974908 0.45654698881850991 0 0.4878104784684959 0.4546668375850359 0 0.48050552008400071 0.46757346096286262 0 0.47951191807974908 0.45654698881850991 0 0.4878104784684959 0.4546668375850359 0 0.48189680466807888 0.45106209462173341 0 0.47450081081676521 0.45331654521044668 0 0.47951191807974908 0.45654698881850991 0 0.48050552008400071 0.46757346096286262 0 0.4878104784684959 0.4546668375850359 0 0.49999999999999928 0.46182898591187349 0 0.48050552008400071 0.46757346096286262 0 0.49999999999999928 0.46182898591187349 0 0.49999999999999828 0.43170146988917901 0 0.4878104784684959 0.4546668375850359 0 0.49999999999999928 0.46182898591187349 0 0.49999999999999828 0.43170146988917901 0 0.4878104784684959 0.4546668375850359 0 0.48502495584706629 0.44181750450007778 0 0.48189680466807888 0.45106209462173341 0 0.4878104784684959 0.4546668375850359 0 0.48502495584706629 0.44181750450007778 0 0.49999999999999928 0.46182898591187349 0 0.5 0.5 0 0.49753071700976492 0.4930404390193398 0 0.5 0.5 0 0.47501141284236448 0.48698608464618232 0 0.44690499747156931 0.4999999999999995 0 0.5 0.5 0 0.49753071700976492 0.4930404390193398 0 0.47501141284236448 0.48698608464618232 0 0.49753071700976492 0.4930404390193398 0 0.48901811854688337 0.4803069499911008 0 0.47501141284236448 0.48698608464618232 0 0.49753071700976492 0.4930404390193398 0 0.48901811854688337 0.4803069499911008 0 0.48050552008400071 0.46757346096286262 0 0.49999999999999928 0.46182898591187349 0 0.48901811854688337 0.4803069499911008 0 0.49999999999999928 0.46182898591187349 0 0.49753071700976492 0.4930404390193398 0 0.48901811854688337 0.4803069499911008 0 0.48050552008400071 0.46757346096286262 0 0.48901811854688337 0.4803069499911008 0 0.48050552008400071 0.46757346096286262 0 0.46302896313844299 0.47272331085799019 0 0.48901811854688337 0.4803069499911008 0 0.47689100365292297 0.47689745161453417 0 0.47501141284236448 0.48698608464618232 0 0.48050552008400071 0.46757346096286262 0 0.47689100365292297 0.47689745161453417 0 0.46302896313844299 0.47272331085799019 0 0.48050552008400071 0.46757346096286262 0 0.48901811854688337 0.4803069499911008 0 0.47689100365292297 0.47689745161453417 0 0.47689100365292297 0.47689745161453417 0 0.47501141284236448 0.48698608464618232 0 0.46302896313844299 0.47272331085799019 0 0.47501141284236448 0.48698608464618232 0 0.45496698030500621 0.48636165542899479 0 0.44690499747156931 0.4999999999999995 0 0.47501141284236448 0.48698608464618232 0 0.45496698030500621 0.48636165542899479 0 0.46302896313844299 0.47272331085799019 0 0.45496698030500621 0.48636165542899479 0 0.46302896313844299 0.47272331085799019 0 0.46302896313844299 0.47272331085799019 0 0.43620850627812668 0.48062654530969717 0 0.44518446721829791 0.46873079822848901 0 0.46302896313844299 0.47272331085799019 0 0.43620850627812668 0.48062654530969717 0 0.45496698030500621 0.48636165542899479 0 0.46302896313844299 0.47272331085799019 0 0.43620850627812668 0.48062654530969717 0 0.45496698030500621 0.48636165542899479 0 0.44690499747156931 0.4999999999999995 0 0.43620850627812668 0.48062654530969717 0 0.45496698030500621 0.48636165542899479 0 0.44690499747156931 0.4999999999999995 0 0.42031902274246069 0.48552805734600057 0 0.41743852268843429 0.5 0 0.43620850627812668 0.48062654530969717 0 0.44690499747156931 0.4999999999999995 0 0.41743852268843429 0.5 0 0.43620850627812668 0.48062654530969717 0 0.42031902274246069 0.48552805734600057 0 0.41743852268843429 0.5 0 0.40134209412993838 0.48520307466421098 0 0.42031902274246069 0.48552805734600057 0 0.40973563488985532 0.47579104778557152 0 0.40134209412993838 0.48520307466421098 0 0.42031902274246069 0.48552805734600057 0 0.40973563488985532 0.47579104778557152 0 0.41789473538963601 0.46705380048502582 0 0.44518446721829791 0.46873079822848901 0 0.42031902274246069 0.48552805734600057 0 0.43072905865294731 0.46311411437165317 0 0.44518446721829791 0.46873079822848901 0 0.42031902274246069 0.48552805734600057 0 0.43620850627812668 0.48062654530969717 0 0.44518446721829791 0.46873079822848901 0 0.42031902274246069 0.48552805734600057 0 0.42031902274246069 0.48552805734600057 0 0.43072905865294731 0.46311411437165317 0 0.41789473538963601 0.46705380048502582 0 0.44110505044236059 0.45564825146568327 0 0.43072905865294731 0.46311411437165317 0 0.43343701099378978 0.44857281610427868 0 0.43072905865294731 0.46311411437165317 0 0.43343701099378978 0.44857281610427868 0 0.42053980660522761 0.45341513910658388 0 0.43072905865294731 0.46311411437165317 0 0.41789473538963601 0.46705380048502582 0 0.42053980660522761 0.45341513910658388 0 0.43681876433844857 0.43497208046478802 0 0.43343701099378978 0.44857281610427868 0 0.42326813014219627 0.43909650749986368 0 0.43343701099378978 0.44857281610427868 0 0.42326813014219627 0.43909650749986368 0 0.42053980660522761 0.45341513910658388 0 0.41248490446316177 0.43293377153942381 0 0.42326813014219627 0.43909650749986368 0 0.41215324011006321 0.44426916471351768 0 0.42326813014219627 0.43909650749986368 0 0.41215324011006321 0.44426916471351768 0 0.42053980660522761 0.45341513910658388 0 0.41215324011006321 0.44426916471351768 0 0.42053980660522761 0.45341513910658388 0 0.40575666434273311 0.45838443146516472 0 0.41248490446316177 0.43293377153942381 0 0.41215324011006321 0.44426916471351768 0 0.39942544658573009 0.43872588670818857 0 0.40973563488985532 0.47579104778557152 0 0.41789473538963601 0.46705380048502582 0 0.40575666434273311 0.45838443146516472 0 0.41789473538963601 0.46705380048502582 0 0.42053980660522761 0.45341513910658388 0 0.40575666434273311 0.45838443146516472 0 0.40973563488985532 0.47579104778557152 0 0.40575666434273311 0.45838443146516472 0 0.39457326129307041 0.46924519202038539 0 0.40575666434273311 0.45838443146516472 0 0.38748492612950952 0.44892285829301931 0 0.39457326129307041 0.46924519202038539 0 0.40575666434273311 0.45838443146516472 0 0.39942544658573009 0.43872588670818857 0 0.38748492612950952 0.44892285829301931 0 0.3889231515195431 0.43141286456833011 0 0.39942544658573009 0.43872588670818857 0 0.38748492612950952 0.44892285829301931 0 0.41215324011006321 0.44426916471351768 0 0.40575666434273311 0.45838443146516472 0 0.39942544658573009 0.43872588670818857 0 0.36980735363827261 0.46050290225189661 0 0.36959298495063608 0.43610817863788948 0 0.38748492612950952 0.44892285829301931 0 0.36959298495063608 0.43610817863788948 0 0.3889231515195431 0.43141286456833011 0 0.38748492612950952 0.44892285829301931 0 0.36980735363827261 0.46050290225189661 0 0.38748492612950952 0.44892285829301931 0 0.39457326129307041 0.46924519202038539 0 0.36980735363827261 0.46050290225189661 0 0.37801407526051067 0.48065415083330842 0 0.39457326129307041 0.46924519202038539 0 0.37801407526051067 0.48065415083330842 0 0.38797204790529932 0.5 0 0.40134209412993838 0.48520307466421098 0 0.41743852268843429 0.5 0 0.38797204790529932 0.5 0 0.40134209412993838 0.48520307466421098 0 0.40973563488985532 0.47579104778557152 0 0.40134209412993838 0.48520307466421098 0 0.39457326129307041 0.46924519202038539 0 0.37801407526051067 0.48065415083330842 0 0.40134209412993838 0.48520307466421098 0 0.39457326129307041 0.46924519202038539 0 0.33471388977496319 0.083869725553476451 0 0.32003772732572838 0.080925826065863432 0 0.34163206045391592 0.099703108374672819 0 0.32003772732572838 0.080925826065863432 0 0.34163206045391592 0.099703108374672819 0 0.33471388977496319 0.083869725553476451 0 0.34163206045391592 0.099703108374672819 0 0.35085433501378249 0.086695181415402722 0 0.33471388977496319 0.083869725553476451 0 0.34209731100959018 0.06531632876058778 0 0.3490795063897344 0.076610282135673974 0 0.33471388977496319 0.083869725553476451 0 0.34209731100959018 0.06531632876058778 0 0.32721969837032222 0.069259436753723466 0 0.33471388977496319 0.083869725553476451 0 0.32721969837032222 0.069259436753723466 0 0.32003772732572838 0.080925826065863432 0 0.31518448171420999 0.065085558788002928 0 0.32721969837032222 0.069259436753723466 0 0.32003772732572838 0.080925826065863432 0 0.32003772732572838 0.080925826065863432 0 0.31657863646219547 0.093324099257994786 0 0.34163206045391592 0.099703108374672819 0 0.32003772732572838 0.080925826065863432 0 0.31657863646219547 0.093324099257994786 0 0.30227411453462139 0.089652133027170247 0 0.33471388977496319 0.083869725553476451 0 0.32003772732572838 0.080925826065863432 0 0.31657863646219547 0.093324099257994786 0 0.32025759602694659 0.1047776340902011 0 0.34163206045391592 0.099703108374672819 0 0.31657863646219547 0.093324099257994786 0 0.32025759602694659 0.1047776340902011 0 0.30640852481201453 0.1024735992044304 0 0.32025759602694659 0.1047776340902011 0 0.31114536757858358 0.11742006929579971 0 0.30640852481201453 0.1024735992044304 0 0.32606950933900308 0.1158177097477945 0 0.31114536757858358 0.11742006929579971 0 0.3195478300457561 0.1332621056988223 0 0.32025759602694659 0.1047776340902011 0 0.32606950933900308 0.1158177097477945 0 0.31114536757858358 0.11742006929579971 0 0.33761965874988609 0.1186889285033586 0 0.34163206045391592 0.099703108374672819 0 0.34956654336434939 0.1234914401014125 0 0.32606950933900308 0.1158177097477945 0 0.33761965874988609 0.1186889285033586 0 0.34163206045391592 0.099703108374672819 0 0.32606950933900308 0.1158177097477945 0 0.33761965874988609 0.1186889285033586 0 0.33436770153514289 0.13112975471366969 0 0.33761965874988609 0.1186889285033586 0 0.34956654336434939 0.1234914401014125 0 0.33436770153514289 0.13112975471366969 0 0.32025759602694659 0.1047776340902011 0 0.32606950933900308 0.1158177097477945 0 0.34163206045391592 0.099703108374672819 0 0.34163206045391592 0.099703108374672819 0 0.35755874922647762 0.098360434014750309 0 0.36322639358210312 0.11848039068348271 0 0.34163206045391592 0.099703108374672819 0 0.36322639358210312 0.11848039068348271 0 0.34163206045391592 0.099703108374672819 0 0.35755874922647762 0.098360434014750309 0 0.35085433501378249 0.086695181415402722 0 0.34163206045391592 0.099703108374672819 0 0.34956654336434939 0.1234914401014125 0 0.36322639358210312 0.11848039068348271 0 0.36322639358210312 0.11848039068348271 0 0.37045299287494049 0.09679375479102828 0 0.38005682511468147 0.12140739343396729 0 0.35755874922647762 0.098360434014750309 0 0.36322639358210312 0.11848039068348271 0 0.37045299287494049 0.09679375479102828 0 0.35755874922647762 0.098360434014750309 0 0.37045299287494049 0.09679375479102828 0 0.35979627253246887 0.087956112087811941 0 0.37045299287494049 0.09679375479102828 0 0.36986657419494789 0.075759843690150083 0 0.37682589963749002 0.081332762740894418 0 0.37045299287494049 0.09679375479102828 0 0.35979627253246887 0.087956112087811941 0 0.36084916063519962 0.072180116148089279 0 0.37045299287494049 0.09679375479102828 0 0.36084916063519962 0.072180116148089279 0 0.36986657419494789 0.075759843690150083 0 0.37045299287494049 0.09679375479102828 0 0.36084916063519962 0.072180116148089279 0 0.35755874922647762 0.098360434014750309 0 0.35979627253246887 0.087956112087811941 0 0.35085433501378249 0.086695181415402722 0 0.35979627253246887 0.087956112087811941 0 0.35560274156159061 0.081403828627082772 0 0.36084916063519962 0.072180116148089279 0 0.33471388977496319 0.083869725553476451 0 0.35085433501378249 0.086695181415402722 0 0.3490795063897344 0.076610282135673974 0 0.35979627253246887 0.087956112087811941 0 0.35560274156159061 0.081403828627082772 0 0.35085433501378249 0.086695181415402722 0 0.35560274156159061 0.081403828627082772 0 0.35085433501378249 0.086695181415402722 0 0.3490795063897344 0.076610282135673974 0 0.34209731100959018 0.06531632876058778 0 0.3490795063897344 0.076610282135673974 0 0.36084916063519962 0.072180116148089279 0 0.36448270712015302 0.068442951443566186 0 0.36084916063519962 0.072180116148089279 0 0.35124532839545858 0.047566477505150237 0 0.35560274156159061 0.081403828627082772 0 0.3490795063897344 0.076610282135673974 0 0.36084916063519962 0.072180116148089279 0 0.36448270712015302 0.068442951443566186 0 0.36084916063519962 0.072180116148089279 0 0.36986657419494789 0.075759843690150083 0 0.36986657419494789 0.075759843690150083 0 0.37596532967213542 0.069868995675824025 0 0.37682589963749002 0.081332762740894418 0 0.36448270712015302 0.068442951443566186 0 0.36986657419494789 0.075759843690150083 0 0.37084641292541748 0.06878424193773866 0 0.36986657419494789 0.075759843690150083 0 0.37084641292541748 0.06878424193773866 0 0.37596532967213542 0.069868995675824025 0 0.36448270712015302 0.068442951443566186 0 0.37084641292541748 0.06878424193773866 0 0.37307104071443398 0.061065176941414383 0 0.37084641292541748 0.06878424193773866 0 0.37307104071443398 0.061065176941414383 0 0.37596532967213542 0.069868995675824025 0 0.36448270712015302 0.068442951443566186 0 0.37307104071443398 0.061065176941414383 0 0.37146335928247548 0.04052602251159599 0 0.36448270712015302 0.068442951443566186 0 0.37146335928247548 0.04052602251159599 0 0.35124532839545858 0.047566477505150237 0 0.36448270712015302 0.068442951443566186 0 0.37146335928247548 0.04052602251159599 0 0.37146335928247548 0.04052602251159599 0 0.35572529983931911 0.032753521421585163 0 0.36312657459820519 0.022962182453169309 0 0.37146335928247548 0.04052602251159599 0 0.35572529983931911 0.032753521421585163 0 0.35124532839545858 0.047566477505150237 0 0.35572529983931911 0.032753521421585163 0 0.35124532839545858 0.047566477505150237 0 0.3321968515854315 0.028027004478648001 0 0.36084916063519962 0.072180116148089279 0 0.35124532839545858 0.047566477505150237 0 0.34209731100959018 0.06531632876058778 0 0.36084916063519962 0.072180116148089279 0 0.35124532839545858 0.047566477505150237 0 0.36312657459820519 0.022962182453169309 0 0.35936362748920009 0.0091271431172253586 0 0.37844401144479839 0.012609093579625891 0 0.35936362748920009 0.0091271431172253586 0 0.37844401144479839 0.012609093579625891 0 0.36665723294200347 -0.001883505129568449 0 0.35936362748920009 0.0091271431172253586 0 0.36665723294200347 -0.001883505129568449 0 0.35531676971978082 -0.0033532784323768001 0 0.37146335928247548 0.04052602251159599 0 0.36312657459820519 0.022962182453169309 0 0.37844401144479839 0.012609093579625891 0 0.37146335928247548 0.04052602251159599 0 0.37844401144479839 0.012609093579625891 0 0.35572529983931911 0.032753521421585163 0 0.35063657493523293 0.0197951316358141 0 0.3321968515854315 0.028027004478648001 0 0.35572529983931911 0.032753521421585163 0 0.36312657459820519 0.022962182453169309 0 0.35063657493523293 0.0197951316358141 0 0.36312657459820519 0.022962182453169309 0 0.35063657493523293 0.0197951316358141 0 0.35936362748920009 0.0091271431172253586 0 0.35936362748920009 0.0091271431172253586 0 0.33689267375143878 0.0039255003288513873 0 0.35531676971978082 -0.0033532784323768001 0 0.35063657493523293 0.0197951316358141 0 0.35936362748920009 0.0091271431172253586 0 0.33689267375143878 0.0039255003288513873 0 0.33689267375143878 0.0039255003288513873 0 0.3321968515854315 0.028027004478648001 0 0.30352242257352219 0.0039185454548519476 0 0.35063657493523293 0.0197951316358141 0 0.33689267375143878 0.0039255003288513873 0 0.3321968515854315 0.028027004478648001 0 0.3321968515854315 0.028027004478648001 0 0.32406508202711942 0.05109974460068676 0 0.30086563814790429 0.035038583275740692 0 0.34209731100959018 0.06531632876058778 0 0.32721969837032222 0.069259436753723466 0 0.32406508202711942 0.05109974460068676 0 0.34209731100959018 0.06531632876058778 0 0.35124532839545858 0.047566477505150237 0 0.32406508202711942 0.05109974460068676 0 0.35124532839545858 0.047566477505150237 0 0.3321968515854315 0.028027004478648001 0 0.32406508202711942 0.05109974460068676 0 0.31518448171420999 0.065085558788002928 0 0.32721969837032222 0.069259436753723466 0 0.32406508202711942 0.05109974460068676 0 0.31518448171420999 0.065085558788002928 0 0.32406508202711942 0.05109974460068676 0 0.29882370077581188 0.062479238108283437 0 0.32406508202711942 0.05109974460068676 0 0.29882370077581188 0.062479238108283437 0 0.30086563814790429 0.035038583275740692 0 0.32406508202711942 0.05109974460068676 0 0.30086563814790429 0.035038583275740692 0 0.30086563814790429 0.035038583275740692 0 0.28350496565293731 0.043820562147367653 0 0.27766619426868899 0.018977421950794569 0 0.29882370077581188 0.062479238108283437 0 0.30086563814790429 0.035038583275740692 0 0.28350496565293731 0.043820562147367653 0 0.29882370077581188 0.062479238108283437 0 0.28350496565293731 0.043820562147367653 0 0.28339325744793759 0.061338593161917712 0 0.3321968515854315 0.028027004478648001 0 0.30086563814790429 0.035038583275740692 0 0.30352242257352219 0.0039185454548519476 0 0.30086563814790429 0.035038583275740692 0 0.27766619426868899 0.018977421950794569 0 0.30086563814790429 0.035038583275740692 0 0.30352242257352219 0.0039185454548519476 0 0.27766619426868899 0.018977421950794569 0 0.30352242257352219 0.0039185454548519476 0 0.27766619426868899 0.018977421950794569 0 0.27708695819087842 -0.0025378708656911609 0 0.27766619426868899 0.018977421950794569 0 0.25446675038947358 0.0029162606258486688 0 0.27766619426868899 0.018977421950794569 0 0.26047117107291767 -0.0019720443344692288 0 0.27708695819087842 -0.0025378708656911609 0 0.27766619426868899 0.018977421950794569 0 0.2600935707136679 0.019574361616358959 0 0.26464981823601458 0.038183209123269009 0 0.2600935707136679 0.019574361616358959 0 0.26464981823601458 0.038183209123269009 0 0.25044211127373811 0.032849993626191502 0 0.27766619426868899 0.018977421950794569 0 0.2600935707136679 0.019574361616358959 0 0.25446675038947358 0.0029162606258486688 0 0.27766619426868899 0.018977421950794569 0 0.25446675038947358 0.0029162606258486688 0 0.26047117107291767 -0.0019720443344692288 0 0.25446675038947358 0.0029162606258486688 0 0.26047117107291767 -0.0019720443344692288 0 0.28339325744793759 0.061338593161917712 0 0.2699795556074106 0.054659435659755229 0 0.26514968559830832 0.069915803624621298 0 0.28350496565293731 0.043820562147367653 0 0.28339325744793759 0.061338593161917712 0 0.2699795556074106 0.054659435659755229 0 0.28350496565293731 0.043820562147367653 0 0.27766619426868899 0.018977421950794569 0 0.26464981823601458 0.038183209123269009 0 0.28350496565293731 0.043820562147367653 0 0.2699795556074106 0.054659435659755229 0 0.26464981823601458 0.038183209123269009 0 0.26464981823601458 0.038183209123269009 0 0.25174039047255609 0.044464402284776217 0 0.2585751734657834 0.052327775232976027 0 0.26464981823601458 0.038183209123269009 0 0.25044211127373811 0.032849993626191502 0 0.25174039047255609 0.044464402284776217 0 0.25174039047255609 0.044464402284776217 0 0.25102243244437311 0.053297338652025752 0 0.2585751734657834 0.052327775232976027 0 0.2699795556074106 0.054659435659755229 0 0.26464981823601458 0.038183209123269009 0 0.2585751734657834 0.052327775232976027 0 0.2699795556074106 0.054659435659755229 0 0.2585751734657834 0.052327775232976027 0 0.26000268679747079 0.061003988239662958 0 0.2699795556074106 0.054659435659755229 0 0.26000268679747079 0.061003988239662958 0 0.26514968559830832 0.069915803624621298 0 0.2585751734657834 0.052327775232976027 0 0.26000268679747079 0.061003988239662958 0 0.2530174900015254 0.0600809219264858 0 0.25102243244437311 0.053297338652025752 0 0.2585751734657834 0.052327775232976027 0 0.2530174900015254 0.0600809219264858 0 0.24751669685985911 0.059618880130872708 0 0.25102243244437311 0.053297338652025752 0 0.2530174900015254 0.0600809219264858 0 0.24853219730195361 0.063845178725116872 0 0.2530174900015254 0.0600809219264858 0 0.25274476311700622 0.067427493409812952 0 0.2530174900015254 0.0600809219264858 0 0.25274476311700622 0.067427493409812952 0 0.26000268679747079 0.061003988239662958 0 0.2530174900015254 0.0600809219264858 0 0.25274476311700622 0.067427493409812952 0 0.25274476311700622 0.067427493409812952 0 0.25243039498113262 0.075895774732197205 0 0.24842415088314279 0.069033451464499671 0 0.25274476311700622 0.067427493409812952 0 0.25243039498113262 0.075895774732197205 0 0.25274476311700622 0.067427493409812952 0 0.25243039498113262 0.075895774732197205 0 0.26514968559830832 0.069915803624621298 0 0.25243039498113262 0.075895774732197205 0 0.26514968559830832 0.069915803624621298 0 0.26417250328098718 0.085299079350852347 0 0.25243039498113262 0.075895774732197205 0 0.26514968559830832 0.069915803624621298 0 0.26000268679747079 0.061003988239662958 0 0.25274476311700622 0.067427493409812952 0 0.26514968559830832 0.069915803624621298 0 0.25274476311700622 0.067427493409812952 0 0.26514968559830832 0.069915803624621298 0 0.25243039498113262 0.075895774732197205 0 0.26417250328098718 0.085299079350852347 0 0.25158482098595109 0.098673396421397969 0 0.25243039498113262 0.075895774732197205 0 0.25158482098595109 0.098673396421397969 0 0.26417250328098718 0.085299079350852347 0 0.27563544099652842 0.091217529053328833 0 0.26597619666038957 0.098681263799979324 0 0.26417250328098718 0.085299079350852347 0 0.27658940398852799 0.081360569412953818 0 0.27563544099652842 0.091217529053328833 0 0.26514968559830832 0.069915803624621298 0 0.26417250328098718 0.085299079350852347 0 0.27658940398852799 0.081360569412953818 0 0.27658940398852799 0.081360569412953818 0 0.27563544099652842 0.091217529053328833 0 0.28742128170162778 0.087331448045782731 0 0.28339325744793759 0.061338593161917712 0 0.26514968559830832 0.069915803624621298 0 0.29259370646201821 0.075420814845242989 0 0.26514968559830832 0.069915803624621298 0 0.27658940398852799 0.081360569412953818 0 0.29259370646201821 0.075420814845242989 0 0.28339325744793759 0.061338593161917712 0 0.26514968559830832 0.069915803624621298 0 0.26514968559830832 0.069915803624621298 0 0.29259370646201821 0.075420814845242989 0 0.29882370077581188 0.062479238108283437 0 0.28339325744793759 0.061338593161917712 0 0.29259370646201821 0.075420814845242989 0 0.27658940398852799 0.081360569412953818 0 0.29259370646201821 0.075420814845242989 0 0.28742128170162778 0.087331448045782731 0 0.27563544099652842 0.091217529053328833 0 0.28742128170162778 0.087331448045782731 0 0.29001374252644291 0.099006193890217781 0 0.28742128170162778 0.087331448045782731 0 0.30227411453462139 0.089652133027170247 0 0.29001374252644291 0.099006193890217781 0 0.29259370646201821 0.075420814845242989 0 0.28742128170162778 0.087331448045782731 0 0.30227411453462139 0.089652133027170247 0 0.32003772732572838 0.080925826065863432 0 0.29259370646201821 0.075420814845242989 0 0.30227411453462139 0.089652133027170247 0 0.32003772732572838 0.080925826065863432 0 0.29259370646201821 0.075420814845242989 0 0.32003772732572838 0.080925826065863432 0 0.29882370077581188 0.062479238108283437 0 0.29259370646201821 0.075420814845242989 0 0.32003772732572838 0.080925826065863432 0 0.29882370077581188 0.062479238108283437 0 0.31518448171420999 0.065085558788002928 0 0.32003772732572838 0.080925826065863432 0 0.29882370077581188 0.062479238108283437 0 0.29818169174329712 0.11066146566519899 0 0.31114536757858358 0.11742006929579971 0 0.294250496481684 0.12267566802032639 0 0.31114536757858358 0.11742006929579971 0 0.294250496481684 0.12267566802032639 0 0.30313841955192899 0.13260249050964579 0 0.29818169174329712 0.11066146566519899 0 0.31114536757858358 0.11742006929579971 0 0.30640852481201453 0.1024735992044304 0 0.30227411453462139 0.089652133027170247 0 0.30640852481201453 0.1024735992044304 0 0.29001374252644291 0.099006193890217781 0 0.29818169174329712 0.11066146566519899 0 0.30640852481201453 0.1024735992044304 0 0.29001374252644291 0.099006193890217781 0 0.31657863646219547 0.093324099257994786 0 0.30227411453462139 0.089652133027170247 0 0.30640852481201453 0.1024735992044304 0 0.29818169174329712 0.11066146566519899 0 0.29001374252644291 0.099006193890217781 0 0.28729541733308872 0.1128284558108848 0 0.29001374252644291 0.099006193890217781 0 0.28729541733308872 0.1128284558108848 0 0.27577858748266387 0.1072301355245756 0 0.29818169174329712 0.11066146566519899 0 0.28729541733308872 0.1128284558108848 0 0.294250496481684 0.12267566802032639 0 0.28729541733308872 0.1128284558108848 0 0.294250496481684 0.12267566802032639 0 0.28067449336876182 0.1220521091494646 0 0.28067449336876182 0.1220521091494646 0 0.26956705708048567 0.1198361090660386 0 0.27577858748266387 0.1072301355245756 0 0.28729541733308872 0.1128284558108848 0 0.28067449336876182 0.1220521091494646 0 0.27577858748266387 0.1072301355245756 0 0.26956705708048567 0.1198361090660386 0 0.27577858748266387 0.1072301355245756 0 0.26270963055581759 0.11098617864974181 0 0.27563544099652842 0.091217529053328833 0 0.27577858748266387 0.1072301355245756 0 0.26597619666038957 0.098681263799979324 0 0.27563544099652842 0.091217529053328833 0 0.29001374252644291 0.099006193890217781 0 0.27577858748266387 0.1072301355245756 0 0.27577858748266387 0.1072301355245756 0 0.26597619666038957 0.098681263799979324 0 0.26270963055581759 0.11098617864974181 0 0.25158482098595109 0.098673396421397969 0 0.25094552198087999 0.11589449234768209 0 0.25158482098595109 0.098673396421397969 0 0.26270963055581759 0.11098617864974181 0 0.25094552198087999 0.11589449234768209 0 0.26417250328098718 0.085299079350852347 0 0.26597619666038957 0.098681263799979324 0 0.25158482098595109 0.098673396421397969 0 0.26597619666038957 0.098681263799979324 0 0.25158482098595109 0.098673396421397969 0 0.26270963055581759 0.11098617864974181 0 0.25158482098595109 0.098673396421397969 0 0.26270963055581759 0.11098617864974181 0 0.25094552198087999 0.11589449234768209 0 0.25030622297580962 0.13311558827396619 0 0.26022612795132161 0.12333036834530881 0 0.25094552198087999 0.11589449234768209 0 0.25030622297580962 0.13311558827396619 0 0.26956705708048567 0.1198361090660386 0 0.26022612795132161 0.12333036834530881 0 0.26270963055581759 0.11098617864974181 0 0.26022612795132161 0.12333036834530881 0 0.26270963055581759 0.11098617864974181 0 0.25094552198087999 0.11589449234768209 0 0.26956705708048567 0.1198361090660386 0 0.26022612795132161 0.12333036834530881 0 0.26675796828336718 0.1380571931171293 0 0.26022612795132161 0.12333036834530881 0 0.25030622297580962 0.13311558827396619 0 0.26675796828336718 0.1380571931171293 0 0.25030622297580962 0.13311558827396619 0 0.26675796828336718 0.1380571931171293 0 0.25030622297580962 0.13311558827396619 0 0.26675796828336718 0.1380571931171293 0 0.25638724149227848 0.14295410589973731 0 0.25004344172447263 0.14019424959050239 0 0.25030622297580962 0.13311558827396619 0 0.25638724149227848 0.14295410589973731 0 0.25004344172447263 0.14019424959050239 0 0.25030622297580962 0.13311558827396619 0 0.26675796828336718 0.1380571931171293 0 0.28320971359092417 0.1429987979602943 0 0.26675796828336718 0.1380571931171293 0 0.28666270206708028 0.1324408374186071 0 0.28320971359092417 0.1429987979602943 0 0.28067449336876182 0.1220521091494646 0 0.26956705708048567 0.1198361090660386 0 0.26675796828336718 0.1380571931171293 0 0.28067449336876182 0.1220521091494646 0 0.26675796828336718 0.1380571931171293 0 0.28666270206708028 0.1324408374186071 0 0.26675796828336718 0.1380571931171293 0 0.27436529468354132 0.15433220537778311 0 0.26010861073109098 0.15248373785575309 0 0.26675796828336718 0.1380571931171293 0 0.27436529468354132 0.15433220537778311 0 0.28320971359092417 0.1429987979602943 0 0.26675796828336718 0.1380571931171293 0 0.26010861073109098 0.15248373785575309 0 0.25638724149227848 0.14295410589973731 0 0.2496536413094039 0.15044712256699261 0 0.25004344172447263 0.14019424959050239 0 0.25638724149227848 0.14295410589973731 0 0.24653130607993951 0.16237692388552691 0 0.2496536413094039 0.15044712256699261 0 0.26010861073109098 0.15248373785575309 0 0.2496536413094039 0.15044712256699261 0 0.26010861073109098 0.15248373785575309 0 0.25638724149227848 0.14295410589973731 0 0.24653130607993951 0.16237692388552691 0 0.25292738168467233 0.17649485219682931 0 0.26638423851283249 0.16867758561061549 0 0.24653130607993951 0.16237692388552691 0 0.26010861073109098 0.15248373785575309 0 0.26638423851283249 0.16867758561061549 0 0.24528107816237801 0.1907036486386274 0 0.25292738168467233 0.17649485219682931 0 0.26633433714882182 0.18577592949096661 0 0.25292738168467233 0.17649485219682931 0 0.26633433714882182 0.18577592949096661 0 0.26638423851283249 0.16867758561061549 0 0.27723266788850742 0.181048228772968 0 0.26638423851283249 0.16867758561061549 0 0.28391425324491287 0.17071999404263091 0 0.26633433714882182 0.18577592949096661 0 0.27723266788850742 0.181048228772968 0 0.26638423851283249 0.16867758561061549 0 0.27436529468354132 0.15433220537778311 0 0.26010861073109098 0.15248373785575309 0 0.26638423851283249 0.16867758561061549 0 0.27436529468354132 0.15433220537778311 0 0.26638423851283249 0.16867758561061549 0 0.28391425324491287 0.17071999404263091 0 0.27436529468354132 0.15433220537778311 0 0.28391425324491287 0.17071999404263091 0 0.29097703849613438 0.15773848939083679 0 0.28391425324491287 0.17071999404263091 0 0.2931647794093819 0.16879209887591959 0 0.29097703849613438 0.15773848939083679 0 0.2931647794093819 0.16879209887591959 0 0.29097703849613438 0.15773848939083679 0 0.30040947706207388 0.16512632217721829 0 0.28391425324491287 0.17071999404263091 0 0.28743664533084129 0.187357279865842 0 0.29743995151898561 0.17866098634217961 0 0.27723266788850742 0.181048228772968 0 0.28391425324491287 0.17071999404263091 0 0.28743664533084129 0.187357279865842 0 0.28391425324491287 0.17071999404263091 0 0.2931647794093819 0.16879209887591959 0 0.29743995151898561 0.17866098634217961 0 0.28743664533084129 0.187357279865842 0 0.29743995151898561 0.17866098634217961 0 0.29971043857951379 0.19298806906372529 0 0.29743995151898561 0.17866098634217961 0 0.30929675685570829 0.1858318568065235 0 0.29971043857951379 0.19298806906372529 0 0.29743995151898561 0.17866098634217961 0 0.3101655001798202 0.17563615506282959 0 0.30040947706207388 0.16512632217721829 0 0.29743995151898561 0.17866098634217961 0 0.3101655001798202 0.17563615506282959 0 0.30929675685570829 0.1858318568065235 0 0.30040947706207388 0.16512632217721829 0 0.30453528129870422 0.15487579661148021 0 0.32848741365188411 0.1727716232507491 0 0.29097703849613438 0.15773848939083679 0 0.30040947706207388 0.16512632217721829 0 0.30453528129870422 0.15487579661148021 0 0.2931647794093819 0.16879209887591959 0 0.29743995151898561 0.17866098634217961 0 0.30040947706207388 0.16512632217721829 0 0.29097703849613438 0.15773848939083679 0 0.30453528129870422 0.15487579661148021 0 0.29618567382365713 0.14404403195872001 0 0.30453528129870422 0.15487579661148021 0 0.30873747279203018 0.14281046260302349 0 0.29618567382365713 0.14404403195872001 0 0.30453528129870422 0.15487579661148021 0 0.30873747279203018 0.14281046260302349 0 0.32007589174333823 0.14676000458717811 0 0.30873747279203018 0.14281046260302349 0 0.30313841955192899 0.13260249050964579 0 0.3195478300457561 0.1332621056988223 0 0.31114536757858358 0.11742006929579971 0 0.30313841955192899 0.13260249050964579 0 0.3195478300457561 0.1332621056988223 0 0.30873747279203018 0.14281046260302349 0 0.30313841955192899 0.13260249050964579 0 0.29618567382365713 0.14404403195872001 0 0.294250496481684 0.12267566802032639 0 0.30313841955192899 0.13260249050964579 0 0.28666270206708028 0.1324408374186071 0 0.30313841955192899 0.13260249050964579 0 0.28666270206708028 0.1324408374186071 0 0.29618567382365713 0.14404403195872001 0 0.294250496481684 0.12267566802032639 0 0.28067449336876182 0.1220521091494646 0 0.28666270206708028 0.1324408374186071 0 0.28666270206708028 0.1324408374186071 0 0.28320971359092417 0.1429987979602943 0 0.29618567382365713 0.14404403195872001 0 0.27436529468354132 0.15433220537778311 0 0.29097703849613438 0.15773848939083679 0 0.28320971359092417 0.1429987979602943 0 0.29097703849613438 0.15773848939083679 0 0.28320971359092417 0.1429987979602943 0 0.29618567382365713 0.14404403195872001 0 0.28119448123381058 0.25405304303149878 0 0.26221447651104962 0.2479993693513689 0 0.28440499104296979 0.23439140090611099 0 0.26221447651104962 0.2479993693513689 0 0.26853130556434218 0.23400660741274959 0 0.28440499104296979 0.23439140090611099 0 0.26221447651104962 0.2479993693513689 0 0.28440499104296979 0.23439140090611099 0 0.2457442494512444 0.24022391879071339 0 0.26221447651104962 0.2479993693513689 0 0.25511338863332461 0.22468137717712711 0 0.26221447651104962 0.2479993693513689 0 0.25511338863332461 0.22468137717712711 0 0.26853130556434218 0.23400660741274959 0 0.26221447651104962 0.2479993693513689 0 0.25511338863332461 0.22468137717712711 0 0.25511338863332461 0.22468137717712711 0 0.25242827713160498 0.21540237912569379 0 0.25511338863332461 0.22468137717712711 0 0.2794126892910288 0.21617120911671081 0 0.25511338863332461 0.22468137717712711 0 0.26853130556434218 0.23400660741274959 0 0.2794126892910288 0.21617120911671081 0 0.26853130556434218 0.23400660741274959 0 0.2794126892910288 0.21617120911671081 0 0.28440499104296979 0.23439140090611099 0 0.25511338863332461 0.22468137717712711 0 0.2794126892910288 0.21617120911671081 0 0.26644318031571418 0.20408753099865831 0 0.2794126892910288 0.21617120911671081 0 0.26644318031571418 0.20408753099865831 0 0.27722953884408802 0.19656269719262509 0 0.24528107816237801 0.1907036486386274 0 0.26644318031571418 0.20408753099865831 0 0.25242827713160498 0.21540237912569379 0 0.25511338863332461 0.22468137717712711 0 0.26644318031571418 0.20408753099865831 0 0.25242827713160498 0.21540237912569379 0 0.26644318031571418 0.20408753099865831 0 0.25242827713160498 0.21540237912569379 0 0.24528107816237801 0.1907036486386274 0 0.26633433714882182 0.18577592949096661 0 0.26644318031571418 0.20408753099865831 0 0.26633433714882182 0.18577592949096661 0 0.26644318031571418 0.20408753099865831 0 0.27722953884408802 0.19656269719262509 0 0.27723266788850742 0.181048228772968 0 0.28743664533084129 0.187357279865842 0 0.27722953884408802 0.19656269719262509 0 0.26633433714882182 0.18577592949096661 0 0.27723266788850742 0.181048228772968 0 0.27722953884408802 0.19656269719262509 0 0.28743664533084129 0.187357279865842 0 0.27722953884408802 0.19656269719262509 0 0.28939512316467059 0.2005252056429343 0 0.28743664533084129 0.187357279865842 0 0.28939512316467059 0.2005252056429343 0 0.29971043857951379 0.19298806906372529 0 0.30929675685570829 0.1858318568065235 0 0.29971043857951379 0.19298806906372529 0 0.31162694501442678 0.19735313208654229 0 0.29971043857951379 0.19298806906372529 0 0.31162694501442678 0.19735313208654229 0 0.30371198994873311 0.20766104105629449 0 0.28939512316467059 0.2005252056429343 0 0.29971043857951379 0.19298806906372529 0 0.30371198994873311 0.20766104105629449 0 0.2794126892910288 0.21617120911671081 0 0.30371198994873311 0.20766104105629449 0 0.2794126892910288 0.21617120911671081 0 0.30371198994873311 0.20766104105629449 0 0.30659550557489001 0.220783432460853 0 0.2794126892910288 0.21617120911671081 0 0.27722953884408802 0.19656269719262509 0 0.28939512316467059 0.2005252056429343 0 0.2794126892910288 0.21617120911671081 0 0.28939512316467059 0.2005252056429343 0 0.30371198994873311 0.20766104105629449 0 0.30659550557489001 0.220783432460853 0 0.28440499104296979 0.23439140090611099 0 0.2794126892910288 0.21617120911671081 0 0.30659550557489001 0.220783432460853 0 0.28440499104296979 0.23439140090611099 0 0.30659550557489001 0.220783432460853 0 0.30328699804120918 0.24394477185791469 0 0.28440499104296979 0.23439140090611099 0 0.30659550557489001 0.220783432460853 0 0.30328699804120918 0.24394477185791469 0 0.31607427666693672 0.2331905299380852 0 0.28119448123381058 0.25405304303149878 0 0.30328699804120918 0.24394477185791469 0 0.28440499104296979 0.23439140090611099 0 0.3433555784436142 0.25004320974280247 0 0.34183468199228573 0.23727684870966961 0 0.33092809789354199 0.24744869965648561 0 0.34183468199228573 0.23727684870966961 0 0.3288410404878227 0.2348757256337824 0 0.33092809789354199 0.24744869965648561 0 0.3288410404878227 0.2348757256337824 0 0.33092809789354199 0.24744869965648561 0 0.31845456220733243 0.24449663650262579 0 0.31879452400631653 0.25919465198291952 0 0.30328699804120918 0.24394477185791469 0 0.31845456220733243 0.24449663650262579 0 0.30328699804120918 0.24394477185791469 0 0.31845456220733243 0.24449663650262579 0 0.31607427666693672 0.2331905299380852 0 0.3288410404878227 0.2348757256337824 0 0.31845456220733243 0.24449663650262579 0 0.31607427666693672 0.2331905299380852 0 0.3288410404878227 0.2348757256337824 0 0.31607427666693672 0.2331905299380852 0 0.32372534117020862 0.22390137225637691 0 0.30659550557489001 0.220783432460853 0 0.31607427666693672 0.2331905299380852 0 0.32372534117020862 0.22390137225637691 0 0.3288410404878227 0.2348757256337824 0 0.32372534117020862 0.22390137225637691 0 0.33832986301458301 0.22348170923356889 0 0.34183468199228573 0.23727684870966961 0 0.3288410404878227 0.2348757256337824 0 0.33832986301458301 0.22348170923356889 0 0.32372534117020862 0.22390137225637691 0 0.33832986301458301 0.22348170923356889 0 0.32878602010681029 0.20717546401559489 0 0.33832986301458301 0.22348170923356889 0 0.32878602010681029 0.20717546401559489 0 0.35089693608391498 0.21212819010674691 0 0.32878602010681029 0.20717546401559489 0 0.35097653463873058 0.19356749557033681 0 0.35089693608391498 0.21212819010674691 0 0.30659550557489001 0.220783432460853 0 0.32372534117020862 0.22390137225637691 0 0.32878602010681029 0.20717546401559489 0 0.31162694501442678 0.19735313208654229 0 0.30371198994873311 0.20766104105629449 0 0.32878602010681029 0.20717546401559489 0 0.30371198994873311 0.20766104105629449 0 0.30659550557489001 0.220783432460853 0 0.32878602010681029 0.20717546401559489 0 0.30659550557489001 0.220783432460853 0 0.32878602010681029 0.20717546401559489 0 0.32878602010681029 0.20717546401559489 0 0.31972446529152482 0.19052244909679969 0 0.3336272658304279 0.18895925974375941 0 0.31162694501442678 0.19735313208654229 0 0.32878602010681029 0.20717546401559489 0 0.31972446529152482 0.19052244909679969 0 0.30929675685570829 0.1858318568065235 0 0.31162694501442678 0.19735313208654229 0 0.31972446529152482 0.19052244909679969 0 0.32878602010681029 0.20717546401559489 0 0.3336272658304279 0.18895925974375941 0 0.35097653463873058 0.19356749557033681 0 0.32878602010681029 0.20717546401559489 0 0.35097653463873058 0.19356749557033681 0 0.3336272658304279 0.18895925974375941 0 0.35097653463873058 0.19356749557033681 0 0.35656535024169428 0.1804169243242798 0 0.35097653463873058 0.19356749557033681 0 0.35896651107905142 0.20360726904620211 0 0.35089693608391498 0.21212819010674691 0 0.35097653463873058 0.19356749557033681 0 0.36405518175537521 0.19484170215684679 0 0.35896651107905142 0.20360726904620211 0 0.35097653463873058 0.19356749557033681 0 0.36405518175537521 0.19484170215684679 0 0.35656535024169428 0.1804169243242798 0 0.36405518175537521 0.19484170215684679 0 0.35656535024169428 0.1804169243242798 0 0.38464328683150451 0.18806222539781059 0 0.36405518175537521 0.19484170215684679 0 0.36923798170140371 0.20928007436804161 0 0.38464328683150451 0.18806222539781059 0 0.36405518175537521 0.19484170215684679 0 0.36923798170140371 0.20928007436804161 0 0.35896651107905142 0.20360726904620211 0 0.36923798170140371 0.20928007436804161 0 0.36132702422268731 0.21787493872225441 0 0.35896651107905142 0.20360726904620211 0 0.36923798170140371 0.20928007436804161 0 0.36132702422268731 0.21787493872225441 0 0.37292139258550783 0.22672254500020811 0 0.36132702422268731 0.21787493872225441 0 0.35896651107905142 0.20360726904620211 0 0.35089693608391498 0.21212819010674691 0 0.34183468199228573 0.23727684870966961 0 0.33832986301458301 0.22348170923356889 0 0.35524969613090918 0.22837961108452459 0 0.36132702422268731 0.21787493872225441 0 0.35089693608391498 0.21212819010674691 0 0.35524969613090918 0.22837961108452459 0 0.33832986301458301 0.22348170923356889 0 0.35089693608391498 0.21212819010674691 0 0.35524969613090918 0.22837961108452459 0 0.36132702422268731 0.21787493872225441 0 0.35524969613090918 0.22837961108452459 0 0.37292139258550783 0.22672254500020811 0 0.35524969613090918 0.22837961108452459 0 0.37292139258550783 0.22672254500020811 0 0.36587213359177301 0.2378375665458646 0 0.37292139258550783 0.22672254500020811 0 0.36587213359177301 0.2378375665458646 0 0.3757768555661396 0.240133652284411 0 0.36587213359177301 0.2378375665458646 0 0.37169426656027921 0.24972740256563611 0 0.3757768555661396 0.240133652284411 0 0.36587213359177301 0.2378375665458646 0 0.37169426656027921 0.24972740256563611 0 0.36205361842742478 0.24882498742118489 0 0.36587213359177301 0.2378375665458646 0 0.36205361842742478 0.24882498742118489 0 0.35356337405553911 0.24205426642971811 0 0.35175757775775729 0.2532797976346674 0 0.36205361842742478 0.24882498742118489 0 0.35356337405553911 0.24205426642971811 0 0.35524969613090918 0.22837961108452459 0 0.36587213359177301 0.2378375665458646 0 0.35356337405553911 0.24205426642971811 0 0.34183468199228573 0.23727684870966961 0 0.35524969613090918 0.22837961108452459 0 0.35356337405553911 0.24205426642971811 0 0.3433555784436142 0.25004320974280247 0 0.34183468199228573 0.23727684870966961 0 0.35356337405553911 0.24205426642971811 0 0.3433555784436142 0.25004320974280247 0 0.35175757775775729 0.2532797976346674 0 0.35356337405553911 0.24205426642971811 0 0.33379856680907583 0.1437068241164389 0 0.32007589174333823 0.14676000458717811 0 0.33365817402274128 0.15789089208148979 0 0.33379856680907583 0.1437068241164389 0 0.33365817402274128 0.15789089208148979 0 0.34780073530519279 0.14835628742565241 0 0.33379856680907583 0.1437068241164389 0 0.34780073530519279 0.14835628742565241 0 0.34586764947947463 0.1362539899128139 0 0.33379856680907583 0.1437068241164389 0 0.33436770153514289 0.13112975471366969 0 0.34586764947947463 0.1362539899128139 0 0.34956654336434939 0.1234914401014125 0 0.33436770153514289 0.13112975471366969 0 0.34586764947947463 0.1362539899128139 0 0.33379856680907583 0.1437068241164389 0 0.33436770153514289 0.13112975471366969 0 0.3195478300457561 0.1332621056988223 0 0.32606950933900308 0.1158177097477945 0 0.33436770153514289 0.13112975471366969 0 0.3195478300457561 0.1332621056988223 0 0.30873747279203018 0.14281046260302349 0 0.3195478300457561 0.1332621056988223 0 0.32007589174333823 0.14676000458717811 0 0.30453528129870422 0.15487579661148021 0 0.32007589174333823 0.14676000458717811 0 0.33365817402274128 0.15789089208148979 0 0.33379856680907583 0.1437068241164389 0 0.3195478300457561 0.1332621056988223 0 0.32007589174333823 0.14676000458717811 0 0.30453528129870422 0.15487579661148021 0 0.33365817402274128 0.15789089208148979 0 0.30453528129870422 0.15487579661148021 0 0.32848741365188411 0.1727716232507491 0 0.33365817402274128 0.15789089208148979 0 0.30040947706207388 0.16512632217721829 0 0.32848741365188411 0.1727716232507491 0 0.3101655001798202 0.17563615506282959 0 0.30040947706207388 0.16512632217721829 0 0.32848741365188411 0.1727716232507491 0 0.3101655001798202 0.17563615506282959 0 0.31983557186529732 0.18171103000860481 0 0.32848741365188411 0.1727716232507491 0 0.3336272658304279 0.18895925974375941 0 0.31983557186529732 0.18171103000860481 0 0.32848741365188411 0.1727716232507491 0 0.3101655001798202 0.17563615506282959 0 0.30929675685570829 0.1858318568065235 0 0.31983557186529732 0.18171103000860481 0 0.30929675685570829 0.1858318568065235 0 0.31972446529152482 0.19052244909679969 0 0.31983557186529732 0.18171103000860481 0 0.31972446529152482 0.19052244909679969 0 0.3336272658304279 0.18895925974375941 0 0.31983557186529732 0.18171103000860481 0 0.32848741365188411 0.1727716232507491 0 0.34507730906385942 0.16855187839241309 0 0.35656535024169428 0.1804169243242798 0 0.3336272658304279 0.18895925974375941 0 0.32848741365188411 0.1727716232507491 0 0.35656535024169428 0.1804169243242798 0 0.32848741365188411 0.1727716232507491 0 0.35656535024169428 0.1804169243242798 0 0.32848741365188411 0.1727716232507491 0 0.33365817402274128 0.15789089208148979 0 0.34507730906385942 0.16855187839241309 0 0.33365817402274128 0.15789089208148979 0 0.34507730906385942 0.16855187839241309 0 0.36278106674677829 0.1609059875514994 0 0.34507730906385942 0.16855187839241309 0 0.35656535024169428 0.1804169243242798 0 0.36278106674677829 0.1609059875514994 0 0.33365817402274128 0.15789089208148979 0 0.36278106674677829 0.1609059875514994 0 0.35656535024169428 0.1804169243242798 0 0.37356219856206202 0.1741215612114578 0 0.38464328683150451 0.18806222539781059 0 0.35656535024169428 0.1804169243242798 0 0.38464328683150451 0.18806222539781059 0 0.35656535024169428 0.1804169243242798 0 0.37356219856206202 0.1741215612114578 0 0.36278106674677829 0.1609059875514994 0 0.36278106674677829 0.1609059875514994 0 0.36531512046589693 0.1378839500987098 0 0.37680076681991098 0.15092733218095339 0 0.36278106674677829 0.1609059875514994 0 0.34780073530519279 0.14835628742565241 0 0.36531512046589693 0.1378839500987098 0 0.34780073530519279 0.14835628742565241 0 0.34586764947947463 0.1362539899128139 0 0.36531512046589693 0.1378839500987098 0 0.33365817402274128 0.15789089208148979 0 0.36278106674677829 0.1609059875514994 0 0.34780073530519279 0.14835628742565241 0 0.34956654336434939 0.1234914401014125 0 0.34586764947947463 0.1362539899128139 0 0.36531512046589693 0.1378839500987098 0 0.34956654336434939 0.1234914401014125 0 0.36322639358210312 0.11848039068348271 0 0.36531512046589693 0.1378839500987098 0 0.36322639358210312 0.11848039068348271 0 0.36531512046589693 0.1378839500987098 0 0.38482072671029011 0.13725767299229241 0 0.36322639358210312 0.11848039068348271 0 0.38482072671029011 0.13725767299229241 0 0.36322639358210312 0.11848039068348271 0 0.38482072671029011 0.13725767299229241 0 0.38005682511468147 0.12140739343396729 0 0.38482072671029011 0.13725767299229241 0 0.39398634319161102 0.12556361147638159 0 0.38005682511468147 0.12140739343396729 0 0.38482072671029011 0.13725767299229241 0 0.39398634319161102 0.12556361147638159 0 0.40386822996399702 0.1370092008917044 0 0.39398634319161102 0.12556361147638159 0 0.40386822996399702 0.1370092008917044 0 0.40630256149234217 0.12337914253670321 0 0.38482072671029011 0.13725767299229241 0 0.40641505983847698 0.15603495530110209 0 0.38482072671029011 0.13725767299229241 0 0.40386822996399702 0.1370092008917044 0 0.40641505983847698 0.15603495530110209 0 0.38482072671029011 0.13725767299229241 0 0.39190395947081519 0.16392108302150901 0 0.40641505983847698 0.15603495530110209 0 0.36531512046589693 0.1378839500987098 0 0.38482072671029011 0.13725767299229241 0 0.37680076681991098 0.15092733218095339 0 0.38482072671029011 0.13725767299229241 0 0.37680076681991098 0.15092733218095339 0 0.39190395947081519 0.16392108302150901 0 0.36278106674677829 0.1609059875514994 0 0.39190395947081519 0.16392108302150901 0 0.36278106674677829 0.1609059875514994 0 0.37680076681991098 0.15092733218095339 0 0.39190395947081519 0.16392108302150901 0 0.37356219856206202 0.1741215612114578 0 0.36278106674677829 0.1609059875514994 0 0.39190395947081519 0.16392108302150901 0 0.37356219856206202 0.1741215612114578 0 0.39190395947081519 0.16392108302150901 0 0.38464328683150451 0.18806222539781059 0 0.4059128807594603 0.17981630131623391 0 0.39190395947081519 0.16392108302150901 0 0.38464328683150451 0.18806222539781059 0 0.39190395947081519 0.16392108302150901 0 0.42102685219485209 0.16693617849151851 0 0.40641505983847698 0.15603495530110209 0 0.4059128807594603 0.17981630131623391 0 0.39190395947081519 0.16392108302150901 0 0.42102685219485209 0.16693617849151851 0 0.42102685219485209 0.16693617849151851 0 0.40641505983847698 0.15603495530110209 0 0.41490094777653419 0.14712571815411829 0 0.39190395947081519 0.16392108302150901 0 0.42102685219485209 0.16693617849151851 0 0.4059128807594603 0.17981630131623391 0 0.42102685219485209 0.16693617849151851 0 0.42759287120751482 0.1799189573059411 0 0.4059128807594603 0.17981630131623391 0 0.42759287120751482 0.1799189573059411 0 0.42045703890892938 0.19185412915784311 0 0.42102685219485209 0.16693617849151851 0 0.42759287120751482 0.1799189573059411 0 0.45014974491888898 0.16995127396152809 0 0.42759287120751482 0.1799189573059411 0 0.42045703890892938 0.19185412915784311 0 0.43799329450951457 0.1898848624547933 0 0.42102685219485209 0.16693617849151851 0 0.45014974491888898 0.16995127396152809 0 0.42102685219485209 0.16693617849151851 0 0.43641214087317609 0.15776157540708571 0 0.42820809332857229 0.14540676379554701 0 0.42102685219485209 0.16693617849151851 0 0.43641214087317609 0.15776157540708571 0 0.45014974491888898 0.16995127396152809 0 0.43641214087317609 0.15776157540708571 0 0.42820809332857229 0.14540676379554701 0 0.44305345270963392 0.14224085277467549 0 0.42820809332857229 0.14540676379554701 0 0.43267139290449452 0.12562392175117529 0 0.41815906511665779 0.13368892679480551 0 0.42820809332857229 0.14540676379554701 0 0.43267139290449452 0.12562392175117529 0 0.44305345270963392 0.14224085277467549 0 0.43267139290449452 0.12562392175117529 0 0.41815906511665779 0.13368892679480551 0 0.41840244549433692 0.1204435227777134 0 0.41815906511665779 0.13368892679480551 0 0.41840244549433692 0.1204435227777134 0 0.40630256149234217 0.12337914253670321 0 0.40386822996399702 0.1370092008917044 0 0.41815906511665779 0.13368892679480551 0 0.40630256149234217 0.12337914253670321 0 0.40386822996399702 0.1370092008917044 0 0.41815906511665779 0.13368892679480551 0 0.41490094777653419 0.14712571815411829 0 0.42102685219485209 0.16693617849151851 0 0.42820809332857229 0.14540676379554701 0 0.41490094777653419 0.14712571815411829 0 0.40386822996399702 0.1370092008917044 0 0.40641505983847698 0.15603495530110209 0 0.41490094777653419 0.14712571815411829 0 0.42820809332857229 0.14540676379554701 0 0.41815906511665779 0.13368892679480551 0 0.41490094777653419 0.14712571815411829 0 0.39196586341458151 0.242441409442547 0 0.40329821407583749 0.23025496453590971 0 0.40866327585672191 0.24600766979752939 0 0.38129994004966872 0.25577407136566988 0 0.39196586341458151 0.242441409442547 0 0.40866327585672191 0.24600766979752939 0 0.38129994004966872 0.25577407136566988 0 0.39196586341458151 0.242441409442547 0 0.38106847269238292 0.24536179082341181 0 0.37169426656027921 0.24972740256563611 0 0.38106847269238292 0.24536179082341181 0 0.3757768555661396 0.240133652284411 0 0.37292139258550783 0.22672254500020811 0 0.3757768555661396 0.240133652284411 0 0.38460543787124563 0.238732418458795 0 0.38106847269238292 0.24536179082341181 0 0.3757768555661396 0.240133652284411 0 0.38460543787124563 0.238732418458795 0 0.39196586341458151 0.242441409442547 0 0.38106847269238292 0.24536179082341181 0 0.38460543787124563 0.238732418458795 0 0.39196586341458151 0.242441409442547 0 0.38460543787124563 0.238732418458795 0 0.38844350160088592 0.2284985707660753 0 0.37292139258550783 0.22672254500020811 0 0.38460543787124563 0.238732418458795 0 0.38844350160088592 0.2284985707660753 0 0.37292139258550783 0.22672254500020811 0 0.38844350160088592 0.2284985707660753 0 0.38369130631537601 0.21297307403445409 0 0.38844350160088592 0.2284985707660753 0 0.39679964264504158 0.21937630878092959 0 0.38369130631537601 0.21297307403445409 0 0.38844350160088592 0.2284985707660753 0 0.39679964264504158 0.21937630878092959 0 0.40329821407583749 0.23025496453590971 0 0.39196586341458151 0.242441409442547 0 0.38844350160088592 0.2284985707660753 0 0.40329821407583749 0.23025496453590971 0 0.39679964264504158 0.21937630878092959 0 0.40329821407583749 0.23025496453590971 0 0.41066806580544729 0.2160617609406458 0 0.39598296716959969 0.20626700748070109 0 0.40513352984814438 0.19492560706685999 0 0.41066806580544729 0.2160617609406458 0 0.39679964264504158 0.21937630878092959 0 0.39598296716959969 0.20626700748070109 0 0.41066806580544729 0.2160617609406458 0 0.39679964264504158 0.21937630878092959 0 0.39598296716959969 0.20626700748070109 0 0.38369130631537601 0.21297307403445409 0 0.36923798170140371 0.20928007436804161 0 0.37292139258550783 0.22672254500020811 0 0.38369130631537601 0.21297307403445409 0 0.36923798170140371 0.20928007436804161 0 0.38369130631537601 0.21297307403445409 0 0.38464328683150451 0.18806222539781059 0 0.39598296716959969 0.20626700748070109 0 0.38369130631537601 0.21297307403445409 0 0.38464328683150451 0.18806222539781059 0 0.39598296716959969 0.20626700748070109 0 0.38464328683150451 0.18806222539781059 0 0.40513352984814438 0.19492560706685999 0 0.4059128807594603 0.17981630131623391 0 0.38464328683150451 0.18806222539781059 0 0.40513352984814438 0.19492560706685999 0 0.40513352984814438 0.19492560706685999 0 0.42045703890892938 0.19185412915784311 0 0.42444067869502011 0.20693424997503959 0 0.4059128807594603 0.17981630131623391 0 0.40513352984814438 0.19492560706685999 0 0.42045703890892938 0.19185412915784311 0 0.42045703890892938 0.19185412915784311 0 0.42444067869502011 0.20693424997503959 0 0.43799329450951457 0.1898848624547933 0 0.42444067869502011 0.20693424997503959 0 0.44184419378540352 0.2076794424592901 0 0.43799329450951457 0.1898848624547933 0 0.42444067869502011 0.20693424997503959 0 0.4302098735549707 0.2206458244329694 0 0.44184419378540352 0.2076794424592901 0 0.42444067869502011 0.20693424997503959 0 0.41066806580544729 0.2160617609406458 0 0.4302098735549707 0.2206458244329694 0 0.40513352984814438 0.19492560706685999 0 0.42444067869502011 0.20693424997503959 0 0.41066806580544729 0.2160617609406458 0 0.41066806580544729 0.2160617609406458 0 0.41777320819135039 0.22984229758728861 0 0.4302098735549707 0.2206458244329694 0 0.40329821407583749 0.23025496453590971 0 0.41066806580544729 0.2160617609406458 0 0.41777320819135039 0.22984229758728861 0 0.4302098735549707 0.2206458244329694 0 0.43602661166377499 0.2362412682293889 0 0.44584438813649652 0.2203436080528294 0 0.41777320819135039 0.22984229758728861 0 0.4302098735549707 0.2206458244329694 0 0.43602661166377499 0.2362412682293889 0 0.43602661166377499 0.2362412682293889 0 0.43076425121212841 0.2486853010718087 0 0.40866327585672191 0.24600766979752939 0 0.43602661166377499 0.2362412682293889 0 0.40866327585672191 0.24600766979752939 0 0.41777320819135039 0.22984229758728861 0 0.43602661166377499 0.2362412682293889 0 0.40866327585672191 0.24600766979752939 0 0.41664462513020523 0.25422696758609492 0 0.43076425121212841 0.2486853010718087 0 0.40866327585672191 0.24600766979752939 0 0.40329821407583749 0.23025496453590971 0 0.41777320819135039 0.22984229758728861 0 0.40866327585672191 0.24600766979752939 0 0.45166362976964691 0.25106894999712381 0 0.45384283414141641 0.23962742592169059 0 0.47583181488482379 0.2451422378191761 0 0.45166362976964691 0.25106894999712381 0 0.47583181488482379 0.2451422378191761 0 0.45384283414141641 0.23962742592169059 0 0.47692141707070451 0.23056955077157251 0 0.45166362976964691 0.25106894999712381 0 0.43076425121212841 0.2486853010718087 0 0.45384283414141641 0.23962742592169059 0 0.43602661166377499 0.2362412682293889 0 0.43076425121212841 0.2486853010718087 0 0.45384283414141641 0.23962742592169059 0 0.43076425121212841 0.2486853010718087 0 0.45384283414141641 0.23962742592169059 0 0.43602661166377499 0.2362412682293889 0 0.46338994747082818 0.22647486666124839 0 0.43602661166377499 0.2362412682293889 0 0.44584438813649652 0.2203436080528294 0 0.46338994747082818 0.22647486666124839 0 0.43602661166377499 0.2362412682293889 0 0.45384283414141641 0.23962742592169059 0 0.46338994747082818 0.22647486666124839 0 0.44584438813649652 0.2203436080528294 0 0.46338994747082818 0.22647486666124839 0 0.4574246187180494 0.20998202225832771 0 0.45384283414141641 0.23962742592169059 0 0.46338994747082818 0.22647486666124839 0 0.47692141707070451 0.23056955077157251 0 0.46338994747082818 0.22647486666124839 0 0.4574246187180494 0.20998202225832771 0 0.47311107537994651 0.21060674662752529 0 0.4574246187180494 0.20998202225832771 0 0.46861366351278472 0.19789432193598561 0 0.47311107537994651 0.21060674662752529 0 0.44584438813649652 0.2203436080528294 0 0.4574246187180494 0.20998202225832771 0 0.44184419378540352 0.2076794424592901 0 0.4302098735549707 0.2206458244329694 0 0.44584438813649652 0.2203436080528294 0 0.44184419378540352 0.2076794424592901 0 0.4574246187180494 0.20998202225832771 0 0.44184419378540352 0.2076794424592901 0 0.45120510308892831 0.19507838461398491 0 0.44184419378540352 0.2076794424592901 0 0.43799329450951457 0.1898848624547933 0 0.45120510308892831 0.19507838461398491 0 0.4574246187180494 0.20998202225832771 0 0.45120510308892831 0.19507838461398491 0 0.46861366351278472 0.19789432193598561 0 0.45120510308892831 0.19507838461398491 0 0.46861366351278472 0.19789432193598561 0 0.45014974491888898 0.16995127396152809 0 0.46861366351278472 0.19789432193598561 0 0.48377650321145821 0.20030440734603891 0 0.47890777313388699 0.17818810929941131 0 0.46861366351278472 0.19789432193598561 0 0.48377650321145821 0.20030440734603891 0 0.47311107537994651 0.21060674662752529 0 0.48377650321145821 0.20030440734603891 0 0.5 0.19442179120654851 0 0.47890777313388699 0.17818810929941131 0 0.48377650321145821 0.20030440734603891 0 0.5 0.19442179120654851 0 0.49075328327788142 0.2167084650931079 0 0.5 0.19442179120654851 0 0.49075328327788142 0.2167084650931079 0 0.49999999999999339 0.2215116756214566 0 0.48377650321145821 0.20030440734603891 0 0.49075328327788142 0.2167084650931079 0 0.47311107537994651 0.21060674662752529 0 0.46338994747082818 0.22647486666124839 0 0.49075328327788142 0.2167084650931079 0 0.47311107537994651 0.21060674662752529 0 0.46338994747082818 0.22647486666124839 0 0.49075328327788142 0.2167084650931079 0 0.46338994747082818 0.22647486666124839 0 0.49075328327788142 0.2167084650931079 0 0.47692141707070451 0.23056955077157251 0 0.47692141707070451 0.23056955077157251 0 0.49999999999999339 0.2215116756214566 0 0.50000000000000067 0.2392155256412283 0 0.49075328327788142 0.2167084650931079 0 0.47692141707070451 0.23056955077157251 0 0.49999999999999339 0.2215116756214566 0 0.47692141707070451 0.23056955077157251 0 0.49999999999999339 0.2215116756214566 0 0.50000000000000067 0.2392155256412283 0 0.47583181488482379 0.2451422378191761 0 0.48341195364679568 0.26002408893105827 0 0.50000000000000067 0.2392155256412283 0 0.47583181488482379 0.2451422378191761 0 0.47692141707070451 0.23056955077157251 0 0.50000000000000067 0.2392155256412283 0 0.47583181488482379 0.2451422378191761 0 0.45384283414141641 0.23962742592169059 0 0.47692141707070451 0.23056955077157251 0 0.47583181488482379 0.2451422378191761 0 0.46053260521531592 0.14091734283165991 0 0.45014974491888898 0.16995127396152809 0 0.47759274938693741 0.15337993901402261 0 0.46053260521531592 0.14091734283165991 0 0.47596637305353268 0.1236489788231635 0 0.45094723062946279 0.12208098845927939 0 0.46053260521531592 0.14091734283165991 0 0.44305345270963392 0.14224085277467549 0 0.45094723062946279 0.12208098845927939 0 0.43267139290449452 0.12562392175117529 0 0.44305345270963392 0.14224085277467549 0 0.45094723062946279 0.12208098845927939 0 0.46053260521531592 0.14091734283165991 0 0.44305345270963392 0.14224085277467549 0 0.45014974491888898 0.16995127396152809 0 0.43641214087317609 0.15776157540708571 0 0.44305345270963392 0.14224085277467549 0 0.45014974491888898 0.16995127396152809 0 0.42759287120751482 0.1799189573059411 0 0.43799329450951457 0.1898848624547933 0 0.45014974491888898 0.16995127396152809 0 0.43799329450951457 0.1898848624547933 0 0.45120510308892831 0.19507838461398491 0 0.45014974491888898 0.16995127396152809 0 0.46861366351278472 0.19789432193598561 0 0.45014974491888898 0.16995127396152809 0 0.47890777313388699 0.17818810929941131 0 0.45014974491888898 0.16995127396152809 0 0.47890777313388699 0.17818810929941131 0 0.47759274938693741 0.15337993901402261 0 0.5 0.19442179120654851 0 0.47890777313388699 0.17818810929941131 0 0.5 0.16733190679164031 0 0.47890777313388699 0.17818810929941131 0 0.5 0.16733190679164031 0 0.47759274938693741 0.15337993901402261 0 0.5 0.16733190679164031 0 0.47759274938693741 0.15337993901402261 0 0.5 0.14024202237673219 0 0.46053260521531592 0.14091734283165991 0 0.47759274938693741 0.15337993901402261 0 0.47596637305353268 0.1236489788231635 0 0.5 0.14024202237673219 0 0.5 0.11315213796182411 0 0.47596637305353268 0.1236489788231635 0 0.47759274938693741 0.15337993901402261 0 0.5 0.14024202237673219 0 0.47596637305353268 0.1236489788231635 0 0.5 0.11315213796182411 0 0.48146508414057748 0.097867616362435003 0 0.47596637305353268 0.1236489788231635 0 0.5 0.11315213796182411 0 0.48146508414057748 0.097867616362435003 0 0.5 0.08606225354691599 0 0.48146508414057748 0.097867616362435003 0 0.46684480345772023 0.083704774648097419 0 0.46085076100455152 0.1051260388446932 0 0.48146508414057748 0.097867616362435003 0 0.47596637305353268 0.1236489788231635 0 0.46085076100455152 0.1051260388446932 0 0.5 0.08606225354691599 0 0.48297411160829701 0.071419164250366693 0 0.5 0.058972369132007867 0 0.48146508414057748 0.097867616362435003 0 0.5 0.08606225354691599 0 0.48297411160829701 0.071419164250366693 0 0.48146508414057748 0.097867616362435003 0 0.48297411160829701 0.071419164250366693 0 0.46684480345772023 0.083704774648097419 0 0.48297411160829701 0.071419164250366693 0 0.46368779630991369 0.062884433647911922 0 0.46684480345772023 0.083704774648097419 0 0.46368779630991369 0.062884433647911922 0 0.4455316944648699 0.078385408113317706 0 0.46368779630991369 0.062884433647911922 0 0.46684480345772023 0.083704774648097419 0 0.4455316944648699 0.078385408113317706 0 0.46684480345772023 0.083704774648097419 0 0.4455316944648699 0.078385408113317706 0 0.46085076100455152 0.1051260388446932 0 0.4455316944648699 0.078385408113317706 0 0.46085076100455152 0.1051260388446932 0 0.43655847815144871 0.087567909291679069 0 0.4455316944648699 0.078385408113317706 0 0.43655847815144871 0.087567909291679069 0 0.43300293116684879 0.070359854062556224 0 0.4455316944648699 0.078385408113317706 0 0.43300293116684879 0.070359854062556224 0 0.44432728466234178 0.059795406129610977 0 0.46368779630991369 0.062884433647911922 0 0.4455316944648699 0.078385408113317706 0 0.44432728466234178 0.059795406129610977 0 0.47596637305353268 0.1236489788231635 0 0.46085076100455152 0.1051260388446932 0 0.45094723062946279 0.12208098845927939 0 0.46085076100455152 0.1051260388446932 0 0.43655847815144871 0.087567909291679069 0 0.46085076100455152 0.1051260388446932 0 0.43845481143497073 0.110031162788742 0 0.43302597451412722 0.09911942802672713 0 0.46085076100455152 0.1051260388446932 0 0.43302597451412722 0.09911942802672713 0 0.43655847815144871 0.087567909291679069 0 0.43267139290449452 0.12562392175117529 0 0.45094723062946279 0.12208098845927939 0 0.43845481143497073 0.110031162788742 0 0.46085076100455152 0.1051260388446932 0 0.45094723062946279 0.12208098845927939 0 0.43845481143497073 0.110031162788742 0 0.43267139290449452 0.12562392175117529 0 0.43845481143497073 0.110031162788742 0 0.42512360996164289 0.1101942667169049 0 0.43267139290449452 0.12562392175117529 0 0.42512360996164289 0.1101942667169049 0 0.41840244549433692 0.1204435227777134 0 0.42512360996164289 0.1101942667169049 0 0.41840244549433692 0.1204435227777134 0 0.41145911669595331 0.1096997076075869 0 0.41840244549433692 0.1204435227777134 0 0.41145911669595331 0.1096997076075869 0 0.40630256149234217 0.12337914253670321 0 0.41145911669595331 0.1096997076075869 0 0.41782870111656589 0.098086010242617663 0 0.40188519574572068 0.098349840232826835 0 0.41782870111656589 0.098086010242617663 0 0.41132824907511162 0.087668761689670915 0 0.40188519574572068 0.098349840232826835 0 0.42512360996164289 0.1101942667169049 0 0.41145911669595331 0.1096997076075869 0 0.41782870111656589 0.098086010242617663 0 0.41782870111656589 0.098086010242617663 0 0.43302597451412722 0.09911942802672713 0 0.42198136315300161 0.08812274721924529 0 0.42512360996164289 0.1101942667169049 0 0.41782870111656589 0.098086010242617663 0 0.43302597451412722 0.09911942802672713 0 0.43845481143497073 0.110031162788742 0 0.42512360996164289 0.1101942667169049 0 0.43302597451412722 0.09911942802672713 0 0.43655847815144871 0.087567909291679069 0 0.42198136315300161 0.08812274721924529 0 0.41226619529834591 0.070009779738664735 0 0.43655847815144871 0.087567909291679069 0 0.41226619529834591 0.070009779738664735 0 0.43302597451412722 0.09911942802672713 0 0.43655847815144871 0.087567909291679069 0 0.42198136315300161 0.08812274721924529 0 0.43300293116684879 0.070359854062556224 0 0.41226619529834591 0.070009779738664735 0 0.42739758089851382 0.054541393999090262 0 0.43655847815144871 0.087567909291679069 0 0.43300293116684879 0.070359854062556224 0 0.41226619529834591 0.070009779738664735 0 0.42198136315300161 0.08812274721924529 0 0.41226619529834591 0.070009779738664735 0 0.41132824907511162 0.087668761689670915 0 0.41226619529834591 0.070009779738664735 0 0.41132824907511162 0.087668761689670915 0 0.39992923875424519 0.082621500021195282 0 0.41782870111656589 0.098086010242617663 0 0.42198136315300161 0.08812274721924529 0 0.41132824907511162 0.087668761689670915 0 0.41132824907511162 0.087668761689670915 0 0.39992923875424519 0.082621500021195282 0 0.40188519574572068 0.098349840232826835 0 0.39992923875424519 0.082621500021195282 0 0.38759228221014619 0.095233220303727467 0 0.40188519574572068 0.098349840232826835 0 0.39992923875424519 0.082621500021195282 0 0.38759228221014619 0.095233220303727467 0 0.41226619529834591 0.070009779738664735 0 0.39707386889515511 0.070908779594843374 0 0.39683376059791597 0.058855427163935138 0 0.41226619529834591 0.070009779738664735 0 0.39683376059791597 0.058855427163935138 0 0.41226619529834591 0.070009779738664735 0 0.39992923875424519 0.082621500021195282 0 0.41226619529834591 0.070009779738664735 0 0.39992923875424519 0.082621500021195282 0 0.39707386889515511 0.070908779594843374 0 0.39992923875424519 0.082621500021195282 0 0.39707386889515511 0.070908779594843374 0 0.38583977896057609 0.075316135258006081 0 0.39707386889515511 0.070908779594843374 0 0.38282045226763678 0.060547433734587333 0 0.39683376059791597 0.058855427163935138 0 0.39707386889515511 0.070908779594843374 0 0.38583977896057609 0.075316135258006081 0 0.38282045226763678 0.060547433734587333 0 0.38583977896057609 0.075316135258006081 0 0.37596532967213542 0.069868995675824025 0 0.37682589963749002 0.081332762740894418 0 0.37307104071443398 0.061065176941414383 0 0.37596532967213542 0.069868995675824025 0 0.38282045226763678 0.060547433734587333 0 0.38583977896057609 0.075316135258006081 0 0.37596532967213542 0.069868995675824025 0 0.38282045226763678 0.060547433734587333 0 0.39992923875424519 0.082621500021195282 0 0.38412803848747967 0.086259474622970303 0 0.38759228221014619 0.095233220303727467 0 0.39992923875424519 0.082621500021195282 0 0.38583977896057609 0.075316135258006081 0 0.38412803848747967 0.086259474622970303 0 0.37045299287494049 0.09679375479102828 0 0.38412803848747967 0.086259474622970303 0 0.38759228221014619 0.095233220303727467 0 0.38583977896057609 0.075316135258006081 0 0.38412803848747967 0.086259474622970303 0 0.37682589963749002 0.081332762740894418 0 0.37045299287494049 0.09679375479102828 0 0.38412803848747967 0.086259474622970303 0 0.37682589963749002 0.081332762740894418 0 0.37045299287494049 0.09679375479102828 0 0.38005682511468147 0.12140739343396729 0 0.37045299287494049 0.09679375479102828 0 0.38759228221014619 0.095233220303727467 0 0.38890959528695412 0.1083938038889192 0 0.37045299287494049 0.09679375479102828 0 0.38890959528695412 0.1083938038889192 0 0.38005682511468147 0.12140739343396729 0 0.39398634319161102 0.12556361147638159 0 0.38890959528695412 0.1083938038889192 0 0.38005682511468147 0.12140739343396729 0 0.39398634319161102 0.12556361147638159 0 0.38890959528695412 0.1083938038889192 0 0.39948393258462489 0.11301500309558379 0 0.39398634319161102 0.12556361147638159 0 0.40630256149234217 0.12337914253670321 0 0.39948393258462489 0.11301500309558379 0 0.41145911669595331 0.1096997076075869 0 0.40630256149234217 0.12337914253670321 0 0.39948393258462489 0.11301500309558379 0 0.41145911669595331 0.1096997076075869 0 0.39948393258462489 0.11301500309558379 0 0.40188519574572068 0.098349840232826835 0 0.38759228221014619 0.095233220303727467 0 0.38890959528695412 0.1083938038889192 0 0.40188519574572068 0.098349840232826835 0 0.38890959528695412 0.1083938038889192 0 0.39948393258462489 0.11301500309558379 0 0.40188519574572068 0.098349840232826835 0 0.3912475249538237 0.025882868266216091 0 0.40325323122183843 0.024352223252143548 0 0.39536881189699241 0.01378873843063998 0 0.3912475249538237 0.025882868266216091 0 0.40325323122183843 0.024352223252143548 0 0.39805180056669343 0.032772735105760037 0 0.40325323122183843 0.024352223252143548 0 0.39805180056669343 0.032772735105760037 0 0.40655765028286611 0.035582104639029083 0 0.40325323122183843 0.024352223252143548 0 0.39536881189699241 0.01378873843063998 0 0.40720094273855439 0.01372602960598159 0 0.40060323373222451 0.0042547197705496897 0 0.39536881189699241 0.01378873843063998 0 0.40720094273855439 0.01372602960598159 0 0.40060323373222451 0.0042547197705496897 0 0.41081432206005303 0.0037114498956348132 0 0.4046584776842293 -0.0050702490882302163 0 0.40060323373222451 0.0042547197705496897 0 0.41081432206005303 0.0037114498956348132 0 0.40720094273855439 0.01372602960598159 0 0.40060323373222451 0.0042547197705496897 0 0.39025836247721268 0.0036292771787240202 0 0.39531848553630572 -0.0042569273994520467 0 0.40060323373222451 0.0042547197705496897 0 0.39536881189699241 0.01378873843063998 0 0.39025836247721268 0.0036292771787240202 0 0.37844401144479839 0.012609093579625891 0 0.38356146703633898 -0.0078565650350033434 0 0.37844401144479839 0.012609093579625891 0 0.39025836247721268 0.0036292771787240202 0 0.38356146703633898 -0.0078565650350033434 0 0.39536881189699241 0.01378873843063998 0 0.37844401144479839 0.012609093579625891 0 0.39025836247721268 0.0036292771787240202 0 0.3912475249538237 0.025882868266216091 0 0.37844401144479839 0.012609093579625891 0 0.38063223185621792 0.036578263657106522 0 0.37844401144479839 0.012609093579625891 0 0.38063223185621792 0.036578263657106522 0 0.37146335928247548 0.04052602251159599 0 0.37844401144479839 0.012609093579625891 0 0.38063223185621792 0.036578263657106522 0 0.3912475249538237 0.025882868266216091 0 0.39536881189699241 0.01378873843063998 0 0.37844401144479839 0.012609093579625891 0 0.37146335928247548 0.04052602251159599 0 0.38063223185621792 0.036578263657106522 0 0.38282045226763678 0.060547433734587333 0 0.3912475249538237 0.025882868266216091 0 0.38063223185621792 0.036578263657106522 0 0.3908528121234538 0.035995570554822158 0 0.38063223185621792 0.036578263657106522 0 0.38791705742610771 0.044539104287684539 0 0.3908528121234538 0.035995570554822158 0 0.38791705742610771 0.044539104287684539 0 0.38282045226763678 0.060547433734587333 0 0.39079668350586277 0.051215399393808793 0 0.37307104071443398 0.061065176941414383 0 0.37146335928247548 0.04052602251159599 0 0.38282045226763678 0.060547433734587333 0 0.38063223185621792 0.036578263657106522 0 0.38791705742610771 0.044539104287684539 0 0.38282045226763678 0.060547433734587333 0 0.38063223185621792 0.036578263657106522 0 0.38282045226763678 0.060547433734587333 0 0.38282045226763678 0.060547433734587333 0 0.39683376059791597 0.058855427163935138 0 0.39079668350586277 0.051215399393808793 0 0.41226619529834591 0.070009779738664735 0 0.39683376059791597 0.058855427163935138 0 0.40948896714378957 0.05055434744181983 0 0.39683376059791597 0.058855427163935138 0 0.39079668350586277 0.051215399393808793 0 0.39674782008621368 0.04348041067995833 0 0.39683376059791597 0.058855427163935138 0 0.39674782008621368 0.04348041067995833 0 0.40948896714378957 0.05055434744181983 0 0.3908528121234538 0.035995570554822158 0 0.39805180056669343 0.032772735105760037 0 0.39674782008621368 0.04348041067995833 0 0.3912475249538237 0.025882868266216091 0 0.3908528121234538 0.035995570554822158 0 0.39805180056669343 0.032772735105760037 0 0.38791705742610771 0.044539104287684539 0 0.3908528121234538 0.035995570554822158 0 0.39674782008621368 0.04348041067995833 0 0.38791705742610771 0.044539104287684539 0 0.39079668350586277 0.051215399393808793 0 0.39674782008621368 0.04348041067995833 0 0.39674782008621368 0.04348041067995833 0 0.40655765028286611 0.035582104639029083 0 0.40948896714378957 0.05055434744181983 0 0.39805180056669343 0.032772735105760037 0 0.39674782008621368 0.04348041067995833 0 0.40655765028286611 0.035582104639029083 0 0.40655765028286611 0.035582104639029083 0 0.41713079569888262 0.040856968430241461 0 0.41557099838193923 0.024039796491718179 0 0.41713079569888262 0.040856968430241461 0 0.42755741698364552 0.032815777208855347 0 0.41557099838193923 0.024039796491718179 0 0.40655765028286611 0.035582104639029083 0 0.41713079569888262 0.040856968430241461 0 0.40948896714378957 0.05055434744181983 0 0.41226619529834591 0.070009779738664735 0 0.40948896714378957 0.05055434744181983 0 0.42739758089851382 0.054541393999090262 0 0.41713079569888262 0.040856968430241461 0 0.40948896714378957 0.05055434744181983 0 0.42739758089851382 0.054541393999090262 0 0.41226619529834591 0.070009779738664735 0 0.42739758089851382 0.054541393999090262 0 0.43300293116684879 0.070359854062556224 0 0.42739758089851382 0.054541393999090262 0 0.44432728466234178 0.059795406129610977 0 0.41713079569888262 0.040856968430241461 0 0.42739758089851382 0.054541393999090262 0 0.42755741698364552 0.032815777208855347 0 0.42739758089851382 0.054541393999090262 0 0.42755741698364552 0.032815777208855347 0 0.44252896649868317 0.039073008259517338 0 0.42739758089851382 0.054541393999090262 0 0.44252896649868317 0.039073008259517338 0 0.42755741698364552 0.032815777208855347 0 0.4358194844604939 0.024219735287320941 0 0.44252896649868317 0.039073008259517338 0 0.42755741698364552 0.032815777208855347 0 0.41557099838193923 0.024039796491718179 0 0.4265644217351573 0.014684511896395219 0 0.4358194844604939 0.024219735287320941 0 0.4265644217351573 0.014684511896395219 0 0.44548351627008242 0.01642882659412407 0 0.42755741698364552 0.032815777208855347 0 0.4358194844604939 0.024219735287320941 0 0.4265644217351573 0.014684511896395219 0 0.41557099838193923 0.024039796491718179 0 0.4165272652869268 0.01155925859927168 0 0.4265644217351573 0.014684511896395219 0 0.41557099838193923 0.024039796491718179 0 0.40720094273855439 0.01372602960598159 0 0.4165272652869268 0.01155925859927168 0 0.40325323122183843 0.024352223252143548 0 0.41557099838193923 0.024039796491718179 0 0.40720094273855439 0.01372602960598159 0 0.40325323122183843 0.024352223252143548 0 0.40655765028286611 0.035582104639029083 0 0.41557099838193923 0.024039796491718179 0 0.41081432206005303 0.0037114498956348132 0 0.40720094273855439 0.01372602960598159 0 0.4165272652869268 0.01155925859927168 0 0.4165272652869268 0.01155925859927168 0 0.42248564151892998 0.0016345051066286029 0 0.4265644217351573 0.014684511896395219 0 0.41081432206005303 0.0037114498956348132 0 0.4165272652869268 0.01155925859927168 0 0.42248564151892998 0.0016345051066286029 0 0.42248564151892998 0.0016345051066286029 0 0.4265644217351573 0.014684511896395219 0 0.4382820622288856 -0.0014159552958160841 0 0.4265644217351573 0.014684511896395219 0 0.44548351627008242 0.01642882659412407 0 0.4382820622288856 -0.0014159552958160841 0 0.45100246047295739 0.0046664116742636159 0 0.44548351627008242 0.01642882659412407 0 0.4382820622288856 -0.0014159552958160841 0 0.45100246047295739 0.0046664116742636159 0 0.44548351627008242 0.01642882659412407 0 0.4580470330794123 0.0188547641718908 0 0.4358194844604939 0.024219735287320941 0 0.4514029071021442 0.02821869916314456 0 0.44548351627008242 0.01642882659412407 0 0.4358194844604939 0.024219735287320941 0 0.4514029071021442 0.02821869916314456 0 0.44252896649868317 0.039073008259517338 0 0.4514029071021442 0.02821869916314456 0 0.44548351627008242 0.01642882659412407 0 0.4580470330794123 0.0188547641718908 0 0.4514029071021442 0.02821869916314456 0 0.4580470330794123 0.0188547641718908 0 0.46553563141862692 0.027383902935855992 0 0.4580470330794123 0.0188547641718908 0 0.46553563141862692 0.027383902935855992 0 0.471035018561343 0.01684384088441979 0 0.4580470330794123 0.0188547641718908 0 0.4620271672997433 0.0081957990277541914 0 0.471035018561343 0.01684384088441979 0 0.4620271672997433 0.0081957990277541914 0 0.47207727543944228 0.0077163925679632076 0 0.45540766643685782 -0.0078732224449345398 0 0.4620271672997433 0.0081957990277541914 0 0.47207727543944228 0.0077163925679632076 0 0.471035018561343 0.01684384088441979 0 0.45100246047295739 0.0046664116742636159 0 0.4620271672997433 0.0081957990277541914 0 0.45540766643685782 -0.0078732224449345398 0 0.45100246047295739 0.0046664116742636159 0 0.4580470330794123 0.0188547641718908 0 0.4620271672997433 0.0081957990277541914 0 0.42739758089851382 0.054541393999090262 0 0.44432728466234178 0.059795406129610977 0 0.44252896649868317 0.039073008259517338 0 0.44432728466234178 0.059795406129610977 0 0.44252896649868317 0.039073008259517338 0 0.46100281088556699 0.043351957730158222 0 0.4514029071021442 0.02821869916314456 0 0.44252896649868317 0.039073008259517338 0 0.46100281088556699 0.043351957730158222 0 0.4514029071021442 0.02821869916314456 0 0.46553563141862692 0.027383902935855992 0 0.46100281088556699 0.043351957730158222 0 0.46553563141862692 0.027383902935855992 0 0.46100281088556699 0.043351957730158222 0 0.4764725540003833 0.035303178421407518 0 0.46368779630991369 0.062884433647911922 0 0.44432728466234178 0.059795406129610977 0 0.46100281088556699 0.043351957730158222 0 0.48297411160829701 0.071419164250366693 0 0.46368779630991369 0.062884433647911922 0 0.48184389815495748 0.047383459182506117 0 0.46368779630991369 0.062884433647911922 0 0.46100281088556699 0.043351957730158222 0 0.48184389815495748 0.047383459182506117 0 0.46368779630991369 0.062884433647911922 0 0.48184389815495748 0.047383459182506117 0 0.46100281088556699 0.043351957730158222 0 0.48184389815495748 0.047383459182506117 0 0.4764725540003833 0.035303178421407518 0 0.48184389815495748 0.047383459182506117 0 0.50000000000000089 0.031882484717099757 0 0.48184389815495748 0.047383459182506117 0 0.50000000000000089 0.031882484717099757 0 0.5 0.058972369132007867 0 0.48184389815495748 0.047383459182506117 0 0.4764725540003833 0.035303178421407518 0 0.50000000000000089 0.031882484717099757 0 0.48297411160829701 0.071419164250366693 0 0.48184389815495748 0.047383459182506117 0 0.5 0.058972369132007867 0 0.48173822001607031 0.002441982684480838 0 0.47207727543944228 0.0077163925679632076 0 0.45540766643685782 -0.0078732224449345398 0 0.48073089036299149 0.01447516008145705 0 0.48088876464914698 0.0066420825236524483 0 0.47207727543944228 0.0077163925679632076 0 0.48088876464914698 0.0066420825236524483 0 0.48173822001607031 0.002441982684480838 0 0.48944624590280772 0.014576472087587141 0 0.48073089036299149 0.01447516008145705 0 0.48088876464914698 0.0066420825236524483 0 0.48944624590280772 0.014576472087587141 0 0.48088876464914698 0.0066420825236524483 0 0.48173822001607031 0.002441982684480838 0 0.47207727543944228 0.0077163925679632076 0 0.48088876464914698 0.0066420825236524483 0 0.48173822001607031 0.002441982684480838 0 0.48073089036299149 0.01447516008145705 0 0.47207727543944228 0.0077163925679632076 0 0.471035018561343 0.01684384088441979 0 0.46553563141862692 0.027383902935855992 0 0.471035018561343 0.01684384088441979 0 0.48098968552297122 0.023479159592672289 0 0.46553563141862692 0.027383902935855992 0 0.4764725540003833 0.035303178421407518 0 0.48098968552297122 0.023479159592672289 0 0.48073089036299149 0.01447516008145705 0 0.471035018561343 0.01684384088441979 0 0.48098968552297122 0.023479159592672289 0 0.48073089036299149 0.01447516008145705 0 0.48098968552297122 0.023479159592672289 0 0.48944624590280772 0.014576472087587141 0 0.50000000000000089 0.031882484717099757 0 0.50000000000000044 0.0095961811708810997 0 0.48944624590280772 0.014576472087587141 0 0.4764725540003833 0.035303178421407518 0 0.50000000000000089 0.031882484717099757 0 0.48098968552297122 0.023479159592672289 0 0.50000000000000089 0.031882484717099757 0 0.48098968552297122 0.023479159592672289 0 0.48944624590280772 0.014576472087587141 0 0.48173822001607031 0.002441982684480838 0 0.50000000000000044 0.0095961811708810997 0 0.48944624590280772 0.014576472087587141 0 0.48173822001607031 0.002441982684480838 0 0.50000000000000044 0.0095961811708810997 0 0.48173822001607031 0.002441982684480838 0 0.50000000000000044 0.0095961811708810997 0 0.5 -0.01553848795347695 0 0.48173822001607031 0.002441982684480838 0 0.5 -0.01553848795347695 0 0.48723509010938909 -0.024737082977995831 0 0.48173822001607031 0.002441982684480838 0 0.48723509010938909 -0.024737082977995831 0 0.48173822001607031 0.002441982684480838 0 0.46944239540012012 -0.021901386132034111 0 0.45540766643685782 -0.0078732224449345398 0 0.48173822001607031 0.002441982684480838 0 0.46944239540012012 -0.021901386132034111 0 0.48723509010938909 -0.024737082977995831 0 0.46944239540012012 -0.021901386132034111 0 0.48723509010938909 -0.024737082977995831 0 0.47311684284700922 -0.039980301183512167 0 0.5 -0.01553848795347695 0 0.48723509010938909 -0.024737082977995831 0 0.5 -0.040673157077835087 0 0.48723509010938909 -0.024737082977995831 0 0.49273196020270971 -0.051916148640471983 0 0.48034048547664182 -0.050194577481915269 0 0.48723509010938909 -0.024737082977995831 0 0.49273196020270971 -0.051916148640471983 0 0.48723509010938909 -0.024737082977995831 0 0.5 -0.040673157077835087 0 0.49273196020270971 -0.051916148640471983 0 0.5 -0.040673157077835087 0 0.49273196020270971 -0.051916148640471983 0 0.5 -0.065807826202193331 0 0.49273196020270971 -0.051916148640471983 0 0.48384360039889979 -0.062204599920787272 0 0.48034048547664182 -0.050194577481915269 0 0.48034048547664182 -0.050194577481915269 0 0.47035120232490191 -0.060528185902064997 0 0.47311684284700922 -0.039980301183512167 0 0.47035120232490191 -0.060528185902064997 0 0.47311684284700922 -0.039980301183512167 0 0.48384360039889979 -0.062204599920787272 0 0.48034048547664182 -0.050194577481915269 0 0.47035120232490191 -0.060528185902064997 0 0.48723509010938909 -0.024737082977995831 0 0.48034048547664182 -0.050194577481915269 0 0.47311684284700922 -0.039980301183512167 0 0.46944239540012012 -0.021901386132034111 0 0.47311684284700922 -0.039980301183512167 0 0.44971415759127392 -0.039358306738208573 0 0.47035120232490191 -0.060528185902064997 0 0.47311684284700922 -0.039980301183512167 0 0.44971415759127392 -0.039358306738208573 0 0.47035120232490191 -0.060528185902064997 0 0.44971415759127392 -0.039358306738208573 0 0.47035120232490191 -0.060528185902064997 0 0.43963483674523918 -0.055334607978488382 0 0.44971415759127392 -0.039358306738208573 0 0.43963483674523918 -0.055334607978488382 0 0.44971415759127392 -0.039358306738208573 0 0.42419530264354072 -0.042652000491910397 0 0.46944239540012012 -0.021901386132034111 0 0.44971415759127392 -0.039358306738208573 0 0.45540766643685782 -0.0078732224449345398 0 0.44971415759127392 -0.039358306738208573 0 0.42907711285764621 -0.01818842757435184 0 0.44971415759127392 -0.039358306738208573 0 0.45540766643685782 -0.0078732224449345398 0 0.42907711285764621 -0.01818842757435184 0 0.45540766643685782 -0.0078732224449345398 0 0.42907711285764621 -0.01818842757435184 0 0.45100246047295739 0.0046664116742636159 0 0.4382820622288856 -0.0014159552958160841 0 0.45540766643685782 -0.0078732224449345398 0 0.4382820622288856 -0.0014159552958160841 0 0.45540766643685782 -0.0078732224449345398 0 0.42907711285764621 -0.01818842757435184 0 0.48173822001607031 0.002441982684480838 0 0.45540766643685782 -0.0078732224449345398 0 0.47129126618897188 -0.1223351355815797 0 0.47148248434309947 -0.114916285604633 0 0.48087269318342413 -0.1216818802472065 0 0.47148248434309947 -0.114916285604633 0 0.48087269318342413 -0.1216818802472065 0 0.47838814501791832 -0.1066654575105275 0 0.48087269318342413 -0.1216818802472065 0 0.48924328608656842 -0.1141618265083332 0 0.47838814501791832 -0.1066654575105275 0 0.5 -0.1122204549214597 0 0.48924328608656842 -0.1141618265083332 0 0.5 -0.13349841451636779 0 0.48087269318342413 -0.1216818802472065 0 0.48924328608656842 -0.1141618265083332 0 0.5 -0.13349841451636779 0 0.5 -0.1122204549214597 0 0.48924328608656842 -0.1141618265083332 0 0.48827073793524339 -0.097774102912636218 0 0.48924328608656842 -0.1141618265083332 0 0.48827073793524339 -0.097774102912636218 0 0.47838814501791832 -0.1066654575105275 0 0.5 -0.1122204549214597 0 0.48827073793524339 -0.097774102912636218 0 0.50000000000000266 -0.090942495326551576 0 0.47652975213937199 -0.091635549067057065 0 0.46683976751390588 -0.086617099886465918 0 0.46456669494636288 -0.10350535152343909 0 0.48827073793524339 -0.097774102912636218 0 0.47838814501791832 -0.1066654575105275 0 0.47652975213937199 -0.091635549067057065 0 0.47148248434309947 -0.114916285604633 0 0.47838814501791832 -0.1066654575105275 0 0.46456669494636288 -0.10350535152343909 0 0.47838814501791832 -0.1066654575105275 0 0.47652975213937199 -0.091635549067057065 0 0.46456669494636288 -0.10350535152343909 0 0.48827073793524339 -0.097774102912636218 0 0.47652975213937199 -0.091635549067057065 0 0.48517560116245317 -0.075735340614307423 0 0.47652975213937199 -0.091635549067057065 0 0.48517560116245317 -0.075735340614307423 0 0.46683976751390588 -0.086617099886465918 0 0.47652975213937199 -0.091635549067057065 0 0.46683976751390588 -0.086617099886465918 0 0.50000000000000266 -0.090942495326551576 0 0.49822883029603021 -0.079095214302948247 0 0.5 -0.065807826202193331 0 0.48827073793524339 -0.097774102912636218 0 0.50000000000000266 -0.090942495326551576 0 0.48517560116245317 -0.075735340614307423 0 0.50000000000000266 -0.090942495326551576 0 0.48517560116245317 -0.075735340614307423 0 0.50000000000000266 -0.090942495326551576 0 0.49822883029603021 -0.079095214302948247 0 0.48517560116245317 -0.075735340614307423 0 0.49273196020270971 -0.051916148640471983 0 0.49822883029603021 -0.079095214302948247 0 0.48384360039889979 -0.062204599920787272 0 0.49822883029603021 -0.079095214302948247 0 0.48517560116245317 -0.075735340614307423 0 0.49273196020270971 -0.051916148640471983 0 0.48384360039889979 -0.062204599920787272 0 0.49822883029603021 -0.079095214302948247 0 0.49273196020270971 -0.051916148640471983 0 0.49822883029603021 -0.079095214302948247 0 0.5 -0.065807826202193331 0 0.47035120232490191 -0.060528185902064997 0 0.48517560116245317 -0.075735340614307423 0 0.47035120232490191 -0.060528185902064997 0 0.48517560116245317 -0.075735340614307423 0 0.46683976751390588 -0.086617099886465918 0 0.48384360039889979 -0.062204599920787272 0 0.47035120232490191 -0.060528185902064997 0 0.48517560116245317 -0.075735340614307423 0 0.47035120232490191 -0.060528185902064997 0 0.46683976751390588 -0.086617099886465918 0 0.47035120232490191 -0.060528185902064997 0 0.44249197108241189 -0.074007360679063244 0 0.46683976751390588 -0.086617099886465918 0 0.47035120232490191 -0.060528185902064997 0 0.43963483674523918 -0.055334607978488382 0 0.44249197108241189 -0.074007360679063244 0 0.44249197108241189 -0.074007360679063244 0 0.46683976751390588 -0.086617099886465918 0 0.4490662803509099 -0.094083529251462475 0 0.44249197108241189 -0.074007360679063244 0 0.4490662803509099 -0.094083529251462475 0 0.42834270349958448 -0.099226311759436261 0 0.44249197108241189 -0.074007360679063244 0 0.46683976751390588 -0.086617099886465918 0 0.46683976751390588 -0.086617099886465918 0 0.46456669494636288 -0.10350535152343909 0 0.4490662803509099 -0.094083529251462475 0 0.46683976751390588 -0.086617099886465918 0 0.46456669494636288 -0.10350535152343909 0 0.46456669494636288 -0.10350535152343909 0 0.4490662803509099 -0.094083529251462475 0 0.44386094964032902 -0.11054798122052439 0 0.4490662803509099 -0.094083529251462475 0 0.44386094964032902 -0.11054798122052439 0 0.42834270349958448 -0.099226311759436261 0 0.44386094964032902 -0.11054798122052439 0 0.46257396642688631 -0.12529077885077469 0 0.45239247298790419 -0.125419693033265 0 0.44386094964032902 -0.11054798122052439 0 0.42916935431308728 -0.1205456085246996 0 0.4435038969132965 -0.12540022695152131 0 0.44386094964032902 -0.11054798122052439 0 0.45239247298790419 -0.125419693033265 0 0.4435038969132965 -0.12540022695152131 0 0.44386094964032902 -0.11054798122052439 0 0.46229362237882032 -0.1203936031604123 0 0.46257396642688631 -0.12529077885077469 0 0.46456669494636288 -0.10350535152343909 0 0.46229362237882032 -0.1203936031604123 0 0.46456669494636288 -0.10350535152343909 0 0.44386094964032902 -0.11054798122052439 0 0.46229362237882032 -0.1203936031604123 0 0.44386094964032902 -0.11054798122052439 0 0.46257396642688631 -0.12529077885077469 0 0.47148248434309947 -0.114916285604633 0 0.46456669494636288 -0.10350535152343909 0 0.46229362237882032 -0.1203936031604123 0 0.47129126618897188 -0.1223351355815797 0 0.46229362237882032 -0.1203936031604123 0 0.46257396642688631 -0.12529077885077469 0 0.47129126618897188 -0.1223351355815797 0 0.47148248434309947 -0.114916285604633 0 0.46229362237882032 -0.1203936031604123 0 0.44386094964032902 -0.11054798122052439 0 0.42916935431308728 -0.1205456085246996 0 0.42834270349958448 -0.099226311759436261 0 0.41143930547928681 -0.11934523636421419 0 0.42916935431308728 -0.1205456085246996 0 0.42834270349958448 -0.099226311759436261 0 0.41143930547928681 -0.11934523636421419 0 0.40555832972599831 -0.095826118330896617 0 0.41143930547928681 -0.11934523636421419 0 0.42834270349958448 -0.099226311759436261 0 0.40555832972599831 -0.095826118330896617 0 0.42834270349958448 -0.099226311759436261 0 0.41884290658632428 -0.080552882507727325 0 0.40555832972599831 -0.095826118330896617 0 0.41884290658632428 -0.080552882507727325 0 0.39967735397270959 -0.072307000297579083 0 0.40555832972599831 -0.095826118330896617 0 0.44249197108241189 -0.074007360679063244 0 0.42834270349958448 -0.099226311759436261 0 0.41884290658632428 -0.080552882507727325 0 0.44249197108241189 -0.074007360679063244 0 0.41814417465091752 -0.061397621471661459 0 0.43963483674523918 -0.055334607978488382 0 0.44249197108241189 -0.074007360679063244 0 0.41814417465091752 -0.061397621471661459 0 0.44249197108241189 -0.074007360679063244 0 0.41884290658632428 -0.080552882507727325 0 0.41814417465091752 -0.061397621471661459 0 0.41884290658632428 -0.080552882507727325 0 0.39967735397270959 -0.072307000297579083 0 0.41814417465091752 -0.061397621471661459 0 0.39967735397270959 -0.072307000297579083 0 0.38669795957132042 -0.057310603286660967 0 0.37240766699872252 -0.068318548019290964 0 0.39967735397270959 -0.072307000297579083 0 0.37781097748786241 -0.089314889372882261 0 0.37240766699872252 -0.068318548019290964 0 0.39967735397270959 -0.072307000297579083 0 0.37781097748786241 -0.089314889372882261 0 0.40555832972599831 -0.095826118330896617 0 0.39967735397270959 -0.072307000297579083 0 0.40555832972599831 -0.095826118330896617 0 0.40555832972599831 -0.095826118330896617 0 0.38953803654933628 -0.10754997095337659 0 0.39823574772599779 -0.11763079726210079 0 0.37781097748786241 -0.089314889372882261 0 0.40555832972599831 -0.095826118330896617 0 0.38953803654933628 -0.10754997095337659 0 0.37781097748786241 -0.089314889372882261 0 0.38953803654933628 -0.10754997095337659 0 0.37644505785585192 -0.1058120404938334 0 0.38953803654933628 -0.10754997095337659 0 0.37644505785585192 -0.1058120404938334 0 0.37720890243704291 -0.12310924361699779 0 0.38953803654933628 -0.10754997095337659 0 0.37720890243704291 -0.12310924361699779 0 0.38918813321375051 -0.12739880168557821 0 0.38953803654933628 -0.10754997095337659 0 0.39823574772599779 -0.11763079726210079 0 0.38918813321375051 -0.12739880168557821 0 0.41143930547928681 -0.11934523636421419 0 0.39823574772599779 -0.11763079726210079 0 0.40257569972698831 -0.13396225485532559 0 0.41143930547928681 -0.11934523636421419 0 0.40555832972599831 -0.095826118330896617 0 0.39823574772599779 -0.11763079726210079 0 0.42011428296152808 -0.02169968792975261 0 0.41401194260749391 -0.028450411104576211 0 0.41343304557213612 -0.018371446868227208 0 0.42011428296152808 -0.02169968792975261 0 0.41343304557213612 -0.018371446868227208 0 0.41928481904255338 -0.01548900553927589 0 0.42011428296152808 -0.02169968792975261 0 0.41928481904255338 -0.01548900553927589 0 0.42542521438275183 -0.0144422395697206 0 0.42011428296152808 -0.02169968792975261 0 0.41401194260749391 -0.028450411104576211 0 0.42742255973229643 -0.030069766767760062 0 0.41401194260749391 -0.028450411104576211 0 0.40522076275047969 -0.019933987949522329 0 0.40044964155059998 -0.029094842751199331 0 0.41401194260749391 -0.028450411104576211 0 0.41343304557213612 -0.018371446868227208 0 0.40522076275047969 -0.019933987949522329 0 0.41343304557213612 -0.018371446868227208 0 0.40806592415966281 -0.01253819616599721 0 0.40522076275047969 -0.019933987949522329 0 0.40806592415966281 -0.01253819616599721 0 0.4135204533098043 -0.0054466611181140526 0 0.41498054603746559 -0.011947546426581419 0 0.41343304557213612 -0.018371446868227208 0 0.40806592415966281 -0.01253819616599721 0 0.41498054603746559 -0.011947546426581419 0 0.41081432206005303 0.0037114498956348132 0 0.4135204533098043 -0.0054466611181140526 0 0.4046584776842293 -0.0050702490882302163 0 0.40806592415966281 -0.01253819616599721 0 0.4135204533098043 -0.0054466611181140526 0 0.4046584776842293 -0.0050702490882302163 0 0.41081432206005303 0.0037114498956348132 0 0.42248564151892998 0.0016345051066286029 0 0.4135204533098043 -0.0054466611181140526 0 0.42248564151892998 0.0016345051066286029 0 0.4135204533098043 -0.0054466611181140526 0 0.42119781252485211 -0.0083000839364812864 0 0.41343304557213612 -0.018371446868227208 0 0.41498054603746559 -0.011947546426581419 0 0.41928481904255338 -0.01548900553927589 0 0.4135204533098043 -0.0054466611181140526 0 0.41498054603746559 -0.011947546426581419 0 0.42119781252485211 -0.0083000839364812864 0 0.41498054603746559 -0.011947546426581419 0 0.42119781252485211 -0.0083000839364812864 0 0.41928481904255338 -0.01548900553927589 0 0.42542521438275183 -0.0144422395697206 0 0.42820760236351979 -0.0076976995852137747 0 0.42907711285764621 -0.01818842757435184 0 0.4382820622288856 -0.0014159552958160841 0 0.42820760236351979 -0.0076976995852137747 0 0.42907711285764621 -0.01818842757435184 0 0.42119781252485211 -0.0083000839364812864 0 0.41928481904255338 -0.01548900553927589 0 0.42542521438275183 -0.0144422395697206 0 0.42248564151892998 0.0016345051066286029 0 0.4382820622288856 -0.0014159552958160841 0 0.42820760236351979 -0.0076976995852137747 0 0.42119781252485211 -0.0083000839364812864 0 0.42542521438275183 -0.0144422395697206 0 0.42820760236351979 -0.0076976995852137747 0 0.42248564151892998 0.0016345051066286029 0 0.42119781252485211 -0.0083000839364812864 0 0.42820760236351979 -0.0076976995852137747 0 0.44971415759127392 -0.039358306738208573 0 0.42907711285764621 -0.01818842757435184 0 0.42742255973229643 -0.030069766767760062 0 0.42011428296152808 -0.02169968792975261 0 0.42907711285764621 -0.01818842757435184 0 0.42742255973229643 -0.030069766767760062 0 0.42011428296152808 -0.02169968792975261 0 0.42542521438275183 -0.0144422395697206 0 0.42907711285764621 -0.01818842757435184 0 0.42011428296152808 -0.02169968792975261 0 0.42907711285764621 -0.01818842757435184 0 0.42542521438275183 -0.0144422395697206 0 0.42907711285764621 -0.01818842757435184 0 0.44971415759127392 -0.039358306738208573 0 0.42742255973229643 -0.030069766767760062 0 0.42419530264354072 -0.042652000491910397 0 0.41401194260749391 -0.028450411104576211 0 0.42742255973229643 -0.030069766767760062 0 0.42419530264354072 -0.042652000491910397 0 0.43963483674523918 -0.055334607978488382 0 0.42419530264354072 -0.042652000491910397 0 0.41814417465091752 -0.061397621471661459 0 0.41814417465091752 -0.061397621471661459 0 0.41107184061272262 -0.047596707948501772 0 0.39379637821942232 -0.04878788226426127 0 0.42419530264354072 -0.042652000491910397 0 0.41814417465091752 -0.061397621471661459 0 0.41107184061272262 -0.047596707948501772 0 0.41401194260749391 -0.028450411104576211 0 0.42419530264354072 -0.042652000491910397 0 0.40815150693701141 -0.037549327566173699 0 0.42419530264354072 -0.042652000491910397 0 0.41107184061272262 -0.047596707948501772 0 0.40815150693701141 -0.037549327566173699 0 0.41401194260749391 -0.028450411104576211 0 0.40815150693701141 -0.037549327566173699 0 0.40044964155059998 -0.029094842751199331 0 0.41107184061272262 -0.047596707948501772 0 0.40815150693701141 -0.037549327566173699 0 0.39379637821942232 -0.04878788226426127 0 0.40815150693701141 -0.037549327566173699 0 0.39379637821942232 -0.04878788226426127 0 0.40044964155059998 -0.029094842751199331 0 0.39379637821942232 -0.04878788226426127 0 0.38867892262788012 -0.028322223649632432 0 0.39379637821942232 -0.04878788226426127 0 0.38867892262788012 -0.028322223649632432 0 0.40044964155059998 -0.029094842751199331 0 0.39967735397270959 -0.072307000297579083 0 0.39379637821942232 -0.04878788226426127 0 0.38669795957132042 -0.057310603286660967 0 0.41814417465091752 -0.061397621471661459 0 0.39379637821942232 -0.04878788226426127 0 0.39967735397270959 -0.072307000297579083 0 0.39379637821942232 -0.04878788226426127 0 0.39967735397270959 -0.072307000297579083 0 0.41814417465091752 -0.061397621471661459 0 0.39379637821942232 -0.04878788226426127 0 0.39379637821942232 -0.04878788226426127 0 0.38896036142985008 -0.046283306103098283 0 0.38669795957132042 -0.057310603286660967 0 0.37839056082150663 -0.050608978831784571 0 0.37240766699872252 -0.068318548019290964 0 0.38669795957132042 -0.057310603286660967 0 0.37839056082150663 -0.050608978831784571 0 0.38896036142985008 -0.046283306103098283 0 0.39379637821942232 -0.04878788226426127 0 0.38669795957132042 -0.057310603286660967 0 0.38896036142985008 -0.046283306103098283 0 0.39379637821942232 -0.04878788226426127 0 0.38896036142985008 -0.046283306103098283 0 0.38867892262788012 -0.028322223649632432 0 0.3834615598562825 -0.037386722635115492 0 0.38896036142985008 -0.046283306103098283 0 0.38867892262788012 -0.028322223649632432 0 0.37839056082150663 -0.050608978831784571 0 0.3834615598562825 -0.037386722635115492 0 0.38896036142985008 -0.046283306103098283 0 0.37839056082150663 -0.050608978831784571 0 0.3834615598562825 -0.037386722635115492 0 0.37356965880113402 -0.040783236975350308 0 0.38867892262788012 -0.028322223649632432 0 0.38356146703633898 -0.0078565650350033434 0 0.3834615598562825 -0.037386722635115492 0 0.37600683512296651 -0.014087071697862221 0 0.37356965880113402 -0.040783236975350308 0 0.3834615598562825 -0.037386722635115492 0 0.38867892262788012 -0.028322223649632432 0 0.37600683512296651 -0.014087071697862221 0 0.38867892262788012 -0.028322223649632432 0 0.37600683512296651 -0.014087071697862221 0 0.38356146703633898 -0.0078565650350033434 0 0.38867892262788012 -0.028322223649632432 0 0.39658225960386179 -0.014459285545308009 0 0.38356146703633898 -0.0078565650350033434 0 0.38867892262788012 -0.028322223649632432 0 0.40044964155059998 -0.029094842751199331 0 0.39658225960386179 -0.014459285545308009 0 0.40522076275047969 -0.019933987949522329 0 0.40044964155059998 -0.029094842751199331 0 0.39658225960386179 -0.014459285545308009 0 0.40806592415966281 -0.01253819616599721 0 0.40522076275047969 -0.019933987949522329 0 0.39658225960386179 -0.014459285545308009 0 0.40060323373222451 0.0042547197705496897 0 0.4046584776842293 -0.0050702490882302163 0 0.39531848553630572 -0.0042569273994520467 0 0.40806592415966281 -0.01253819616599721 0 0.4046584776842293 -0.0050702490882302163 0 0.39658225960386179 -0.014459285545308009 0 0.4046584776842293 -0.0050702490882302163 0 0.39658225960386179 -0.014459285545308009 0 0.39531848553630572 -0.0042569273994520467 0 0.39658225960386179 -0.014459285545308009 0 0.39531848553630572 -0.0042569273994520467 0 0.38356146703633898 -0.0078565650350033434 0 0.39025836247721268 0.0036292771787240202 0 0.39531848553630572 -0.0042569273994520467 0 0.38356146703633898 -0.0078565650350033434 0 0.37844401144479839 0.012609093579625891 0 0.37600683512296651 -0.014087071697862221 0 0.37844401144479839 0.012609093579625891 0 0.37600683512296651 -0.014087071697862221 0 0.38356146703633898 -0.0078565650350033434 0 0.37600683512296651 -0.014087071697862221 0 0.36665723294200347 -0.001883505129568449 0 0.35850646790810559 -0.01395473468271459 0 0.37844401144479839 0.012609093579625891 0 0.37600683512296651 -0.014087071697862221 0 0.36665723294200347 -0.001883505129568449 0 0.36665723294200347 -0.001883505129568449 0 0.35531676971978082 -0.0033532784323768001 0 0.35850646790810559 -0.01395473468271459 0 0.37600683512296651 -0.014087071697862221 0 0.37356965880113402 -0.040783236975350308 0 0.37600683512296651 -0.014087071697862221 0 0.36404947753274258 -0.026706798856440471 0 0.35850646790810559 -0.01395473468271459 0 0.37600683512296651 -0.014087071697862221 0 0.36404947753274258 -0.026706798856440471 0 0.37356965880113402 -0.040783236975350308 0 0.34748556133762742 -0.02738266599094942 0 0.35850646790810559 -0.01395473468271459 0 0.34370628527030811 -0.0115647124322744 0 0.36404947753274258 -0.026706798856440471 0 0.34748556133762742 -0.02738266599094942 0 0.35850646790810559 -0.01395473468271459 0 0.36404947753274258 -0.026706798856440471 0 0.34748556133762742 -0.02738266599094942 0 0.36012817770438982 -0.039413746555128387 0 0.33689267375143878 0.0039255003288513873 0 0.35531676971978082 -0.0033532784323768001 0 0.34370628527030811 -0.0115647124322744 0 0.35531676971978082 -0.0033532784323768001 0 0.35850646790810559 -0.01395473468271459 0 0.34370628527030811 -0.0115647124322744 0 0.33689267375143878 0.0039255003288513873 0 0.34370628527030811 -0.0115647124322744 0 0.32469666258817742 -0.019557632270551 0 0.33689267375143878 0.0039255003288513873 0 0.30352242257352219 0.0039185454548519476 0 0.32469666258817742 -0.019557632270551 0 0.34748556133762742 -0.02738266599094942 0 0.34370628527030811 -0.0115647124322744 0 0.32469666258817742 -0.019557632270551 0 0.34748556133762742 -0.02738266599094942 0 0.32469666258817742 -0.019557632270551 0 0.33457477032001748 -0.043965109755099818 0 0.31326255248553708 -0.043768501277314603 0 0.32924913997341337 -0.063603686862235317 0 0.31014365419524398 -0.06072536978512106 0 0.31326255248553708 -0.043768501277314603 0 0.32924913997341337 -0.063603686862235317 0 0.31326255248553708 -0.043768501277314603 0 0.33457477032001748 -0.043965109755099818 0 0.32924913997341337 -0.063603686862235317 0 0.32469666258817742 -0.019557632270551 0 0.31326255248553708 -0.043768501277314603 0 0.33457477032001748 -0.043965109755099818 0 0.33457477032001748 -0.043965109755099818 0 0.34313363496153881 -0.061193084728204693 0 0.35029003257871461 -0.048624574981710279 0 0.33457477032001748 -0.043965109755099818 0 0.34313363496153881 -0.061193084728204693 0 0.32924913997341337 -0.063603686862235317 0 0.35029003257871461 -0.048624574981710279 0 0.36524615827173029 -0.053571455971191423 0 0.35631850447425872 -0.066333179594821989 0 0.34313363496153881 -0.061193084728204693 0 0.35029003257871461 -0.048624574981710279 0 0.35631850447425872 -0.066333179594821989 0 0.35029003257871461 -0.048624574981710279 0 0.36012817770438982 -0.039413746555128387 0 0.36524615827173029 -0.053571455971191423 0 0.34748556133762742 -0.02738266599094942 0 0.33457477032001748 -0.043965109755099818 0 0.35029003257871461 -0.048624574981710279 0 0.34748556133762742 -0.02738266599094942 0 0.35029003257871461 -0.048624574981710279 0 0.36012817770438982 -0.039413746555128387 0 0.36404947753274258 -0.026706798856440471 0 0.36012817770438982 -0.039413746555128387 0 0.37356965880113402 -0.040783236975350308 0 0.36012817770438982 -0.039413746555128387 0 0.37356965880113402 -0.040783236975350308 0 0.36524615827173029 -0.053571455971191423 0 0.37839056082150663 -0.050608978831784571 0 0.36524615827173029 -0.053571455971191423 0 0.37240766699872252 -0.068318548019290964 0 0.37839056082150663 -0.050608978831784571 0 0.37356965880113402 -0.040783236975350308 0 0.36524615827173029 -0.053571455971191423 0 0.36524615827173029 -0.053571455971191423 0 0.37240766699872252 -0.068318548019290964 0 0.35631850447425872 -0.066333179594821989 0 0.37240766699872252 -0.068318548019290964 0 0.36259903827425999 -0.08213590949324566 0 0.35631850447425872 -0.066333179594821989 0 0.37781097748786241 -0.089314889372882261 0 0.37240766699872252 -0.068318548019290964 0 0.36259903827425999 -0.08213590949324566 0 0.37781097748786241 -0.089314889372882261 0 0.36259903827425999 -0.08213590949324566 0 0.3612223149491664 -0.1032740580320769 0 0.34523572746128989 -0.083438872447156087 0 0.3612223149491664 -0.1032740580320769 0 0.36259903827425999 -0.08213590949324566 0 0.34523572746128989 -0.083438872447156087 0 0.3612223149491664 -0.1032740580320769 0 0.34313363496153881 -0.061193084728204693 0 0.34523572746128989 -0.083438872447156087 0 0.35631850447425872 -0.066333179594821989 0 0.36259903827425999 -0.08213590949324566 0 0.34523572746128989 -0.083438872447156087 0 0.35631850447425872 -0.066333179594821989 0 0.37720890243704291 -0.12310924361699779 0 0.36253108037134668 -0.1248744885805331 0 0.3612223149491664 -0.1032740580320769 0 0.37644505785585192 -0.1058120404938334 0 0.37720890243704291 -0.12310924361699779 0 0.3612223149491664 -0.1032740580320769 0 0.37720890243704291 -0.12310924361699779 0 0.3612223149491664 -0.1032740580320769 0 0.37781097748786241 -0.089314889372882261 0 0.37644505785585192 -0.1058120404938334 0 0.3612223149491664 -0.1032740580320769 0 0.34523572746128989 -0.083438872447156087 0 0.3612223149491664 -0.1032740580320769 0 0.33932087337301742 -0.1007066993955318 0 0.3612223149491664 -0.1032740580320769 0 0.34941185211170689 -0.1127717253903176 0 0.33932087337301742 -0.1007066993955318 0 0.36253108037134668 -0.1248744885805331 0 0.33587402752894302 -0.122350175475488 0 0.36253108037134668 -0.1248744885805331 0 0.34941185211170689 -0.1127717253903176 0 0.33587402752894302 -0.122350175475488 0 0.36253108037134668 -0.1248744885805331 0 0.3612223149491664 -0.1032740580320769 0 0.34941185211170689 -0.1127717253903176 0 0.34941185211170689 -0.1127717253903176 0 0.33587402752894302 -0.122350175475488 0 0.33932087337301742 -0.1007066993955318 0 0.33587402752894302 -0.122350175475488 0 0.33932087337301742 -0.1007066993955318 0 0.31943204723016899 -0.10139701157958859 0 0.33932087337301742 -0.1007066993955318 0 0.31943204723016899 -0.10139701157958859 0 0.32474927095682959 -0.081008353448563344 0 0.33587402752894302 -0.122350175475488 0 0.31943204723016899 -0.10139701157958859 0 0.3092169746865393 -0.1198258623704429 0 0.33587402752894302 -0.122350175475488 0 0.3092169746865393 -0.1198258623704429 0 0.34523572746128989 -0.083438872447156087 0 0.32924913997341337 -0.063603686862235317 0 0.32474927095682959 -0.081008353448563344 0 0.34523572746128989 -0.083438872447156087 0 0.32924913997341337 -0.063603686862235317 0 0.34313363496153881 -0.061193084728204693 0 0.34523572746128989 -0.083438872447156087 0 0.32924913997341337 -0.063603686862235317 0 0.34523572746128989 -0.083438872447156087 0 0.33932087337301742 -0.1007066993955318 0 0.32474927095682959 -0.081008353448563344 0 0.31943204723016899 -0.10139701157958859 0 0.32474927095682959 -0.081008353448563344 0 0.31117343018006932 -0.08835554327446378 0 0.32474927095682959 -0.081008353448563344 0 0.30201438303726968 -0.075929904193525521 0 0.32474927095682959 -0.081008353448563344 0 0.30201438303726968 -0.075929904193525521 0 0.31117343018006932 -0.08835554327446378 0 0.32924913997341337 -0.063603686862235317 0 0.32474927095682959 -0.081008353448563344 0 0.31014365419524398 -0.06072536978512106 0 0.32474927095682959 -0.081008353448563344 0 0.30201438303726968 -0.075929904193525521 0 0.31014365419524398 -0.06072536978512106 0 0.30201438303726968 -0.075929904193525521 0 0.31014365419524398 -0.06072536978512106 0 0.29222542489931519 -0.060978945333093171 0 0.31117343018006932 -0.08835554327446378 0 0.29442961060618023 -0.089764156713605506 0 0.30306705175182019 -0.101009202806625 0 0.30201438303726968 -0.075929904193525521 0 0.31117343018006932 -0.08835554327446378 0 0.29442961060618023 -0.089764156713605506 0 0.29442961060618023 -0.089764156713605506 0 0.28691460331806928 -0.079185378374353493 0 0.27734124638624891 -0.089737863242296378 0 0.30201438303726968 -0.075929904193525521 0 0.29442961060618023 -0.089764156713605506 0 0.28691460331806928 -0.079185378374353493 0 0.30201438303726968 -0.075929904193525521 0 0.27927949511770961 -0.070851454938488739 0 0.29222542489931519 -0.060978945333093171 0 0.30201438303726968 -0.075929904193525521 0 0.27927949511770961 -0.070851454938488739 0 0.30201438303726968 -0.075929904193525521 0 0.28691460331806928 -0.079185378374353493 0 0.27927949511770961 -0.070851454938488739 0 0.28691460331806928 -0.079185378374353493 0 0.27927949511770961 -0.070851454938488739 0 0.27809334201771629 -0.079209584513290715 0 0.28691460331806928 -0.079185378374353493 0 0.27927949511770961 -0.070851454938488739 0 0.27927949511770961 -0.070851454938488739 0 0.27868582307562201 -0.055886184139343542 0 0.29222542489931519 -0.060978945333093171 0 0.31943204723016899 -0.10139701157958859 0 0.3092169746865393 -0.1198258623704429 0 0.30306705175182019 -0.101009202806625 0 0.3092169746865393 -0.1198258623704429 0 0.30306705175182019 -0.101009202806625 0 0.28879183359809052 -0.10393054527906551 0 0.31943204723016899 -0.10139701157958859 0 0.31117343018006932 -0.08835554327446378 0 0.30306705175182019 -0.101009202806625 0 0.28879183359809052 -0.10393054527906551 0 0.28255992184413548 -0.11730154926539781 0 0.27267591943638608 -0.1048970298088977 0 0.29442961060618023 -0.089764156713605506 0 0.28879183359809052 -0.10393054527906551 0 0.27734124638624891 -0.089737863242296378 0 0.29442961060618023 -0.089764156713605506 0 0.30306705175182019 -0.101009202806625 0 0.28879183359809052 -0.10393054527906551 0 0.3092169746865393 -0.1198258623704429 0 0.28255992184413548 -0.11730154926539781 0 0.3092169746865393 -0.1198258623704429 0 0.28879183359809052 -0.10393054527906551 0 0.28255992184413548 -0.11730154926539781 0 0.3092169746865393 -0.1198258623704429 0 0.28255992184413548 -0.11730154926539781 0 0.28721398294742878 -0.13035474923543569 0 0.28255992184413548 -0.11730154926539781 0 0.26776517015272971 -0.1222840496799191 0 0.28721398294742878 -0.13035474923543569 0 0.28255992184413548 -0.11730154926539781 0 0.26776517015272971 -0.1222840496799191 0 0.27267591943638608 -0.1048970298088977 0 0.26776517015272971 -0.1222840496799191 0 0.27267591943638608 -0.1048970298088977 0 0.26047800574605201 -0.11084537767631369 0 0.28879183359809052 -0.10393054527906551 0 0.27267591943638608 -0.1048970298088977 0 0.27734124638624891 -0.089737863242296378 0 0.27267591943638608 -0.1048970298088977 0 0.27734124638624891 -0.089737863242296378 0 0.26256105175446781 -0.092679464148907056 0 0.25771864553297669 -0.099620140202181948 0 0.26047800574605201 -0.11084537767631369 0 0.24375228786211539 -0.116580291014256 0 0.27267591943638608 -0.1048970298088977 0 0.25771864553297669 -0.099620140202181948 0 0.26256105175446781 -0.092679464148907056 0 0.25771864553297669 -0.099620140202181948 0 0.25304747237378489 -0.090741332181114118 0 0.24292322406264641 -0.096552741650977186 0 0.25771864553297669 -0.099620140202181948 0 0.26256105175446781 -0.092679464148907056 0 0.25304747237378489 -0.090741332181114118 0 0.27267591943638608 -0.1048970298088977 0 0.25771864553297669 -0.099620140202181948 0 0.26047800574605201 -0.11084537767631369 0 0.26776517015272971 -0.1222840496799191 0 0.26153006621115998 -0.13421007507225571 0 0.24375228786211539 -0.116580291014256 0 0.26776517015272971 -0.1222840496799191 0 0.24375228786211539 -0.116580291014256 0 0.26776517015272971 -0.1222840496799191 0 0.26047800574605201 -0.11084537767631369 0 0.24375228786211539 -0.116580291014256 0 0.27927949511770961 -0.070851454938488739 0 0.25811154610651499 -0.066123023671663908 0 0.26329678137076351 -0.053405898285071182 0 0.27927949511770961 -0.070851454938488739 0 0.25811154610651499 -0.066123023671663908 0 0.26883802324883782 -0.077063641498024305 0 0.27927949511770961 -0.070851454938488739 0 0.25811154610651499 -0.066123023671663908 0 0.26883802324883782 -0.077063641498024305 0 0.27927949511770961 -0.070851454938488739 0 0.27809334201771629 -0.079209584513290715 0 0.26883802324883782 -0.077063641498024305 0 0.27809334201771629 -0.079209584513290715 0 0.27734124638624891 -0.089737863242296378 0 0.26883802324883782 -0.077063641498024305 0 0.27734124638624891 -0.089737863242296378 0 0.25202197504294188 -0.078400955310045109 0 0.28691460331806928 -0.079185378374353493 0 0.27809334201771629 -0.079209584513290715 0 0.27734124638624891 -0.089737863242296378 0 0.27734124638624891 -0.089737863242296378 0 0.26256105175446781 -0.092679464148907056 0 0.25202197504294188 -0.078400955310045109 0 0.27734124638624891 -0.089737863242296378 0 0.25202197504294188 -0.078400955310045109 0 0.26256105175446781 -0.092679464148907056 0 0.25304747237378489 -0.090741332181114118 0 0.25202197504294188 -0.078400955310045109 0 0.25304747237378489 -0.090741332181114118 0 0.25202197504294188 -0.078400955310045109 0 0.24624903761231479 -0.086847438891893419 0 0.26883802324883782 -0.077063641498024305 0 0.25202197504294188 -0.078400955310045109 0 0.25811154610651499 -0.066123023671663908 0 0.25811154610651499 -0.066123023671663908 0 0.26329678137076351 -0.053405898285071182 0 0.24870160087168189 -0.052882304334001928 0 0.26329678137076351 -0.053405898285071182 0 0.24870160087168189 -0.052882304334001928 0 0.24731406762381819 -0.035960341631652723 0 0.27927949511770961 -0.070851454938488739 0 0.26329678137076351 -0.053405898285071182 0 0.27868582307562201 -0.055886184139343542 0 0.27927949511770961 -0.070851454938488739 0 0.26329678137076351 -0.053405898285071182 0 0.26329678137076351 -0.053405898285071182 0 0.27868582307562201 -0.055886184139343542 0 0.27337213238318842 -0.044040078526876879 0 0.27868582307562201 -0.055886184139343542 0 0.27337213238318842 -0.044040078526876879 0 0.28525528160713332 -0.050154543613187753 0 0.26329678137076351 -0.053405898285071182 0 0.27337213238318842 -0.044040078526876879 0 0.26311483972878968 -0.036713614733010089 0 0.27337213238318842 -0.044040078526876879 0 0.27217486102646721 -0.027861542379398439 0 0.28494473946257981 -0.034556038004921102 0 0.27337213238318842 -0.044040078526876879 0 0.26311483972878968 -0.036713614733010089 0 0.27217486102646721 -0.027861542379398439 0 0.27337213238318842 -0.044040078526876879 0 0.28525528160713332 -0.050154543613187753 0 0.28494473946257981 -0.034556038004921102 0 0.26311483972878968 -0.036713614733010089 0 0.25941635623971138 -0.02230021284205122 0 0.24731406762381819 -0.035960341631652723 0 0.26329678137076351 -0.053405898285071182 0 0.24731406762381819 -0.035960341631652723 0 0.26329678137076351 -0.053405898285071182 0 0.26311483972878968 -0.036713614733010089 0 0.24731406762381819 -0.035960341631652723 0 0.25941635623971138 -0.02230021284205122 0 0.24731406762381819 -0.035960341631652723 0 0.2482857443068576 -0.021714794414400052 0 0.25941635623971138 -0.02230021284205122 0 0.25508119948702751 -0.010083838205662381 0 0.2482857443068576 -0.021714794414400052 0 0.26311483972878968 -0.036713614733010089 0 0.25941635623971138 -0.02230021284205122 0 0.27217486102646721 -0.027861542379398439 0 0.2541426920980116 -0.0036136263454906951 0 0.25508119948702751 -0.010083838205662381 0 0.24138147174972829 -0.0061427828714447699 0 0.2541426920980116 -0.0036136263454906951 0 0.25508119948702751 -0.010083838205662381 0 0.26047117107291767 -0.0019720443344692288 0 0.25446675038947358 0.0029162606258486688 0 0.2541426920980116 -0.0036136263454906951 0 0.26047117107291767 -0.0019720443344692288 0 0.25941635623971138 -0.02230021284205122 0 0.25508119948702751 -0.010083838205662381 0 0.26474460583379889 -0.01023883548432745 0 0.25941635623971138 -0.02230021284205122 0 0.26474460583379889 -0.01023883548432745 0 0.27166734417845928 -0.01430021117376327 0 0.25508119948702751 -0.010083838205662381 0 0.26474460583379889 -0.01023883548432745 0 0.26047117107291767 -0.0019720443344692288 0 0.26474460583379889 -0.01023883548432745 0 0.26047117107291767 -0.0019720443344692288 0 0.27708695819087842 -0.0025378708656911609 0 0.26474460583379889 -0.01023883548432745 0 0.27166734417845928 -0.01430021117376327 0 0.27708695819087842 -0.0025378708656911609 0 0.27166734417845928 -0.01430021117376327 0 0.27708695819087842 -0.0025378708656911609 0 0.28469269166600031 -0.01545933141113482 0 0.27217486102646721 -0.027861542379398439 0 0.28469269166600031 -0.01545933141113482 0 0.28494473946257981 -0.034556038004921102 0 0.25941635623971138 -0.02230021284205122 0 0.27166734417845928 -0.01430021117376327 0 0.27217486102646721 -0.027861542379398439 0 0.27166734417845928 -0.01430021117376327 0 0.27217486102646721 -0.027861542379398439 0 0.28469269166600031 -0.01545933141113482 0 0.28469269166600031 -0.01545933141113482 0 0.29727596499766062 -0.023933315692393788 0 0.28494473946257981 -0.034556038004921102 0 0.30352242257352219 0.0039185454548519476 0 0.28469269166600031 -0.01545933141113482 0 0.29727596499766062 -0.023933315692393788 0 0.30352242257352219 0.0039185454548519476 0 0.27708695819087842 -0.0025378708656911609 0 0.28469269166600031 -0.01545933141113482 0 0.30352242257352219 0.0039185454548519476 0 0.32469666258817742 -0.019557632270551 0 0.29727596499766062 -0.023933315692393788 0 0.32469666258817742 -0.019557632270551 0 0.31326255248553708 -0.043768501277314603 0 0.29727596499766062 -0.023933315692393788 0 0.31326255248553708 -0.043768501277314603 0 0.29727596499766062 -0.023933315692393788 0 0.2968975050950291 -0.045887416406534938 0 0.31326255248553708 -0.043768501277314603 0 0.29727596499766062 -0.023933315692393788 0 0.31326255248553708 -0.043768501277314603 0 0.2968975050950291 -0.045887416406534938 0 0.31014365419524398 -0.06072536978512106 0 0.2968975050950291 -0.045887416406534938 0 0.31014365419524398 -0.06072536978512106 0 0.29222542489931519 -0.060978945333093171 0 0.2968975050950291 -0.045887416406534938 0 0.29222542489931519 -0.060978945333093171 0 0.28525528160713332 -0.050154543613187753 0 0.27868582307562201 -0.055886184139343542 0 0.29222542489931519 -0.060978945333093171 0 0.28525528160713332 -0.050154543613187753 0 0.2968975050950291 -0.045887416406534938 0 0.28525528160713332 -0.050154543613187753 0 0.28494473946257981 -0.034556038004921102 0 0.29727596499766062 -0.023933315692393788 0 0.2968975050950291 -0.045887416406534938 0 0.28494473946257981 -0.034556038004921102 0 0.29579617193404978 -0.19432558104056491 0 0.30588539897632072 -0.22256652654210629 0 0.2776594049058328 -0.2175861504380624 0 0.29579617193404978 -0.19432558104056491 0 0.2776594049058328 -0.2175861504380624 0 0.2764107852420567 -0.19644220614923899 0 0.29579617193404978 -0.19432558104056491 0 0.2764107852420567 -0.19644220614923899 0 0.2792899687438003 -0.18116405860585089 0 0.29579617193404978 -0.19432558104056491 0 0.31045946319455608 -0.20263901644370941 0 0.31057073564158039 -0.17760626025882659 0 0.29579617193404978 -0.19432558104056491 0 0.30588539897632072 -0.22256652654210629 0 0.31045946319455608 -0.20263901644370941 0 0.30588539897632072 -0.22256652654210629 0 0.32020032842118662 -0.2136972324735969 0 0.29579617193404978 -0.19432558104056491 0 0.31045946319455608 -0.20263901644370941 0 0.30588539897632072 -0.22256652654210629 0 0.29681701546221179 -0.23419681124085551 0 0.31597462601859122 -0.25080747204364812 0 0.30111904597271899 -0.2536098058489899 0 0.30588539897632072 -0.22256652654210629 0 0.29681701546221179 -0.23419681124085551 0 0.31597462601859122 -0.25080747204364812 0 0.30588539897632072 -0.22256652654210629 0 0.31597462601859122 -0.25080747204364812 0 0.29681701546221179 -0.23419681124085551 0 0.31597462601859122 -0.25080747204364812 0 0.29681701546221179 -0.23419681124085551 0 0.30111904597271899 -0.2536098058489899 0 0.28456511698073272 -0.25518130134833977 0 0.29681701546221179 -0.23419681124085551 0 0.27830026498091959 -0.23745462562099759 0 0.28456511698073272 -0.25518130134833977 0 0.30588539897632072 -0.22256652654210629 0 0.29681701546221179 -0.23419681124085551 0 0.2776594049058328 -0.2175861504380624 0 0.29681701546221179 -0.23419681124085551 0 0.27830026498091959 -0.23745462562099759 0 0.2776594049058328 -0.2175861504380624 0 0.29681701546221179 -0.23419681124085551 0 0.2776594049058328 -0.2175861504380624 0 0.26584409390649738 -0.23415831621220631 0 0.27830026498091959 -0.23745462562099759 0 0.2776594049058328 -0.2175861504380624 0 0.26584409390649738 -0.23415831621220631 0 0.25658827463044448 -0.2222138965281123 0 0.2776594049058328 -0.2175861504380624 0 0.27830026498091959 -0.23745462562099759 0 0.28456511698073272 -0.25518130134833977 0 0.26629969424128969 -0.25192769388052821 0 0.26584409390649738 -0.23415831621220631 0 0.27830026498091959 -0.23745462562099759 0 0.26629969424128969 -0.25192769388052821 0 0.26584409390649738 -0.23415831621220631 0 0.25037283077400019 -0.2416092145933311 0 0.26629969424128969 -0.25192769388052821 0 0.25037283077400019 -0.2416092145933311 0 0.25658827463044448 -0.2222138965281123 0 0.2446094219978813 -0.2276121794933563 0 0.26584409390649738 -0.23415831621220631 0 0.25037283077400019 -0.2416092145933311 0 0.25658827463044448 -0.2222138965281123 0 0.25658827463044448 -0.2222138965281123 0 0.2776594049058328 -0.2175861504380624 0 0.25850179434945381 -0.20097548963526929 0 0.25658827463044448 -0.2222138965281123 0 0.25850179434945381 -0.20097548963526929 0 0.23907695871134879 -0.21289681242661959 0 0.2776594049058328 -0.2175861504380624 0 0.25850179434945381 -0.20097548963526929 0 0.2776594049058328 -0.2175861504380624 0 0.2764107852420567 -0.19644220614923899 0 0.25850179434945381 -0.20097548963526929 0 0.2764107852420567 -0.19644220614923899 0 0.25850179434945381 -0.20097548963526929 0 0.26539786460737957 -0.18100391429238191 0 0.25850179434945381 -0.20097548963526929 0 0.26539786460737957 -0.18100391429238191 0 0.23934418379307471 -0.18436482883247621 0 0.26539786460737957 -0.18100391429238191 0 0.25449645062408999 -0.16331052089379791 0 0.23934418379307471 -0.18436482883247621 0 0.26539786460737957 -0.18100391429238191 0 0.25449645062408999 -0.16331052089379791 0 0.27043371620885309 -0.16438603764101259 0 0.25449645062408999 -0.16331052089379791 0 0.27043371620885309 -0.16438603764101259 0 0.2633734196266177 -0.15149826902969399 0 0.27043371620885309 -0.16438603764101259 0 0.2792899687438003 -0.18116405860585089 0 0.28570694489177878 -0.1660846355390232 0 0.27043371620885309 -0.16438603764101259 0 0.27930784456020519 -0.15183985913025491 0 0.28570694489177878 -0.1660846355390232 0 0.26539786460737957 -0.18100391429238191 0 0.27043371620885309 -0.16438603764101259 0 0.2792899687438003 -0.18116405860585089 0 0.2764107852420567 -0.19644220614923899 0 0.26539786460737957 -0.18100391429238191 0 0.2792899687438003 -0.18116405860585089 0 0.26153006621115998 -0.13421007507225571 0 0.24375228786211539 -0.116580291014256 0 0.24955680073527009 -0.143898101237383 0 0.26153006621115998 -0.13421007507225571 0 0.24375228786211539 -0.116580291014256 0 0.25449645062408999 -0.16331052089379791 0 0.2633734196266177 -0.15149826902969399 0 0.24955680073527009 -0.143898101237383 0 0.26153006621115998 -0.13421007507225571 0 0.2633734196266177 -0.15149826902969399 0 0.24955680073527009 -0.143898101237383 0 0.27043371620885309 -0.16438603764101259 0 0.2633734196266177 -0.15149826902969399 0 0.27930784456020519 -0.15183985913025491 0 0.27561771784950778 -0.13784369003748159 0 0.28570694489177878 -0.1660846355390232 0 0.26153006621115998 -0.13421007507225571 0 0.27930784456020519 -0.15183985913025491 0 0.27561771784950778 -0.13784369003748159 0 0.27930784456020519 -0.15183985913025491 0 0.27561771784950778 -0.13784369003748159 0 0.28570694489177878 -0.1660846355390232 0 0.26153006621115998 -0.13421007507225571 0 0.2633734196266177 -0.15149826902969399 0 0.27930784456020519 -0.15183985913025491 0 0.26153006621115998 -0.13421007507225571 0 0.27930784456020519 -0.15183985913025491 0 0.26776517015272971 -0.1222840496799191 0 0.27561771784950778 -0.13784369003748159 0 0.28721398294742878 -0.13035474923543569 0 0.26776517015272971 -0.1222840496799191 0 0.26153006621115998 -0.13421007507225571 0 0.27561771784950778 -0.13784369003748159 0 0.27561771784950778 -0.13784369003748159 0 0.28721398294742878 -0.13035474923543569 0 0.28891568690104508 -0.14625428249578579 0 0.28721398294742878 -0.13035474923543569 0 0.28891568690104508 -0.14625428249578579 0 0.29920842625061578 -0.1386190615635868 0 0.28891568690104508 -0.14625428249578579 0 0.29920842625061578 -0.1386190615635868 0 0.29789574789403661 -0.15876522012859751 0 0.27561771784950778 -0.13784369003748159 0 0.28891568690104508 -0.14625428249578579 0 0.28570694489177878 -0.1660846355390232 0 0.30985117626407932 -0.1486491484402036 0 0.29920842625061578 -0.1386190615635868 0 0.29789574789403661 -0.15876522012859751 0 0.30985117626407932 -0.1486491484402036 0 0.29789574789403661 -0.15876522012859751 0 0.3134799250960158 -0.16133035304856411 0 0.30985117626407932 -0.1486491484402036 0 0.29920842625061578 -0.1386190615635868 0 0.31980994510895661 -0.13408045692276491 0 0.3092169746865393 -0.1198258623704429 0 0.28721398294742878 -0.13035474923543569 0 0.29920842625061578 -0.1386190615635868 0 0.3092169746865393 -0.1198258623704429 0 0.29920842625061578 -0.1386190615635868 0 0.31980994510895661 -0.13408045692276491 0 0.29579617193404978 -0.19432558104056491 0 0.2792899687438003 -0.18116405860585089 0 0.28570694489177878 -0.1660846355390232 0 0.29579617193404978 -0.19432558104056491 0 0.28570694489177878 -0.1660846355390232 0 0.29579617193404978 -0.19432558104056491 0 0.28570694489177878 -0.1660846355390232 0 0.29784246694311001 -0.17248502473641619 0 0.28891568690104508 -0.14625428249578579 0 0.28570694489177878 -0.1660846355390232 0 0.29789574789403661 -0.15876522012859751 0 0.28570694489177878 -0.1660846355390232 0 0.29789574789403661 -0.15876522012859751 0 0.29784246694311001 -0.17248502473641619 0 0.29789574789403661 -0.15876522012859751 0 0.31057073564158039 -0.17760626025882659 0 0.3134799250960158 -0.16133035304856411 0 0.29789574789403661 -0.15876522012859751 0 0.31057073564158039 -0.17760626025882659 0 0.29784246694311001 -0.17248502473641619 0 0.29789574789403661 -0.15876522012859751 0 0.31057073564158039 -0.17760626025882659 0 0.29579617193404978 -0.19432558104056491 0 0.31057073564158039 -0.17760626025882659 0 0.29784246694311001 -0.17248502473641619 0 0.31057073564158039 -0.17760626025882659 0 0.33117051957001492 -0.16690810347740409 0 0.33960500058918919 -0.18923554211963439 0 0.31057073564158039 -0.17760626025882659 0 0.32324572338912438 -0.19644730038905581 0 0.3134799250960158 -0.16133035304856411 0 0.33117051957001492 -0.16690810347740409 0 0.32297156368297691 -0.15191279281852399 0 0.31057073564158039 -0.17760626025882659 0 0.3134799250960158 -0.16133035304856411 0 0.33117051957001492 -0.16690810347740409 0 0.33117051957001492 -0.16690810347740409 0 0.34312821131240068 -0.1490342399984359 0 0.35150112372442083 -0.17432517416681301 0 0.33117051957001492 -0.16690810347740409 0 0.35150112372442083 -0.17432517416681301 0 0.33960500058918919 -0.18923554211963439 0 0.33587402752894302 -0.122350175475488 0 0.3092169746865393 -0.1198258623704429 0 0.31980994510895661 -0.13408045692276491 0 0.30985117626407932 -0.1486491484402036 0 0.31980994510895661 -0.13408045692276491 0 0.32297156368297691 -0.15191279281852399 0 0.30985117626407932 -0.1486491484402036 0 0.3134799250960158 -0.16133035304856411 0 0.32297156368297691 -0.15191279281852399 0 0.33117051957001492 -0.16690810347740409 0 0.32297156368297691 -0.15191279281852399 0 0.34312821131240068 -0.1490342399984359 0 0.31980994510895661 -0.13408045692276491 0 0.32297156368297691 -0.15191279281852399 0 0.34312821131240068 -0.1490342399984359 0 0.33587402752894302 -0.122350175475488 0 0.31980994510895661 -0.13408045692276491 0 0.34312821131240068 -0.1490342399984359 0 0.36253108037134668 -0.1248744885805331 0 0.33587402752894302 -0.122350175475488 0 0.3555623608711499 -0.1359942506039106 0 0.33587402752894302 -0.122350175475488 0 0.34312821131240068 -0.1490342399984359 0 0.3555623608711499 -0.1359942506039106 0 0.34312821131240068 -0.1490342399984359 0 0.3555623608711499 -0.1359942506039106 0 0.36858459771950869 -0.15733985743645959 0 0.3555623608711499 -0.1359942506039106 0 0.36652086356581781 -0.12946943863695781 0 0.36858459771950869 -0.15733985743645959 0 0.36652086356581781 -0.12946943863695781 0 0.36858459771950869 -0.15733985743645959 0 0.36652086356581781 -0.12946943863695781 0 0.36858459771950869 -0.15733985743645959 0 0.3787995421462832 -0.1425544525875144 0 0.36652086356581781 -0.12946943863695781 0 0.37808333446084269 -0.1309391893982525 0 0.3787995421462832 -0.1425544525875144 0 0.36253108037134668 -0.1248744885805331 0 0.36652086356581781 -0.12946943863695781 0 0.37808333446084269 -0.1309391893982525 0 0.36253108037134668 -0.1248744885805331 0 0.3555623608711499 -0.1359942506039106 0 0.36652086356581781 -0.12946943863695781 0 0.35150112372442083 -0.17432517416681301 0 0.37064833187319962 -0.1852102762359614 0 0.35587008128221181 -0.19822302573298239 0 0.35150112372442083 -0.17432517416681301 0 0.35587008128221181 -0.19822302573298239 0 0.33960500058918919 -0.18923554211963439 0 0.34312821131240068 -0.1490342399984359 0 0.35150112372442083 -0.17432517416681301 0 0.36858459771950869 -0.15733985743645959 0 0.36858459771950869 -0.15733985743645959 0 0.37064833187319962 -0.1852102762359614 0 0.35150112372442083 -0.17432517416681301 0 0.36858459771950869 -0.15733985743645959 0 0.37064833187319962 -0.1852102762359614 0 0.36858459771950869 -0.15733985743645959 0 0.37064833187319962 -0.1852102762359614 0 0.3834788620725188 -0.17954848884060079 0 0.37064833187319962 -0.1852102762359614 0 0.37271206602689039 -0.21308069503546309 0 0.38139900114097952 -0.20469292352659629 0 0.37064833187319962 -0.1852102762359614 0 0.37271206602689039 -0.21308069503546309 0 0.37064833187319962 -0.1852102762359614 0 0.37271206602689039 -0.21308069503546309 0 0.35587008128221181 -0.19822302573298239 0 0.37271206602689039 -0.21308069503546309 0 0.35603419272415182 -0.2169366224123114 0 0.35587008128221181 -0.19822302573298239 0 0.35603419272415182 -0.2169366224123114 0 0.35587008128221181 -0.19822302573298239 0 0.33592071113666833 -0.21528834051928489 0 0.35587008128221181 -0.19822302573298239 0 0.33960500058918919 -0.18923554211963439 0 0.33592071113666833 -0.21528834051928489 0 0.33960500058918919 -0.18923554211963439 0 0.33592071113666833 -0.21528834051928489 0 0.32324572338912438 -0.19644730038905581 0 0.33592071113666833 -0.21528834051928489 0 0.32324572338912438 -0.19644730038905581 0 0.33592071113666833 -0.21528834051928489 0 0.32020032842118662 -0.2136972324735969 0 0.32324572338912438 -0.19644730038905581 0 0.31045946319455608 -0.20263901644370941 0 0.32020032842118662 -0.2136972324735969 0 0.32324572338912438 -0.19644730038905581 0 0.31057073564158039 -0.17760626025882659 0 0.33960500058918919 -0.18923554211963439 0 0.32324572338912438 -0.19644730038905581 0 0.31045946319455608 -0.20263901644370941 0 0.31057073564158039 -0.17760626025882659 0 0.32324572338912438 -0.19644730038905581 0 0.32549034540926353 -0.23154497847382799 0 0.33517615116993849 -0.24743488902137309 0 0.31597462601859122 -0.25080747204364812 0 0.30588539897632072 -0.22256652654210629 0 0.32549034540926353 -0.23154497847382799 0 0.31597462601859122 -0.25080747204364812 0 0.30588539897632072 -0.22256652654210629 0 0.32020032842118662 -0.2136972324735969 0 0.32549034540926353 -0.23154497847382799 0 0.33592071113666833 -0.21528834051928489 0 0.32020032842118662 -0.2136972324735969 0 0.32549034540926353 -0.23154497847382799 0 0.33592071113666833 -0.21528834051928489 0 0.32549034540926353 -0.23154497847382799 0 0.34859569888421221 -0.23412938064951411 0 0.33592071113666833 -0.21528834051928489 0 0.34859569888421221 -0.23412938064951411 0 0.32549034540926353 -0.23154497847382799 0 0.33517615116993849 -0.24743488902137309 0 0.34859569888421221 -0.23412938064951411 0 0.33517615116993849 -0.24743488902137309 0 0.34859569888421221 -0.23412938064951411 0 0.35185333732921159 -0.25428502110151557 0 0.34859569888421221 -0.23412938064951411 0 0.36075586336603621 -0.2426037127049111 0 0.35185333732921159 -0.25428502110151557 0 0.34859569888421221 -0.23412938064951411 0 0.36291464790978972 -0.22902601310760301 0 0.36075586336603621 -0.2426037127049111 0 0.35603419272415182 -0.2169366224123114 0 0.34859569888421221 -0.23412938064951411 0 0.36291464790978972 -0.22902601310760301 0 0.35603419272415182 -0.2169366224123114 0 0.33592071113666833 -0.21528834051928489 0 0.34859569888421221 -0.23412938064951411 0 0.37271206602689039 -0.21308069503546309 0 0.35603419272415182 -0.2169366224123114 0 0.36291464790978972 -0.22902601310760301 0 0.37271206602689039 -0.21308069503546309 0 0.37477580018058132 -0.24095111383496479 0 0.37555308153547928 -0.22286467051027881 0 0.37271206602689039 -0.21308069503546309 0 0.37477580018058132 -0.24095111383496479 0 0.37271206602689039 -0.21308069503546309 0 0.36291464790978972 -0.22902601310760301 0 0.37477580018058132 -0.24095111383496479 0 0.36075586336603621 -0.2426037127049111 0 0.37477580018058132 -0.24095111383496479 0 0.36563983252638571 -0.25462703483095822 0 0.36291464790978972 -0.22902601310760301 0 0.36075586336603621 -0.2426037127049111 0 0.37477580018058132 -0.24095111383496479 0 0.37477580018058132 -0.24095111383496479 0 0.39321551516580561 -0.23618023300957031 0 0.38725375881062551 -0.25185160038302579 0 0.39321551516580561 -0.23618023300957031 0 0.41087794879613182 -0.2494957955088617 0 0.40741230325918792 -0.23450562481703699 0 0.39321551516580561 -0.23618023300957031 0 0.41087794879613182 -0.2494957955088617 0 0.39321551516580561 -0.23618023300957031 0 0.38725375881062551 -0.25185160038302579 0 0.39640803358832022 -0.25154779433757402 0 0.39321551516580561 -0.23618023300957031 0 0.41087794879613182 -0.2494957955088617 0 0.39640803358832022 -0.25154779433757402 0 0.4055308246994358 -0.22407667781788709 0 0.39424069285124719 -0.22310079746779379 0 0.40434357831770951 -0.21487406561090469 0 0.4055308246994358 -0.22407667781788709 0 0.39424069285124719 -0.22310079746779379 0 0.40741230325918792 -0.23450562481703699 0 0.39321551516580561 -0.23618023300957031 0 0.39424069285124719 -0.22310079746779379 0 0.40741230325918792 -0.23450562481703699 0 0.37477580018058132 -0.24095111383496479 0 0.39321551516580561 -0.23618023300957031 0 0.37555308153547928 -0.22286467051027881 0 0.39424069285124719 -0.22310079746779379 0 0.37555308153547928 -0.22286467051027881 0 0.38300691860546521 -0.21527996176244341 0 0.39321551516580561 -0.23618023300957031 0 0.37555308153547928 -0.22286467051027881 0 0.39321551516580561 -0.23618023300957031 0 0.39424069285124719 -0.22310079746779379 0 0.37555308153547928 -0.22286467051027881 0 0.37271206602689039 -0.21308069503546309 0 0.37555308153547928 -0.22286467051027881 0 0.38300691860546521 -0.21527996176244341 0 0.37271206602689039 -0.21308069503546309 0 0.38139900114097952 -0.20469292352659629 0 0.38300691860546521 -0.21527996176244341 0 0.38139900114097952 -0.20469292352659629 0 0.39078770323730427 -0.19674260859680251 0 0.39112975147272949 -0.2126607222720846 0 0.38139900114097952 -0.20469292352659629 0 0.38300691860546521 -0.21527996176244341 0 0.39112975147272949 -0.2126607222720846 0 0.39424069285124719 -0.22310079746779379 0 0.38300691860546521 -0.21527996176244341 0 0.39112975147272949 -0.2126607222720846 0 0.37064833187319962 -0.1852102762359614 0 0.38139900114097952 -0.20469292352659629 0 0.39078770323730427 -0.19674260859680251 0 0.39078770323730427 -0.19674260859680251 0 0.40475141021500721 -0.1910589369573561 0 0.39510197637232292 -0.1839605883432579 0 0.39078770323730427 -0.19674260859680251 0 0.40426546228868082 -0.20108352786525729 0 0.397631623829106 -0.20634023108626229 0 0.39078770323730427 -0.19674260859680251 0 0.40426546228868082 -0.20108352786525729 0 0.40475141021500721 -0.1910589369573561 0 0.39078770323730427 -0.19674260859680251 0 0.39112975147272949 -0.2126607222720846 0 0.397631623829106 -0.20634023108626229 0 0.39112975147272949 -0.2126607222720846 0 0.397631623829106 -0.20634023108626229 0 0.40434357831770951 -0.21487406561090469 0 0.39424069285124719 -0.22310079746779379 0 0.39112975147272949 -0.2126607222720846 0 0.40434357831770951 -0.21487406561090469 0 0.40426546228868082 -0.20108352786525729 0 0.397631623829106 -0.20634023108626229 0 0.40434357831770951 -0.21487406561090469 0 0.40434357831770951 -0.21487406561090469 0 0.41713092845542321 -0.20900944133272009 0 0.41612672436959858 -0.22382622337581301 0 0.40426546228868082 -0.20108352786525729 0 0.40434357831770951 -0.21487406561090469 0 0.41713092845542321 -0.20900944133272009 0 0.41713092845542321 -0.20900944133272009 0 0.42330136258736267 -0.2174116668913772 0 0.41612672436959858 -0.22382622337581301 0 0.40475141021500721 -0.1910589369573561 0 0.41487892771890261 -0.19826025474908979 0 0.4146572714410397 -0.186958864794112 0 0.40426546228868082 -0.20108352786525729 0 0.41713092845542321 -0.20900944133272009 0 0.41487892771890261 -0.19826025474908979 0 0.40426546228868082 -0.20108352786525729 0 0.40475141021500721 -0.1910589369573561 0 0.41487892771890261 -0.19826025474908979 0 0.41713092845542321 -0.20900944133272009 0 0.41487892771890261 -0.19826025474908979 0 0.42701217502226602 -0.19751647228806199 0 0.41487892771890261 -0.19826025474908979 0 0.42053294087941678 -0.1923617771039739 0 0.42701217502226602 -0.19751647228806199 0 0.42053294087941678 -0.1923617771039739 0 0.4146572714410397 -0.186958864794112 0 0.42558338933545942 -0.1867115165846317 0 0.41487892771890261 -0.19826025474908979 0 0.42053294087941678 -0.1923617771039739 0 0.4146572714410397 -0.186958864794112 0 0.42701217502226602 -0.19751647228806199 0 0.43844209377108118 -0.18689286854296691 0 0.44355474576021348 -0.2050869029196882 0 0.42053294087941678 -0.1923617771039739 0 0.42701217502226602 -0.19751647228806199 0 0.42558338933545942 -0.1867115165846317 0 0.42701217502226602 -0.19751647228806199 0 0.42558338933545942 -0.1867115165846317 0 0.43844209377108118 -0.18689286854296691 0 0.42701217502226602 -0.19751647228806199 0 0.43006687167525981 -0.21185300334864521 0 0.44355474576021348 -0.2050869029196882 0 0.41713092845542321 -0.20900944133272009 0 0.42330136258736267 -0.2174116668913772 0 0.43006687167525981 -0.21185300334864521 0 0.42330136258736267 -0.2174116668913772 0 0.43006687167525981 -0.21185300334864521 0 0.42988092584916948 -0.2249579995083304 0 0.41713092845542321 -0.20900944133272009 0 0.42701217502226602 -0.19751647228806199 0 0.43006687167525981 -0.21185300334864521 0 0.43006687167525981 -0.21185300334864521 0 0.42988092584916948 -0.2249579995083304 0 0.44009267276725389 -0.2176624614444449 0 0.42330136258736267 -0.2174116668913772 0 0.42988092584916948 -0.2249579995083304 0 0.41612672436959858 -0.22382622337581301 0 0.42988092584916948 -0.2249579995083304 0 0.43458399188612801 -0.2397076170126072 0 0.42159465327244361 -0.23640953485310751 0 0.42988092584916948 -0.2249579995083304 0 0.42159465327244361 -0.23640953485310751 0 0.41612672436959858 -0.22382622337581301 0 0.42988092584916948 -0.2249579995083304 0 0.43458399188612801 -0.2397076170126072 0 0.44416109061426973 -0.22983272991065171 0 0.43458399188612801 -0.2397076170126072 0 0.42656562700980838 -0.24831468624349931 0 0.4372088962240912 -0.25169219704383999 0 0.43458399188612801 -0.2397076170126072 0 0.42656562700980838 -0.24831468624349931 0 0.42159465327244361 -0.23640953485310751 0 0.42656562700980838 -0.24831468624349931 0 0.42159465327244361 -0.23640953485310751 0 0.41087794879613182 -0.2494957955088617 0 0.42159465327244361 -0.23640953485310751 0 0.41087794879613182 -0.2494957955088617 0 0.40741230325918792 -0.23450562481703699 0 0.4055308246994358 -0.22407667781788709 0 0.40741230325918792 -0.23450562481703699 0 0.41612672436959858 -0.22382622337581301 0 0.4055308246994358 -0.22407667781788709 0 0.40434357831770951 -0.21487406561090469 0 0.41612672436959858 -0.22382622337581301 0 0.42159465327244361 -0.23640953485310751 0 0.40741230325918792 -0.23450562481703699 0 0.41612672436959858 -0.22382622337581301 0 0.39823574772599779 -0.11763079726210079 0 0.40257569972698831 -0.13396225485532559 0 0.38918813321375051 -0.12739880168557821 0 0.40257569972698831 -0.13396225485532559 0 0.38918813321375051 -0.12739880168557821 0 0.39017348084279901 -0.13955387731924049 0 0.38918813321375051 -0.12739880168557821 0 0.37808333446084269 -0.1309391893982525 0 0.39017348084279901 -0.13955387731924049 0 0.37720890243704291 -0.12310924361699779 0 0.36253108037134668 -0.1248744885805331 0 0.38918813321375051 -0.12739880168557821 0 0.36253108037134668 -0.1248744885805331 0 0.38918813321375051 -0.12739880168557821 0 0.37808333446084269 -0.1309391893982525 0 0.36253108037134668 -0.1248744885805331 0 0.38918813321375051 -0.12739880168557821 0 0.37808333446084269 -0.1309391893982525 0 0.39017348084279901 -0.13955387731924049 0 0.3787995421462832 -0.1425544525875144 0 0.36858459771950869 -0.15733985743645959 0 0.3787995421462832 -0.1425544525875144 0 0.38535727780346091 -0.1527557998392445 0 0.39017348084279901 -0.13955387731924049 0 0.3787995421462832 -0.1425544525875144 0 0.38535727780346091 -0.1527557998392445 0 0.40257569972698831 -0.13396225485532559 0 0.39822107621443897 -0.1501202070538992 0 0.41732028123257531 -0.14286435439753159 0 0.40257569972698831 -0.13396225485532559 0 0.39017348084279901 -0.13955387731924049 0 0.39822107621443897 -0.1501202070538992 0 0.39017348084279901 -0.13955387731924049 0 0.38535727780346091 -0.1527557998392445 0 0.39822107621443897 -0.1501202070538992 0 0.39822107621443897 -0.1501202070538992 0 0.39107178753907162 -0.16851380255406381 0 0.40713652226246821 -0.16744863749245631 0 0.39107178753907162 -0.16851380255406381 0 0.40713652226246821 -0.16744863749245631 0 0.38535727780346091 -0.1527557998392445 0 0.39822107621443897 -0.1501202070538992 0 0.39107178753907162 -0.16851380255406381 0 0.39107178753907162 -0.16851380255406381 0 0.40460499843718001 -0.17902112385493851 0 0.40713652226246821 -0.16744863749245631 0 0.36858459771950869 -0.15733985743645959 0 0.38535727780346091 -0.1527557998392445 0 0.39107178753907162 -0.16851380255406381 0 0.36858459771950869 -0.15733985743645959 0 0.39107178753907162 -0.16851380255406381 0 0.3834788620725188 -0.17954848884060079 0 0.39107178753907162 -0.16851380255406381 0 0.3834788620725188 -0.17954848884060079 0 0.39510197637232292 -0.1839605883432579 0 0.39078770323730427 -0.19674260859680251 0 0.3834788620725188 -0.17954848884060079 0 0.39510197637232292 -0.1839605883432579 0 0.37064833187319962 -0.1852102762359614 0 0.39078770323730427 -0.19674260859680251 0 0.3834788620725188 -0.17954848884060079 0 0.39107178753907162 -0.16851380255406381 0 0.39510197637232292 -0.1839605883432579 0 0.40460499843718001 -0.17902112385493851 0 0.40475141021500721 -0.1910589369573561 0 0.39510197637232292 -0.1839605883432579 0 0.40460499843718001 -0.17902112385493851 0 0.40475141021500721 -0.1910589369573561 0 0.40460499843718001 -0.17902112385493851 0 0.4146572714410397 -0.186958864794112 0 0.40460499843718001 -0.17902112385493851 0 0.41491102279317088 -0.17618591298838529 0 0.4146572714410397 -0.186958864794112 0 0.40460499843718001 -0.17902112385493851 0 0.41491102279317088 -0.17618591298838529 0 0.40713652226246821 -0.16744863749245631 0 0.41491102279317088 -0.17618591298838529 0 0.42527009306055918 -0.1746571334479238 0 0.4232012569858648 -0.16638347243084889 0 0.41491102279317088 -0.17618591298838529 0 0.42095079563492938 -0.18072636251124541 0 0.42527009306055918 -0.1746571334479238 0 0.41491102279317088 -0.17618591298838529 0 0.42095079563492938 -0.18072636251124541 0 0.4146572714410397 -0.186958864794112 0 0.42095079563492938 -0.18072636251124541 0 0.4146572714410397 -0.186958864794112 0 0.42558338933545942 -0.1867115165846317 0 0.43180268423531071 -0.1802632517690351 0 0.42527009306055918 -0.1746571334479238 0 0.44880083799057491 -0.164686103644653 0 0.42095079563492938 -0.18072636251124541 0 0.42558338933545942 -0.1867115165846317 0 0.43180268423531071 -0.1802632517690351 0 0.42558338933545942 -0.1867115165846317 0 0.43180268423531071 -0.1802632517690351 0 0.43844209377108118 -0.18689286854296691 0 0.42095079563492938 -0.18072636251124541 0 0.43180268423531071 -0.1802632517690351 0 0.42527009306055918 -0.1746571334479238 0 0.42527009306055918 -0.1746571334479238 0 0.4232012569858648 -0.16638347243084889 0 0.44880083799057491 -0.164686103644653 0 0.4232012569858648 -0.16638347243084889 0 0.43334283997313311 -0.15135273030925811 0 0.44880083799057491 -0.164686103644653 0 0.4232012569858648 -0.16638347243084889 0 0.44880083799057491 -0.164686103644653 0 0.42527009306055918 -0.1746571334479238 0 0.4232012569858648 -0.16638347243084889 0 0.4232012569858648 -0.16638347243084889 0 0.40713652226246821 -0.16744863749245631 0 0.41732028123257531 -0.14286435439753159 0 0.41491102279317088 -0.17618591298838529 0 0.4232012569858648 -0.16638347243084889 0 0.40713652226246821 -0.16744863749245631 0 0.4232012569858648 -0.16638347243084889 0 0.40713652226246821 -0.16744863749245631 0 0.4232012569858648 -0.16638347243084889 0 0.41732028123257531 -0.14286435439753159 0 0.39822107621443897 -0.1501202070538992 0 0.40713652226246821 -0.16744863749245631 0 0.41732028123257531 -0.14286435439753159 0 0.41732028123257531 -0.14286435439753159 0 0.43334283997313311 -0.15135273030925811 0 0.43763345530417341 -0.13584027725706749 0 0.4232012569858648 -0.16638347243084889 0 0.41732028123257531 -0.14286435439753159 0 0.43334283997313311 -0.15135273030925811 0 0.42916935431308728 -0.1205456085246996 0 0.41732028123257531 -0.14286435439753159 0 0.43763345530417341 -0.13584027725706749 0 0.42916935431308728 -0.1205456085246996 0 0.4435038969132965 -0.12540022695152131 0 0.43763345530417341 -0.13584027725706749 0 0.41143930547928681 -0.11934523636421419 0 0.42916935431308728 -0.1205456085246996 0 0.41732028123257531 -0.14286435439753159 0 0.41143930547928681 -0.11934523636421419 0 0.40257569972698831 -0.13396225485532559 0 0.41732028123257531 -0.14286435439753159 0 0.41143930547928681 -0.11934523636421419 0 0.41732028123257531 -0.14286435439753159 0 0.46257396642688631 -0.12529077885077469 0 0.46381730130484328 -0.1363472541609663 0 0.4585659370706795 -0.1308283620105129 0 0.46381730130484328 -0.1363472541609663 0 0.4585659370706795 -0.1308283620105129 0 0.45274550479158487 -0.1345999168850856 0 0.46381730130484328 -0.1363472541609663 0 0.45274550479158487 -0.1345999168850856 0 0.46138481906560302 -0.14686228775601681 0 0.46257396642688631 -0.12529077885077469 0 0.4585659370706795 -0.1308283620105129 0 0.45239247298790419 -0.125419693033265 0 0.4585659370706795 -0.1308283620105129 0 0.45239247298790419 -0.125419693033265 0 0.45274550479158487 -0.1345999168850856 0 0.45239247298790419 -0.125419693033265 0 0.4435038969132965 -0.12540022695152131 0 0.45274550479158487 -0.1345999168850856 0 0.4435038969132965 -0.12540022695152131 0 0.43763345530417341 -0.13584027725706749 0 0.45274550479158487 -0.1345999168850856 0 0.43763345530417341 -0.13584027725706749 0 0.45274550479158487 -0.1345999168850856 0 0.44678149142501389 -0.1466682631704162 0 0.43334283997313311 -0.15135273030925811 0 0.44678149142501389 -0.1466682631704162 0 0.44880083799057491 -0.164686103644653 0 0.44678149142501389 -0.1466682631704162 0 0.46138481906560302 -0.14686228775601681 0 0.44880083799057491 -0.164686103644653 0 0.43334283997313311 -0.15135273030925811 0 0.43763345530417341 -0.13584027725706749 0 0.44678149142501389 -0.1466682631704162 0 0.45274550479158487 -0.1345999168850856 0 0.44678149142501389 -0.1466682631704162 0 0.46138481906560302 -0.14686228775601681 0 0.46138481906560302 -0.14686228775601681 0 0.44880083799057491 -0.164686103644653 0 0.47440041899528501 -0.16298873485845719 0 0.44880083799057491 -0.164686103644653 0 0.46834799031954211 -0.17915452781490099 0 0.47440041899528501 -0.16298873485845719 0 0.44880083799057491 -0.164686103644653 0 0.47440041899528501 -0.16298873485845719 0 0.43180268423531071 -0.1802632517690351 0 0.44880083799057491 -0.164686103644653 0 0.43844209377108118 -0.18689286854296691 0 0.44880083799057491 -0.164686103644653 0 0.43844209377108118 -0.18689286854296691 0 0.45508032593701309 -0.1914137801830845 0 0.44880083799057491 -0.164686103644653 0 0.46834799031954211 -0.17915452781490099 0 0.45508032593701309 -0.1914137801830845 0 0.46834799031954211 -0.17915452781490099 0 0.48419704391512092 -0.17843144908975531 0 0.47440041899528501 -0.16298873485845719 0 0.46834799031954211 -0.17915452781490099 0 0.48419704391512092 -0.17843144908975531 0 0.47823681026078202 -0.19812675643970101 0 0.48419704391512092 -0.17843144908975531 0 0.49999999999999523 -0.16129136607226169 0 0.5 -0.1905958602634561 0 0.49999999999999523 -0.16129136607226169 0 0.47440041899528501 -0.16298873485845719 0 0.50000000000000067 -0.1547763741112759 0 0.48419704391512092 -0.17843144908975531 0 0.49999999999999523 -0.16129136607226169 0 0.47440041899528501 -0.16298873485845719 0 0.49999999999999523 -0.16129136607226169 0 0.47440041899528501 -0.16298873485845719 0 0.46138481906560302 -0.14686228775601681 0 0.47440041899528501 -0.16298873485845719 0 0.48128698321344371 -0.14003357648102521 0 0.46381730130484328 -0.1363472541609663 0 0.46138481906560302 -0.14686228775601681 0 0.48128698321344371 -0.14003357648102521 0 0.50000000000000067 -0.1547763741112759 0 0.48128698321344371 -0.14003357648102521 0 0.50000000000000067 -0.1547763741112759 0 0.5 -0.13349841451636779 0 0.48128698321344371 -0.14003357648102521 0 0.47440041899528501 -0.16298873485845719 0 0.50000000000000067 -0.1547763741112759 0 0.48128698321344371 -0.14003357648102521 0 0.48087269318342413 -0.1216818802472065 0 0.5 -0.13349841451636779 0 0.48128698321344371 -0.14003357648102521 0 0.46257396642688631 -0.12529077885077469 0 0.48128698321344371 -0.14003357648102521 0 0.46257396642688631 -0.12529077885077469 0 0.46381730130484328 -0.1363472541609663 0 0.48128698321344371 -0.14003357648102521 0 0.47129126618897188 -0.1223351355815797 0 0.48087269318342413 -0.1216818802472065 0 0.48128698321344371 -0.14003357648102521 0 0.47129126618897188 -0.1223351355815797 0 0.46257396642688631 -0.12529077885077469 0 0.48128698321344371 -0.14003357648102521 0 0.46029750420545162 -0.23134667767863379 0 0.45079963313025367 -0.219495204315066 0 0.46126535540865482 -0.21094244298034759 0 0.46029750420545162 -0.23134667767863379 0 0.46126535540865482 -0.21094244298034759 0 0.47937109712497578 -0.22608105856418539 0 0.46029750420545162 -0.23134667767863379 0 0.44856132313442931 -0.24393079079591279 0 0.47387431588802909 -0.25499376211151131 0 0.46029750420545162 -0.23134667767863379 0 0.44856132313442931 -0.24393079079591279 0 0.44416109061426973 -0.22983272991065171 0 0.43458399188612801 -0.2397076170126072 0 0.44856132313442931 -0.24393079079591279 0 0.4372088962240912 -0.25169219704383999 0 0.43458399188612801 -0.2397076170126072 0 0.44856132313442931 -0.24393079079591279 0 0.44416109061426973 -0.22983272991065171 0 0.46029750420545162 -0.23134667767863379 0 0.44416109061426973 -0.22983272991065171 0 0.45079963313025367 -0.219495204315066 0 0.44416109061426973 -0.22983272991065171 0 0.45079963313025367 -0.219495204315066 0 0.44009267276725389 -0.2176624614444449 0 0.42988092584916948 -0.2249579995083304 0 0.44416109061426973 -0.22983272991065171 0 0.44009267276725389 -0.2176624614444449 0 0.45079963313025367 -0.219495204315066 0 0.44355474576021348 -0.2050869029196882 0 0.46126535540865482 -0.21094244298034759 0 0.43006687167525981 -0.21185300334864521 0 0.44009267276725389 -0.2176624614444449 0 0.44355474576021348 -0.2050869029196882 0 0.45079963313025367 -0.219495204315066 0 0.44009267276725389 -0.2176624614444449 0 0.44355474576021348 -0.2050869029196882 0 0.43844209377108118 -0.18689286854296691 0 0.44355474576021348 -0.2050869029196882 0 0.45508032593701309 -0.1914137801830845 0 0.46834799031954211 -0.17915452781490099 0 0.45508032593701309 -0.1914137801830845 0 0.47823681026078202 -0.19812675643970101 0 0.44355474576021348 -0.2050869029196882 0 0.45508032593701309 -0.1914137801830845 0 0.46126535540865482 -0.21094244298034759 0 0.45508032593701309 -0.1914137801830845 0 0.46126535540865482 -0.21094244298034759 0 0.47823681026078202 -0.19812675643970101 0 0.46126535540865482 -0.21094244298034759 0 0.47823681026078202 -0.19812675643970101 0 0.47937109712497578 -0.22608105856418539 0 0.48419704391512092 -0.17843144908975531 0 0.47823681026078202 -0.19812675643970101 0 0.5 -0.1905958602634561 0 0.47823681026078202 -0.19812675643970101 0 0.5 -0.1905958602634561 0 0.5 -0.21990035445465039 0 0.47823681026078202 -0.19812675643970101 0 0.5 -0.21990035445465039 0 0.47937109712497578 -0.22608105856418539 0 0.5 -0.21990035445465039 0 0.47937109712497578 -0.22608105856418539 0 0.50000000000000444 -0.24920484864584491 0 0.46029750420545162 -0.23134667767863379 0 0.47937109712497578 -0.22608105856418539 0 0.47387431588802909 -0.25499376211151131 0 0.47937109712497578 -0.22608105856418539 0 0.50000000000000444 -0.24920484864584491 0 0.47387431588802909 -0.25499376211151131 0 0.50000000000000444 -0.24920484864584491 0 0.4915669900217115 -0.25615479242606781 0 0.5 -0.27170772691138367 0 0.50000000000000444 -0.24920484864584491 0 0.4915669900217115 -0.25615479242606781 0 0.47387431588802909 -0.25499376211151131 0 0.50000000000000444 -0.24920484864584491 0 0.47387431588802909 -0.25499376211151131 0 0.4915669900217115 -0.25615479242606781 0 0.48280749151585822 -0.27129304150170008 0 0.47954864786353962 -0.26301133191085868 0 0.4915669900217115 -0.25615479242606781 0 0.5 -0.27170772691138367 0 0.48280749151585822 -0.27129304150170008 0 0.5 -0.27170772691138367 0 0.48280749151585822 -0.27129304150170008 0 0.48951500520952212 -0.28458010338455908 0 0.48280749151585822 -0.27129304150170008 0 0.47474596181800061 -0.28621450290334632 0 0.48951500520952212 -0.28458010338455908 0 0.48280749151585822 -0.27129304150170008 0 0.47416229901770612 -0.26612875971404459 0 0.47954864786353962 -0.26301133191085868 0 0.48280749151585822 -0.27129304150170008 0 0.47416229901770612 -0.26612875971404459 0 0.47052118473631321 -0.27447720361836658 0 0.47416229901770612 -0.26612875971404459 0 0.47052118473631321 -0.27447720361836658 0 0.46319689217890331 -0.26835660325056299 0 0.48280749151585822 -0.27129304150170008 0 0.47052118473631321 -0.27447720361836658 0 0.47474596181800061 -0.28621450290334632 0 0.4915669900217115 -0.25615479242606781 0 0.46965781089888248 -0.25846873400162218 0 0.4915669900217115 -0.25615479242606781 0 0.47387431588802909 -0.25499376211151131 0 0.46965781089888248 -0.25846873400162218 0 0.4915669900217115 -0.25615479242606781 0 0.47954864786353962 -0.26301133191085868 0 0.46965781089888248 -0.25846873400162218 0 0.47416229901770612 -0.26612875971404459 0 0.47954864786353962 -0.26301133191085868 0 0.46965781089888248 -0.25846873400162218 0 0.47416229901770612 -0.26612875971404459 0 0.46965781089888248 -0.25846873400162218 0 0.46319689217890331 -0.26835660325056299 0 0.46965781089888248 -0.25846873400162218 0 0.46319689217890331 -0.26835660325056299 0 0.4477486317760534 -0.26078267557717671 0 0.44856132313442931 -0.24393079079591279 0 0.47387431588802909 -0.25499376211151131 0 0.4477486317760534 -0.26078267557717671 0 0.47387431588802909 -0.25499376211151131 0 0.4477486317760534 -0.26078267557717671 0 0.46965781089888248 -0.25846873400162218 0 0.4477486317760534 -0.26078267557717671 0 0.47387431588802909 -0.25499376211151131 0 0.46965781089888248 -0.25846873400162218 0 0.4477486317760534 -0.26078267557717671 0 0.47052118473631321 -0.27447720361836658 0 0.45389453446556111 -0.28192564334160541 0 0.47474596181800061 -0.28621450290334632 0 0.47052118473631321 -0.27447720361836658 0 0.46319689217890331 -0.26835660325056299 0 0.45389453446556111 -0.28192564334160541 0 0.46319689217890331 -0.26835660325056299 0 0.4477486317760534 -0.26078267557717671 0 0.45389453446556111 -0.28192564334160541 0 0.45389453446556111 -0.28192564334160541 0 0.430823863629894 -0.26453285558412298 0 0.45389453446556111 -0.28192564334160541 0 0.430823863629894 -0.26453285558412298 0 0.43570592202634773 -0.28205449164250063 0 0.4477486317760534 -0.26078267557717671 0 0.45389453446556111 -0.28192564334160541 0 0.430823863629894 -0.26453285558412298 0 0.4477486317760534 -0.26078267557717671 0 0.42854038242645709 -0.26281135800815408 0 0.44856132313442931 -0.24393079079591279 0 0.4477486317760534 -0.26078267557717671 0 0.4372088962240912 -0.25169219704383999 0 0.4477486317760534 -0.26078267557717671 0 0.42854038242645709 -0.26281135800815408 0 0.4372088962240912 -0.25169219704383999 0 0.4477486317760534 -0.26078267557717671 0 0.430823863629894 -0.26453285558412298 0 0.44815314542162782 -0.30273998798419938 0 0.44271266904340639 -0.31513600928105973 0 0.43092107089682352 -0.30573631325696571 0 0.44815314542162782 -0.30273998798419938 0 0.43874415768382158 -0.29310671547163403 0 0.43092107089682352 -0.30573631325696571 0 0.43874415768382158 -0.29310671547163403 0 0.45389453446556111 -0.28192564334160541 0 0.43570592202634773 -0.28205449164250063 0 0.44815314542162782 -0.30273998798419938 0 0.43874415768382158 -0.29310671547163403 0 0.45389453446556111 -0.28192564334160541 0 0.45389453446556111 -0.28192564334160541 0 0.46668010371271101 -0.29937682325086112 0 0.47474596181800061 -0.28621450290334632 0 0.44815314542162782 -0.30273998798419938 0 0.45389453446556111 -0.28192564334160541 0 0.46668010371271101 -0.29937682325086112 0 0.46668010371271101 -0.29937682325086112 0 0.45907432653114449 -0.32014896664993769 0 0.44815314542162782 -0.30273998798419938 0 0.46668010371271101 -0.29937682325086112 0 0.45907432653114449 -0.32014896664993769 0 0.46668010371271101 -0.29937682325086112 0 0.48375110351916628 -0.30725513966339157 0 0.45907432653114449 -0.32014896664993769 0 0.46668010371271101 -0.29937682325086112 0 0.48375110351916628 -0.30725513966339157 0 0.47474596181800061 -0.28621450290334632 0 0.48375110351916628 -0.30725513966339157 0 0.47474596181800061 -0.28621450290334632 0 0.48951500520952212 -0.28458010338455908 0 0.48375110351916628 -0.30725513966339157 0 0.5 -0.29421060517692271 0 0.48951500520952212 -0.28458010338455908 0 0.5 -0.27170772691138367 0 0.5 -0.29421060517692271 0 0.48951500520952212 -0.28458010338455908 0 0.48375110351916628 -0.30725513966339157 0 0.5 -0.29421060517692271 0 0.49999999999999972 -0.31671348344246159 0 0.48375110351916628 -0.30725513966339157 0 0.49999999999999972 -0.31671348344246159 0 0.48658745812515303 -0.32591538654610069 0 0.49999999999999972 -0.31671348344246159 0 0.49107839048707969 -0.33844651150006611 0 0.49999999999999972 -0.31671348344246159 0 0.48658745812515303 -0.32591538654610069 0 0.49107839048707969 -0.33844651150006611 0 0.49999999999999972 -0.31671348344246159 0 0.5 -0.34354646621870782 0 0.49107839048707969 -0.33844651150006611 0 0.48658745812515303 -0.32591538654610069 0 0.49107839048707969 -0.33844651150006611 0 0.48013111160135669 -0.33592777501669763 0 0.48658745812515303 -0.32591538654610069 0 0.48013111160135669 -0.33592777501669763 0 0.47588582758327369 -0.32632043512378739 0 0.48013111160135669 -0.33592777501669763 0 0.46883970942210401 -0.33989811375075968 0 0.47588582758327369 -0.32632043512378739 0 0.48375110351916628 -0.30725513966339157 0 0.48658745812515303 -0.32591538654610069 0 0.47588582758327369 -0.32632043512378739 0 0.48375110351916628 -0.30725513966339157 0 0.47588582758327369 -0.32632043512378739 0 0.45907432653114449 -0.32014896664993769 0 0.5 -0.37037944899495368 0 0.48466784746851571 -0.3739080713738358 0 0.48215678097416009 -0.36017953955767068 0 0.5 -0.34354646621870782 0 0.49107839048707969 -0.33844651150006611 0 0.48215678097416009 -0.36017953955767068 0 0.49107839048707969 -0.33844651150006611 0 0.48013111160135669 -0.33592777501669763 0 0.48215678097416009 -0.36017953955767068 0 0.5 -0.34354646621870782 0 0.5 -0.37037944899495368 0 0.48215678097416009 -0.36017953955767068 0 0.49107839048707969 -0.33844651150006611 0 0.48215678097416009 -0.36017953955767068 0 0.48013111160135669 -0.33592777501669763 0 0.46883970942210401 -0.33989811375075968 0 0.48215678097416009 -0.36017953955767068 0 0.46883970942210401 -0.33989811375075968 0 0.48215678097416009 -0.36017953955767068 0 0.46166172922915721 -0.35810144835948332 0 0.48215678097416009 -0.36017953955767068 0 0.47323517146124039 -0.38191256761527542 0 0.48215678097416009 -0.36017953955767068 0 0.4671179630262795 -0.37324494563770522 0 0.47323517146124039 -0.38191256761527542 0 0.48466784746851571 -0.3739080713738358 0 0.48215678097416009 -0.36017953955767068 0 0.47323517146124039 -0.38191256761527542 0 0.48215678097416009 -0.36017953955767068 0 0.4671179630262795 -0.37324494563770522 0 0.46166172922915721 -0.35810144835948332 0 0.45652460043480969 -0.37267172771365881 0 0.46166172922915721 -0.35810144835948332 0 0.44386277216801179 -0.36169325344809122 0 0.45652460043480969 -0.37267172771365881 0 0.4671179630262795 -0.37324494563770522 0 0.46166172922915721 -0.35810144835948332 0 0.46883970942210401 -0.33989811375075968 0 0.46166172922915721 -0.35810144835948332 0 0.45146854934957792 -0.34092111004901438 0 0.43963091224731599 -0.34751792105314822 0 0.44386277216801179 -0.36169325344809122 0 0.45146854934957792 -0.34092111004901438 0 0.44386277216801179 -0.36169325344809122 0 0.45146854934957792 -0.34092111004901438 0 0.46166172922915721 -0.35810144835948332 0 0.44386277216801179 -0.36169325344809122 0 0.45146854934957792 -0.34092111004901438 0 0.44386277216801179 -0.36169325344809122 0 0.43376943787959182 -0.36708850497004442 0 0.43808065797110041 -0.37748478958974491 0 0.45652460043480969 -0.37267172771365881 0 0.44386277216801179 -0.36169325344809122 0 0.44783900322824399 -0.38008781189722518 0 0.44386277216801179 -0.36169325344809122 0 0.43808065797110041 -0.37748478958974491 0 0.44386277216801179 -0.36169325344809122 0 0.43808065797110041 -0.37748478958974491 0 0.44783900322824399 -0.38008781189722518 0 0.45652460043480969 -0.37267172771365881 0 0.44386277216801179 -0.36169325344809122 0 0.46883970942210401 -0.33989811375075968 0 0.45907432653114449 -0.32014896664993769 0 0.45146854934957792 -0.34092111004901438 0 0.45907432653114449 -0.32014896664993769 0 0.45146854934957792 -0.34092111004901438 0 0.46883970942210401 -0.33989811375075968 0 0.47588582758327369 -0.32632043512378739 0 0.45907432653114449 -0.32014896664993769 0 0.43963091224731599 -0.34751792105314822 0 0.45146854934957792 -0.34092111004901438 0 0.43565299676263758 -0.3352386806192425 0 0.45146854934957792 -0.34092111004901438 0 0.44493724809618768 -0.32603283426431229 0 0.43565299676263758 -0.3352386806192425 0 0.45907432653114449 -0.32014896664993769 0 0.45146854934957792 -0.34092111004901438 0 0.44493724809618768 -0.32603283426431229 0 0.45907432653114449 -0.32014896664993769 0 0.44493724809618768 -0.32603283426431229 0 0.44271266904340639 -0.31513600928105973 0 0.44493724809618768 -0.32603283426431229 0 0.44271266904340639 -0.31513600928105973 0 0.43047755427124879 -0.32102194424988317 0 0.44815314542162782 -0.30273998798419938 0 0.45907432653114449 -0.32014896664993769 0 0.44271266904340639 -0.31513600928105973 0 0.44271266904340639 -0.31513600928105973 0 0.43047755427124879 -0.32102194424988317 0 0.43092107089682352 -0.30573631325696571 0 0.43047755427124879 -0.32102194424988317 0 0.41919911313656122 -0.31385112706466711 0 0.41739686236043672 -0.32199345155319897 0 0.43047755427124879 -0.32102194424988317 0 0.41919911313656122 -0.31385112706466711 0 0.43092107089682352 -0.30573631325696571 0 0.43047755427124879 -0.32102194424988317 0 0.42053718701310799 -0.32957674384091618 0 0.41739686236043672 -0.32199345155319897 0 0.44493724809618768 -0.32603283426431229 0 0.43047755427124879 -0.32102194424988317 0 0.43565299676263758 -0.3352386806192425 0 0.43565299676263758 -0.3352386806192425 0 0.42053718701310799 -0.32957674384091618 0 0.4250793590774925 -0.34540704162396091 0 0.43963091224731599 -0.34751792105314822 0 0.43565299676263758 -0.3352386806192425 0 0.4250793590774925 -0.34540704162396091 0 0.43047755427124879 -0.32102194424988317 0 0.43565299676263758 -0.3352386806192425 0 0.42053718701310799 -0.32957674384091618 0 0.4062959459869725 -0.32912082979983148 0 0.4250793590774925 -0.34540704162396091 0 0.41055923831377589 -0.34398547157316572 0 0.42053718701310799 -0.32957674384091618 0 0.4062959459869725 -0.32912082979983148 0 0.4250793590774925 -0.34540704162396091 0 0.4062959459869725 -0.32912082979983148 0 0.4250793590774925 -0.34540704162396091 0 0.42053718701310799 -0.32957674384091618 0 0.4062959459869725 -0.32912082979983148 0 0.40802480504278882 -0.32457497099322458 0 0.4062959459869725 -0.32912082979983148 0 0.40802480504278882 -0.32457497099322458 0 0.4062959459869725 -0.32912082979983148 0 0.40802480504278882 -0.32457497099322458 0 0.40572459905769331 -0.31910551143285631 0 0.40802480504278882 -0.32457497099322458 0 0.4119015194344513 -0.31818912214386269 0 0.41739686236043672 -0.32199345155319897 0 0.40802480504278882 -0.32457497099322458 0 0.4119015194344513 -0.31818912214386269 0 0.40572459905769331 -0.31910551143285631 0 0.4119015194344513 -0.31818912214386269 0 0.41919911313656122 -0.31385112706466711 0 0.40916221757477672 -0.31142054967536659 0 0.4119015194344513 -0.31818912214386269 0 0.40572459905769331 -0.31910551143285631 0 0.40916221757477672 -0.31142054967536659 0 0.4119015194344513 -0.31818912214386269 0 0.41919911313656122 -0.31385112706466711 0 0.41739686236043672 -0.32199345155319897 0 0.42053718701310799 -0.32957674384091618 0 0.40802480504278882 -0.32457497099322458 0 0.41739686236043672 -0.32199345155319897 0 0.44386277216801179 -0.36169325344809122 0 0.43376943787959182 -0.36708850497004442 0 0.42728564025893462 -0.35958684797927032 0 0.42489657602010461 -0.37065940299189432 0 0.43376943787959182 -0.36708850497004442 0 0.43808065797110041 -0.37748478958974491 0 0.42489657602010461 -0.37065940299189432 0 0.43376943787959182 -0.36708850497004442 0 0.42728564025893462 -0.35958684797927032 0 0.44386277216801179 -0.36169325344809122 0 0.4250793590774925 -0.34540704162396091 0 0.43963091224731599 -0.34751792105314822 0 0.44386277216801179 -0.36169325344809122 0 0.4250793590774925 -0.34540704162396091 0 0.44386277216801179 -0.36169325344809122 0 0.42728564025893462 -0.35958684797927032 0 0.4250793590774925 -0.34540704162396091 0 0.42728564025893462 -0.35958684797927032 0 0.4250793590774925 -0.34540704162396091 0 0.41069622259092692 -0.35617360609135817 0 0.4250793590774925 -0.34540704162396091 0 0.41055923831377589 -0.34398547157316572 0 0.41069622259092692 -0.35617360609135817 0 0.41055923831377589 -0.34398547157316572 0 0.41069622259092692 -0.35617360609135817 0 0.40016542559971202 -0.34524040877751239 0 0.42489657602010461 -0.37065940299189432 0 0.42728564025893462 -0.35958684797927032 0 0.41069622259092692 -0.35617360609135817 0 0.42489657602010461 -0.37065940299189432 0 0.41069622259092692 -0.35617360609135817 0 0.4070765621089808 -0.37107032214525337 0 0.42489657602010461 -0.37065940299189432 0 0.41069622259092692 -0.35617360609135817 0 0.39585190457779329 -0.37201308858561799 0 0.3940349052124521 -0.36135998775519362 0 0.38601585554704992 -0.38244526212700758 0 0.41069622259092692 -0.35617360609135817 0 0.4070765621089808 -0.37107032214525337 0 0.3940349052124521 -0.36135998775519362 0 0.4070765621089808 -0.37107032214525337 0 0.39585190457779329 -0.37201308858561799 0 0.3940349052124521 -0.36135998775519362 0 0.39585190457779329 -0.37201308858561799 0 0.3940349052124521 -0.36135998775519362 0 0.3940349052124521 -0.36135998775519362 0 0.40016542559971202 -0.34524040877751239 0 0.38974443050024338 -0.33620485529262373 0 0.3940349052124521 -0.36135998775519362 0 0.38974443050024338 -0.33620485529262373 0 0.3940349052124521 -0.36135998775519362 0 0.40016542559971202 -0.34524040877751239 0 0.41069622259092692 -0.35617360609135817 0 0.3940349052124521 -0.36135998775519362 0 0.40016542559971202 -0.34524040877751239 0 0.3940349052124521 -0.36135998775519362 0 0.38974443050024338 -0.33620485529262373 0 0.37368731816096312 -0.34897020548070451 0 0.3940349052124521 -0.36135998775519362 0 0.38601585554704992 -0.38244526212700758 0 0.3940349052124521 -0.36135998775519362 0 0.38601585554704992 -0.38244526212700758 0 0.3689120952668708 -0.37284951495870189 0 0.3940349052124521 -0.36135998775519362 0 0.3689120952668708 -0.37284951495870189 0 0.37368731816096312 -0.34897020548070451 0 0.4062959459869725 -0.32912082979983148 0 0.40572459905769331 -0.31910551143285631 0 0.39816778062817881 -0.31191488097197773 0 0.4062959459869725 -0.32912082979983148 0 0.38974443050024338 -0.33620485529262373 0 0.38545395578803499 -0.31104972283005378 0 0.4062959459869725 -0.32912082979983148 0 0.38545395578803499 -0.31104972283005378 0 0.4062959459869725 -0.32912082979983148 0 0.38545395578803499 -0.31104972283005378 0 0.39816778062817881 -0.31191488097197773 0 0.40572459905769331 -0.31910551143285631 0 0.39816778062817881 -0.31191488097197773 0 0.40916221757477672 -0.31142054967536659 0 0.4062959459869725 -0.32912082979983148 0 0.40016542559971202 -0.34524040877751239 0 0.38974443050024338 -0.33620485529262373 0 0.4062959459869725 -0.32912082979983148 0 0.40016542559971202 -0.34524040877751239 0 0.4062959459869725 -0.32912082979983148 0 0.41055923831377589 -0.34398547157316572 0 0.40016542559971202 -0.34524040877751239 0 0.38974443050024338 -0.33620485529262373 0 0.36945761595668469 -0.32738841673247931 0 0.37368731816096312 -0.34897020548070451 0 0.38974443050024338 -0.33620485529262373 0 0.38545395578803499 -0.31104972283005378 0 0.36945761595668469 -0.32738841673247931 0 0.38974443050024338 -0.33620485529262373 0 0.38545395578803499 -0.31104972283005378 0 0.38545395578803499 -0.31104972283005378 0 0.38245755150739558 -0.29348174920317632 0 0.37101427446782781 -0.29852975601036341 0 0.38545395578803499 -0.31104972283005378 0 0.38245755150739558 -0.29348174920317632 0 0.38545395578803499 -0.31104972283005378 0 0.37101427446782781 -0.29852975601036341 0 0.38545395578803499 -0.31104972283005378 0 0.39567659353887108 -0.29306988619604551 0 0.38245755150739558 -0.29348174920317632 0 0.39816778062817881 -0.31191488097197773 0 0.40563314249086863 -0.30155395497769039 0 0.39567659353887108 -0.29306988619604551 0 0.38545395578803499 -0.31104972283005378 0 0.39816778062817881 -0.31191488097197773 0 0.39567659353887108 -0.29306988619604551 0 0.39816778062817881 -0.31191488097197773 0 0.40563314249086863 -0.30155395497769039 0 0.40916221757477672 -0.31142054967536659 0 0.39567659353887108 -0.29306988619604551 0 0.40514250542832608 -0.27022331558021301 0 0.41160024963212011 -0.28933460066763711 0 0.40563314249086863 -0.30155395497769039 0 0.39567659353887108 -0.29306988619604551 0 0.41160024963212011 -0.28933460066763711 0 0.38245755150739558 -0.29348174920317632 0 0.37946114722675722 -0.27591377557629859 0 0.39567659353887108 -0.29306988619604551 0 0.38245755150739558 -0.29348174920317632 0 0.37946114722675722 -0.27591377557629859 0 0.38245755150739558 -0.29348174920317632 0 0.37795999762798671 -0.28395322059410122 0 0.37946114722675722 -0.27591377557629859 0 0.37519981906117678 -0.29055939022370142 0 0.38245755150739558 -0.29348174920317632 0 0.37101427446782781 -0.29852975601036341 0 0.37519981906117678 -0.29055939022370142 0 0.38245755150739558 -0.29348174920317632 0 0.37795999762798671 -0.28395322059410122 0 0.37795999762798671 -0.28395322059410122 0 0.37946114722675722 -0.27591377557629859 0 0.37739853904771847 -0.27637080706343392 0 0.37739853904771847 -0.27637080706343392 0 0.37683953433427181 -0.26882153263446662 0 0.37273728942595791 -0.27740364396778311 0 0.37795999762798671 -0.28395322059410122 0 0.37739853904771847 -0.27637080706343392 0 0.37273728942595791 -0.27740364396778311 0 0.37946114722675722 -0.27591377557629859 0 0.38774772661347989 -0.26664574742688191 0 0.3964002279028962 -0.26984905957103239 0 0.37946114722675722 -0.27591377557629859 0 0.3964002279028962 -0.26984905957103239 0 0.37795999762798671 -0.28395322059410122 0 0.37739853904771847 -0.27637080706343392 0 0.37739853904771847 -0.27637080706343392 0 0.37273728942595791 -0.27740364396778311 0 0.37946114722675722 -0.27591377557629859 0 0.37739853904771847 -0.27637080706343392 0 0.37683953433427181 -0.26882153263446662 0 0.37946114722675722 -0.27591377557629859 0 0.37739853904771847 -0.27637080706343392 0 0.37946114722675722 -0.27591377557629859 0 0.37843581040967561 -0.26746760801825881 0 0.38284686623937531 -0.26497045393317709 0 0.37946114722675722 -0.27591377557629859 0 0.37683953433427181 -0.26882153263446662 0 0.37843581040967561 -0.26746760801825881 0 0.37739853904771847 -0.27637080706343392 0 0.37683953433427181 -0.26882153263446662 0 0.37683953433427181 -0.26882153263446662 0 0.37843581040967561 -0.26746760801825881 0 0.37946114722675722 -0.27591377557629859 0 0.38774772661347989 -0.26664574742688191 0 0.38284686623937531 -0.26497045393317709 0 0.37477580018058132 -0.24095111383496479 0 0.37683953433427181 -0.26882153263446662 0 0.38107906364546162 -0.25934379353391329 0 0.37477580018058132 -0.24095111383496479 0 0.37683953433427181 -0.26882153263446662 0 0.37477580018058132 -0.24095111383496479 0 0.38107906364546162 -0.25934379353391329 0 0.38725375881062551 -0.25185160038302579 0 0.37843581040967561 -0.26746760801825881 0 0.38107906364546162 -0.25934379353391329 0 0.38284686623937531 -0.26497045393317709 0 0.37683953433427181 -0.26882153263446662 0 0.37843581040967561 -0.26746760801825881 0 0.38107906364546162 -0.25934379353391329 0 0.38107906364546162 -0.25934379353391329 0 0.38632261189823958 -0.26200045239958702 0 0.38284686623937531 -0.26497045393317709 0 0.38774772661347989 -0.26664574742688191 0 0.38632261189823958 -0.26200045239958702 0 0.38284686623937531 -0.26497045393317709 0 0.38774772661347989 -0.26664574742688191 0 0.38955528694719099 -0.2630172622662057 0 0.39295554709344072 -0.26445586107842978 0 0.38774772661347989 -0.26664574742688191 0 0.38632261189823958 -0.26200045239958702 0 0.38955528694719099 -0.2630172622662057 0 0.38632261189823958 -0.26200045239958702 0 0.38955528694719099 -0.2630172622662057 0 0.39119526218360401 -0.25896698815992442 0 0.38632261189823958 -0.26200045239958702 0 0.38725375881062551 -0.25185160038302579 0 0.39119526218360401 -0.25896698815992442 0 0.38107906364546162 -0.25934379353391329 0 0.38632261189823958 -0.26200045239958702 0 0.38725375881062551 -0.25185160038302579 0 0.40314688718896508 -0.2619981766022052 0 0.39707581272688741 -0.26613449373937459 0 0.41345304600685079 -0.26440480953867462 0 0.39707581272688741 -0.26613449373937459 0 0.41345304600685079 -0.26440480953867462 0 0.38725375881062551 -0.25185160038302579 0 0.39640803358832022 -0.25154779433757402 0 0.39119526218360401 -0.25896698815992442 0 0.39640803358832022 -0.25154779433757402 0 0.39702034872720737 -0.26014738253762237 0 0.39119526218360401 -0.25896698815992442 0 0.39702034872720737 -0.26014738253762237 0 0.39119526218360401 -0.25896698815992442 0 0.39295554709344072 -0.26445586107842978 0 0.38955528694719099 -0.2630172622662057 0 0.39119526218360401 -0.25896698815992442 0 0.39295554709344072 -0.26445586107842978 0 0.39702034872720737 -0.26014738253762237 0 0.39295554709344072 -0.26445586107842978 0 0.39707581272688741 -0.26613449373937459 0 0.39702034872720737 -0.26014738253762237 0 0.40314688718896508 -0.2619981766022052 0 0.39707581272688741 -0.26613449373937459 0 0.40314688718896508 -0.2619981766022052 0 0.40257909468765629 -0.25704117102420471 0 0.40998094690083942 -0.2590606397541646 0 0.39702034872720737 -0.26014738253762237 0 0.40314688718896508 -0.2619981766022052 0 0.40257909468765629 -0.25704117102420471 0 0.39640803358832022 -0.25154779433757402 0 0.39702034872720737 -0.26014738253762237 0 0.40257909468765629 -0.25704117102420471 0 0.41087794879613182 -0.2494957955088617 0 0.39640803358832022 -0.25154779433757402 0 0.40257909468765629 -0.25704117102420471 0 0.40514250542832608 -0.27022331558021301 0 0.3964002279028962 -0.26984905957103239 0 0.41345304600685079 -0.26440480953867462 0 0.37946114722675722 -0.27591377557629859 0 0.40514250542832608 -0.27022331558021301 0 0.3964002279028962 -0.26984905957103239 0 0.39707581272688741 -0.26613449373937459 0 0.3964002279028962 -0.26984905957103239 0 0.41345304600685079 -0.26440480953867462 0 0.37946114722675722 -0.27591377557629859 0 0.40514250542832608 -0.27022331558021301 0 0.3964002279028962 -0.26984905957103239 0 0.41345304600685079 -0.26440480953867462 0 0.39567659353887108 -0.29306988619604551 0 0.37946114722675722 -0.27591377557629859 0 0.40514250542832608 -0.27022331558021301 0 0.38774772661347989 -0.26664574742688191 0 0.39295554709344072 -0.26445586107842978 0 0.3964002279028962 -0.26984905957103239 0 0.39295554709344072 -0.26445586107842978 0 0.39707581272688741 -0.26613449373937459 0 0.3964002279028962 -0.26984905957103239 0 0.40514250542832608 -0.27022331558021301 0 0.41345304600685079 -0.26440480953867462 0 0.430823863629894 -0.26453285558412298 0 0.40514250542832608 -0.27022331558021301 0 0.430823863629894 -0.26453285558412298 0 0.40514250542832608 -0.27022331558021301 0 0.42166373126508722 -0.27984448092147479 0 0.41160024963212011 -0.28933460066763711 0 0.40514250542832608 -0.27022331558021301 0 0.42166373126508722 -0.27984448092147479 0 0.430823863629894 -0.26453285558412298 0 0.41087794879613182 -0.2494957955088617 0 0.41984775782459283 -0.2623632460968765 0 0.42854038242645709 -0.26281135800815408 0 0.41087794879613182 -0.2494957955088617 0 0.42854038242645709 -0.26281135800815408 0 0.41087794879613182 -0.2494957955088617 0 0.40257909468765629 -0.25704117102420471 0 0.40998094690083942 -0.2590606397541646 0 0.41087794879613182 -0.2494957955088617 0 0.40998094690083942 -0.2590606397541646 0 0.41984775782459283 -0.2623632460968765 0 0.40314688718896508 -0.2619981766022052 0 0.40998094690083942 -0.2590606397541646 0 0.41345304600685079 -0.26440480953867462 0 0.41345304600685079 -0.26440480953867462 0 0.41984775782459283 -0.2623632460968765 0 0.42854038242645709 -0.26281135800815408 0 0.40998094690083942 -0.2590606397541646 0 0.41345304600685079 -0.26440480953867462 0 0.41984775782459283 -0.2623632460968765 0 0.41345304600685079 -0.26440480953867462 0 0.42854038242645709 -0.26281135800815408 0 0.41345304600685079 -0.26440480953867462 0 0.41984775782459283 -0.2623632460968765 0 0.42656562700980838 -0.24831468624349931 0 0.41087794879613182 -0.2494957955088617 0 0.42854038242645709 -0.26281135800815408 0 0.4477486317760534 -0.26078267557717671 0 0.42854038242645709 -0.26281135800815408 0 0.430823863629894 -0.26453285558412298 0 0.41345304600685079 -0.26440480953867462 0 0.42854038242645709 -0.26281135800815408 0 0.430823863629894 -0.26453285558412298 0 0.42854038242645709 -0.26281135800815408 0 0.430823863629894 -0.26453285558412298 0 0.42656562700980838 -0.24831468624349931 0 0.42854038242645709 -0.26281135800815408 0 0.4372088962240912 -0.25169219704383999 0 0.42166373126508722 -0.27984448092147479 0 0.430823863629894 -0.26453285558412298 0 0.43570592202634773 -0.28205449164250063 0 0.42166373126508722 -0.27984448092147479 0 0.43570592202634773 -0.28205449164250063 0 0.42504611560874761 -0.29307714113289868 0 0.43874415768382158 -0.29310671547163403 0 0.43570592202634773 -0.28205449164250063 0 0.42504611560874761 -0.29307714113289868 0 0.43874415768382158 -0.29310671547163403 0 0.42504611560874761 -0.29307714113289868 0 0.43092107089682352 -0.30573631325696571 0 0.41919911313656122 -0.31385112706466711 0 0.43092107089682352 -0.30573631325696571 0 0.41692698488998292 -0.30249561446253759 0 0.42504611560874761 -0.29307714113289868 0 0.43092107089682352 -0.30573631325696571 0 0.41692698488998292 -0.30249561446253759 0 0.41919911313656122 -0.31385112706466711 0 0.41692698488998292 -0.30249561446253759 0 0.40916221757477672 -0.31142054967536659 0 0.40563314249086863 -0.30155395497769039 0 0.41692698488998292 -0.30249561446253759 0 0.40916221757477672 -0.31142054967536659 0 0.40563314249086863 -0.30155395497769039 0 0.41692698488998292 -0.30249561446253759 0 0.41160024963212011 -0.28933460066763711 0 0.42166373126508722 -0.27984448092147479 0 0.42504611560874761 -0.29307714113289868 0 0.41160024963212011 -0.28933460066763711 0 0.42504611560874761 -0.29307714113289868 0 0.41692698488998292 -0.30249561446253759 0 0.41160024963212011 -0.28933460066763711 0 0.5 -0.5 0 0.47532784176218862 -0.47257481327436679 0 0.43264288253940292 -0.48275234633568048 0 0.5 -0.5 0 0.41749257905485199 -0.50000000000000033 0 0.43264288253940292 -0.48275234633568048 0 0.47532784176218862 -0.47257481327436679 0 0.44779318602395363 -0.46550469267136052 0 0.43264288253940292 -0.48275234633568048 0 0.44779318602395363 -0.46550469267136052 0 0.43264288253940292 -0.48275234633568048 0 0.5 -0.5 0 0.47532784176218862 -0.47257481327436679 0 0.49999999999999828 -0.44642064777577001 0 0.47532784176218862 -0.47257481327436679 0 0.47918453573141367 -0.4495963838019249 0 0.46294348950850428 -0.44825703900704061 0 0.47532784176218862 -0.47257481327436679 0 0.49999999999999828 -0.44642064777577001 0 0.47918453573141367 -0.4495963838019249 0 0.49999999999999828 -0.44642064777577001 0 0.47846681165496419 -0.4311330351505217 0 0.49999999999999828 -0.44642064777577001 0 0.47918453573141367 -0.4495963838019249 0 0.47846681165496419 -0.4311330351505217 0 0.47918453573141367 -0.4495963838019249 0 0.46294348950850428 -0.44825703900704061 0 0.47846681165496419 -0.4311330351505217 0 0.46294348950850428 -0.44825703900704061 0 0.44442683605218691 -0.44583817528272968 0 0.45721208074107311 -0.43281318479414382 0 0.46294348950850428 -0.44825703900704061 0 0.44779318602395363 -0.46550469267136052 0 0.47532784176218862 -0.47257481327436679 0 0.46294348950850428 -0.44825703900704061 0 0.44779318602395363 -0.46550469267136052 0 0.44779318602395363 -0.46550469267136052 0 0.44442683605218691 -0.44583817528272968 0 0.43057418754349119 -0.46211781715143319 0 0.46294348950850428 -0.44825703900704061 0 0.44779318602395363 -0.46550469267136052 0 0.44442683605218691 -0.44583817528272968 0 0.44442683605218691 -0.44583817528272968 0 0.44324354583686831 -0.42153379012121539 0 0.45721208074107311 -0.43281318479414382 0 0.44442683605218691 -0.44583817528272968 0 0.44324354583686831 -0.42153379012121539 0 0.42653452723640378 -0.44279137365393179 0 0.44324354583686831 -0.42153379012121539 0 0.45693362330993059 -0.41584542252527262 0 0.45721208074107311 -0.43281318479414382 0 0.45693362330993059 -0.41584542252527262 0 0.4354004349648965 -0.40055780990002432 0 0.44324354583686831 -0.42153379012121539 0 0.45693362330993059 -0.41584542252527262 0 0.4354004349648965 -0.40055780990002432 0 0.45693362330993059 -0.41584542252527262 0 0.46461049463358839 -0.41117161714406408 0 0.47846681165496419 -0.4311330351505217 0 0.45693362330993059 -0.41584542252527262 0 0.46461049463358839 -0.41117161714406408 0 0.45329728287846061 -0.39963099679296588 0 0.46294348950850428 -0.44825703900704061 0 0.45721208074107311 -0.43281318479414382 0 0.47846681165496419 -0.4311330351505217 0 0.45693362330993059 -0.41584542252527262 0 0.45721208074107311 -0.43281318479414382 0 0.47846681165496419 -0.4311330351505217 0 0.45693362330993059 -0.41584542252527262 0 0.47846681165496419 -0.4311330351505217 0 0.49999999999999828 -0.44642064777577001 0 0.47846681165496419 -0.4311330351505217 0 0.5 -0.42181653977348488 0 0.5 -0.42181653977348488 0 0.48394518954555588 -0.41195106762427058 0 0.49999999999999789 -0.3972124317711998 0 0.47846681165496419 -0.4311330351505217 0 0.5 -0.42181653977348488 0 0.48394518954555588 -0.41195106762427058 0 0.46461049463358839 -0.41117161714406408 0 0.47846681165496419 -0.4311330351505217 0 0.48394518954555588 -0.41195106762427058 0 0.46461049463358839 -0.41117161714406408 0 0.48394518954555588 -0.41195106762427058 0 0.47664864143922919 -0.39842171428208217 0 0.47664864143922919 -0.39842171428208217 0 0.47975395238035062 -0.3854291032725421 0 0.46812846895096999 -0.38912968091376021 0 0.47664864143922919 -0.39842171428208217 0 0.49999999999999789 -0.3972124317711998 0 0.48779058149940679 -0.38751051868815611 0 0.48394518954555588 -0.41195106762427058 0 0.47664864143922919 -0.39842171428208217 0 0.49999999999999789 -0.3972124317711998 0 0.47664864143922919 -0.39842171428208217 0 0.49999999999999789 -0.3972124317711998 0 0.5 -0.37037944899495368 0 0.49999999999999789 -0.3972124317711998 0 0.48779058149940679 -0.38751051868815611 0 0.5 -0.37037944899495368 0 0.48466784746851571 -0.3739080713738358 0 0.48779058149940679 -0.38751051868815611 0 0.48466784746851571 -0.3739080713738358 0 0.47975395238035062 -0.3854291032725421 0 0.47323517146124039 -0.38191256761527542 0 0.48466784746851571 -0.3739080713738358 0 0.48779058149940679 -0.38751051868815611 0 0.47975395238035062 -0.3854291032725421 0 0.47664864143922919 -0.39842171428208217 0 0.48779058149940679 -0.38751051868815611 0 0.47975395238035062 -0.3854291032725421 0 0.47975395238035062 -0.3854291032725421 0 0.47323517146124039 -0.38191256761527542 0 0.46812846895096999 -0.38912968091376021 0 0.46918642870160698 -0.38365020197922722 0 0.47323517146124039 -0.38191256761527542 0 0.46812846895096999 -0.38912968091376021 0 0.4671179630262795 -0.37324494563770522 0 0.46918642870160698 -0.38365020197922722 0 0.47323517146124039 -0.38191256761527542 0 0.45652460043480969 -0.37267172771365881 0 0.4671179630262795 -0.37324494563770522 0 0.46918642870160698 -0.38365020197922722 0 0.45652460043480969 -0.37267172771365881 0 0.46918642870160698 -0.38365020197922722 0 0.45652460043480969 -0.37267172771365881 0 0.45606522570456098 -0.38599652494351028 0 0.44783900322824399 -0.38008781189722518 0 0.45652460043480969 -0.37267172771365881 0 0.46918642870160698 -0.38365020197922722 0 0.45606522570456098 -0.38599652494351028 0 0.46918642870160698 -0.38365020197922722 0 0.45606522570456098 -0.38599652494351028 0 0.46812846895096999 -0.38912968091376021 0 0.46461049463358839 -0.41117161714406408 0 0.47664864143922919 -0.39842171428208217 0 0.45329728287846061 -0.39963099679296588 0 0.47664864143922919 -0.39842171428208217 0 0.45329728287846061 -0.39963099679296588 0 0.47664864143922919 -0.39842171428208217 0 0.46812846895096999 -0.38912968091376021 0 0.45329728287846061 -0.39963099679296588 0 0.46461049463358839 -0.41117161714406408 0 0.45329728287846061 -0.39963099679296588 0 0.45606522570456098 -0.38599652494351028 0 0.46812846895096999 -0.38912968091376021 0 0.45329728287846061 -0.39963099679296588 0 0.45693362330993059 -0.41584542252527262 0 0.45329728287846061 -0.39963099679296588 0 0.4354004349648965 -0.40055780990002432 0 0.45329728287846061 -0.39963099679296588 0 0.4354004349648965 -0.40055780990002432 0 0.45329728287846061 -0.39963099679296588 0 0.4390969294492823 -0.3851451998924304 0 0.4354004349648965 -0.40055780990002432 0 0.45329728287846061 -0.39963099679296588 0 0.4390969294492823 -0.3851451998924304 0 0.45606522570456098 -0.38599652494351028 0 0.4390969294492823 -0.3851451998924304 0 0.44783900322824399 -0.38008781189722518 0 0.45606522570456098 -0.38599652494351028 0 0.45329728287846061 -0.39963099679296588 0 0.4390969294492823 -0.3851451998924304 0 0.4390969294492823 -0.3851451998924304 0 0.43808065797110041 -0.37748478958974491 0 0.44783900322824399 -0.38008781189722518 0 0.42782015831496062 -0.38505662608606978 0 0.4354004349648965 -0.40055780990002432 0 0.41188669282555868 -0.38386409155992901 0 0.42489657602010461 -0.37065940299189432 0 0.4390969294492823 -0.3851451998924304 0 0.42782015831496062 -0.38505662608606978 0 0.42489657602010461 -0.37065940299189432 0 0.4390969294492823 -0.3851451998924304 0 0.43808065797110041 -0.37748478958974491 0 0.42489657602010461 -0.37065940299189432 0 0.4390969294492823 -0.3851451998924304 0 0.4390969294492823 -0.3851451998924304 0 0.42782015831496062 -0.38505662608606978 0 0.4354004349648965 -0.40055780990002432 0 0.4354004349648965 -0.40055780990002432 0 0.41188669282555868 -0.38386409155992901 0 0.4354004349648965 -0.40055780990002432 0 0.40669862042327182 -0.40204417319942209 0 0.4354004349648965 -0.40055780990002432 0 0.40669862042327182 -0.40204417319942209 0 0.41188669282555868 -0.38386409155992901 0 0.42489657602010461 -0.37065940299189432 0 0.42782015831496062 -0.38505662608606978 0 0.41188669282555868 -0.38386409155992901 0 0.42489657602010461 -0.37065940299189432 0 0.4070765621089808 -0.37107032214525337 0 0.41188669282555868 -0.38386409155992901 0 0.4070765621089808 -0.37107032214525337 0 0.39585190457779329 -0.37201308858561799 0 0.39886607975096749 -0.38470810625682389 0 0.40669862042327182 -0.40204417319942209 0 0.41188669282555868 -0.38386409155992901 0 0.39886607975096749 -0.38470810625682389 0 0.4070765621089808 -0.37107032214525337 0 0.41188669282555868 -0.38386409155992901 0 0.39886607975096749 -0.38470810625682389 0 0.39585190457779329 -0.37201308858561799 0 0.39886607975096749 -0.38470810625682389 0 0.38601585554704992 -0.38244526212700758 0 0.39886607975096749 -0.38470810625682389 0 0.38601585554704992 -0.38244526212700758 0 0.37799680588164719 -0.40353053649882148 0 0.38601585554704992 -0.38244526212700758 0 0.37799680588164719 -0.40353053649882148 0 0.38601585554704992 -0.38244526212700758 0 0.37799680588164719 -0.40353053649882148 0 0.36816388811638329 -0.39545065246060412 0 0.37799680588164719 -0.40353053649882148 0 0.37635446215448021 -0.40784891206015261 0 0.37799680588164719 -0.40353053649882148 0 0.37505152225636262 -0.40368306209891941 0 0.37635446215448021 -0.40784891206015261 0 0.37799680588164719 -0.40353053649882148 0 0.37505152225636262 -0.40368306209891941 0 0.40669862042327182 -0.40204417319942209 0 0.39886607975096749 -0.38470810625682389 0 0.37799680588164719 -0.40353053649882148 0 0.40669862042327182 -0.40204417319942209 0 0.37799680588164719 -0.40353053649882148 0 0.40669862042327182 -0.40204417319942209 0 0.38553791301154328 -0.41840677215457472 0 0.40567792500840172 -0.4277251834563135 0 0.40669862042327182 -0.40204417319942209 0 0.37799680588164719 -0.40353053649882148 0 0.38553791301154328 -0.41840677215457472 0 0.38553791301154328 -0.41840677215457472 0 0.36905142820508552 -0.42917232846767789 0 0.37241381966677689 -0.417360225696081 0 0.38553791301154328 -0.41840677215457472 0 0.37635446215448021 -0.40784891206015261 0 0.37241381966677689 -0.417360225696081 0 0.37799680588164719 -0.40353053649882148 0 0.38553791301154328 -0.41840677215457472 0 0.37635446215448021 -0.40784891206015261 0 0.38553791301154328 -0.41840677215457472 0 0.38807715457860831 -0.4388905332329941 0 0.36905142820508552 -0.42917232846767789 0 0.38553791301154328 -0.41840677215457472 0 0.40567792500840172 -0.4277251834563135 0 0.38807715457860831 -0.4388905332329941 0 0.40567792500840172 -0.4277251834563135 0 0.42351101069396863 -0.41893046606618117 0 0.42653452723640378 -0.44279137365393179 0 0.4354004349648965 -0.40055780990002432 0 0.40669862042327182 -0.40204417319942209 0 0.42351101069396863 -0.41893046606618117 0 0.40669862042327182 -0.40204417319942209 0 0.40567792500840172 -0.4277251834563135 0 0.42351101069396863 -0.41893046606618117 0 0.44324354583686831 -0.42153379012121539 0 0.4354004349648965 -0.40055780990002432 0 0.42351101069396863 -0.41893046606618117 0 0.44324354583686831 -0.42153379012121539 0 0.42653452723640378 -0.44279137365393179 0 0.44324354583686831 -0.42153379012121539 0 0.42351101069396863 -0.41893046606618117 0 0.42653452723640378 -0.44279137365393179 0 0.44442683605218691 -0.44583817528272968 0 0.42653452723640378 -0.44279137365393179 0 0.43057418754349119 -0.46211781715143319 0 0.42653452723640378 -0.44279137365393179 0 0.43057418754349119 -0.46211781715143319 0 0.40982550863593931 -0.46404895718664829 0 0.42653452723640378 -0.44279137365393179 0 0.40982550863593931 -0.46404895718664829 0 0.42653452723640378 -0.44279137365393179 0 0.40982550863593931 -0.46404895718664829 0 0.4036378289262339 -0.44671034290208689 0 0.40567792500840172 -0.4277251834563135 0 0.42653452723640378 -0.44279137365393179 0 0.4036378289262339 -0.44671034290208689 0 0.40567792500840172 -0.4277251834563135 0 0.4036378289262339 -0.44671034290208689 0 0.38807715457860831 -0.4388905332329941 0 0.4036378289262339 -0.44671034290208689 0 0.38807715457860831 -0.4388905332329941 0 0.38807402917181633 -0.46009566698054732 0 0.38807715457860831 -0.4388905332329941 0 0.3733961412993268 -0.45022493016754961 0 0.36905142820508552 -0.42917232846767789 0 0.38807715457860831 -0.4388905332329941 0 0.38807402917181633 -0.46009566698054732 0 0.3733961412993268 -0.45022493016754961 0 0.38807402917181633 -0.46009566698054732 0 0.36593927904035028 -0.47432204071884282 0 0.3733961412993268 -0.45022493016754961 0 0.40982550863593931 -0.46404895718664829 0 0.4036378289262339 -0.44671034290208689 0 0.38807402917181633 -0.46009566698054732 0 0.40982550863593931 -0.46404895718664829 0 0.39311649003547477 -0.48530654071936469 0 0.40982550863593931 -0.46404895718664829 0 0.38807402917181633 -0.46009566698054732 0 0.39311649003547477 -0.48530654071936469 0 0.38807402917181633 -0.46009566698054732 0 0.39311649003547477 -0.48530654071936469 0 0.36593927904035028 -0.47432204071884282 0 0.37603974257992701 -0.49999999999999978 0 0.39311649003547477 -0.48530654071936469 0 0.36593927904035028 -0.47432204071884282 0 0.37603974257992701 -0.49999999999999978 0 0.39676616081738958 -0.5 0 0.39311649003547477 -0.48530654071936469 0 0.39676616081738958 -0.5 0 0.39311649003547477 -0.48530654071936469 0 0.41749257905485199 -0.50000000000000033 0 0.40982550863593931 -0.46404895718664829 0 0.41749257905485199 -0.50000000000000033 0 0.43264288253940292 -0.48275234633568048 0 0.40982550863593931 -0.46404895718664829 0 0.39311649003547477 -0.48530654071936469 0 0.41749257905485199 -0.50000000000000033 0 0.43057418754349119 -0.46211781715143319 0 0.40982550863593931 -0.46404895718664829 0 0.43264288253940292 -0.48275234633568048 0 0.44779318602395363 -0.46550469267136052 0 0.43057418754349119 -0.46211781715143319 0 0.43264288253940292 -0.48275234633568048 0 0.41749257905485199 -0.50000000000000033 0 0.43264288253940292 -0.48275234633568048 0 0.32215468257820618 -0.5 0 0.33760568703239408 -0.47417818032706111 0 0.31005432530219129 -0.48106067464861729 0 0.33760568703239408 -0.47417818032706111 0 0.3189449745883719 -0.46117016543644002 0 0.31005432530219129 -0.48106067464861729 0 0.32215468257820618 -0.5 0 0.33760568703239408 -0.47417818032706111 0 0.34909721257906662 -0.5 0 0.37603974257992701 -0.49999999999999978 0 0.34909721257906662 -0.5 0 0.36593927904035028 -0.47432204071884282 0 0.37603974257992701 -0.49999999999999978 0 0.36593927904035028 -0.47432204071884282 0 0.33760568703239408 -0.47417818032706111 0 0.34909721257906662 -0.5 0 0.36593927904035028 -0.47432204071884282 0 0.33760568703239408 -0.47417818032706111 0 0.36593927904035028 -0.47432204071884282 0 0.35583881550077368 -0.44864408143768569 0 0.36593927904035028 -0.47432204071884282 0 0.35583881550077368 -0.44864408143768569 0 0.36593927904035028 -0.47432204071884282 0 0.3733961412993268 -0.45022493016754961 0 0.35583881550077368 -0.44864408143768569 0 0.3733961412993268 -0.45022493016754961 0 0.35583881550077368 -0.44864408143768569 0 0.36905142820508552 -0.42917232846767789 0 0.35583881550077368 -0.44864408143768569 0 0.33540415989768779 -0.44905252560006492 0 0.34573835196119679 -0.42296612215652868 0 0.33760568703239408 -0.47417818032706111 0 0.35583881550077368 -0.44864408143768569 0 0.33540415989768779 -0.44905252560006492 0 0.33760568703239408 -0.47417818032706111 0 0.33540415989768779 -0.44905252560006492 0 0.3189449745883719 -0.46117016543644002 0 0.33540415989768779 -0.44905252560006492 0 0.3189449745883719 -0.46117016543644002 0 0.32126124445813709 -0.43429719032362252 0 0.3189449745883719 -0.46117016543644002 0 0.32126124445813709 -0.43429719032362252 0 0.30480654487456732 -0.44641521679941309 0 0.32126124445813709 -0.43429719032362252 0 0.3193156137706864 -0.40941365839269389 0 0.29937418247959258 -0.41817563384508599 0 0.3193156137706864 -0.40941365839269389 0 0.34573835196119679 -0.42296612215652868 0 0.33563788842162012 -0.39728816287537172 0 0.34573835196119679 -0.42296612215652868 0 0.33563788842162012 -0.39728816287537172 0 0.33540415989768779 -0.44905252560006492 0 0.32126124445813709 -0.43429719032362252 0 0.34573835196119679 -0.42296612215652868 0 0.32126124445813709 -0.43429719032362252 0 0.3193156137706864 -0.40941365839269389 0 0.34573835196119679 -0.42296612215652868 0 0.35583881550077368 -0.44864408143768569 0 0.34573835196119679 -0.42296612215652868 0 0.36905142820508552 -0.42917232846767789 0 0.35583881550077368 -0.44864408143768569 0 0.34573835196119679 -0.42296612215652868 0 0.36905142820508552 -0.42917232846767789 0 0.37241381966677689 -0.417360225696081 0 0.36195200988480669 -0.41065981681110758 0 0.36990343230398692 -0.40830781576793279 0 0.37241381966677689 -0.417360225696081 0 0.36195200988480669 -0.41065981681110758 0 0.37635446215448021 -0.40784891206015261 0 0.36990343230398692 -0.40830781576793279 0 0.37241381966677689 -0.417360225696081 0 0.37505152225636262 -0.40368306209891941 0 0.37635446215448021 -0.40784891206015261 0 0.36990343230398692 -0.40830781576793279 0 0.36990343230398692 -0.40830781576793279 0 0.36195200988480669 -0.41065981681110758 0 0.36876771314038492 -0.40452533678464098 0 0.34573835196119679 -0.42296612215652868 0 0.36195200988480669 -0.41065981681110758 0 0.35211107663302149 -0.40015425695529971 0 0.34573835196119679 -0.42296612215652868 0 0.36905142820508552 -0.42917232846767789 0 0.36195200988480669 -0.41065981681110758 0 0.34573835196119679 -0.42296612215652868 0 0.35211107663302149 -0.40015425695529971 0 0.33563788842162012 -0.39728816287537172 0 0.35211107663302149 -0.40015425695529971 0 0.35352794608594401 -0.38791341326287138 0 0.33563788842162012 -0.39728816287537172 0 0.35211107663302149 -0.40015425695529971 0 0.36816388811638329 -0.39545065246060412 0 0.35352794608594401 -0.38791341326287138 0 0.36195200988480669 -0.41065981681110758 0 0.36816388811638329 -0.39545065246060412 0 0.36876771314038492 -0.40452533678464098 0 0.36195200988480669 -0.41065981681110758 0 0.35211107663302149 -0.40015425695529971 0 0.36816388811638329 -0.39545065246060412 0 0.37505152225636262 -0.40368306209891941 0 0.36816388811638329 -0.39545065246060412 0 0.36876771314038492 -0.40452533678464098 0 0.37799680588164719 -0.40353053649882148 0 0.37505152225636262 -0.40368306209891941 0 0.36816388811638329 -0.39545065246060412 0 0.37505152225636262 -0.40368306209891941 0 0.36990343230398692 -0.40830781576793279 0 0.36876771314038492 -0.40452533678464098 0 0.38601585554704992 -0.38244526212700758 0 0.36816388811638329 -0.39545065246060412 0 0.3689120952668708 -0.37284951495870189 0 0.36816388811638329 -0.39545065246060412 0 0.35352794608594401 -0.38791341326287138 0 0.3689120952668708 -0.37284951495870189 0 0.35352794608594401 -0.38791341326287138 0 0.33563788842162012 -0.39728816287537172 0 0.34467783115022588 -0.37252705130409253 0 0.35352794608594401 -0.38791341326287138 0 0.3689120952668708 -0.37284951495870189 0 0.34467783115022588 -0.37252705130409253 0 0.33563788842162012 -0.39728816287537172 0 0.3255374248820434 -0.37161020359421471 0 0.33563788842162012 -0.39728816287537172 0 0.34467783115022588 -0.37252705130409253 0 0.3255374248820434 -0.37161020359421471 0 0.3193156137706864 -0.40941365839269389 0 0.33563788842162012 -0.39728816287537172 0 0.30534853388527528 -0.38930881101125692 0 0.33563788842162012 -0.39728816287537172 0 0.30534853388527528 -0.38930881101125692 0 0.3255374248820434 -0.37161020359421471 0 0.30534853388527528 -0.38930881101125692 0 0.3255374248820434 -0.37161020359421471 0 0.30525369772634148 -0.37164386163485291 0 0.30534853388527528 -0.38930881101125692 0 0.28783989868818821 -0.37644057584389279 0 0.30525369772634148 -0.37164386163485291 0 0.3193156137706864 -0.40941365839269389 0 0.30534853388527528 -0.38930881101125692 0 0.29937418247959258 -0.41817563384508599 0 0.30534853388527528 -0.38930881101125692 0 0.28922044672054198 -0.39637746652331562 0 0.29937418247959258 -0.41817563384508599 0 0.28922044672054198 -0.39637746652331562 0 0.27510086349567708 -0.39798721671617321 0 0.28320928432356041 -0.41012407252970262 0 0.28922044672054198 -0.39637746652331562 0 0.28783989868818821 -0.37644057584389279 0 0.27924907625512951 -0.38731579260330862 0 0.30534853388527528 -0.38930881101125692 0 0.28922044672054198 -0.39637746652331562 0 0.28783989868818821 -0.37644057584389279 0 0.30534853388527528 -0.38930881101125692 0 0.28783989868818821 -0.37644057584389279 0 0.28783989868818821 -0.37644057584389279 0 0.27447250226623809 -0.37821124143188289 0 0.27924907625512951 -0.38731579260330862 0 0.27447250226623809 -0.37821124143188289 0 0.27924907625512951 -0.38731579260330862 0 0.26961167010500181 -0.38756246250127813 0 0.27447250226623809 -0.37821124143188289 0 0.26961167010500181 -0.38756246250127813 0 0.26423397132697279 -0.37890457124200982 0 0.26961167010500181 -0.38756246250127813 0 0.26423397132697279 -0.37890457124200982 0 0.25687819372407023 -0.38903915957053298 0 0.26423397132697279 -0.37890457124200982 0 0.25687819372407023 -0.38903915957053298 0 0.24987622704845311 -0.37613765202982719 0 0.25108303853213881 -0.40002667887407228 0 0.26390234922262928 -0.39930308446362528 0 0.256136481120742 -0.41447562176841068 0 0.25687819372407023 -0.38903915957053298 0 0.25108303853213881 -0.40002667887407228 0 0.24309899287842279 -0.39271330151873202 0 0.25687819372407023 -0.38903915957053298 0 0.25108303853213881 -0.40002667887407228 0 0.26390234922262928 -0.39930308446362528 0 0.26961167010500181 -0.38756246250127813 0 0.25687819372407023 -0.38903915957053298 0 0.26390234922262928 -0.39930308446362528 0 0.26390234922262928 -0.39930308446362528 0 0.27510086349567708 -0.39798721671617321 0 0.2708804648698091 -0.41009655218672442 0 0.26961167010500181 -0.38756246250127813 0 0.26390234922262928 -0.39930308446362528 0 0.27510086349567708 -0.39798721671617321 0 0.28922044672054198 -0.39637746652331562 0 0.27924907625512951 -0.38731579260330862 0 0.27510086349567708 -0.39798721671617321 0 0.27924907625512951 -0.38731579260330862 0 0.26961167010500181 -0.38756246250127813 0 0.27510086349567708 -0.39798721671617321 0 0.27510086349567708 -0.39798721671617321 0 0.2708804648698091 -0.41009655218672442 0 0.28320928432356041 -0.41012407252970262 0 0.2708804648698091 -0.41009655218672442 0 0.256136481120742 -0.41447562176841068 0 0.27433621812851161 -0.42550461519375637 0 0.2708804648698091 -0.41009655218672442 0 0.27433621812851161 -0.42550461519375637 0 0.28320928432356041 -0.41012407252970262 0 0.26390234922262928 -0.39930308446362528 0 0.2708804648698091 -0.41009655218672442 0 0.256136481120742 -0.41447562176841068 0 0.25108303853213881 -0.40002667887407228 0 0.256136481120742 -0.41447562176841068 0 0.24629253832767661 -0.41022035877505542 0 0.256136481120742 -0.41447562176841068 0 0.25513396950241118 -0.43290986753561628 0 0.2453827316299185 -0.42192330194190181 0 0.256136481120742 -0.41447562176841068 0 0.25513396950241118 -0.43290986753561628 0 0.27433621812851161 -0.42550461519375637 0 0.25513396950241118 -0.43290986753561628 0 0.27433621812851161 -0.42550461519375637 0 0.26752346795397081 -0.44788636482661331 0 0.27433621812851161 -0.42550461519375637 0 0.29937418247959258 -0.41817563384508599 0 0.28546596250580908 -0.44246723239800262 0 0.29937418247959258 -0.41817563384508599 0 0.30480654487456732 -0.44641521679941309 0 0.28546596250580908 -0.44246723239800262 0 0.28922044672054198 -0.39637746652331562 0 0.28320928432356041 -0.41012407252970262 0 0.29937418247959258 -0.41817563384508599 0 0.27433621812851161 -0.42550461519375637 0 0.28320928432356041 -0.41012407252970262 0 0.29937418247959258 -0.41817563384508599 0 0.32126124445813709 -0.43429719032362252 0 0.29937418247959258 -0.41817563384508599 0 0.30480654487456732 -0.44641521679941309 0 0.3189449745883719 -0.46117016543644002 0 0.30480654487456732 -0.44641521679941309 0 0.28880919487484108 -0.4658549053918814 0 0.30480654487456732 -0.44641521679941309 0 0.28880919487484108 -0.4658549053918814 0 0.28546596250580908 -0.44246723239800262 0 0.27433621812851161 -0.42550461519375637 0 0.28546596250580908 -0.44246723239800262 0 0.26752346795397081 -0.44788636482661331 0 0.28880919487484108 -0.4658549053918814 0 0.28546596250580908 -0.44246723239800262 0 0.26752346795397081 -0.44788636482661331 0 0.25513396950241118 -0.43290986753561628 0 0.26752346795397081 -0.44788636482661331 0 0.24480843210435321 -0.45079661158300749 0 0.26752346795397081 -0.44788636482661331 0 0.2588368117714554 -0.46700690363883102 0 0.24480843210435321 -0.45079661158300749 0 0.28880919487484108 -0.4658549053918814 0 0.26752346795397081 -0.44788636482661331 0 0.2588368117714554 -0.46700690363883102 0 0.28880919487484108 -0.4658549053918814 0 0.2588368117714554 -0.46700690363883102 0 0.27227655507569209 -0.48076744006000099 0 0.2588368117714554 -0.46700690363883102 0 0.27227655507569209 -0.48076744006000099 0 0.25270961841775552 -0.48460016746525392 0 0.2588368117714554 -0.46700690363883102 0 0.25270961841775552 -0.48460016746525392 0 0.23949561189523169 -0.47426551941090739 0 0.25270961841775552 -0.48460016746525392 0 0.26826962257648529 -0.5 0 0.2413270925756249 -0.5 0 0.27227655507569209 -0.48076744006000099 0 0.25270961841775552 -0.48460016746525392 0 0.26826962257648529 -0.5 0 0.27227655507569209 -0.48076744006000099 0 0.26826962257648529 -0.5 0 0.29521215257734579 -0.5 0 0.28880919487484108 -0.4658549053918814 0 0.27227655507569209 -0.48076744006000099 0 0.29521215257734579 -0.5 0 0.28880919487484108 -0.4658549053918814 0 0.29521215257734579 -0.5 0 0.31005432530219129 -0.48106067464861729 0 0.3189449745883719 -0.46117016543644002 0 0.28880919487484108 -0.4658549053918814 0 0.31005432530219129 -0.48106067464861729 0 0.32215468257820618 -0.5 0 0.29521215257734579 -0.5 0 0.31005432530219129 -0.48106067464861729 0 0.33463237856908817 -0.28956894479377399 0 0.33485830675890288 -0.30442904333306592 0 0.35657459314761941 -0.2860097891906741 0 0.33463237856908817 -0.28956894479377399 0 0.32894302133540282 -0.28710755170783531 0 0.35195887039823659 -0.28200771363307098 0 0.32894302133540282 -0.28710755170783531 0 0.35195887039823659 -0.28200771363307098 0 0.32894302133540282 -0.28710755170783531 0 0.33255663915089151 -0.29722249741805129 0 0.33463237856908817 -0.28956894479377399 0 0.32894302133540282 -0.28710755170783531 0 0.33255663915089151 -0.29722249741805129 0 0.32894302133540282 -0.28710755170783531 0 0.33255663915089151 -0.29722249741805129 0 0.32301709761150521 -0.2972128627914089 0 0.33485830675890288 -0.30442904333306592 0 0.34824447571033601 -0.30253517369681238 0 0.34533870308018377 -0.31598934501886372 0 0.33485830675890288 -0.30442904333306592 0 0.33255663915089151 -0.29722249741805129 0 0.32434770264142349 -0.30499280498860082 0 0.33463237856908817 -0.28956894479377399 0 0.33485830675890288 -0.30442904333306592 0 0.33255663915089151 -0.29722249741805129 0 0.32301709761150521 -0.2972128627914089 0 0.32434770264142349 -0.30499280498860082 0 0.3171485971304504 -0.30589952111326829 0 0.32434770264142349 -0.30499280498860082 0 0.3171485971304504 -0.30589952111326829 0 0.31314202037018413 -0.32284829747545468 0 0.33485830675890288 -0.30442904333306592 0 0.32434770264142349 -0.30499280498860082 0 0.31314202037018413 -0.32284829747545468 0 0.33255663915089151 -0.29722249741805129 0 0.32301709761150521 -0.2972128627914089 0 0.32434770264142349 -0.30499280498860082 0 0.3171485971304504 -0.30589952111326829 0 0.31208952779935789 -0.2908419387292881 0 0.30833746379913463 -0.30503745501229762 0 0.32301709761150521 -0.2972128627914089 0 0.3171485971304504 -0.30589952111326829 0 0.31208952779935789 -0.2908419387292881 0 0.32894302133540282 -0.28710755170783531 0 0.31611371382327402 -0.28007222207304999 0 0.31208952779935789 -0.2908419387292881 0 0.32894302133540282 -0.28710755170783531 0 0.32301709761150521 -0.2972128627914089 0 0.31208952779935789 -0.2908419387292881 0 0.32894302133540282 -0.28710755170783531 0 0.31208952779935789 -0.2908419387292881 0 0.32894302133540282 -0.28710755170783531 0 0.32245882367699719 -0.26895751187574157 0 0.32894302133540282 -0.28710755170783531 0 0.31611371382327402 -0.28007222207304999 0 0.32245882367699719 -0.26895751187574157 0 0.31611371382327402 -0.28007222207304999 0 0.32245882367699719 -0.26895751187574157 0 0.30706455279928557 -0.27339796693147528 0 0.32245882367699719 -0.26895751187574157 0 0.30981211567343969 -0.26250129009931661 0 0.30706455279928557 -0.27339796693147528 0 0.32245882367699719 -0.26895751187574157 0 0.31597462601859122 -0.25080747204364812 0 0.32245882367699719 -0.26895751187574157 0 0.31597462601859122 -0.25080747204364812 0 0.30981211567343969 -0.26250129009931661 0 0.32245882367699719 -0.26895751187574157 0 0.31597462601859122 -0.25080747204364812 0 0.33396674820841349 -0.26640759283836002 0 0.31597462601859122 -0.25080747204364812 0 0.33396674820841349 -0.26640759283836002 0 0.33517615116993849 -0.24743488902137309 0 0.33396674820841349 -0.26640759283836002 0 0.35185333732921159 -0.25428502110151557 0 0.33517615116993849 -0.24743488902137309 0 0.31597462601859122 -0.25080747204364812 0 0.33396674820841349 -0.26640759283836002 0 0.32894302133540282 -0.28710755170783531 0 0.32245882367699719 -0.26895751187574157 0 0.33396674820841349 -0.26640759283836002 0 0.33396674820841349 -0.26640759283836002 0 0.35195887039823659 -0.28200771363307098 0 0.32894302133540282 -0.28710755170783531 0 0.33396674820841349 -0.26640759283836002 0 0.35195887039823659 -0.28200771363307098 0 0.33396674820841349 -0.26640759283836002 0 0.35159414215374007 -0.26901089914998932 0 0.35195887039823659 -0.28200771363307098 0 0.35159414215374007 -0.26901089914998932 0 0.36459381448795669 -0.2792080702757721 0 0.35195887039823659 -0.28200771363307098 0 0.36459381448795669 -0.2792080702757721 0 0.35195887039823659 -0.28200771363307098 0 0.33396674820841349 -0.26640759283836002 0 0.35159414215374007 -0.26901089914998932 0 0.35185333732921159 -0.25428502110151557 0 0.35159414215374007 -0.26901089914998932 0 0.35185333732921159 -0.25428502110151557 0 0.36435388824524378 -0.26651308148643732 0 0.37477580018058132 -0.24095111383496479 0 0.37683953433427181 -0.26882153263446662 0 0.36563983252638571 -0.25462703483095822 0 0.36075586336603621 -0.2426037127049111 0 0.35185333732921159 -0.25428502110151557 0 0.36563983252638571 -0.25462703483095822 0 0.35185333732921159 -0.25428502110151557 0 0.36563983252638571 -0.25462703483095822 0 0.36435388824524378 -0.26651308148643732 0 0.37683953433427181 -0.26882153263446662 0 0.36563983252638571 -0.25462703483095822 0 0.36435388824524378 -0.26651308148643732 0 0.36459381448795669 -0.2792080702757721 0 0.36308990924476459 -0.28048364807874221 0 0.35195887039823659 -0.28200771363307098 0 0.36459381448795669 -0.2792080702757721 0 0.36308990924476459 -0.28048364807874221 0 0.37273728942595791 -0.27740364396778311 0 0.36459381448795669 -0.2792080702757721 0 0.36308990924476459 -0.28048364807874221 0 0.35159414215374007 -0.26901089914998932 0 0.36459381448795669 -0.2792080702757721 0 0.36435388824524378 -0.26651308148643732 0 0.37683953433427181 -0.26882153263446662 0 0.36459381448795669 -0.2792080702757721 0 0.36435388824524378 -0.26651308148643732 0 0.36459381448795669 -0.2792080702757721 0 0.37273728942595791 -0.27740364396778311 0 0.37683953433427181 -0.26882153263446662 0 0.36459381448795669 -0.2792080702757721 0 0.37273728942595791 -0.27740364396778311 0 0.37683953433427181 -0.26882153263446662 0 0.36459381448795669 -0.2792080702757721 0 0.36308990924476459 -0.28048364807874221 0 0.37273728942595791 -0.27740364396778311 0 0.37795999762798671 -0.28395322059410122 0 0.37273728942595791 -0.27740364396778311 0 0.36936745264149701 -0.28627283508716472 0 0.35657459314761941 -0.2860097891906741 0 0.35620629985463748 -0.30371251724464648 0 0.37101427446782781 -0.29852975601036341 0 0.36308990924476459 -0.28048364807874221 0 0.37273728942595791 -0.27740364396778311 0 0.36936745264149701 -0.28627283508716472 0 0.37519981906117678 -0.29055939022370142 0 0.37795999762798671 -0.28395322059410122 0 0.36936745264149701 -0.28627283508716472 0 0.37519981906117678 -0.29055939022370142 0 0.36936745264149701 -0.28627283508716472 0 0.37101427446782781 -0.29852975601036341 0 0.36936745264149701 -0.28627283508716472 0 0.35657459314761941 -0.2860097891906741 0 0.37101427446782781 -0.29852975601036341 0 0.35657459314761941 -0.2860097891906741 0 0.37101427446782781 -0.29852975601036341 0 0.36308990924476459 -0.28048364807874221 0 0.36936745264149701 -0.28627283508716472 0 0.35657459314761941 -0.2860097891906741 0 0.36308990924476459 -0.28048364807874221 0 0.35657459314761941 -0.2860097891906741 0 0.36308990924476459 -0.28048364807874221 0 0.35366972758071469 -0.28349111722646431 0 0.33463237856908817 -0.28956894479377399 0 0.35366972758071469 -0.28349111722646431 0 0.33463237856908817 -0.28956894479377399 0 0.35366972758071469 -0.28349111722646431 0 0.35195887039823659 -0.28200771363307098 0 0.36308990924476459 -0.28048364807874221 0 0.35366972758071469 -0.28349111722646431 0 0.35195887039823659 -0.28200771363307098 0 0.33485830675890288 -0.30442904333306592 0 0.35657459314761941 -0.2860097891906741 0 0.36308990924476459 -0.28048364807874221 0 0.35366972758071469 -0.28349111722646431 0 0.35657459314761941 -0.2860097891906741 0 0.33463237856908817 -0.28956894479377399 0 0.35366972758071469 -0.28349111722646431 0 0.35657459314761941 -0.2860097891906741 0 0.35366972758071469 -0.28349111722646431 0 0.35657459314761941 -0.2860097891906741 0 0.35366972758071469 -0.28349111722646431 0 0.35195887039823659 -0.28200771363307098 0 0.35620629985463748 -0.30371251724464648 0 0.36380134767337091 -0.31365371592763602 0 0.34533870308018377 -0.31598934501886372 0 0.35657459314761941 -0.2860097891906741 0 0.34824447571033601 -0.30253517369681238 0 0.35620629985463748 -0.30371251724464648 0 0.33485830675890288 -0.30442904333306592 0 0.35657459314761941 -0.2860097891906741 0 0.34824447571033601 -0.30253517369681238 0 0.34824447571033601 -0.30253517369681238 0 0.35620629985463748 -0.30371251724464648 0 0.34533870308018377 -0.31598934501886372 0 0.38545395578803499 -0.31104972283005378 0 0.37101427446782781 -0.29852975601036341 0 0.36380134767337091 -0.31365371592763602 0 0.35620629985463748 -0.30371251724464648 0 0.37101427446782781 -0.29852975601036341 0 0.36380134767337091 -0.31365371592763602 0 0.38545395578803499 -0.31104972283005378 0 0.36380134767337091 -0.31365371592763602 0 0.36945761595668469 -0.32738841673247931 0 0.36380134767337091 -0.31365371592763602 0 0.36945761595668469 -0.32738841673247931 0 0.35533723689285712 -0.32525253772940937 0 0.36945761595668469 -0.32738841673247931 0 0.35618710249729552 -0.34088690244721892 0 0.35533723689285712 -0.32525253772940937 0 0.36945761595668469 -0.32738841673247931 0 0.35618710249729552 -0.34088690244721892 0 0.37368731816096312 -0.34897020548070451 0 0.35618710249729552 -0.34088690244721892 0 0.33810128782584858 -0.35072533414536311 0 0.34064131712366241 -0.33181983138849169 0 0.35618710249729552 -0.34088690244721892 0 0.35533723689285712 -0.32525253772940937 0 0.34064131712366241 -0.33181983138849169 0 0.34533870308018377 -0.31598934501886372 0 0.35533723689285712 -0.32525253772940937 0 0.34064131712366241 -0.33181983138849169 0 0.36380134767337091 -0.31365371592763602 0 0.34533870308018377 -0.31598934501886372 0 0.35533723689285712 -0.32525253772940937 0 0.3689120952668708 -0.37284951495870189 0 0.37368731816096312 -0.34897020548070451 0 0.35738528973841999 -0.35772904562383351 0 0.35618710249729552 -0.34088690244721892 0 0.37368731816096312 -0.34897020548070451 0 0.35738528973841999 -0.35772904562383351 0 0.35618710249729552 -0.34088690244721892 0 0.35738528973841999 -0.35772904562383351 0 0.33810128782584858 -0.35072533414536311 0 0.35738528973841999 -0.35772904562383351 0 0.34467783115022588 -0.37252705130409253 0 0.33810128782584858 -0.35072533414536311 0 0.3689120952668708 -0.37284951495870189 0 0.35738528973841999 -0.35772904562383351 0 0.34467783115022588 -0.37252705130409253 0 0.34467783115022588 -0.37252705130409253 0 0.33810128782584858 -0.35072533414536311 0 0.3255374248820434 -0.37161020359421471 0 0.31543696134246668 -0.34593224431305769 0 0.3255374248820434 -0.37161020359421471 0 0.30900602422585888 -0.35865430802761772 0 0.31543696134246668 -0.34593224431305769 0 0.3255374248820434 -0.37161020359421471 0 0.33810128782584858 -0.35072533414536311 0 0.31543696134246668 -0.34593224431305769 0 0.3255374248820434 -0.37161020359421471 0 0.3255374248820434 -0.37161020359421471 0 0.30525369772634148 -0.37164386163485291 0 0.30900602422585888 -0.35865430802761772 0 0.34533870308018377 -0.31598934501886372 0 0.33130220335757699 -0.32186248444176119 0 0.34064131712366241 -0.33181983138849169 0 0.33485830675890288 -0.30442904333306592 0 0.34533870308018377 -0.31598934501886372 0 0.33130220335757699 -0.32186248444176119 0 0.33810128782584858 -0.35072533414536311 0 0.34064131712366241 -0.33181983138849169 0 0.3268430880468266 -0.33457206034663262 0 0.33130220335757699 -0.32186248444176119 0 0.34064131712366241 -0.33181983138849169 0 0.3268430880468266 -0.33457206034663262 0 0.31543696134246668 -0.34593224431305769 0 0.3268430880468266 -0.33457206034663262 0 0.31314202037018413 -0.32284829747545468 0 0.33810128782584858 -0.35072533414536311 0 0.31543696134246668 -0.34593224431305769 0 0.3268430880468266 -0.33457206034663262 0 0.33130220335757699 -0.32186248444176119 0 0.3268430880468266 -0.33457206034663262 0 0.31314202037018413 -0.32284829747545468 0 0.33485830675890288 -0.30442904333306592 0 0.31314202037018413 -0.32284829747545468 0 0.3171485971304504 -0.30589952111326829 0 0.31314202037018413 -0.32284829747545468 0 0.3109911447756647 -0.31350988965823029 0 0.33485830675890288 -0.30442904333306592 0 0.33130220335757699 -0.32186248444176119 0 0.31314202037018413 -0.32284829747545468 0 0.31314202037018413 -0.32284829747545468 0 0.30533649780288991 -0.32025428503190068 0 0.3109911447756647 -0.31350988965823029 0 0.30533649780288991 -0.32025428503190068 0 0.3109911447756647 -0.31350988965823029 0 0.30833746379913463 -0.30503745501229762 0 0.31543696134246668 -0.34593224431305769 0 0.30533649780288991 -0.32025428503190068 0 0.30314188851555429 -0.3464145030398364 0 0.30533649780288991 -0.32025428503190068 0 0.29792146783109758 -0.32077626486014349 0 0.30314188851555429 -0.3464145030398364 0 0.31543696134246668 -0.34593224431305769 0 0.31314202037018413 -0.32284829747545468 0 0.30533649780288991 -0.32025428503190068 0 0.29792146783109758 -0.32077626486014349 0 0.30314188851555429 -0.3464145030398364 0 0.31543696134246668 -0.34593224431305769 0 0.30533649780288991 -0.32025428503190068 0 0.29792146783109758 -0.32077626486014349 0 0.29422135484035322 -0.33366994296298719 0 0.30314188851555429 -0.3464145030398364 0 0.29422135484035322 -0.33366994296298719 0 0.29546103181119637 -0.34185893253319311 0 0.30314188851555429 -0.3464145030398364 0 0.29422135484035322 -0.33366994296298719 0 0.29546103181119637 -0.34185893253319311 0 0.28827175492889229 -0.34275780055790278 0 0.29546103181119637 -0.34185893253319311 0 0.28827175492889229 -0.34275780055790278 0 0.29811044553331972 -0.34650788457159087 0 0.29422135484035322 -0.33366994296298719 0 0.28827175492889229 -0.34275780055790278 0 0.27955848846152698 -0.33666113426449551 0 0.29422135484035322 -0.33366994296298719 0 0.28744860979629389 -0.32474860906702402 0 0.27955848846152698 -0.33666113426449551 0 0.28744860979629389 -0.32474860906702402 0 0.29019889155513462 -0.31620785207956748 0 0.28097437988070417 -0.31138482246715898 0 0.29792146783109758 -0.32077626486014349 0 0.29019889155513462 -0.31620785207956748 0 0.29244758100571983 -0.32385066724243061 0 0.29422135484035322 -0.33366994296298719 0 0.28744860979629389 -0.32474860906702402 0 0.29244758100571983 -0.32385066724243061 0 0.29792146783109758 -0.32077626486014349 0 0.29422135484035322 -0.33366994296298719 0 0.29244758100571983 -0.32385066724243061 0 0.28744860979629389 -0.32474860906702402 0 0.29019889155513462 -0.31620785207956748 0 0.29244758100571983 -0.32385066724243061 0 0.30525369772634148 -0.37164386163485291 0 0.30031449930387721 -0.36082981960256849 0 0.30900602422585888 -0.35865430802761772 0 0.30525369772634148 -0.37164386163485291 0 0.30031449930387721 -0.36082981960256849 0 0.29483415024835152 -0.36747827247447862 0 0.30080593951138668 -0.35381036279877531 0 0.30900602422585888 -0.35865430802761772 0 0.30314188851555429 -0.3464145030398364 0 0.30080593951138668 -0.35381036279877531 0 0.29811044553331972 -0.34650788457159087 0 0.29345683997832372 -0.35664529875226292 0 0.30031449930387721 -0.36082981960256849 0 0.30080593951138668 -0.35381036279877531 0 0.30900602422585888 -0.35865430802761772 0 0.30031449930387721 -0.36082981960256849 0 0.30080593951138668 -0.35381036279877531 0 0.29345683997832372 -0.35664529875226292 0 0.31543696134246668 -0.34593224431305769 0 0.30900602422585888 -0.35865430802761772 0 0.30314188851555429 -0.3464145030398364 0 0.30080593951138668 -0.35381036279877531 0 0.30314188851555429 -0.3464145030398364 0 0.29811044553331972 -0.34650788457159087 0 0.29546103181119637 -0.34185893253319311 0 0.30314188851555429 -0.3464145030398364 0 0.29811044553331972 -0.34650788457159087 0 0.29811044553331972 -0.34650788457159087 0 0.29345683997832372 -0.35664529875226292 0 0.28122462644821988 -0.35688066365974619 0 0.28827175492889229 -0.34275780055790278 0 0.29811044553331972 -0.34650788457159087 0 0.28122462644821988 -0.35688066365974619 0 0.28827175492889229 -0.34275780055790278 0 0.28122462644821988 -0.35688066365974619 0 0.27955848846152698 -0.33666113426449551 0 0.29811044553331972 -0.34650788457159087 0 0.28122462644821988 -0.35688066365974619 0 0.29345683997832372 -0.35664529875226292 0 0.28676543400443838 -0.36101512068260139 0 0.28122462644821988 -0.35688066365974619 0 0.28676543400443838 -0.36101512068260139 0 0.28122462644821988 -0.35688066365974619 0 0.28783989868818821 -0.37644057584389279 0 0.30525369772634148 -0.37164386163485291 0 0.29483415024835152 -0.36747827247447862 0 0.28783989868818821 -0.37644057584389279 0 0.28676543400443838 -0.36101512068260139 0 0.27033126349110148 -0.36357234067652822 0 0.29357505063040601 -0.36145191270551408 0 0.28676543400443838 -0.36101512068260139 0 0.29483415024835152 -0.36747827247447862 0 0.30031449930387721 -0.36082981960256849 0 0.29357505063040601 -0.36145191270551408 0 0.29483415024835152 -0.36747827247447862 0 0.30031449930387721 -0.36082981960256849 0 0.29345683997832372 -0.35664529875226292 0 0.29357505063040601 -0.36145191270551408 0 0.29345683997832372 -0.35664529875226292 0 0.29357505063040601 -0.36145191270551408 0 0.28676543400443838 -0.36101512068260139 0 0.28783989868818821 -0.37644057584389279 0 0.28676543400443838 -0.36101512068260139 0 0.29483415024835152 -0.36747827247447862 0 0.28783989868818821 -0.37644057584389279 0 0.27033126349110148 -0.36357234067652822 0 0.28783989868818821 -0.37644057584389279 0 0.27447250226623809 -0.37821124143188289 0 0.27033126349110148 -0.36357234067652822 0 0.28676543400443838 -0.36101512068260139 0 0.27033126349110148 -0.36357234067652822 0 0.28122462644821988 -0.35688066365974619 0 0.27447250226623809 -0.37821124143188289 0 0.26423397132697279 -0.37890457124200982 0 0.27033126349110148 -0.36357234067652822 0 0.27033126349110148 -0.36357234067652822 0 0.28122462644821988 -0.35688066365974619 0 0.28122462644821988 -0.35688066365974619 0 0.26082083375001269 -0.34165569813656432 0 0.27033126349110148 -0.36357234067652822 0 0.28122462644821988 -0.35688066365974619 0 0.26082083375001269 -0.34165569813656432 0 0.28122462644821988 -0.35688066365974619 0 0.27955848846152698 -0.33666113426449551 0 0.26082083375001269 -0.34165569813656432 0 0.27033126349110148 -0.36357234067652822 0 0.25099839141978419 -0.34936335514031408 0 0.27033126349110148 -0.36357234067652822 0 0.25099839141978419 -0.34936335514031408 0 0.26082083375001269 -0.34165569813656432 0 0.27033126349110148 -0.36357234067652822 0 0.25099839141978419 -0.34936335514031408 0 0.24534349961555019 -0.36253701182870851 0 0.26423397132697279 -0.37890457124200982 0 0.27033126349110148 -0.36357234067652822 0 0.24987622704845311 -0.37613765202982719 0 0.27033126349110148 -0.36357234067652822 0 0.24534349961555019 -0.36253701182870851 0 0.24987622704845311 -0.37613765202982719 0 0.27033126349110148 -0.36357234067652822 0 0.24987622704845311 -0.37613765202982719 0 0.28744860979629389 -0.32474860906702402 0 0.26598899428458778 -0.32103793389256657 0 0.27955848846152698 -0.33666113426449551 0 0.28744860979629389 -0.32474860906702402 0 0.26598899428458778 -0.32103793389256657 0 0.28097437988070417 -0.31138482246715898 0 0.26598899428458778 -0.32103793389256657 0 0.27955848846152698 -0.33666113426449551 0 0.26082083375001269 -0.34165569813656432 0 0.26082083375001269 -0.34165569813656432 0 0.2404170410518052 -0.32643073261338312 0 0.26598899428458778 -0.32103793389256657 0 0.26082083375001269 -0.34165569813656432 0 0.2404170410518052 -0.32643073261338312 0 0.25099839141978419 -0.34936335514031408 0 0.26082083375001269 -0.34165569813656432 0 0.2404170410518052 -0.32643073261338312 0 0.26598899428458778 -0.32103793389256657 0 0.24423538898563429 -0.30587701823941071 0 0.2404170410518052 -0.32643073261338312 0 0.26846821806613752 -0.30050752245993012 0 0.24423538898563429 -0.30587701823941071 0 0.25301376652256202 -0.2892367573709661 0 0.26846821806613752 -0.30050752245993012 0 0.24423538898563429 -0.30587701823941071 0 0.26598899428458778 -0.32103793389256657 0 0.26846821806613752 -0.30050752245993012 0 0.24423538898563429 -0.30587701823941071 0 0.25301376652256202 -0.2892367573709661 0 0.26500420865911251 -0.28331687632378699 0 0.26846821806613752 -0.30050752245993012 0 0.25301376652256202 -0.2892367573709661 0 0.26500420865911251 -0.28331687632378699 0 0.2507153324002197 -0.27704953531328702 0 0.26500420865911251 -0.28331687632378699 0 0.27805302037335089 -0.28584974436810762 0 0.26846821806613752 -0.30050752245993012 0 0.27805302037335089 -0.28584974436810762 0 0.26846821806613752 -0.30050752245993012 0 0.29270104714664102 -0.29513802668045069 0 0.26500420865911251 -0.28331687632378699 0 0.27805302037335089 -0.28584974436810762 0 0.27342558025451552 -0.27498979272208851 0 0.26598899428458778 -0.32103793389256657 0 0.26846821806613752 -0.30050752245993012 0 0.28097437988070417 -0.31138482246715898 0 0.26846821806613752 -0.30050752245993012 0 0.28097437988070417 -0.31138482246715898 0 0.29270104714664102 -0.29513802668045069 0 0.26846821806613752 -0.30050752245993012 0 0.29270104714664102 -0.29513802668045069 0 0.29792146783109758 -0.32077626486014349 0 0.29270104714664102 -0.29513802668045069 0 0.29019889155513462 -0.31620785207956748 0 0.28097437988070417 -0.31138482246715898 0 0.29270104714664102 -0.29513802668045069 0 0.29792146783109758 -0.32077626486014349 0 0.29019889155513462 -0.31620785207956748 0 0.29270104714664102 -0.29513802668045069 0 0.29792146783109758 -0.32077626486014349 0 0.29270104714664102 -0.29513802668045069 0 0.29523603426331357 -0.29457632575074338 0 0.27805302037335089 -0.28584974436810762 0 0.29026987947112831 -0.28319821192468808 0 0.29270104714664102 -0.29513802668045069 0 0.27805302037335089 -0.28584974436810762 0 0.29026987947112831 -0.28319821192468808 0 0.28863308206368682 -0.27515966401439529 0 0.29026987947112831 -0.28319821192468808 0 0.29523603426331357 -0.29457632575074338 0 0.29026987947112831 -0.28319821192468808 0 0.29523603426331357 -0.29457632575074338 0 0.30320790951940702 -0.28313078900162059 0 0.29026987947112831 -0.28319821192468808 0 0.29270104714664102 -0.29513802668045069 0 0.29523603426331357 -0.29457632575074338 0 0.29026987947112831 -0.28319821192468808 0 0.29270104714664102 -0.29513802668045069 0 0.29270104714664102 -0.29513802668045069 0 0.29523603426331357 -0.29457632575074338 0 0.29523603426331357 -0.29457632575074338 0 0.31208952779935789 -0.2908419387292881 0 0.29523603426331357 -0.29457632575074338 0 0.30320790951940702 -0.28313078900162059 0 0.31208952779935789 -0.2908419387292881 0 0.29523603426331357 -0.29457632575074338 0 0.31208952779935789 -0.2908419387292881 0 0.30833746379913463 -0.30503745501229762 0 0.31611371382327402 -0.28007222207304999 0 0.30320790951940702 -0.28313078900162059 0 0.31208952779935789 -0.2908419387292881 0 0.30533649780288991 -0.32025428503190068 0 0.29523603426331357 -0.29457632575074338 0 0.30833746379913463 -0.30503745501229762 0 0.30533649780288991 -0.32025428503190068 0 0.29792146783109758 -0.32077626486014349 0 0.29523603426331357 -0.29457632575074338 0 0.30533649780288991 -0.32025428503190068 0 0.29523603426331357 -0.29457632575074338 0 0.3171485971304504 -0.30589952111326829 0 0.3109911447756647 -0.31350988965823029 0 0.30833746379913463 -0.30503745501229762 0 0.29812220868357159 -0.26533402464574418 0 0.30111904597271899 -0.2536098058489899 0 0.30981211567343969 -0.26250129009931661 0 0.31597462601859122 -0.25080747204364812 0 0.30111904597271899 -0.2536098058489899 0 0.30981211567343969 -0.26250129009931661 0 0.29812220868357159 -0.26533402464574418 0 0.30981211567343969 -0.26250129009931661 0 0.30706455279928557 -0.27339796693147528 0 0.31611371382327402 -0.28007222207304999 0 0.30320790951940702 -0.28313078900162059 0 0.30706455279928557 -0.27339796693147528 0 0.29026987947112831 -0.28319821192468808 0 0.30320790951940702 -0.28313078900162059 0 0.29755036247591721 -0.27602563541609298 0 0.30320790951940702 -0.28313078900162059 0 0.30706455279928557 -0.27339796693147528 0 0.29755036247591721 -0.27602563541609298 0 0.29812220868357159 -0.26533402464574418 0 0.30706455279928557 -0.27339796693147528 0 0.29755036247591721 -0.27602563541609298 0 0.29812220868357159 -0.26533402464574418 0 0.29755036247591721 -0.27602563541609298 0 0.28863308206368682 -0.27515966401439529 0 0.29026987947112831 -0.28319821192468808 0 0.28863308206368682 -0.27515966401439529 0 0.29026987947112831 -0.28319821192468808 0 0.29755036247591721 -0.27602563541609298 0 0.28863308206368682 -0.27515966401439529 0 0.28863308206368682 -0.27515966401439529 0 0.28456511698073272 -0.25518130134833977 0 0.29812220868357159 -0.26533402464574418 0 0.28863308206368682 -0.27515966401439529 0 0.28456511698073272 -0.25518130134833977 0 0.29812220868357159 -0.26533402464574418 0 0.30111904597271899 -0.2536098058489899 0 0.28456511698073272 -0.25518130134833977 0 0.28863308206368682 -0.27515966401439529 0 0.28456511698073272 -0.25518130134833977 0 0.27223885194073971 -0.26265851400849172 0 0.28456511698073272 -0.25518130134833977 0 0.27223885194073971 -0.26265851400849172 0 0.26629969424128969 -0.25192769388052821 0 0.27223885194073971 -0.26265851400849172 0 0.26629969424128969 -0.25192769388052821 0 0.2629172406837702 -0.26740365320709081 0 0.26500420865911251 -0.28331687632378699 0 0.27342558025451552 -0.27498979272208851 0 0.2629172406837702 -0.26740365320709081 0 0.28863308206368682 -0.27515966401439529 0 0.27223885194073971 -0.26265851400849172 0 0.27342558025451552 -0.27498979272208851 0 0.27805302037335089 -0.28584974436810762 0 0.28863308206368682 -0.27515966401439529 0 0.27342558025451552 -0.27498979272208851 0 0.27223885194073971 -0.26265851400849172 0 0.27342558025451552 -0.27498979272208851 0 0.2629172406837702 -0.26740365320709081 0 0.26500420865911251 -0.28331687632378699 0 0.2629172406837702 -0.26740365320709081 0 0.2507153324002197 -0.27704953531328702 0 0.2629172406837702 -0.26740365320709081 0 0.2507153324002197 -0.27704953531328702 0 0.2466218950091964 -0.26012473444713258 0 0.25037283077400019 -0.2416092145933311 0 0.26629969424128969 -0.25192769388052821 0 0.2466218950091964 -0.26012473444713258 0 0.26629969424128969 -0.25192769388052821 0 0.2629172406837702 -0.26740365320709081 0 0.2466218950091964 -0.26012473444713258 0 0.25037283077400019 -0.2416092145933311 0 0.2466218950091964 -0.26012473444713258 0 0.2339549802858914 -0.24933471903745599 0 0.2466218950091964 -0.26012473444713258 0 0.22717476572977791 -0.26325637954660608 0 0.2339549802858914 -0.24933471903745599 0 0.2466218950091964 -0.26012473444713258 0 0.23628574795648369 -0.27498419313581679 0 0.22717476572977791 -0.26325637954660608 0 0.2507153324002197 -0.27704953531328702 0 0.2466218950091964 -0.26012473444713258 0 0.23628574795648369 -0.27498419313581679 0 0.2507153324002197 -0.27704953531328702 0 0.23628574795648369 -0.27498419313581679 0 0.24044913557019401 -0.28723099739492908 0 0.2247339410531527 -0.27667652802353632 0 0.21554844428562811 -0.26491471108287651 0 0.21653111649902579 -0.28712771180040292 0 0.23628574795648369 -0.27498419313581679 0 0.2247339410531527 -0.27667652802353632 0 0.22717476572977791 -0.26325637954660608 0 0.2247339410531527 -0.27667652802353632 0 0.22717476572977791 -0.26325637954660608 0 0.21554844428562811 -0.26491471108287651 0 0.22717476572977791 -0.26325637954660608 0 0.22331750647786899 -0.25281133177650322 0 0.2339549802858914 -0.24933471903745599 0 0.22717476572977791 -0.26325637954660608 0 0.22331750647786899 -0.25281133177650322 0 0.21554844428562811 -0.26491471108287651 0 0.2084475354763706 -0.25511513831035743 0 0.21554844428562811 -0.26491471108287651 0 0.1982966667633215 -0.26354120971092698 0 0.21554844428562811 -0.26491471108287651 0 0.21456577207223029 -0.24270171036535029 0 0.22331750647786899 -0.25281133177650322 0 0.21554844428562811 -0.26491471108287651 0 0.21456577207223029 -0.24270171036535029 0 0.2084475354763706 -0.25511513831035743 0 0.21554844428562811 -0.26491471108287651 0 0.21336353465090491 -0.24693864317134839 0 0.21554844428562811 -0.26491471108287651 0 0.21336353465090491 -0.24693864317134839 0 0.21456577207223029 -0.24270171036535029 0 0.2084475354763706 -0.25511513831035743 0 0.1982966667633215 -0.26354120971092698 0 0.2080714594183444 -0.2424179483002232 0 0.1982966667633215 -0.26354120971092698 0 0.2080714594183444 -0.2424179483002232 0 0.21554844428562811 -0.26491471108287651 0 0.21653111649902579 -0.28712771180040292 0 0.21554844428562811 -0.26491471108287651 0 0.20859607852913339 -0.28093905456482821 0 0.21653111649902579 -0.28712771180040292 0 0.21554844428562811 -0.26491471108287651 0 0.20859607852913339 -0.28093905456482821 0 0.2011380539128553 -0.27767933622792518 0 0.21554844428562811 -0.26491471108287651 0 0.2011380539128553 -0.27767933622792518 0 0.1982966667633215 -0.26354120971092698 0 0.1982966667633215 -0.26354120971092698 0 0.18852187410829821 -0.28466447112163068 0 0.1982966667633215 -0.26354120971092698 0 0.18852187410829821 -0.28466447112163068 0 0.1845366839674035 -0.26640487959885623 0 0.2011380539128553 -0.27767933622792518 0 0.1982966667633215 -0.26354120971092698 0 0.18852187410829821 -0.28466447112163068 0 0.1982966667633215 -0.26354120971092698 0 0.2080714594183444 -0.2424179483002232 0 0.19254414318066221 -0.24961624770678509 0 0.1982966667633215 -0.26354120971092698 0 0.18706352147094041 -0.25756661524031438 0 0.1845366839674035 -0.26640487959885623 0 0.1982966667633215 -0.26354120971092698 0 0.18706352147094041 -0.25756661524031438 0 0.19254414318066221 -0.24961624770678509 0 0.18706352147094041 -0.25756661524031438 0 0.19254414318066221 -0.24961624770678509 0 0.18399505531774341 -0.24981832115951039 0 0.20249447748908611 -0.29813355613580778 0 0.1976485991634879 -0.30796138879627621 0 0.19462594870140809 -0.30164723750547567 0 0.20249447748908611 -0.29813355613580778 0 0.19462594870140809 -0.30164723750547567 0 0.19392418081794471 -0.29575522021664652 0 0.20249447748908611 -0.29813355613580778 0 0.1976485991634879 -0.30796138879627621 0 0.20782414549410869 -0.30817847155873718 0 0.1976485991634879 -0.30796138879627621 0 0.20782414549410869 -0.30817847155873718 0 0.20282381327660201 -0.31505297042611552 0 0.1976485991634879 -0.30796138879627621 0 0.19009702279388629 -0.3064242775921906 0 0.18802618722583669 -0.31833181955932999 0 0.1976485991634879 -0.30796138879627621 0 0.19009702279388629 -0.3064242775921906 0 0.19462594870140809 -0.30164723750547567 0 0.19009702279388629 -0.3064242775921906 0 0.19462594870140809 -0.30164723750547567 0 0.1880606218677118 -0.30022154946313712 0 0.19462594870140809 -0.30164723750547567 0 0.19110113081553529 -0.29631368747161629 0 0.19392418081794471 -0.29575522021664652 0 0.1880606218677118 -0.30022154946313712 0 0.19110113081553529 -0.29631368747161629 0 0.18734834214976739 -0.29514628785519947 0 0.19462594870140809 -0.30164723750547567 0 0.1880606218677118 -0.30022154946313712 0 0.19110113081553529 -0.29631368747161629 0 0.20249447748908611 -0.29813355613580778 0 0.18747516626574931 -0.28692639975368628 0 0.20249447748908611 -0.29813355613580778 0 0.19392418081794471 -0.29575522021664652 0 0.18747516626574931 -0.28692639975368628 0 0.19110113081553529 -0.29631368747161629 0 0.19392418081794471 -0.29575522021664652 0 0.18747516626574931 -0.28692639975368628 0 0.19110113081553529 -0.29631368747161629 0 0.18747516626574931 -0.28692639975368628 0 0.18734834214976739 -0.29514628785519947 0 0.18852187410829821 -0.28466447112163068 0 0.19787122383615691 -0.29172525818392958 0 0.18852187410829821 -0.28466447112163068 0 0.19731262536099689 -0.28481999283041842 0 0.19787122383615691 -0.29172525818392958 0 0.18852187410829821 -0.28466447112163068 0 0.19787122383615691 -0.29172525818392958 0 0.18747516626574931 -0.28692639975368628 0 0.18852187410829821 -0.28466447112163068 0 0.18747516626574931 -0.28692639975368628 0 0.2011380539128553 -0.27767933622792518 0 0.18852187410829821 -0.28466447112163068 0 0.19731262536099689 -0.28481999283041842 0 0.201719349586677 -0.2852109057881882 0 0.19787122383615691 -0.29172525818392958 0 0.206049533411369 -0.28982701925762389 0 0.19731262536099689 -0.28481999283041842 0 0.201719349586677 -0.2852109057881882 0 0.19787122383615691 -0.29172525818392958 0 0.2011380539128553 -0.27767933622792518 0 0.19731262536099689 -0.28481999283041842 0 0.201719349586677 -0.2852109057881882 0 0.20249447748908611 -0.29813355613580778 0 0.19787122383615691 -0.29172525818392958 0 0.18747516626574931 -0.28692639975368628 0 0.20249447748908611 -0.29813355613580778 0 0.19787122383615691 -0.29172525818392958 0 0.206049533411369 -0.28982701925762389 0 0.20249447748908611 -0.29813355613580778 0 0.206049533411369 -0.28982701925762389 0 0.20903552332543929 -0.29406903275804652 0 0.206049533411369 -0.28982701925762389 0 0.20903552332543929 -0.29406903275804652 0 0.21653111649902579 -0.28712771180040292 0 0.20249447748908611 -0.29813355613580778 0 0.20903552332543929 -0.29406903275804652 0 0.2123558614978226 -0.29827812898856709 0 0.20859607852913339 -0.28093905456482821 0 0.206049533411369 -0.28982701925762389 0 0.21653111649902579 -0.28712771180040292 0 0.20859607852913339 -0.28093905456482821 0 0.201719349586677 -0.2852109057881882 0 0.206049533411369 -0.28982701925762389 0 0.20859607852913339 -0.28093905456482821 0 0.2011380539128553 -0.27767933622792518 0 0.201719349586677 -0.2852109057881882 0 0.20903552332543929 -0.29406903275804652 0 0.21653111649902579 -0.28712771180040292 0 0.2123558614978226 -0.29827812898856709 0 0.21653111649902579 -0.28712771180040292 0 0.2175137887124228 -0.30934071251792922 0 0.21653111649902579 -0.28712771180040292 0 0.2123558614978226 -0.29827812898856709 0 0.2175137887124228 -0.30934071251792922 0 0.20249447748908611 -0.29813355613580778 0 0.2123558614978226 -0.29827812898856709 0 0.2175137887124228 -0.30934071251792922 0 0.20249447748908611 -0.29813355613580778 0 0.2175137887124228 -0.30934071251792922 0 0.20782414549410869 -0.30817847155873718 0 0.2176214393273678 -0.31177412129290383 0 0.20282381327660201 -0.31505297042611552 0 0.20249447748908611 -0.29813355613580778 0 0.20782414549410869 -0.30817847155873718 0 0.2175137887124228 -0.30934071251792922 0 0.20782414549410869 -0.30817847155873718 0 0.2175137887124228 -0.30934071251792922 0 0.2176214393273678 -0.31177412129290383 0 0.2175137887124228 -0.30934071251792922 0 0.2176214393273678 -0.31177412129290383 0 0.2175137887124228 -0.30934071251792922 0 0.2176214393273678 -0.31177412129290383 0 0.21999804566891551 -0.31122614102315033 0 0.21999804566891551 -0.31122614102315033 0 0.24423538898563429 -0.30587701823941071 0 0.2175137887124228 -0.30934071251792922 0 0.21999804566891551 -0.31122614102315033 0 0.22812963079484819 -0.29309964455197901 0 0.21999804566891551 -0.31122614102315033 0 0.22812963079484819 -0.29309964455197901 0 0.21999804566891551 -0.31122614102315033 0 0.22812963079484819 -0.29309964455197901 0 0.24423538898563429 -0.30587701823941071 0 0.2176214393273678 -0.31177412129290383 0 0.21999804566891551 -0.31122614102315033 0 0.2175137887124228 -0.30934071251792922 0 0.21999804566891551 -0.31122614102315033 0 0.23628574795648369 -0.27498419313581679 0 0.22812963079484819 -0.29309964455197901 0 0.2247339410531527 -0.27667652802353632 0 0.21653111649902579 -0.28712771180040292 0 0.22812963079484819 -0.29309964455197901 0 0.23628574795648369 -0.27498419313581679 0 0.2247339410531527 -0.27667652802353632 0 0.22812963079484819 -0.29309964455197901 0 0.21653111649902579 -0.28712771180040292 0 0.2175137887124228 -0.30934071251792922 0 0.22812963079484819 -0.29309964455197901 0 0.23628574795648369 -0.27498419313581679 0 0.22812963079484819 -0.29309964455197901 0 0.24044913557019401 -0.28723099739492908 0 0.25301376652256202 -0.2892367573709661 0 0.24044913557019401 -0.28723099739492908 0 0.24423538898563429 -0.30587701823941071 0 0.22812963079484819 -0.29309964455197901 0 0.24044913557019401 -0.28723099739492908 0 0.24423538898563429 -0.30587701823941071 0 0.25301376652256202 -0.2892367573709661 0 0.2507153324002197 -0.27704953531328702 0 0.24044913557019401 -0.28723099739492908 0 0.21999804566891551 -0.31122614102315033 0 0.24423538898563429 -0.30587701823941071 0 0.2404170410518052 -0.32643073261338312 0 0.25099839141978419 -0.34936335514031408 0 0.2316655193484673 -0.33515436960409939 0 0.25099839141978419 -0.34936335514031408 0 0.2404170410518052 -0.32643073261338312 0 0.2316655193484673 -0.33515436960409939 0 0.2404170410518052 -0.32643073261338312 0 0.2316655193484673 -0.33515436960409939 0 0.2247705650129608 -0.32491873692320528 0 0.2316655193484673 -0.33515436960409939 0 0.22208049410379579 -0.34309390150507102 0 0.22867514261462599 -0.34782526071452929 0 0.2316655193484673 -0.33515436960409939 0 0.22208049410379579 -0.34309390150507102 0 0.220555537226792 -0.33578323097752499 0 0.22208049410379579 -0.34309390150507102 0 0.220555537226792 -0.33578323097752499 0 0.21451162402718699 -0.34512658597487872 0 0.220555537226792 -0.33578323097752499 0 0.2247705650129608 -0.32491873692320528 0 0.21820242441149371 -0.32490710899175251 0 0.2316655193484673 -0.33515436960409939 0 0.220555537226792 -0.33578323097752499 0 0.2247705650129608 -0.32491873692320528 0 0.21999804566891551 -0.31122614102315033 0 0.2404170410518052 -0.32643073261338312 0 0.2247705650129608 -0.32491873692320528 0 0.21999804566891551 -0.31122614102315033 0 0.2404170410518052 -0.32643073261338312 0 0.2247705650129608 -0.32491873692320528 0 0.21780935440599439 -0.31602188338433101 0 0.21820242441149371 -0.32490710899175251 0 0.21999804566891551 -0.31122614102315033 0 0.2247705650129608 -0.32491873692320528 0 0.21780935440599439 -0.31602188338433101 0 0.21999804566891551 -0.31122614102315033 0 0.21780935440599439 -0.31602188338433101 0 0.23679608458568241 -0.3713456781615978 0 0.24534349961555019 -0.36253701182870851 0 0.24987622704845311 -0.37613765202982719 0 0.23679608458568241 -0.3713456781615978 0 0.24534349961555019 -0.36253701182870851 0 0.23133102347449649 -0.35950822589080189 0 0.25099839141978419 -0.34936335514031408 0 0.2316655193484673 -0.33515436960409939 0 0.23760271529458479 -0.35087764463569071 0 0.24534349961555019 -0.36253701182870851 0 0.23760271529458479 -0.35087764463569071 0 0.23133102347449649 -0.35950822589080189 0 0.25099839141978419 -0.34936335514031408 0 0.24534349961555019 -0.36253701182870851 0 0.23760271529458479 -0.35087764463569071 0 0.2316655193484673 -0.33515436960409939 0 0.23760271529458479 -0.35087764463569071 0 0.22867514261462599 -0.34782526071452929 0 0.22208049410379579 -0.34309390150507102 0 0.22076837523631451 -0.35267920974236072 0 0.21451162402718699 -0.34512658597487872 0 0.22208049410379579 -0.34309390150507102 0 0.22867514261462599 -0.34782526071452929 0 0.22076837523631451 -0.35267920974236072 0 0.22076837523631451 -0.35267920974236072 0 0.22341137818785181 -0.36337688942730773 0 0.21609027172906259 -0.36087537471117581 0 0.22076837523631451 -0.35267920974236072 0 0.23133102347449649 -0.35950822589080189 0 0.22341137818785181 -0.36337688942730773 0 0.22867514261462599 -0.34782526071452929 0 0.22076837523631451 -0.35267920974236072 0 0.23133102347449649 -0.35950822589080189 0 0.23760271529458479 -0.35087764463569071 0 0.22867514261462599 -0.34782526071452929 0 0.23133102347449649 -0.35950822589080189 0 0.23133102347449649 -0.35950822589080189 0 0.22341137818785181 -0.36337688942730773 0 0.22699371624108439 -0.37103399677892651 0 0.22341137818785181 -0.36337688942730773 0 0.22699371624108439 -0.37103399677892651 0 0.21663927632257499 -0.37152038636996992 0 0.22699371624108439 -0.37103399677892651 0 0.21663927632257499 -0.37152038636996992 0 0.22189277223980711 -0.38054577212349588 0 0.23679608458568241 -0.3713456781615978 0 0.22699371624108439 -0.37103399677892651 0 0.23010576568282681 -0.37607478874810818 0 0.23679608458568241 -0.3713456781615978 0 0.23133102347449649 -0.35950822589080189 0 0.22699371624108439 -0.37103399677892651 0 0.21663927632257499 -0.37152038636996992 0 0.20683644217058031 -0.36558797855932218 0 0.20576161095015591 -0.37595213443190167 0 0.22341137818785181 -0.36337688942730773 0 0.21663927632257499 -0.37152038636996992 0 0.21609027172906259 -0.36087537471117581 0 0.21609027172906259 -0.36087537471117581 0 0.20683644217058031 -0.36558797855932218 0 0.21089823393406021 -0.35324530101306001 0 0.21663927632257499 -0.37152038636996992 0 0.21609027172906259 -0.36087537471117581 0 0.20683644217058031 -0.36558797855932218 0 0.19940837682496099 -0.35689206815154528 0 0.20777431361625601 -0.33831058893907762 0 0.21089823393406021 -0.35324530101306001 0 0.19940837682496099 -0.35689206815154528 0 0.20777431361625601 -0.33831058893907762 0 0.20683644217058031 -0.36558797855932218 0 0.21089823393406021 -0.35324530101306001 0 0.19940837682496099 -0.35689206815154528 0 0.22076837523631451 -0.35267920974236072 0 0.21609027172906259 -0.36087537471117581 0 0.21089823393406021 -0.35324530101306001 0 0.21089823393406021 -0.35324530101306001 0 0.21451162402718699 -0.34512658597487872 0 0.20777431361625601 -0.33831058893907762 0 0.22076837523631451 -0.35267920974236072 0 0.21089823393406021 -0.35324530101306001 0 0.21451162402718699 -0.34512658597487872 0 0.1971616983813648 -0.34495631128618592 0 0.19940837682496099 -0.35689206815154528 0 0.20777431361625601 -0.33831058893907762 0 0.1971616983813648 -0.34495631128618592 0 0.18787137947787569 -0.35180034780069419 0 0.18864170350563411 -0.33720407153827198 0 0.1971616983813648 -0.34495631128618592 0 0.18787137947787569 -0.35180034780069419 0 0.19940837682496099 -0.35689206815154528 0 0.20683644217058031 -0.36558797855932218 0 0.20576161095015591 -0.37595213443190167 0 0.1910424400336663 -0.37547354736401328 0 0.18787137947787569 -0.35180034780069419 0 0.19940837682496099 -0.35689206815154528 0 0.1910424400336663 -0.37547354736401328 0 0.19940837682496099 -0.35689206815154528 0 0.1910424400336663 -0.37547354736401328 0 0.20683644217058031 -0.36558797855932218 0 0.19940837682496099 -0.35689206815154528 0 0.1910424400336663 -0.37547354736401328 0 0.21780935440599439 -0.31602188338433101 0 0.20777431361625601 -0.33831058893907762 0 0.21780935440599439 -0.31602188338433101 0 0.20777431361625601 -0.33831058893907762 0 0.20282381327660201 -0.31505297042611552 0 0.21780935440599439 -0.31602188338433101 0 0.21820242441149371 -0.32490710899175251 0 0.20777431361625601 -0.33831058893907762 0 0.2176214393273678 -0.31177412129290383 0 0.20282381327660201 -0.31505297042611552 0 0.2176214393273678 -0.31177412129290383 0 0.21780935440599439 -0.31602188338433101 0 0.20282381327660201 -0.31505297042611552 0 0.2176214393273678 -0.31177412129290383 0 0.21780935440599439 -0.31602188338433101 0 0.2176214393273678 -0.31177412129290383 0 0.21999804566891551 -0.31122614102315033 0 0.21780935440599439 -0.31602188338433101 0 0.21780935440599439 -0.31602188338433101 0 0.21820242441149371 -0.32490710899175251 0 0.220555537226792 -0.33578323097752499 0 0.21820242441149371 -0.32490710899175251 0 0.20777431361625601 -0.33831058893907762 0 0.220555537226792 -0.33578323097752499 0 0.21451162402718699 -0.34512658597487872 0 0.20777431361625601 -0.33831058893907762 0 0.21451162402718699 -0.34512658597487872 0 0.20777431361625601 -0.33831058893907762 0 0.1971616983813648 -0.34495631128618592 0 0.20777431361625601 -0.33831058893907762 0 0.18864170350563411 -0.33720407153827198 0 0.20777431361625601 -0.33831058893907762 0 0.18802618722583669 -0.31833181955932999 0 0.20777431361625601 -0.33831058893907762 0 0.18864170350563411 -0.33720407153827198 0 0.18802618722583669 -0.31833181955932999 0 0.20777431361625601 -0.33831058893907762 0 0.20282381327660201 -0.31505297042611552 0 0.18802618722583669 -0.31833181955932999 0 0.20282381327660201 -0.31505297042611552 0 0.18802618722583669 -0.31833181955932999 0 0.1976485991634879 -0.30796138879627621 0 0.20282381327660201 -0.31505297042611552 0 0.18802618722583669 -0.31833181955932999 0 0.18802618722583669 -0.31833181955932999 0 0.1791507244663583 -0.32983729973660558 0 0.16791254130802971 -0.3227885891963716 0 0.18802618722583669 -0.31833181955932999 0 0.17151825735526699 -0.31325416760549368 0 0.16791254130802971 -0.3227885891963716 0 0.18802618722583669 -0.31833181955932999 0 0.16791254130802971 -0.3227885891963716 0 0.18864170350563411 -0.33720407153827198 0 0.18802618722583669 -0.31833181955932999 0 0.1791507244663583 -0.32983729973660558 0 0.17202246582593331 -0.34102471865244838 0 0.1791507244663583 -0.32983729973660558 0 0.16791254130802971 -0.3227885891963716 0 0.18787137947787569 -0.35180034780069419 0 0.18864170350563411 -0.33720407153827198 0 0.17202246582593331 -0.34102471865244838 0 0.18864170350563411 -0.33720407153827198 0 0.17202246582593331 -0.34102471865244838 0 0.1791507244663583 -0.32983729973660558 0 0.17202246582593331 -0.34102471865244838 0 0.1546435437787094 -0.34381338892778002 0 0.1557586906108582 -0.32786840018592928 0 0.17202246582593331 -0.34102471865244838 0 0.16791254130802971 -0.3227885891963716 0 0.1557586906108582 -0.32786840018592928 0 0.16791254130802971 -0.3227885891963716 0 0.1557586906108582 -0.32786840018592928 0 0.1602411687519314 -0.31190927739118429 0 0.17151825735526699 -0.31325416760549368 0 0.16791254130802971 -0.3227885891963716 0 0.1602411687519314 -0.31190927739118429 0 0.18787137947787569 -0.35180034780069419 0 0.17662324672053431 -0.35795823269279659 0 0.1910424400336663 -0.37547354736401328 0 0.17662324672053431 -0.35795823269279659 0 0.17035242753357599 -0.36877211446365682 0 0.1910424400336663 -0.37547354736401328 0 0.17035242753357599 -0.36877211446365682 0 0.1910424400336663 -0.37547354736401328 0 0.1737051017910701 -0.38004230502140057 0 0.18787137947787569 -0.35180034780069419 0 0.17202246582593331 -0.34102471865244838 0 0.17662324672053431 -0.35795823269279659 0 0.17202246582593331 -0.34102471865244838 0 0.17662324672053431 -0.35795823269279659 0 0.16265844046108829 -0.35526087104265458 0 0.17202246582593331 -0.34102471865244838 0 0.16265844046108829 -0.35526087104265458 0 0.1546435437787094 -0.34381338892778002 0 0.17662324672053431 -0.35795823269279659 0 0.16265844046108829 -0.35526087104265458 0 0.17035242753357599 -0.36877211446365682 0 0.16265844046108829 -0.35526087104265458 0 0.1569593121701936 -0.36832063090657668 0 0.17035242753357599 -0.36877211446365682 0 0.1569593121701936 -0.36832063090657668 0 0.17035242753357599 -0.36877211446365682 0 0.16307541855137739 -0.37743582412871929 0 0.14536400873927011 -0.3681220756701501 0 0.1426630499740982 -0.35652090160864008 0 0.13524945632583441 -0.37311377610700652 0 0.16265844046108829 -0.35526087104265458 0 0.1569593121701936 -0.36832063090657668 0 0.1426630499740982 -0.35652090160864008 0 0.14536400873927011 -0.3681220756701501 0 0.13524945632583441 -0.37311377610700652 0 0.14973869037300869 -0.38096853745143089 0 0.1569593121701936 -0.36832063090657668 0 0.14536400873927011 -0.3681220756701501 0 0.14973869037300869 -0.38096853745143089 0 0.1569593121701936 -0.36832063090657668 0 0.14536400873927011 -0.3681220756701501 0 0.1426630499740982 -0.35652090160864008 0 0.1546435437787094 -0.34381338892778002 0 0.1426630499740982 -0.35652090160864008 0 0.1424354920479888 -0.33775294740649747 0 0.16265844046108829 -0.35526087104265458 0 0.1546435437787094 -0.34381338892778002 0 0.1426630499740982 -0.35652090160864008 0 0.13449730155472761 -0.34743155680512378 0 0.12784456261830821 -0.36308533366748658 0 0.123981461538115 -0.35128285539313481 0 0.1426630499740982 -0.35652090160864008 0 0.13449730155472761 -0.34743155680512378 0 0.1424354920479888 -0.33775294740649747 0 0.1426630499740982 -0.35652090160864008 0 0.13449730155472761 -0.34743155680512378 0 0.12784456261830821 -0.36308533366748658 0 0.13449730155472761 -0.34743155680512378 0 0.13051916655351839 -0.33696304048325831 0 0.123981461538115 -0.35128285539313481 0 0.1426630499740982 -0.35652090160864008 0 0.12784456261830821 -0.36308533366748658 0 0.13524945632583441 -0.37311377610700652 0 0.12784456261830821 -0.36308533366748658 0 0.13524945632583441 -0.37311377610700652 0 0.12609635470998201 -0.38402791619100712 0 0.14855409589738661 -0.31441038212804873 0 0.1557586906108582 -0.32786840018592928 0 0.1602411687519314 -0.31190927739118429 0 0.1445015266660287 -0.32337949759917511 0 0.14855409589738661 -0.31441038212804873 0 0.13871327718005111 -0.31332369293528212 0 0.1445015266660287 -0.32337949759917511 0 0.14855409589738661 -0.31441038212804873 0 0.1557586906108582 -0.32786840018592928 0 0.1546435437787094 -0.34381338892778002 0 0.1557586906108582 -0.32786840018592928 0 0.1424354920479888 -0.33775294740649747 0 0.1445015266660287 -0.32337949759917511 0 0.1557586906108582 -0.32786840018592928 0 0.1424354920479888 -0.33775294740649747 0 0.1445015266660287 -0.32337949759917511 0 0.1424354920479888 -0.33775294740649747 0 0.13219802669416811 -0.32498852212276208 0 0.1424354920479888 -0.33775294740649747 0 0.13051916655351839 -0.33696304048325831 0 0.13219802669416811 -0.32498852212276208 0 0.13449730155472761 -0.34743155680512378 0 0.1424354920479888 -0.33775294740649747 0 0.13051916655351839 -0.33696304048325831 0 0.13051916655351839 -0.33696304048325831 0 0.13219802669416811 -0.32498852212276208 0 0.12260601330919629 -0.33072698382653798 0 0.1445015266660287 -0.32337949759917511 0 0.13219802669416811 -0.32498852212276208 0 0.13871327718005111 -0.31332369293528212 0 0.13219802669416811 -0.32498852212276208 0 0.1265219532001009 -0.3124330460259736 0 0.1192961391526948 -0.32261879728377291 0 0.13219802669416811 -0.32498852212276208 0 0.13871327718005111 -0.31332369293528212 0 0.1265219532001009 -0.3124330460259736 0 0.1265219532001009 -0.3124330460259736 0 0.1332586495603032 -0.30031372317270688 0 0.1198701537204314 -0.30089140532399938 0 0.1332586495603032 -0.30031372317270688 0 0.1242383748246253 -0.29131174999725179 0 0.1198701537204314 -0.30089140532399938 0 0.13871327718005111 -0.31332369293528212 0 0.1265219532001009 -0.3124330460259736 0 0.1332586495603032 -0.30031372317270688 0 0.13871327718005111 -0.31332369293528212 0 0.1332586495603032 -0.30031372317270688 0 0.147245411062319 -0.30441698656302629 0 0.14855409589738661 -0.31441038212804873 0 0.13871327718005111 -0.31332369293528212 0 0.147245411062319 -0.30441698656302629 0 0.147245411062319 -0.30441698656302629 0 0.15432967412725099 -0.29846298066074151 0 0.14327492933615671 -0.29425024746867751 0 0.1332586495603032 -0.30031372317270688 0 0.147245411062319 -0.30441698656302629 0 0.14327492933615671 -0.29425024746867751 0 0.147245411062319 -0.30441698656302629 0 0.15432967412725099 -0.29846298066074151 0 0.1602411687519314 -0.31190927739118429 0 0.14855409589738661 -0.31441038212804873 0 0.147245411062319 -0.30441698656302629 0 0.1602411687519314 -0.31190927739118429 0 0.15432967412725099 -0.29846298066074151 0 0.1517600770447052 -0.28164214899084639 0 0.14327492933615671 -0.29425024746867751 0 0.1517600770447052 -0.28164214899084639 0 0.14327492933615671 -0.29425024746867751 0 0.13646338677899769 -0.28546266283427663 0 0.1332586495603032 -0.30031372317270688 0 0.14327492933615671 -0.29425024746867751 0 0.13646338677899769 -0.28546266283427663 0 0.1332586495603032 -0.30031372317270688 0 0.13646338677899769 -0.28546266283427663 0 0.1242383748246253 -0.29131174999725179 0 0.13646338677899769 -0.28546266283427663 0 0.1233023238440631 -0.28097148456094378 0 0.1242383748246253 -0.29131174999725179 0 0.1517600770447052 -0.28164214899084639 0 0.13646338677899769 -0.28546266283427663 0 0.1311170075682456 -0.27142576198599933 0 0.1517600770447052 -0.28164214899084639 0 0.1311170075682456 -0.27142576198599933 0 0.1364827709165429 -0.26618641562940759 0 0.13646338677899769 -0.28546266283427663 0 0.1311170075682456 -0.27142576198599933 0 0.1233023238440631 -0.28097148456094378 0 0.1311170075682456 -0.27142576198599933 0 0.1364827709165429 -0.26618641562940759 0 0.1212054647883809 -0.25073068226796852 0 0.1364827709165429 -0.26618641562940759 0 0.13217397618885759 -0.25462043987800831 0 0.1212054647883809 -0.25073068226796852 0 0.1364827709165429 -0.26618641562940759 0 0.1212054647883809 -0.25073068226796852 0 0.1364827709165429 -0.26618641562940759 0 0.13217397618885759 -0.25462043987800831 0 0.14275904560399111 -0.25945725309375861 0 0.13217397618885759 -0.25462043987800831 0 0.1429630926125974 -0.2502577086919005 0 0.14275904560399111 -0.25945725309375861 0 0.1429630926125974 -0.2502577086919005 0 0.16574248336044761 -0.26746108990676593 0 0.1429630926125974 -0.2502577086919005 0 0.15128247879849499 -0.26292486595599002 0 0.16574248336044761 -0.26746108990676593 0 0.1429630926125974 -0.2502577086919005 0 0.16574248336044761 -0.26746108990676593 0 0.16001236861667459 -0.2513654190734112 0 0.1429630926125974 -0.2502577086919005 0 0.14275904560399111 -0.25945725309375861 0 0.15128247879849499 -0.26292486595599002 0 0.1364827709165429 -0.26618641562940759 0 0.14275904560399111 -0.25945725309375861 0 0.15128247879849499 -0.26292486595599002 0 0.1517600770447052 -0.28164214899084639 0 0.1364827709165429 -0.26618641562940759 0 0.15128247879849499 -0.26292486595599002 0 0.1517600770447052 -0.28164214899084639 0 0.15128247879849499 -0.26292486595599002 0 0.15776774232478771 -0.26956647822523339 0 0.1517600770447052 -0.28164214899084639 0 0.1311170075682456 -0.27142576198599933 0 0.1517600770447052 -0.28164214899084639 0 0.1364827709165429 -0.26618641562940759 0 0.1517600770447052 -0.28164214899084639 0 0.16209364730358741 -0.27452888323759039 0 0.16594555478614451 -0.28284233368471318 0 0.1517600770447052 -0.28164214899084639 0 0.16209364730358741 -0.27452888323759039 0 0.15776774232478771 -0.26956647822523339 0 0.16209364730358741 -0.27452888323759039 0 0.15776774232478771 -0.26956647822523339 0 0.16574248336044761 -0.26746108990676593 0 0.15128247879849499 -0.26292486595599002 0 0.15776774232478771 -0.26956647822523339 0 0.16574248336044761 -0.26746108990676593 0 0.16209364730358741 -0.27452888323759039 0 0.16574248336044761 -0.26746108990676593 0 0.16920230535812411 -0.27329149954452342 0 0.16209364730358741 -0.27452888323759039 0 0.16920230535812411 -0.27329149954452342 0 0.16594555478614451 -0.28284233368471318 0 0.16920230535812411 -0.27329149954452342 0 0.1710222018321049 -0.28124575318360368 0 0.16594555478614451 -0.28284233368471318 0 0.16574248336044761 -0.26746108990676593 0 0.16001236861667459 -0.2513654190734112 0 0.16988601458932601 -0.2589500224365659 0 0.16574248336044761 -0.26746108990676593 0 0.16988601458932601 -0.2589500224365659 0 0.17628584543496439 -0.26683535894776161 0 0.16001236861667459 -0.2513654190734112 0 0.16988601458932601 -0.2589500224365659 0 0.16978669848249819 -0.25098739912941831 0 0.1767458594742066 -0.25730285456071711 0 0.17619278994504239 -0.24587918172992959 0 0.18399505531774341 -0.24981832115951039 0 0.16978669848249819 -0.25098739912941831 0 0.1767458594742066 -0.25730285456071711 0 0.17619278994504239 -0.24587918172992959 0 0.16988601458932601 -0.2589500224365659 0 0.16978669848249819 -0.25098739912941831 0 0.1767458594742066 -0.25730285456071711 0 0.16988601458932601 -0.2589500224365659 0 0.1767458594742066 -0.25730285456071711 0 0.17628584543496439 -0.26683535894776161 0 0.1767458594742066 -0.25730285456071711 0 0.17628584543496439 -0.26683535894776161 0 0.1845366839674035 -0.26640487959885623 0 0.1767458594742066 -0.25730285456071711 0 0.18706352147094041 -0.25756661524031438 0 0.1845366839674035 -0.26640487959885623 0 0.1767458594742066 -0.25730285456071711 0 0.18706352147094041 -0.25756661524031438 0 0.18399505531774341 -0.24981832115951039 0 0.18852187410829821 -0.28466447112163068 0 0.17628584543496439 -0.26683535894776161 0 0.1845366839674035 -0.26640487959885623 0 0.18852187410829821 -0.28466447112163068 0 0.16574248336044761 -0.26746108990676593 0 0.18852187410829821 -0.28466447112163068 0 0.16574248336044761 -0.26746108990676593 0 0.17628584543496439 -0.26683535894776161 0 0.16920230535812411 -0.27329149954452342 0 0.18747516626574931 -0.28692639975368628 0 0.17602993407772211 -0.2832030986568283 0 0.18852187410829821 -0.28466447112163068 0 0.16574248336044761 -0.26746108990676593 0 0.16920230535812411 -0.27329149954452342 0 0.16920230535812411 -0.27329149954452342 0 0.18747516626574931 -0.28692639975368628 0 0.16920230535812411 -0.27329149954452342 0 0.1710222018321049 -0.28124575318360368 0 0.17602993407772211 -0.2832030986568283 0 0.18747516626574931 -0.28692639975368628 0 0.1806905449634813 -0.28832929748571318 0 0.17602993407772211 -0.2832030986568283 0 0.18852187410829821 -0.28466447112163068 0 0.16920230535812411 -0.27329149954452342 0 0.18747516626574931 -0.28692639975368628 0 0.18747516626574931 -0.28692639975368628 0 0.1806905449634813 -0.28832929748571318 0 0.18301660310609241 -0.29114958545392738 0 0.17291101310642881 -0.28564608084835003 0 0.17864991096044419 -0.29495009963706692 0 0.16594555478614451 -0.28284233368471318 0 0.1806905449634813 -0.28832929748571318 0 0.17602993407772211 -0.2832030986568283 0 0.17673138357400531 -0.28840876668861409 0 0.17602993407772211 -0.2832030986568283 0 0.17673138357400531 -0.28840876668861409 0 0.17291101310642881 -0.28564608084835003 0 0.1710222018321049 -0.28124575318360368 0 0.17602993407772211 -0.2832030986568283 0 0.17291101310642881 -0.28564608084835003 0 0.17673138357400531 -0.28840876668861409 0 0.17291101310642881 -0.28564608084835003 0 0.17864991096044419 -0.29495009963706692 0 0.17673138357400531 -0.28840876668861409 0 0.17909088347012619 -0.29088019083727579 0 0.17864991096044419 -0.29495009963706692 0 0.1806905449634813 -0.28832929748571318 0 0.17673138357400531 -0.28840876668861409 0 0.17909088347012619 -0.29088019083727579 0 0.17909088347012619 -0.29088019083727579 0 0.17864991096044419 -0.29495009963706692 0 0.18114425154506539 -0.29221912984395187 0 0.18747516626574931 -0.28692639975368628 0 0.18734834214976739 -0.29514628785519947 0 0.1827564496500734 -0.29712351473235832 0 0.18747516626574931 -0.28692639975368628 0 0.18301660310609241 -0.29114958545392738 0 0.1827564496500734 -0.29712351473235832 0 0.18114425154506539 -0.29221912984395187 0 0.18301660310609241 -0.29114958545392738 0 0.1827564496500734 -0.29712351473235832 0 0.17864991096044419 -0.29495009963706692 0 0.18114425154506539 -0.29221912984395187 0 0.1827564496500734 -0.29712351473235832 0 0.18747516626574931 -0.28692639975368628 0 0.1827564496500734 -0.29712351473235832 0 0.1806905449634813 -0.28832929748571318 0 0.18114425154506539 -0.29221912984395187 0 0.18301660310609241 -0.29114958545392738 0 0.1806905449634813 -0.28832929748571318 0 0.17909088347012619 -0.29088019083727579 0 0.18114425154506539 -0.29221912984395187 0 0.18802618722583669 -0.31833181955932999 0 0.18221347423979239 -0.30458962683289892 0 0.1698931321352706 -0.29998698427508858 0 0.1880606218677118 -0.30022154946313712 0 0.18734834214976739 -0.29514628785519947 0 0.1827564496500734 -0.29712351473235832 0 0.19009702279388629 -0.3064242775921906 0 0.1880606218677118 -0.30022154946313712 0 0.18221347423979239 -0.30458962683289892 0 0.18802618722583669 -0.31833181955932999 0 0.17151825735526699 -0.31325416760549368 0 0.1698931321352706 -0.29998698427508858 0 0.1880606218677118 -0.30022154946313712 0 0.18221347423979239 -0.30458962683289892 0 0.1827564496500734 -0.29712351473235832 0 0.18802618722583669 -0.31833181955932999 0 0.1698931321352706 -0.29998698427508858 0 0.17864991096044419 -0.29495009963706692 0 0.1827564496500734 -0.29712351473235832 0 0.17837824174639511 -0.29916255636935318 0 0.18221347423979239 -0.30458962683289892 0 0.1827564496500734 -0.29712351473235832 0 0.17837824174639511 -0.29916255636935318 0 0.19009702279388629 -0.3064242775921906 0 0.18802618722583669 -0.31833181955932999 0 0.18221347423979239 -0.30458962683289892 0 0.18221347423979239 -0.30458962683289892 0 0.17837824174639511 -0.29916255636935318 0 0.1698931321352706 -0.29998698427508858 0 0.17864991096044419 -0.29495009963706692 0 0.17837824174639511 -0.29916255636935318 0 0.1698931321352706 -0.29998698427508858 0 0.17151825735526699 -0.31325416760549368 0 0.1698931321352706 -0.29998698427508858 0 0.1602411687519314 -0.31190927739118429 0 0.15432967412725099 -0.29846298066074151 0 0.1698931321352706 -0.29998698427508858 0 0.1602411687519314 -0.31190927739118429 0 0.1517600770447052 -0.28164214899084639 0 0.17864991096044419 -0.29495009963706692 0 0.1698931321352706 -0.29998698427508858 0 0.1517600770447052 -0.28164214899084639 0 0.1698931321352706 -0.29998698427508858 0 0.15432967412725099 -0.29846298066074151 0 0.1517600770447052 -0.28164214899084639 0 0.1698931321352706 -0.29998698427508858 0 0.1517600770447052 -0.28164214899084639 0 0.17864991096044419 -0.29495009963706692 0 0.1517600770447052 -0.28164214899084639 0 0.17864991096044419 -0.29495009963706692 0 0.16594555478614451 -0.28284233368471318 0 0.1710222018321049 -0.28124575318360368 0 0.17291101310642881 -0.28564608084835003 0 0.16594555478614451 -0.28284233368471318 0 0.21438456257476449 -0.5 0 0.2048745361024723 -0.48472171768082351 0 0.18744203257390391 -0.5 0 0.19122796324104871 -0.48466606029959602 0 0.2048745361024723 -0.48472171768082351 0 0.18744203257390391 -0.5 0 0.19122796324104871 -0.48466606029959602 0 0.20365346230900849 -0.47086657296764728 0 0.1938641377332887 -0.4633108835168005 0 0.19122796324104871 -0.48466606029959602 0 0.20365346230900849 -0.47086657296764728 0 0.2048745361024723 -0.48472171768082351 0 0.21766866328091511 -0.47157360957620892 0 0.2048745361024723 -0.48472171768082351 0 0.22288060450936709 -0.48400008360299168 0 0.20365346230900849 -0.47086657296764728 0 0.21766866328091511 -0.47157360957620892 0 0.2048745361024723 -0.48472171768082351 0 0.21438456257476449 -0.5 0 0.2048745361024723 -0.48472171768082351 0 0.22288060450936709 -0.48400008360299168 0 0.21438456257476449 -0.5 0 0.23633351028628971 -0.48712361601618398 0 0.2413270925756249 -0.5 0 0.21438456257476449 -0.5 0 0.23633351028628971 -0.48712361601618398 0 0.22288060450936709 -0.48400008360299168 0 0.25270961841775552 -0.48460016746525392 0 0.23633351028628971 -0.48712361601618398 0 0.2413270925756249 -0.5 0 0.25270961841775552 -0.48460016746525392 0 0.23633351028628971 -0.48712361601618398 0 0.23949561189523169 -0.47426551941090739 0 0.23949561189523169 -0.47426551941090739 0 0.22288060450936709 -0.48400008360299168 0 0.22545312399173489 -0.46028769725088831 0 0.21766866328091511 -0.47157360957620892 0 0.22288060450936709 -0.48400008360299168 0 0.22545312399173489 -0.46028769725088831 0 0.23633351028628971 -0.48712361601618398 0 0.23949561189523169 -0.47426551941090739 0 0.22288060450936709 -0.48400008360299168 0 0.22288060450936709 -0.48400008360299168 0 0.22545312399173489 -0.46028769725088831 0 0.21766866328091511 -0.47157360957620892 0 0.22545312399173489 -0.46028769725088831 0 0.2186728293425339 -0.44755637628226819 0 0.2588368117714554 -0.46700690363883102 0 0.23949561189523169 -0.47426551941090739 0 0.2409729068143365 -0.46262444708906358 0 0.22545312399173489 -0.46028769725088831 0 0.2409729068143365 -0.46262444708906358 0 0.24480843210435321 -0.45079661158300749 0 0.2588368117714554 -0.46700690363883102 0 0.2409729068143365 -0.46262444708906358 0 0.24480843210435321 -0.45079661158300749 0 0.23949561189523169 -0.47426551941090739 0 0.22545312399173489 -0.46028769725088831 0 0.2409729068143365 -0.46262444708906358 0 0.24480843210435321 -0.45079661158300749 0 0.22802564347410281 -0.43657531089878487 0 0.2418992233321238 -0.43333026798624508 0 0.25513396950241118 -0.43290986753561628 0 0.24480843210435321 -0.45079661158300749 0 0.2418992233321238 -0.43333026798624508 0 0.22545312399173489 -0.46028769725088831 0 0.22802564347410281 -0.43657531089878487 0 0.2186728293425339 -0.44755637628226819 0 0.21246462128442831 -0.43168381348743168 0 0.22802564347410281 -0.43657531089878487 0 0.22545312399173489 -0.46028769725088831 0 0.2186728293425339 -0.44755637628226819 0 0.22802564347410281 -0.43657531089878487 0 0.22545312399173489 -0.46028769725088831 0 0.24480843210435321 -0.45079661158300749 0 0.22802564347410281 -0.43657531089878487 0 0.20442019459899149 -0.44533796874460208 0 0.2186728293425339 -0.44755637628226819 0 0.21246462128442831 -0.43168381348743168 0 0.21766866328091511 -0.47157360957620892 0 0.20442019459899149 -0.44533796874460208 0 0.21766866328091511 -0.47157360957620892 0 0.20442019459899149 -0.44533796874460208 0 0.2186728293425339 -0.44755637628226819 0 0.20365346230900849 -0.47086657296764728 0 0.21766866328091511 -0.47157360957620892 0 0.20442019459899149 -0.44533796874460208 0 0.20365346230900849 -0.47086657296764728 0 0.20442019459899149 -0.44533796874460208 0 0.1938641377332887 -0.4633108835168005 0 0.20442019459899149 -0.44533796874460208 0 0.18484232774876749 -0.43033534366960768 0 0.18590039067086719 -0.44115637567916172 0 0.20442019459899149 -0.44533796874460208 0 0.18923595964957429 -0.45067509688328122 0 0.18590039067086719 -0.44115637567916172 0 0.20442019459899149 -0.44533796874460208 0 0.1938641377332887 -0.4633108835168005 0 0.18923595964957429 -0.45067509688328122 0 0.20442019459899149 -0.44533796874460208 0 0.1911717259170673 -0.41910232791299562 0 0.20473537155931409 -0.42802668409371708 0 0.20442019459899149 -0.44533796874460208 0 0.1911717259170673 -0.41910232791299562 0 0.20442019459899149 -0.44533796874460208 0 0.1911717259170673 -0.41910232791299562 0 0.18484232774876749 -0.43033534366960768 0 0.1911717259170673 -0.41910232791299562 0 0.21088494443676881 -0.41598262622983972 0 0.20473537155931409 -0.42802668409371708 0 0.18851111772050869 -0.41383358608972459 0 0.208966154163157 -0.40126827473642579 0 0.1911717259170673 -0.41910232791299562 0 0.21088494443676881 -0.41598262622983972 0 0.1911717259170673 -0.41910232791299562 0 0.18851111772050869 -0.41383358608972459 0 0.21088494443676881 -0.41598262622983972 0 0.18851111772050869 -0.41383358608972459 0 0.21088494443676881 -0.41598262622983972 0 0.208966154163157 -0.40126827473642579 0 0.1911717259170673 -0.41910232791299562 0 0.18851111772050869 -0.41383358608972459 0 0.21088494443676881 -0.41598262622983972 0 0.22155668588658281 -0.40529615173032069 0 0.208966154163157 -0.40126827473642579 0 0.21088494443676881 -0.41598262622983972 0 0.20473537155931409 -0.42802668409371708 0 0.21246462128442831 -0.43168381348743168 0 0.21088494443676881 -0.41598262622983972 0 0.21246462128442831 -0.43168381348743168 0 0.21959695705502991 -0.42408781639437282 0 0.20442019459899149 -0.44533796874460208 0 0.20473537155931409 -0.42802668409371708 0 0.21246462128442831 -0.43168381348743168 0 0.21246462128442831 -0.43168381348743168 0 0.21959695705502991 -0.42408781639437282 0 0.22802564347410281 -0.43657531089878487 0 0.22802564347410281 -0.43657531089878487 0 0.23614533994983331 -0.4244462479719151 0 0.23059816295646979 -0.4128629245466815 0 0.22802564347410281 -0.43657531089878487 0 0.23059816295646979 -0.4128629245466815 0 0.21959695705502991 -0.42408781639437282 0 0.22802564347410281 -0.43657531089878487 0 0.23059816295646979 -0.4128629245466815 0 0.22802564347410281 -0.43657531089878487 0 0.2418992233321238 -0.43333026798624508 0 0.23614533994983331 -0.4244462479719151 0 0.2418992233321238 -0.43333026798624508 0 0.23614533994983331 -0.4244462479719151 0 0.2453827316299185 -0.42192330194190181 0 0.25513396950241118 -0.43290986753561628 0 0.2418992233321238 -0.43333026798624508 0 0.2453827316299185 -0.42192330194190181 0 0.256136481120742 -0.41447562176841068 0 0.2453827316299185 -0.42192330194190181 0 0.24629253832767661 -0.41022035877505542 0 0.2453827316299185 -0.42192330194190181 0 0.24629253832767661 -0.41022035877505542 0 0.2366098857920339 -0.41191154353144788 0 0.23614533994983331 -0.4244462479719151 0 0.2366098857920339 -0.41191154353144788 0 0.23059816295646979 -0.4128629245466815 0 0.23614533994983331 -0.4244462479719151 0 0.2453827316299185 -0.42192330194190181 0 0.2366098857920339 -0.41191154353144788 0 0.24629253832767661 -0.41022035877505542 0 0.2366098857920339 -0.41191154353144788 0 0.2422505545635501 -0.40276464775944387 0 0.21088494443676881 -0.41598262622983972 0 0.23059816295646979 -0.4128629245466815 0 0.2366098857920339 -0.41191154353144788 0 0.23059816295646979 -0.4128629245466815 0 0.23156745731421779 -0.4039283829592023 0 0.23059816295646979 -0.4128629245466815 0 0.22155668588658281 -0.40529615173032069 0 0.23156745731421779 -0.4039283829592023 0 0.23059816295646979 -0.4128629245466815 0 0.23156745731421779 -0.4039283829592023 0 0.21088494443676881 -0.41598262622983972 0 0.23059816295646979 -0.4128629245466815 0 0.22155668588658281 -0.40529615173032069 0 0.21088494443676881 -0.41598262622983972 0 0.21959695705502991 -0.42408781639437282 0 0.23059816295646979 -0.4128629245466815 0 0.2366098857920339 -0.41191154353144788 0 0.23059816295646979 -0.4128629245466815 0 0.22155668588658281 -0.40529615173032069 0 0.22942119060580499 -0.38870296338312649 0 0.208966154163157 -0.40126827473642579 0 0.22155668588658281 -0.40529615173032069 0 0.23156745731421779 -0.4039283829592023 0 0.22942119060580499 -0.38870296338312649 0 0.22942119060580499 -0.38870296338312649 0 0.208966154163157 -0.40126827473642579 0 0.23156745731421779 -0.4039283829592023 0 0.24309899287842279 -0.39271330151873202 0 0.2422505545635501 -0.40276464775944387 0 0.2366098857920339 -0.41191154353144788 0 0.23156745731421779 -0.4039283829592023 0 0.2422505545635501 -0.40276464775944387 0 0.23156745731421779 -0.4039283829592023 0 0.24309899287842279 -0.39271330151873202 0 0.22942119060580499 -0.38870296338312649 0 0.25108303853213881 -0.40002667887407228 0 0.24629253832767661 -0.41022035877505542 0 0.2422505545635501 -0.40276464775944387 0 0.25108303853213881 -0.40002667887407228 0 0.24309899287842279 -0.39271330151873202 0 0.2422505545635501 -0.40276464775944387 0 0.24987622704845311 -0.37613765202982719 0 0.22942119060580499 -0.38870296338312649 0 0.24309899287842279 -0.39271330151873202 0 0.24987622704845311 -0.37613765202982719 0 0.22942119060580499 -0.38870296338312649 0 0.24987622704845311 -0.37613765202982719 0 0.23474048966473349 -0.38137370792841258 0 0.22942119060580499 -0.38870296338312649 0 0.25687819372407023 -0.38903915957053298 0 0.24309899287842279 -0.39271330151873202 0 0.24987622704845311 -0.37613765202982719 0 0.23679608458568241 -0.3713456781615978 0 0.24987622704845311 -0.37613765202982719 0 0.23474048966473349 -0.38137370792841258 0 0.23474048966473349 -0.38137370792841258 0 0.23010576568282681 -0.37607478874810818 0 0.22189277223980711 -0.38054577212349588 0 0.23474048966473349 -0.38137370792841258 0 0.22189277223980711 -0.38054577212349588 0 0.20961824525516401 -0.3936281247522696 0 0.23474048966473349 -0.38137370792841258 0 0.22942119060580499 -0.38870296338312649 0 0.20961824525516401 -0.3936281247522696 0 0.23679608458568241 -0.3713456781615978 0 0.23474048966473349 -0.38137370792841258 0 0.23010576568282681 -0.37607478874810818 0 0.23474048966473349 -0.38137370792841258 0 0.20961824525516401 -0.3936281247522696 0 0.22699371624108439 -0.37103399677892651 0 0.23010576568282681 -0.37607478874810818 0 0.22189277223980711 -0.38054577212349588 0 0.21663927632257499 -0.37152038636996992 0 0.22189277223980711 -0.38054577212349588 0 0.21119602619295649 -0.38157571206759561 0 0.21663927632257499 -0.37152038636996992 0 0.21119602619295649 -0.38157571206759561 0 0.20576161095015591 -0.37595213443190167 0 0.21119602619295649 -0.38157571206759561 0 0.20576161095015591 -0.37595213443190167 0 0.20229958674085519 -0.38616776423662919 0 0.21119602619295649 -0.38157571206759561 0 0.20961824525516401 -0.3936281247522696 0 0.20229958674085519 -0.38616776423662919 0 0.22189277223980711 -0.38054577212349588 0 0.21119602619295649 -0.38157571206759561 0 0.20961824525516401 -0.3936281247522696 0 0.22942119060580499 -0.38870296338312649 0 0.208966154163157 -0.40126827473642579 0 0.20961824525516401 -0.3936281247522696 0 0.20961824525516401 -0.3936281247522696 0 0.18449600084559339 -0.40588254157612419 0 0.20961824525516401 -0.3936281247522696 0 0.19262774622386039 -0.39991289132556063 0 0.20229958674085519 -0.38616776423662919 0 0.18851111772050869 -0.41383358608972459 0 0.20961824525516401 -0.3936281247522696 0 0.18449600084559339 -0.40588254157612419 0 0.19262774622386039 -0.39991289132556063 0 0.193172237845981 -0.38760648281860499 0 0.20229958674085519 -0.38616776423662919 0 0.20961824525516401 -0.3936281247522696 0 0.19262774622386039 -0.39991289132556063 0 0.18449600084559339 -0.40588254157612419 0 0.18851111772050869 -0.41383358608972459 0 0.208966154163157 -0.40126827473642579 0 0.20961824525516401 -0.3936281247522696 0 0.19262774622386039 -0.39991289132556063 0 0.18963514604776821 -0.39361523539988952 0 0.193172237845981 -0.38760648281860499 0 0.19262774622386039 -0.39991289132556063 0 0.18963514604776821 -0.39361523539988952 0 0.18221634088723479 -0.40136818287387582 0 0.18963514604776821 -0.39361523539988952 0 0.193172237845981 -0.38760648281860499 0 0.18267650324237161 -0.39405502657648112 0 0.193172237845981 -0.38760648281860499 0 0.1910424400336663 -0.37547354736401328 0 0.18267650324237161 -0.39405502657648112 0 0.20576161095015591 -0.37595213443190167 0 0.1910424400336663 -0.37547354736401328 0 0.20229958674085519 -0.38616776423662919 0 0.193172237845981 -0.38760648281860499 0 0.1910424400336663 -0.37547354736401328 0 0.20229958674085519 -0.38616776423662919 0 0.1910424400336663 -0.37547354736401328 0 0.17822948803450961 -0.38676940160015832 0 0.1737051017910701 -0.38004230502140057 0 0.1910424400336663 -0.37547354736401328 0 0.18267650324237161 -0.39405502657648112 0 0.1910424400336663 -0.37547354736401328 0 0.17822948803450961 -0.38676940160015832 0 0.18267650324237161 -0.39405502657648112 0 0.17822948803450961 -0.38676940160015832 0 0.17910183421640119 -0.39520059623836468 0 0.1646215608890387 -0.38907553280053181 0 0.17822948803450961 -0.38676940160015832 0 0.1737051017910701 -0.38004230502140057 0 0.1646215608890387 -0.38907553280053181 0 0.17822948803450961 -0.38676940160015832 0 0.18267650324237161 -0.39405502657648112 0 0.17910183421640119 -0.39520059623836468 0 0.18221634088723479 -0.40136818287387582 0 0.17910183421640119 -0.39520059623836468 0 0.15805845094365739 -0.40474493864538458 0 0.18963514604776821 -0.39361523539988952 0 0.18267650324237161 -0.39405502657648112 0 0.18221634088723479 -0.40136818287387582 0 0.18267650324237161 -0.39405502657648112 0 0.18221634088723479 -0.40136818287387582 0 0.17910183421640119 -0.39520059623836468 0 0.18221634088723479 -0.40136818287387582 0 0.17910183421640119 -0.39520059623836468 0 0.19262774622386039 -0.39991289132556063 0 0.18221634088723479 -0.40136818287387582 0 0.19262774622386039 -0.39991289132556063 0 0.18449600084559339 -0.40588254157612419 0 0.18221634088723479 -0.40136818287387582 0 0.18449600084559339 -0.40588254157612419 0 0.18221634088723479 -0.40136818287387582 0 0.17910183421640119 -0.39520059623836468 0 0.15805845094365739 -0.40474493864538458 0 0.1646215608890387 -0.38907553280053181 0 0.18221634088723479 -0.40136818287387582 0 0.15805845094365739 -0.40474493864538458 0 0.15805845094365739 -0.40474493864538458 0 0.1646215608890387 -0.38907553280053181 0 0.14706277844018539 -0.39464292458295508 0 0.1737051017910701 -0.38004230502140057 0 0.1646215608890387 -0.38907553280053181 0 0.16307541855137739 -0.37743582412871929 0 0.17035242753357599 -0.36877211446365682 0 0.1737051017910701 -0.38004230502140057 0 0.16307541855137739 -0.37743582412871929 0 0.1569593121701936 -0.36832063090657668 0 0.16307541855137739 -0.37743582412871929 0 0.14973869037300869 -0.38096853745143089 0 0.1646215608890387 -0.38907553280053181 0 0.16307541855137739 -0.37743582412871929 0 0.14973869037300869 -0.38096853745143089 0 0.1646215608890387 -0.38907553280053181 0 0.14973869037300869 -0.38096853745143089 0 0.14706277844018539 -0.39464292458295508 0 0.14973869037300869 -0.38096853745143089 0 0.1375772795987745 -0.38493757303029391 0 0.14706277844018539 -0.39464292458295508 0 0.13524945632583441 -0.37311377610700652 0 0.14973869037300869 -0.38096853745143089 0 0.1375772795987745 -0.38493757303029391 0 0.13524945632583441 -0.37311377610700652 0 0.1375772795987745 -0.38493757303029391 0 0.12609635470998201 -0.38402791619100712 0 0.1375772795987745 -0.38493757303029391 0 0.12609635470998201 -0.38402791619100712 0 0.13569313113510631 -0.39589912548093298 0 0.12645644117523869 -0.39722706905544619 0 0.13569313113510631 -0.39589912548093298 0 0.1339005610000801 -0.40812169441689322 0 0.12645644117523869 -0.39722706905544619 0 0.1339005610000801 -0.40812169441689322 0 0.1250254850364893 -0.40936224001308058 0 0.12609635470998201 -0.38402791619100712 0 0.12645644117523869 -0.39722706905544619 0 0.13569313113510631 -0.39589912548093298 0 0.1375772795987745 -0.38493757303029391 0 0.13569313113510631 -0.39589912548093298 0 0.14706277844018539 -0.39464292458295508 0 0.13569313113510631 -0.39589912548093298 0 0.14706277844018539 -0.39464292458295508 0 0.1339005610000801 -0.40812169441689322 0 0.13569313113510631 -0.39589912548093298 0 0.1339005610000801 -0.40812169441689322 0 0.15805845094365739 -0.40474493864538458 0 0.14706277844018539 -0.39464292458295508 0 0.1339005610000801 -0.40812169441689322 0 0.15805845094365739 -0.40474493864538458 0 0.1339005610000801 -0.40812169441689322 0 0.15805845094365739 -0.40474493864538458 0 0.15398562739609989 -0.414436145328195 0 0.14500783119440661 -0.41410657591589572 0 0.15805845094365739 -0.40474493864538458 0 0.14500783119440661 -0.41410657591589572 0 0.1339005610000801 -0.40812169441689322 0 0.15398562739609989 -0.414436145328195 0 0.15088002640467921 -0.42009116626417142 0 0.14500783119440661 -0.41410657591589572 0 0.15088002640467921 -0.42009116626417142 0 0.15979138776423191 -0.42406840149736191 0 0.15636365466176849 -0.41960526040447821 0 0.15398562739609989 -0.414436145328195 0 0.15088002640467921 -0.42009116626417142 0 0.15636365466176849 -0.41960526040447821 0 0.15088002640467921 -0.42009116626417142 0 0.14500783119440661 -0.41410657591589572 0 0.14354831806896931 -0.42663893719234869 0 0.14500783119440661 -0.41410657591589572 0 0.1339005610000801 -0.40812169441689322 0 0.13212255532719441 -0.42024495614079282 0 0.14500783119440661 -0.41410657591589572 0 0.13212255532719441 -0.42024495614079282 0 0.14354831806896931 -0.42663893719234869 0 0.1339005610000801 -0.40812169441689322 0 0.13212255532719441 -0.42024495614079282 0 0.13212255532719441 -0.42024495614079282 0 0.1250254850364893 -0.40936224001308058 0 0.117866085899093 -0.41583132647739651 0 0.13212255532719441 -0.42024495614079282 0 0.1250254850364893 -0.40936224001308058 0 0.1339005610000801 -0.40812169441689322 0 0.13212255532719441 -0.42024495614079282 0 0.1250254850364893 -0.40936224001308058 0 0.1339005610000801 -0.40812169441689322 0 0.1250254850364893 -0.40936224001308058 0 0.13212255532719441 -0.42024495614079282 0 0.14354831806896931 -0.42663893719234869 0 0.1460535583969573 -0.44160689079445481 0 0.13212255532719441 -0.42024495614079282 0 0.128223579302082 -0.44682997076052833 0 0.13212255532719441 -0.42024495614079282 0 0.128223579302082 -0.44682997076052833 0 0.1159996351348133 -0.43474120747525058 0 0.13212255532719441 -0.42024495614079282 0 0.1460535583969573 -0.44160689079445481 0 0.13212255532719441 -0.42024495614079282 0 0.1460535583969573 -0.44160689079445481 0 0.128223579302082 -0.44682997076052833 0 0.15088002640467921 -0.42009116626417142 0 0.14354831806896931 -0.42663893719234869 0 0.15979138776423191 -0.42406840149736191 0 0.14354831806896931 -0.42663893719234869 0 0.15979138776423191 -0.42406840149736191 0 0.14354831806896931 -0.42663893719234869 0 0.15423293294423909 -0.43386412417913311 0 0.1460535583969573 -0.44160689079445481 0 0.14354831806896931 -0.42663893719234869 0 0.15423293294423909 -0.43386412417913311 0 0.15979138776423191 -0.42406840149736191 0 0.15423293294423909 -0.43386412417913311 0 0.16088991666547389 -0.43196094602310392 0 0.16557730454712019 -0.44172028084172121 0 0.1713980071398 -0.42434598792645378 0 0.15979138776423191 -0.42406840149736191 0 0.1760344574594947 -0.42149786580237669 0 0.15423293294423909 -0.43386412417913311 0 0.16088991666547389 -0.43196094602310392 0 0.15979138776423191 -0.42406840149736191 0 0.15979138776423191 -0.42406840149736191 0 0.1760344574594947 -0.42149786580237669 0 0.16626302434537371 -0.43076979168845952 0 0.17509911994716071 -0.43336510097506958 0 0.16557730454712019 -0.44172028084172121 0 0.16088991666547389 -0.43196094602310392 0 0.16626302434537371 -0.43076979168845952 0 0.16557730454712019 -0.44172028084172121 0 0.16626302434537371 -0.43076979168845952 0 0.1713980071398 -0.42434598792645378 0 0.17509911994716071 -0.43336510097506958 0 0.16626302434537371 -0.43076979168845952 0 0.1713980071398 -0.42434598792645378 0 0.15979138776423191 -0.42406840149736191 0 0.16088991666547389 -0.43196094602310392 0 0.16626302434537371 -0.43076979168845952 0 0.15979138776423191 -0.42406840149736191 0 0.15636365466176849 -0.41960526040447821 0 0.16176651730702801 -0.41283252991975622 0 0.17042982775368151 -0.41274390099030239 0 0.18221634088723479 -0.40136818287387582 0 0.15805845094365739 -0.40474493864538458 0 0.17042982775368151 -0.41274390099030239 0 0.15979138776423191 -0.42406840149736191 0 0.15636365466176849 -0.41960526040447821 0 0.17042982775368151 -0.41274390099030239 0 0.15636365466176849 -0.41960526040447821 0 0.17042982775368151 -0.41274390099030239 0 0.15979138776423191 -0.42406840149736191 0 0.17042982775368151 -0.41274390099030239 0 0.1760344574594947 -0.42149786580237669 0 0.15398562739609989 -0.414436145328195 0 0.15636365466176849 -0.41960526040447821 0 0.16176651730702801 -0.41283252991975622 0 0.15805845094365739 -0.40474493864538458 0 0.15398562739609989 -0.414436145328195 0 0.16176651730702801 -0.41283252991975622 0 0.15805845094365739 -0.40474493864538458 0 0.16176651730702801 -0.41283252991975622 0 0.17042982775368151 -0.41274390099030239 0 0.17042982775368151 -0.41274390099030239 0 0.1760344574594947 -0.42149786580237669 0 0.17986785094481991 -0.4134894736146324 0 0.18449600084559339 -0.40588254157612419 0 0.17042982775368151 -0.41274390099030239 0 0.18449600084559339 -0.40588254157612419 0 0.18221634088723479 -0.40136818287387582 0 0.17042982775368151 -0.41274390099030239 0 0.18449600084559339 -0.40588254157612419 0 0.17042982775368151 -0.41274390099030239 0 0.17986785094481991 -0.4134894736146324 0 0.18851111772050869 -0.41383358608972459 0 0.18449600084559339 -0.40588254157612419 0 0.18851111772050869 -0.41383358608972459 0 0.18449600084559339 -0.40588254157612419 0 0.17986785094481991 -0.4134894736146324 0 0.18851111772050869 -0.41383358608972459 0 0.1760344574594947 -0.42149786580237669 0 0.1911717259170673 -0.41910232791299562 0 0.1760344574594947 -0.42149786580237669 0 0.18851111772050869 -0.41383358608972459 0 0.1760344574594947 -0.42149786580237669 0 0.17986785094481991 -0.4134894736146324 0 0.1911717259170673 -0.41910232791299562 0 0.18851111772050869 -0.41383358608972459 0 0.1760344574594947 -0.42149786580237669 0 0.1911717259170673 -0.41910232791299562 0 0.1760344574594947 -0.42149786580237669 0 0.18484232774876749 -0.43033534366960768 0 0.18484232774876749 -0.43033534366960768 0 0.17509911994716071 -0.43336510097506958 0 0.18590039067086719 -0.44115637567916172 0 0.18484232774876749 -0.43033534366960768 0 0.17509911994716071 -0.43336510097506958 0 0.17653319474121221 -0.42750765242104072 0 0.1713980071398 -0.42434598792645378 0 0.17509911994716071 -0.43336510097506958 0 0.17653319474121221 -0.42750765242104072 0 0.1760344574594947 -0.42149786580237669 0 0.18484232774876749 -0.43033534366960768 0 0.17653319474121221 -0.42750765242104072 0 0.1713980071398 -0.42434598792645378 0 0.1760344574594947 -0.42149786580237669 0 0.17653319474121221 -0.42750765242104072 0 0.1713980071398 -0.42434598792645378 0 0.1760344574594947 -0.42149786580237669 0 0.17791556380287959 -0.4455361086535346 0 0.17376504419967539 -0.46076368888843938 0 0.16557730454712019 -0.44172028084172121 0 0.17509911994716071 -0.43336510097506958 0 0.17791556380287959 -0.4455361086535346 0 0.18590039067086719 -0.44115637567916172 0 0.17509911994716071 -0.43336510097506958 0 0.17791556380287959 -0.4455361086535346 0 0.16557730454712019 -0.44172028084172121 0 0.18923595964957429 -0.45067509688328122 0 0.17791556380287959 -0.4455361086535346 0 0.18590039067086719 -0.44115637567916172 0 0.18923595964957429 -0.45067509688328122 0 0.17791556380287959 -0.4455361086535346 0 0.17376504419967539 -0.46076368888843938 0 0.1938641377332887 -0.4633108835168005 0 0.18923595964957429 -0.45067509688328122 0 0.17376504419967539 -0.46076368888843938 0 0.1938641377332887 -0.4633108835168005 0 0.17376504419967539 -0.46076368888843938 0 0.17718182015316611 -0.48165544175840053 0 0.17376504419967539 -0.46076368888843938 0 0.15550290350416551 -0.45157236434768988 0 0.1539044029471725 -0.46809795184702829 0 0.17376504419967539 -0.46076368888843938 0 0.16557730454712019 -0.44172028084172121 0 0.15550290350416551 -0.45157236434768988 0 0.15423293294423909 -0.43386412417913311 0 0.16557730454712019 -0.44172028084172121 0 0.15550290350416551 -0.45157236434768988 0 0.15423293294423909 -0.43386412417913311 0 0.15550290350416551 -0.45157236434768988 0 0.1460535583969573 -0.44160689079445481 0 0.15550290350416551 -0.45157236434768988 0 0.1460535583969573 -0.44160689079445481 0 0.14153074802588431 -0.45654190970348868 0 0.1460535583969573 -0.44160689079445481 0 0.128223579302082 -0.44682997076052833 0 0.14153074802588431 -0.45654190970348868 0 0.128223579302082 -0.44682997076052833 0 0.12432460327697011 -0.47341498538026422 0 0.128223579302082 -0.44682997076052833 0 0.14153074802588431 -0.45654190970348868 0 0.12432460327697011 -0.47341498538026422 0 0.1539044029471725 -0.46809795184702829 0 0.14153074802588431 -0.45654190970348868 0 0.12432460327697011 -0.47341498538026422 0 0.15550290350416551 -0.45157236434768988 0 0.1539044029471725 -0.46809795184702829 0 0.14153074802588431 -0.45654190970348868 0 0.1539044029471725 -0.46809795184702829 0 0.15048103374274721 -0.48484579871078243 0 0.12432460327697011 -0.47341498538026422 0 0.1404625649124509 -0.5 0 0.15048103374274721 -0.48484579871078243 0 0.12432460327697011 -0.47341498538026422 0 0.1404625649124509 -0.5 0 0.12042562725185831 -0.49999999999999989 0 0.12432460327697011 -0.47341498538026422 0 0.1404625649124509 -0.5 0 0.15048103374274721 -0.48484579871078243 0 0.16049950257304349 -0.50000000000000033 0 0.16049950257304349 -0.50000000000000033 0 0.17718182015316611 -0.48165544175840053 0 0.15048103374274721 -0.48484579871078243 0 0.16049950257304349 -0.50000000000000033 0 0.17718182015316611 -0.48165544175840053 0 0.17376504419967539 -0.46076368888843938 0 0.1539044029471725 -0.46809795184702829 0 0.17718182015316611 -0.48165544175840053 0 0.1539044029471725 -0.46809795184702829 0 0.15048103374274721 -0.48484579871078243 0 0.17718182015316611 -0.48165544175840053 0 0.1938641377332887 -0.4633108835168005 0 0.17718182015316611 -0.48165544175840053 0 0.19122796324104871 -0.48466606029959602 0 0.1938641377332887 -0.4633108835168005 0 0.17718182015316611 -0.48165544175840053 0 0.16049950257304349 -0.50000000000000033 0 0.17718182015316611 -0.48165544175840053 0 0.18744203257390391 -0.5 0 0.19122796324104871 -0.48466606029959602 0 0.17718182015316611 -0.48165544175840053 0 0.18744203257390391 -0.5 0 0.072018957471098571 -0.48629524479662273 0 0.069142552082564368 -0.5 0 0.082735946582200875 -0.4892045976485363 0 0.072018957471098571 -0.48629524479662273 0 0.079568506083734697 -0.4785915255016745 0 0.082735946582200875 -0.4892045976485363 0 0.072018957471098571 -0.48629524479662273 0 0.062670741706174135 -0.48944359682069549 0 0.064881374578912687 -0.4815757870058418 0 0.072018957471098571 -0.48629524479662273 0 0.069142552082564368 -0.5 0 0.062670741706174135 -0.48944359682069549 0 0.073180054077148754 -0.46968413697177741 0 0.079568506083734697 -0.4785915255016745 0 0.081395248040860374 -0.46160025678040811 0 0.067447632246636219 -0.45716428258124142 0 0.05849497948899289 -0.47642287528831911 0 0.061758178687080389 -0.47580514524370598 0 0.072018957471098571 -0.48629524479662273 0 0.064881374578912687 -0.4815757870058418 0 0.070673492561877091 -0.4782128222507579 0 0.064881374578912687 -0.4815757870058418 0 0.066280053791524171 -0.47680462027284459 0 0.061758178687080389 -0.47580514524370598 0 0.064881374578912687 -0.4815757870058418 0 0.066280053791524171 -0.47680462027284459 0 0.070673492561877091 -0.4782128222507579 0 0.066280053791524171 -0.47680462027284459 0 0.067807169338226503 -0.47162472659107291 0 0.061758178687080389 -0.47580514524370598 0 0.066280053791524171 -0.47680462027284459 0 0.067807169338226503 -0.47162472659107291 0 0.070673492561877091 -0.4782128222507579 0 0.067807169338226503 -0.47162472659107291 0 0.073180054077148754 -0.46968413697177741 0 0.070673492561877091 -0.4782128222507579 0 0.073180054077148754 -0.46968413697177741 0 0.070673492561877091 -0.4782128222507579 0 0.079568506083734697 -0.4785915255016745 0 0.072018957471098571 -0.48629524479662273 0 0.070673492561877091 -0.4782128222507579 0 0.079568506083734697 -0.4785915255016745 0 0.096876661376123455 -0.48080012839020431 0 0.081395248040860374 -0.46160025678040811 0 0.096876661376123455 -0.48080012839020431 0 0.095349939854524335 -0.46404107218864848 0 0.081395248040860374 -0.46160025678040811 0 0.079568506083734697 -0.4785915255016745 0 0.082735946582200875 -0.4892045976485363 0 0.096876661376123455 -0.48080012839020431 0 0.079568506083734697 -0.4785915255016745 0 0.096876661376123455 -0.48080012839020431 0 0.081395248040860374 -0.46160025678040811 0 0.090750313396975479 -0.5 0 0.082735946582200875 -0.4892045976485363 0 0.096876661376123455 -0.48080012839020431 0 0.069142552082564368 -0.5 0 0.090750313396975479 -0.5 0 0.082735946582200875 -0.4892045976485363 0 0.1123580747113867 -0.50000000000000033 0 0.1124728586670535 -0.48406595427175642 0 0.096876661376123455 -0.48080012839020431 0 0.090750313396975479 -0.5 0 0.1123580747113867 -0.50000000000000033 0 0.096876661376123455 -0.48080012839020431 0 0.1123580747113867 -0.50000000000000033 0 0.096876661376123455 -0.48080012839020431 0 0.1123580747113867 -0.50000000000000033 0 0.12042562725185831 -0.49999999999999989 0 0.1124728586670535 -0.48406595427175642 0 0.12042562725185831 -0.49999999999999989 0 0.1124728586670535 -0.48406595427175642 0 0.12432460327697011 -0.47341498538026422 0 0.12042562725185831 -0.49999999999999989 0 0.12432460327697011 -0.47341498538026422 0 0.1124728586670535 -0.48406595427175642 0 0.12432460327697011 -0.47341498538026422 0 0.1082250197838846 -0.46311527911574241 0 0.096876661376123455 -0.48080012839020431 0 0.095349939854524335 -0.46404107218864848 0 0.1082250197838846 -0.46311527911574241 0 0.1124728586670535 -0.48406595427175642 0 0.096876661376123455 -0.48080012839020431 0 0.1082250197838846 -0.46311527911574241 0 0.095349939854524335 -0.46404107218864848 0 0.1082250197838846 -0.46311527911574241 0 0.094902830217228867 -0.45064862446823939 0 0.128223579302082 -0.44682997076052833 0 0.12432460327697011 -0.47341498538026422 0 0.1082250197838846 -0.46311527911574241 0 0.128223579302082 -0.44682997076052833 0 0.1069391861142964 -0.44299064961396012 0 0.1159996351348133 -0.43474120747525058 0 0.128223579302082 -0.44682997076052833 0 0.1082250197838846 -0.46311527911574241 0 0.1069391861142964 -0.44299064961396012 0 0.1082250197838846 -0.46311527911574241 0 0.1069391861142964 -0.44299064961396012 0 0.094902830217228867 -0.45064862446823939 0 0.1069391861142964 -0.44299064961396012 0 0.091812697424993442 -0.4386357446441016 0 0.098414951810672224 -0.43233268446502993 0 0.1069391861142964 -0.44299064961396012 0 0.094902830217228867 -0.45064862446823939 0 0.091812697424993442 -0.4386357446441016 0 0.094902830217228867 -0.45064862446823939 0 0.091812697424993442 -0.4386357446441016 0 0.082434724511159588 -0.44537142502386151 0 0.094902830217228867 -0.45064862446823939 0 0.082434724511159588 -0.44537142502386151 0 0.081395248040860374 -0.46160025678040811 0 0.091812697424993442 -0.4386357446441016 0 0.082434724511159588 -0.44537142502386151 0 0.078149012167117934 -0.43357211405594609 0 0.095349939854524335 -0.46404107218864848 0 0.094902830217228867 -0.45064862446823939 0 0.081395248040860374 -0.46160025678040811 0 0.067447632246636219 -0.45716428258124142 0 0.065913834705597293 -0.44240038517061198 0 0.057068655694905858 -0.46015288389510001 0 0.067447632246636219 -0.45716428258124142 0 0.05849497948899289 -0.47642287528831911 0 0.067807169338226503 -0.47162472659107291 0 0.067447632246636219 -0.45716428258124142 0 0.061758178687080389 -0.47580514524370598 0 0.081395248040860374 -0.46160025678040811 0 0.067447632246636219 -0.45716428258124142 0 0.065913834705597293 -0.44240038517061198 0 0.073180054077148754 -0.46968413697177741 0 0.081395248040860374 -0.46160025678040811 0 0.067447632246636219 -0.45716428258124142 0 0.067807169338226503 -0.47162472659107291 0 0.073180054077148754 -0.46968413697177741 0 0.067447632246636219 -0.45716428258124142 0 0.081395248040860374 -0.46160025678040811 0 0.065913834705597293 -0.44240038517061198 0 0.082434724511159588 -0.44537142502386151 0 0.081395248040860374 -0.46160025678040811 0 0.065913834705597293 -0.44240038517061198 0 0.082434724511159588 -0.44537142502386151 0 0.065913834705597293 -0.44240038517061198 0 0.078149012167117934 -0.43357211405594609 0 0.065921365320016911 -0.4273577277455588 0 0.073982485551444349 -0.42005290588181732 0 0.078149012167117934 -0.43357211405594609 0 0.065913834705597293 -0.44240038517061198 0 0.065921365320016911 -0.4273577277455588 0 0.078149012167117934 -0.43357211405594609 0 0.073982485551444349 -0.42005290588181732 0 0.069775570718114244 -0.40426700169235308 0 0.060774245729122177 -0.41691050055794487 0 0.065921365320016911 -0.4273577277455588 0 0.073982485551444349 -0.42005290588181732 0 0.060774245729122177 -0.41691050055794487 0 0.073982485551444349 -0.42005290588181732 0 0.086447448161059384 -0.41120764722282821 0 0.069775570718114244 -0.40426700169235308 0 0.073982485551444349 -0.42005290588181732 0 0.086447448161059384 -0.41120764722282821 0 0.088692331433278357 -0.42535053834926723 0 0.086447448161059384 -0.41120764722282821 0 0.093827427438274241 -0.41775801958915132 0 0.099702730965631758 -0.41290181884877419 0 0.086447448161059384 -0.41120764722282821 0 0.088692331433278357 -0.42535053834926723 0 0.093827427438274241 -0.41775801958915132 0 0.088692331433278357 -0.42535053834926723 0 0.097645949564215143 -0.42435504664253748 0 0.093827427438274241 -0.41775801958915132 0 0.073982485551444349 -0.42005290588181732 0 0.088692331433278357 -0.42535053834926723 0 0.078149012167117934 -0.43357211405594609 0 0.091812697424993442 -0.4386357446441016 0 0.088692331433278357 -0.42535053834926723 0 0.078149012167117934 -0.43357211405594609 0 0.091812697424993442 -0.4386357446441016 0 0.088692331433278357 -0.42535053834926723 0 0.098414951810672224 -0.43233268446502993 0 0.098414951810672224 -0.43233268446502993 0 0.097645949564215143 -0.42435504664253748 0 0.1061961683754654 -0.43004895598907111 0 0.088692331433278357 -0.42535053834926723 0 0.098414951810672224 -0.43233268446502993 0 0.097645949564215143 -0.42435504664253748 0 0.1061961683754654 -0.43004895598907111 0 0.11152958735588871 -0.42539382439527612 0 0.1045809803654715 -0.42051706085107571 0 0.097645949564215143 -0.42435504664253748 0 0.1061961683754654 -0.43004895598907111 0 0.1045809803654715 -0.42051706085107571 0 0.1069391861142964 -0.44299064961396012 0 0.098414951810672224 -0.43233268446502993 0 0.1061961683754654 -0.43004895598907111 0 0.1061961683754654 -0.43004895598907111 0 0.1159996351348133 -0.43474120747525058 0 0.11152958735588871 -0.42539382439527612 0 0.13212255532719441 -0.42024495614079282 0 0.1159996351348133 -0.43474120747525058 0 0.11851153239627241 -0.42275952171654291 0 0.1069391861142964 -0.44299064961396012 0 0.1061961683754654 -0.43004895598907111 0 0.1159996351348133 -0.43474120747525058 0 0.1159996351348133 -0.43474120747525058 0 0.11152958735588871 -0.42539382439527612 0 0.11851153239627241 -0.42275952171654291 0 0.11152958735588871 -0.42539382439527612 0 0.11851153239627241 -0.42275952171654291 0 0.1123596205074209 -0.41890237594444008 0 0.1250254850364893 -0.40936224001308058 0 0.117866085899093 -0.41583132647739651 0 0.1096180349996463 -0.41151587164058129 0 0.1250254850364893 -0.40936224001308058 0 0.1096180349996463 -0.41151587164058129 0 0.13212255532719441 -0.42024495614079282 0 0.11851153239627241 -0.42275952171654291 0 0.117866085899093 -0.41583132647739651 0 0.117866085899093 -0.41583132647739651 0 0.1123596205074209 -0.41890237594444008 0 0.1096180349996463 -0.41151587164058129 0 0.11851153239627241 -0.42275952171654291 0 0.117866085899093 -0.41583132647739651 0 0.1123596205074209 -0.41890237594444008 0 0.11152958735588871 -0.42539382439527612 0 0.1123596205074209 -0.41890237594444008 0 0.1045809803654715 -0.42051706085107571 0 0.1123596205074209 -0.41890237594444008 0 0.1096180349996463 -0.41151587164058129 0 0.1065506547415149 -0.41613106226330793 0 0.1096180349996463 -0.41151587164058129 0 0.1065506547415149 -0.41613106226330793 0 0.099702730965631758 -0.41290181884877419 0 0.1096180349996463 -0.41151587164058129 0 0.099702730965631758 -0.41290181884877419 0 0.1096180349996463 -0.41151587164058129 0 0.099702730965631758 -0.41290181884877419 0 0.1041447551606165 -0.40305668800175581 0 0.1123596205074209 -0.41890237594444008 0 0.1065506547415149 -0.41613106226330793 0 0.1045809803654715 -0.42051706085107571 0 0.1065506547415149 -0.41613106226330793 0 0.1045809803654715 -0.42051706085107571 0 0.099702730965631758 -0.41290181884877419 0 0.1045809803654715 -0.42051706085107571 0 0.093827427438274241 -0.41775801958915132 0 0.099702730965631758 -0.41290181884877419 0 0.097645949564215143 -0.42435504664253748 0 0.1045809803654715 -0.42051706085107571 0 0.093827427438274241 -0.41775801958915132 0 0.086447448161059384 -0.41120764722282821 0 0.099702730965631758 -0.41290181884877419 0 0.095691580682652475 -0.39908469234235189 0 0.095691580682652475 -0.39908469234235189 0 0.1041447551606165 -0.40305668800175581 0 0.1115666739945345 -0.38872436917531578 0 0.099702730965631758 -0.41290181884877419 0 0.095691580682652475 -0.39908469234235189 0 0.1041447551606165 -0.40305668800175581 0 0.1096180349996463 -0.41151587164058129 0 0.1041447551606165 -0.40305668800175581 0 0.1115666739945345 -0.38872436917531578 0 0.1250254850364893 -0.40936224001308058 0 0.1115666739945345 -0.38872436917531578 0 0.1096180349996463 -0.41151587164058129 0 0.1115666739945345 -0.38872436917531578 0 0.1250254850364893 -0.40936224001308058 0 0.1096180349996463 -0.41151587164058129 0 0.1115666739945345 -0.38872436917531578 0 0.12645644117523869 -0.39722706905544619 0 0.1250254850364893 -0.40936224001308058 0 0.1115666739945345 -0.38872436917531578 0 0.12609635470998201 -0.38402791619100712 0 0.1115666739945345 -0.38872436917531578 0 0.113745377556003 -0.36324200547299851 0 0.1115666739945345 -0.38872436917531578 0 0.113745377556003 -0.36324200547299851 0 0.12609635470998201 -0.38402791619100712 0 0.12645644117523869 -0.39722706905544619 0 0.1115666739945345 -0.38872436917531578 0 0.1115666739945345 -0.38872436917531578 0 0.096372132326470572 -0.36542491223168638 0 0.1115666739945345 -0.38872436917531578 0 0.089853218628298884 -0.38394717958202601 0 0.096372132326470572 -0.36542491223168638 0 0.095691580682652475 -0.39908469234235189 0 0.1115666739945345 -0.38872436917531578 0 0.089853218628298884 -0.38394717958202601 0 0.089853218628298884 -0.38394717958202601 0 0.082924844884061683 -0.39714926844771359 0 0.072939106935086151 -0.38728773006234168 0 0.089853218628298884 -0.38394717958202601 0 0.072939106935086151 -0.38728773006234168 0 0.07582030708563034 -0.37256671738353597 0 0.095691580682652475 -0.39908469234235189 0 0.089853218628298884 -0.38394717958202601 0 0.082924844884061683 -0.39714926844771359 0 0.086447448161059384 -0.41120764722282821 0 0.082924844884061683 -0.39714926844771359 0 0.069775570718114244 -0.40426700169235308 0 0.086447448161059384 -0.41120764722282821 0 0.095691580682652475 -0.39908469234235189 0 0.082924844884061683 -0.39714926844771359 0 0.069775570718114244 -0.40426700169235308 0 0.072939106935086151 -0.38728773006234168 0 0.058313699768321348 -0.39007371912844929 0 0.082924844884061683 -0.39714926844771359 0 0.069775570718114244 -0.40426700169235308 0 0.072939106935086151 -0.38728773006234168 0 0.072939106935086151 -0.38728773006234168 0 0.05933500968155693 -0.37671477575793533 0 0.058313699768321348 -0.39007371912844929 0 0.072939106935086151 -0.38728773006234168 0 0.05933500968155693 -0.37671477575793533 0 0.07582030708563034 -0.37256671738353597 0 0.05933500968155693 -0.37671477575793533 0 0.043300396670470892 -0.38581293046691678 0 0.039079294002052851 -0.37065651216905859 0 0.05933500968155693 -0.37671477575793533 0 0.058313699768321348 -0.39007371912844929 0 0.043300396670470892 -0.38581293046691678 0 0.058313699768321348 -0.39007371912844929 0 0.0466875803122518 -0.39705513158652528 0 0.054373060569327003 -0.40663711634463268 0 0.069775570718114244 -0.40426700169235308 0 0.058313699768321348 -0.39007371912844929 0 0.054373060569327003 -0.40663711634463268 0 0.058313699768321348 -0.39007371912844929 0 0.054373060569327003 -0.40663711634463268 0 0.0466875803122518 -0.39705513158652528 0 0.042121557959679479 -0.40689397827368962 0 0.054373060569327003 -0.40663711634463268 0 0.058313699768321348 -0.39007371912844929 0 0.0466875803122518 -0.39705513158652528 0 0.043300396670470892 -0.38581293046691678 0 0.0466875803122518 -0.39705513158652528 0 0.032645317368698572 -0.39721328630736241 0 0.043300396670470892 -0.38581293046691678 0 0.0466875803122518 -0.39705513158652528 0 0.032645317368698572 -0.39721328630736241 0 0.042121557959679479 -0.40689397827368962 0 0.032645317368698572 -0.39721328630736241 0 0.043300396670470892 -0.38581293046691678 0 0.025542853711361019 -0.38384675294920401 0 0.043300396670470892 -0.38581293046691678 0 0.025542853711361019 -0.38384675294920401 0 0.039079294002052851 -0.37065651216905859 0 0.025542853711361019 -0.38384675294920401 0 0.009690974369139977 -0.39295199195252922 0 0.016784443680880379 -0.36713146693108112 0 -0.0064694903547723136 -0.38059021958606692 0 0.009690974369139977 -0.39295199195252922 0 0.016784443680880379 -0.36713146693108112 0 0.032645317368698572 -0.39721328630736241 0 0.009690974369139977 -0.39295199195252922 0 0.030062121183744069 -0.41560348860952728 0 0.032645317368698572 -0.39721328630736241 0 0.025542853711361019 -0.38384675294920401 0 0.009690974369139977 -0.39295199195252922 0 0.009690974369139977 -0.39295199195252922 0 0.030062121183744069 -0.41560348860952728 0 0.01224976062295041 -0.42183763890738629 0 -0.0080625817845775948 -0.40608726553411861 0 0.009690974369139977 -0.39295199195252922 0 0.01224976062295041 -0.42183763890738629 0 0.009690974369139977 -0.39295199195252922 0 0.01224976062295041 -0.42183763890738629 0 0.01224976062295041 -0.42183763890738629 0 0.01480854687676085 -0.45072328586224342 0 0.030062121183744069 -0.41560348860952728 0 0.01224976062295041 -0.42183763890738629 0 0.028535899264767479 -0.43733174884408438 0 0.01224976062295041 -0.42183763890738629 0 0.028535899264767479 -0.43733174884408438 0 0.01480854687676085 -0.45072328586224342 0 0.030062121183744069 -0.41560348860952728 0 0.028535899264767479 -0.43733174884408438 0 0.039909128579099777 -0.42893709763038412 0 0.039909128579099777 -0.42893709763038412 0 0.050432421370333713 -0.42320051356081623 0 0.04400553312424714 -0.45021417746364167 0 0.039909128579099777 -0.42893709763038412 0 0.046509667952406512 -0.41833555967385072 0 0.050432421370333713 -0.42320051356081623 0 0.032645317368698572 -0.39721328630736241 0 0.030062121183744069 -0.41560348860952728 0 0.042121557959679479 -0.40689397827368962 0 0.030062121183744069 -0.41560348860952728 0 0.039909128579099777 -0.42893709763038412 0 0.046509667952406512 -0.41833555967385072 0 0.030062121183744069 -0.41560348860952728 0 0.042121557959679479 -0.40689397827368962 0 0.046509667952406512 -0.41833555967385072 0 0.054373060569327003 -0.40663711634463268 0 0.050432421370333713 -0.42320051356081623 0 0.046509667952406512 -0.41833555967385072 0 0.054373060569327003 -0.40663711634463268 0 0.050432421370333713 -0.42320051356081623 0 0.054373060569327003 -0.40663711634463268 0 0.060774245729122177 -0.41691050055794487 0 0.050432421370333713 -0.42320051356081623 0 0.046509667952406512 -0.41833555967385072 0 0.050432421370333713 -0.42320051356081623 0 0.042121557959679479 -0.40689397827368962 0 0.046509667952406512 -0.41833555967385072 0 0.054373060569327003 -0.40663711634463268 0 0.069775570718114244 -0.40426700169235308 0 0.054373060569327003 -0.40663711634463268 0 0.060774245729122177 -0.41691050055794487 0 0.050432421370333713 -0.42320051356081623 0 0.04400553312424714 -0.45021417746364167 0 0.065913834705597293 -0.44240038517061198 0 0.050432421370333713 -0.42320051356081623 0 0.065913834705597293 -0.44240038517061198 0 0.065921365320016911 -0.4273577277455588 0 0.050432421370333713 -0.42320051356081623 0 0.065921365320016911 -0.4273577277455588 0 0.060774245729122177 -0.41691050055794487 0 0.050432421370333713 -0.42320051356081623 0 0.065913834705597293 -0.44240038517061198 0 0.050432421370333713 -0.42320051356081623 0 0.04400553312424714 -0.45021417746364167 0 0.065913834705597293 -0.44240038517061198 0 0.057068655694905858 -0.46015288389510001 0 0.04400553312424714 -0.45021417746364167 0 0.057068655694905858 -0.46015288389510001 0 0.048043393468649283 -0.46676160836513853 0 0.04400553312424714 -0.45021417746364167 0 0.067447632246636219 -0.45716428258124142 0 0.057068655694905858 -0.46015288389510001 0 0.05849497948899289 -0.47642287528831911 0 0.057068655694905858 -0.46015288389510001 0 0.048043393468649283 -0.46676160836513853 0 0.052635520687858477 -0.47072247146996382 0 0.04400553312424714 -0.45021417746364167 0 0.037578644878161642 -0.47722784136646751 0 0.048043393468649283 -0.46676160836513853 0 0.04400553312424714 -0.45021417746364167 0 0.037578644878161642 -0.47722784136646751 0 0.04400553312424714 -0.45021417746364167 0 0.030366658319331299 -0.45781827645911538 0 0.037578644878161642 -0.47722784136646751 0 0.028535899264767479 -0.43733174884408438 0 0.039909128579099777 -0.42893709763038412 0 0.04400553312424714 -0.45021417746364167 0 0.028535899264767479 -0.43733174884408438 0 0.04400553312424714 -0.45021417746364167 0 0.030366658319331299 -0.45781827645911538 0 0.028535899264767479 -0.43733174884408438 0 0.01480854687676085 -0.45072328586224342 0 0.030366658319331299 -0.45781827645911538 0 -0.008216644178786571 -0.4466179140804285 0 0.01224976062295041 -0.42183763890738629 0 0.01480854687676085 -0.45072328586224342 0 0.01480854687676085 -0.45072328586224342 0 0.017367333130571299 -0.47960893281710049 0 0.0084119176919832291 -0.471974008478943 0 -0.0021957942935651631 -0.46571035637089769 0 0.01480854687676085 -0.45072328586224342 0 0.0084119176919832291 -0.471974008478943 0 -0.008216644178786571 -0.4466179140804285 0 -0.0021957942935651631 -0.46571035637089769 0 0.01480854687676085 -0.45072328586224342 0 0.01480854687676085 -0.45072328586224342 0 0.017367333130571299 -0.47960893281710049 0 0.01480854687676085 -0.45072328586224342 0 0.030366658319331299 -0.45781827645911538 0 0.0269046674527194 -0.47359432875914009 0 0.01480854687676085 -0.45072328586224342 0 0.0269046674527194 -0.47359432875914009 0 0.017367333130571299 -0.47960893281710049 0 0.017367333130571299 -0.47960893281710049 0 0.012735562036971701 -0.48508522326900949 0 0.035615270762982369 -0.48075404927866472 0 0.012735562036971701 -0.48508522326900949 0 0.035615270762982369 -0.48075404927866472 0 0.0269046674527194 -0.47359432875914009 0 0.017367333130571299 -0.47960893281710049 0 0.035615270762982369 -0.48075404927866472 0 0.017367333130571299 -0.47960893281710049 0 0.0084119176919832291 -0.471974008478943 0 0.012735562036971701 -0.48508522326900949 0 -0.00065605929082254884 -0.47874224407546379 0 0.0084119176919832291 -0.471974008478943 0 0.012735562036971701 -0.48508522326900949 0 -0.0021957942935651631 -0.46571035637089769 0 -0.00065605929082254884 -0.47874224407546379 0 0.0084119176919832291 -0.471974008478943 0 -0.010144146689038991 -0.48941639725935437 0 -0.00065605929082254884 -0.47874224407546379 0 0.012735562036971701 -0.48508522326900949 0 -0.010144146689038991 -0.48941639725935437 0 0.012735562036971701 -0.48508522326900949 0 -0.011489863113854141 -0.5 0 0.012735562036971701 -0.48508522326900949 0 0.01802246382714956 -0.5 0 0.01802246382714956 -0.5 0 0.025329369399590369 -0.48901546815995378 0 0.047534790768153173 -0.50000000000000044 0 0.012735562036971701 -0.48508522326900949 0 0.025329369399590369 -0.48901546815995378 0 0.035615270762982369 -0.48075404927866472 0 0.012735562036971701 -0.48508522326900949 0 0.01802246382714956 -0.5 0 0.025329369399590369 -0.48901546815995378 0 0.025329369399590369 -0.48901546815995378 0 0.035615270762982369 -0.48075404927866472 0 0.047534790768153173 -0.50000000000000044 0 0.030366658319331299 -0.45781827645911538 0 0.0269046674527194 -0.47359432875914009 0 0.037578644878161642 -0.47722784136646751 0 0.0269046674527194 -0.47359432875914009 0 0.037578644878161642 -0.47722784136646751 0 0.035615270762982369 -0.48075404927866472 0 0.048043393468649283 -0.46676160836513853 0 0.037578644878161642 -0.47722784136646751 0 0.046296380844488463 -0.47463440362945558 0 0.035615270762982369 -0.48075404927866472 0 0.046296380844488463 -0.47463440362945558 0 0.049693011087844949 -0.4756354888466594 0 0.037578644878161642 -0.47722784136646751 0 0.035615270762982369 -0.48075404927866472 0 0.046296380844488463 -0.47463440362945558 0 0.057068655694905858 -0.46015288389510001 0 0.052635520687858477 -0.47072247146996382 0 0.05849497948899289 -0.47642287528831911 0 0.035615270762982369 -0.48075404927866472 0 0.049693011087844949 -0.4756354888466594 0 0.05849497948899289 -0.47642287528831911 0 0.035615270762982369 -0.48075404927866472 0 0.05849497948899289 -0.47642287528831911 0 0.048043393468649283 -0.46676160836513853 0 0.046296380844488463 -0.47463440362945558 0 0.052635520687858477 -0.47072247146996382 0 0.049693011087844949 -0.4756354888466594 0 0.052635520687858477 -0.47072247146996382 0 0.05849497948899289 -0.47642287528831911 0 0.046296380844488463 -0.47463440362945558 0 0.049693011087844949 -0.4756354888466594 0 0.052635520687858477 -0.47072247146996382 0 0.05849497948899289 -0.47642287528831911 0 0.061758178687080389 -0.47580514524370598 0 0.062670741706174135 -0.48944359682069549 0 0.064881374578912687 -0.4815757870058418 0 0.05849497948899289 -0.47642287528831911 0 0.064881374578912687 -0.4815757870058418 0 0.05849497948899289 -0.47642287528831911 0 0.061758178687080389 -0.47580514524370598 0 0.069142552082564368 -0.5 0 0.062670741706174135 -0.48944359682069549 0 0.047534790768153173 -0.50000000000000044 0 0.05849497948899289 -0.47642287528831911 0 0.047534790768153173 -0.50000000000000044 0 0.035615270762982369 -0.48075404927866472 0 0.05849497948899289 -0.47642287528831911 0 0.047534790768153173 -0.50000000000000044 0 0.062670741706174135 -0.48944359682069549 0 0.05849497948899289 -0.47642287528831911 0 0.047534790768153173 -0.50000000000000044 0 0.089727975817252392 -0.29646224842349211 0 0.069967983226982527 -0.30495776272600778 0 0.075483032258224086 -0.28815868119130272 0 0.089727975817252392 -0.29646224842349211 0 0.088503230311337153 -0.27716835087377989 0 0.101883582619993 -0.28460947857741209 0 0.089727975817252392 -0.29646224842349211 0 0.075483032258224086 -0.28815868119130272 0 0.088503230311337153 -0.27716835087377989 0 0.089727975817252392 -0.29646224842349211 0 0.086214248119208581 -0.31193359067875348 0 0.069967983226982527 -0.30495776272600778 0 0.089727975817252392 -0.29646224842349211 0 0.086214248119208581 -0.31193359067875348 0 0.10049372866807189 -0.31082656242210721 0 0.069967983226982527 -0.30495776272600778 0 0.075483032258224086 -0.28815868119130272 0 0.059449054433483903 -0.28956707473318272 0 0.075483032258224086 -0.28815868119130272 0 0.0646939085167762 -0.2722383315448984 0 0.059449054433483903 -0.28956707473318272 0 0.0646939085167762 -0.2722383315448984 0 0.077350866508299074 -0.27549126298099152 0 0.080723294946858856 -0.26439968831398508 0 0.075483032258224086 -0.28815868119130272 0 0.0646939085167762 -0.2722383315448984 0 0.077350866508299074 -0.27549126298099152 0 0.0646939085167762 -0.2722383315448984 0 0.070005134957367529 -0.25889031236374099 0 0.080723294946858856 -0.26439968831398508 0 0.070005134957367529 -0.25889031236374099 0 0.061490933840310687 -0.25382890142296882 0 0.070069103552599196 -0.24823964670048029 0 0.0646939085167762 -0.2722383315448984 0 0.070005134957367529 -0.25889031236374099 0 0.060614126731859473 -0.2624009925450973 0 0.070005134957367529 -0.25889031236374099 0 0.061490933840310687 -0.25382890142296882 0 0.060614126731859473 -0.2624009925450973 0 0.070005134957367529 -0.25889031236374099 0 0.080071368274292315 -0.25145738896057979 0 0.080723294946858856 -0.26439968831398508 0 0.070005134957367529 -0.25889031236374099 0 0.080071368274292315 -0.25145738896057979 0 0.070069103552599196 -0.24823964670048029 0 0.080071368274292315 -0.25145738896057979 0 0.080723294946858856 -0.26439968831398508 0 0.090706365013478091 -0.25245448435890872 0 0.080723294946858856 -0.26439968831398508 0 0.090706365013478091 -0.25245448435890872 0 0.095060577752172304 -0.26241188567384149 0 0.075483032258224086 -0.28815868119130272 0 0.077350866508299074 -0.27549126298099152 0 0.088503230311337153 -0.27716835087377989 0 0.077350866508299074 -0.27549126298099152 0 0.080723294946858856 -0.26439968831398508 0 0.088503230311337153 -0.27716835087377989 0 0.080723294946858856 -0.26439968831398508 0 0.088503230311337153 -0.27716835087377989 0 0.095060577752172304 -0.26241188567384149 0 0.088503230311337153 -0.27716835087377989 0 0.1016952336099234 -0.27235330725820578 0 0.101883582619993 -0.28460947857741209 0 0.088503230311337153 -0.27716835087377989 0 0.1016952336099234 -0.27235330725820578 0 0.095060577752172304 -0.26241188567384149 0 0.1016952336099234 -0.27235330725820578 0 0.1104739380917857 -0.2612093749811526 0 0.1125548392743288 -0.27636744618484282 0 0.1016952336099234 -0.27235330725820578 0 0.1125548392743288 -0.27636744618484282 0 0.101883582619993 -0.28460947857741209 0 0.090706365013478091 -0.25245448435890872 0 0.099550463170151926 -0.25262580003909579 0 0.095060577752172304 -0.26241188567384149 0 0.1016952336099234 -0.27235330725820578 0 0.095060577752172304 -0.26241188567384149 0 0.1104739380917857 -0.2612093749811526 0 0.099550463170151926 -0.25262580003909579 0 0.095060577752172304 -0.26241188567384149 0 0.1104739380917857 -0.2612093749811526 0 0.099550463170151926 -0.25262580003909579 0 0.1104739380917857 -0.2612093749811526 0 0.1078238037173969 -0.24832262031645649 0 0.1311170075682456 -0.27142576198599933 0 0.1104739380917857 -0.2612093749811526 0 0.1212054647883809 -0.25073068226796852 0 0.1104739380917857 -0.2612093749811526 0 0.1212054647883809 -0.25073068226796852 0 0.1078238037173969 -0.24832262031645649 0 0.1311170075682456 -0.27142576198599933 0 0.1104739380917857 -0.2612093749811526 0 0.1311170075682456 -0.27142576198599933 0 0.1104739380917857 -0.2612093749811526 0 0.1193620271946058 -0.27249351692823448 0 0.1104739380917857 -0.2612093749811526 0 0.1125548392743288 -0.27636744618484282 0 0.1193620271946058 -0.27249351692823448 0 0.1125548392743288 -0.27636744618484282 0 0.1193620271946058 -0.27249351692823448 0 0.1233023238440631 -0.28097148456094378 0 0.1311170075682456 -0.27142576198599933 0 0.1193620271946058 -0.27249351692823448 0 0.1233023238440631 -0.28097148456094378 0 0.1233023238440631 -0.28097148456094378 0 0.1242383748246253 -0.29131174999725179 0 0.1141297936923768 -0.28878453930630188 0 0.1242383748246253 -0.29131174999725179 0 0.1141297936923768 -0.28878453930630188 0 0.1198701537204314 -0.30089140532399938 0 0.1141297936923768 -0.28878453930630188 0 0.10622170970645189 -0.29895353846799488 0 0.1198701537204314 -0.30089140532399938 0 0.1125548392743288 -0.27636744618484282 0 0.1233023238440631 -0.28097148456094378 0 0.1141297936923768 -0.28878453930630188 0 0.1125548392743288 -0.27636744618484282 0 0.1141297936923768 -0.28878453930630188 0 0.101883582619993 -0.28460947857741209 0 0.089727975817252392 -0.29646224842349211 0 0.101883582619993 -0.28460947857741209 0 0.10622170970645189 -0.29895353846799488 0 0.1141297936923768 -0.28878453930630188 0 0.101883582619993 -0.28460947857741209 0 0.10622170970645189 -0.29895353846799488 0 0.089727975817252392 -0.29646224842349211 0 0.10049372866807189 -0.31082656242210721 0 0.10622170970645189 -0.29895353846799488 0 0.10049372866807189 -0.31082656242210721 0 0.10622170970645189 -0.29895353846799488 0 0.1134387524627216 -0.31086840579325631 0 0.10622170970645189 -0.29895353846799488 0 0.1134387524627216 -0.31086840579325631 0 0.1198701537204314 -0.30089140532399938 0 0.1265219532001009 -0.3124330460259736 0 0.1134387524627216 -0.31086840579325631 0 0.1198701537204314 -0.30089140532399938 0 0.1265219532001009 -0.3124330460259736 0 0.1134387524627216 -0.31086840579325631 0 0.1192961391526948 -0.32261879728377291 0 0.1134387524627216 -0.31086840579325631 0 0.1192961391526948 -0.32261879728377291 0 0.1082288303285789 -0.31948708523568958 0 0.1192961391526948 -0.32261879728377291 0 0.1093748658769356 -0.32997486192450581 0 0.1082288303285789 -0.31948708523568958 0 0.1192961391526948 -0.32261879728377291 0 0.1168506625355451 -0.3296807312869221 0 0.1093748658769356 -0.32997486192450581 0 0.1192961391526948 -0.32261879728377291 0 0.12260601330919629 -0.33072698382653798 0 0.1168506625355451 -0.3296807312869221 0 0.13219802669416811 -0.32498852212276208 0 0.1192961391526948 -0.32261879728377291 0 0.12260601330919629 -0.33072698382653798 0 0.13051916655351839 -0.33696304048325831 0 0.12260601330919629 -0.33072698382653798 0 0.1159240811174677 -0.33775964177068091 0 0.12260601330919629 -0.33072698382653798 0 0.1159240811174677 -0.33775964177068091 0 0.1161256318033537 -0.33540228211287182 0 0.12260601330919629 -0.33072698382653798 0 0.1168506625355451 -0.3296807312869221 0 0.1161256318033537 -0.33540228211287182 0 0.13051916655351839 -0.33696304048325831 0 0.1159240811174677 -0.33775964177068091 0 0.13051916655351839 -0.33696304048325831 0 0.1159240811174677 -0.33775964177068091 0 0.123981461538115 -0.35128285539313481 0 0.1159240811174677 -0.33775964177068091 0 0.1161256318033537 -0.33540228211287182 0 0.1168506625355451 -0.3296807312869221 0 0.1161256318033537 -0.33540228211287182 0 0.1093748658769356 -0.32997486192450581 0 0.1159240811174677 -0.33775964177068091 0 0.1161256318033537 -0.33540228211287182 0 0.1093748658769356 -0.32997486192450581 0 0.1159240811174677 -0.33775964177068091 0 0.092335912071574502 -0.33904708650077298 0 0.1159240811174677 -0.33775964177068091 0 0.1093748658769356 -0.32997486192450581 0 0.092335912071574502 -0.33904708650077298 0 0.1093748658769356 -0.32997486192450581 0 0.096347407600029022 -0.32440529872184809 0 0.092335912071574502 -0.33904708650077298 0 0.1159240811174677 -0.33775964177068091 0 0.10211321446004019 -0.35101158716873732 0 0.092335912071574502 -0.33904708650077298 0 0.086214248119208581 -0.31193359067875348 0 0.10049372866807189 -0.31082656242210721 0 0.096347407600029022 -0.32440529872184809 0 0.10049372866807189 -0.31082656242210721 0 0.1134387524627216 -0.31086840579325631 0 0.1082288303285789 -0.31948708523568958 0 0.10049372866807189 -0.31082656242210721 0 0.096347407600029022 -0.32440529872184809 0 0.1082288303285789 -0.31948708523568958 0 0.1093748658769356 -0.32997486192450581 0 0.096347407600029022 -0.32440529872184809 0 0.1082288303285789 -0.31948708523568958 0 0.12784456261830821 -0.36308533366748658 0 0.12609635470998201 -0.38402791619100712 0 0.113745377556003 -0.36324200547299851 0 0.1159240811174677 -0.33775964177068091 0 0.113745377556003 -0.36324200547299851 0 0.123981461538115 -0.35128285539313481 0 0.1159240811174677 -0.33775964177068091 0 0.113745377556003 -0.36324200547299851 0 0.1159240811174677 -0.33775964177068091 0 0.113745377556003 -0.36324200547299851 0 0.10211321446004019 -0.35101158716873732 0 0.12784456261830821 -0.36308533366748658 0 0.113745377556003 -0.36324200547299851 0 0.123981461538115 -0.35128285539313481 0 0.1115666739945345 -0.38872436917531578 0 0.113745377556003 -0.36324200547299851 0 0.096372132326470572 -0.36542491223168638 0 0.113745377556003 -0.36324200547299851 0 0.10211321446004019 -0.35101158716873732 0 0.096372132326470572 -0.36542491223168638 0 0.089853218628298884 -0.38394717958202601 0 0.096372132326470572 -0.36542491223168638 0 0.07582030708563034 -0.37256671738353597 0 0.096372132326470572 -0.36542491223168638 0 0.082110249222110576 -0.35466523699539548 0 0.07582030708563034 -0.37256671738353597 0 0.10211321446004019 -0.35101158716873732 0 0.096372132326470572 -0.36542491223168638 0 0.082110249222110576 -0.35466523699539548 0 0.082110249222110576 -0.35466523699539548 0 0.092335912071574502 -0.33904708650077298 0 0.068747743025681235 -0.34033453123086538 0 0.10211321446004019 -0.35101158716873732 0 0.082110249222110576 -0.35466523699539548 0 0.092335912071574502 -0.33904708650077298 0 0.082110249222110576 -0.35466523699539548 0 0.068747743025681235 -0.34033453123086538 0 0.057272186363266697 -0.35960658745677498 0 0.082110249222110576 -0.35466523699539548 0 0.07582030708563034 -0.37256671738353597 0 0.057272186363266697 -0.35960658745677498 0 0.05933500968155693 -0.37671477575793533 0 0.07582030708563034 -0.37256671738353597 0 0.057272186363266697 -0.35960658745677498 0 0.086214248119208581 -0.31193359067875348 0 0.096347407600029022 -0.32440529872184809 0 0.078030795921920637 -0.32434601069550512 0 0.092335912071574502 -0.33904708650077298 0 0.068747743025681235 -0.34033453123086538 0 0.078030795921920637 -0.32434601069550512 0 0.092335912071574502 -0.33904708650077298 0 0.068747743025681235 -0.34033453123086538 0 0.096347407600029022 -0.32440529872184809 0 0.092335912071574502 -0.33904708650077298 0 0.078030795921920637 -0.32434601069550512 0 0.068747743025681235 -0.34033453123086538 0 0.078030795921920637 -0.32434601069550512 0 0.053863538987460123 -0.3232816795844588 0 0.069967983226982527 -0.30495776272600778 0 0.078030795921920637 -0.32434601069550512 0 0.053863538987460123 -0.3232816795844588 0 0.086214248119208581 -0.31193359067875348 0 0.069967983226982527 -0.30495776272600778 0 0.078030795921920637 -0.32434601069550512 0 0.068747743025681235 -0.34033453123086538 0 0.045159573979787898 -0.34162197596095778 0 0.068747743025681235 -0.34033453123086538 0 0.053863538987460123 -0.3232816795844588 0 0.045159573979787898 -0.34162197596095778 0 0.053863538987460123 -0.3232816795844588 0 0.034832013842728909 -0.33032259781876938 0 0.045159573979787898 -0.34162197596095778 0 0.034832013842728909 -0.33032259781876938 0 0.045159573979787898 -0.34162197596095778 0 0.02157140493389462 -0.34290942069105018 0 0.045159573979787898 -0.34162197596095778 0 0.02157140493389462 -0.34290942069105018 0 0.053863538987460123 -0.3232816795844588 0 0.034832013842728909 -0.33032259781876938 0 0.03621734991660093 -0.31670946998547028 0 0.053863538987460123 -0.3232816795844588 0 0.03621734991660093 -0.31670946998547028 0 0.048768037075517537 -0.30442990221103089 0 0.05933500968155693 -0.37671477575793533 0 0.057272186363266697 -0.35960658745677498 0 0.039079294002052851 -0.37065651216905859 0 0.068747743025681235 -0.34033453123086538 0 0.045159573979787898 -0.34162197596095778 0 0.057272186363266697 -0.35960658745677498 0 0.045159573979787898 -0.34162197596095778 0 0.034512899630155462 -0.3545258348651717 0 0.02157140493389462 -0.34290942069105018 0 0.045159573979787898 -0.34162197596095778 0 0.057272186363266697 -0.35960658745677498 0 0.034512899630155462 -0.3545258348651717 0 0.057272186363266697 -0.35960658745677498 0 0.034512899630155462 -0.3545258348651717 0 0.039079294002052851 -0.37065651216905859 0 0.025542853711361019 -0.38384675294920401 0 0.039079294002052851 -0.37065651216905859 0 0.016784443680880379 -0.36713146693108112 0 0.034512899630155462 -0.3545258348651717 0 0.039079294002052851 -0.37065651216905859 0 0.016784443680880379 -0.36713146693108112 0 0.034512899630155462 -0.3545258348651717 0 0.016784443680880379 -0.36713146693108112 0 0.02157140493389462 -0.34290942069105018 0 -0.0043130761299947744 -0.35643483176966217 0 0.016784443680880379 -0.36713146693108112 0 0.02157140493389462 -0.34290942069105018 0 -0.0038616663111063101 -0.33241552487502413 0 -0.0043130761299947744 -0.35643483176966217 0 0.02157140493389462 -0.34290942069105018 0 -0.0043130761299947744 -0.35643483176966217 0 -0.0064694903547723136 -0.38059021958606692 0 0.016784443680880379 -0.36713146693108112 0 0.03621734991660093 -0.31670946998547028 0 0.020048637459846991 -0.32439583124448262 0 0.029165048793799431 -0.30349547286963757 0 0.034832013842728909 -0.33032259781876938 0 0.03621734991660093 -0.31670946998547028 0 0.020048637459846991 -0.32439583124448262 0 0.020048637459846991 -0.32439583124448262 0 0.0094652366165251054 -0.31053241408104548 0 0.029165048793799431 -0.30349547286963757 0 0.034832013842728909 -0.33032259781876938 0 0.020048637459846991 -0.32439583124448262 0 0.02157140493389462 -0.34290942069105018 0 -0.0038616663111063101 -0.33241552487502413 0 0.020048637459846991 -0.32439583124448262 0 0.02157140493389462 -0.34290942069105018 0 -0.0038616663111063101 -0.33241552487502413 0 0.020048637459846991 -0.32439583124448262 0 0.0094652366165251054 -0.31053241408104548 0 -0.01007927323019326 -0.3103345258507364 0 0.0094652366165251054 -0.31053241408104548 0 0.0017563221397047381 -0.2997067901486577 0 0.0094652366165251054 -0.31053241408104548 0 0.0017563221397047381 -0.2997067901486577 0 0.017453688627786131 -0.29322190620108468 0 0.0017563221397047381 -0.2997067901486577 0 0.0066437179820165657 -0.2861171845936395 0 0.017453688627786131 -0.29322190620108468 0 -0.0080748459131490501 -0.2914060437848453 0 0.0017563221397047381 -0.2997067901486577 0 0.0066437179820165657 -0.2861171845936395 0 0.0066437179820165657 -0.2861171845936395 0 0.017453688627786131 -0.29322190620108468 0 0.01908241754038794 -0.28073467218482329 0 0.017453688627786131 -0.29322190620108468 0 0.029398966714908509 -0.28692964748338379 0 0.029165048793799431 -0.30349547286963757 0 0.017453688627786131 -0.29322190620108468 0 0.029398966714908509 -0.28692964748338379 0 0.01908241754038794 -0.28073467218482329 0 0.0094652366165251054 -0.31053241408104548 0 0.017453688627786131 -0.29322190620108468 0 0.029165048793799431 -0.30349547286963757 0 0.03621734991660093 -0.31670946998547028 0 0.029165048793799431 -0.30349547286963757 0 0.048768037075517537 -0.30442990221103089 0 0.029165048793799431 -0.30349547286963757 0 0.043029943860180789 -0.28970337243015992 0 0.048768037075517537 -0.30442990221103089 0 0.029398966714908509 -0.28692964748338379 0 0.029165048793799431 -0.30349547286963757 0 0.043029943860180789 -0.28970337243015992 0 0.029398966714908509 -0.28692964748338379 0 0.043029943860180789 -0.28970337243015992 0 0.038396769586432553 -0.27977596087564799 0 0.043029943860180789 -0.28970337243015992 0 0.051749435803858171 -0.27840569125857739 0 0.038396769586432553 -0.27977596087564799 0 0.043029943860180789 -0.28970337243015992 0 0.059449054433483903 -0.28956707473318272 0 0.051749435803858171 -0.27840569125857739 0 0.043029943860180789 -0.28970337243015992 0 0.059449054433483903 -0.28956707473318272 0 0.048768037075517537 -0.30442990221103089 0 0.069967983226982527 -0.30495776272600778 0 0.059449054433483903 -0.28956707473318272 0 0.048768037075517537 -0.30442990221103089 0 0.069967983226982527 -0.30495776272600778 0 0.053863538987460123 -0.3232816795844588 0 0.048768037075517537 -0.30442990221103089 0 0.053380735395516472 -0.25867595766617779 0 0.04428054005230446 -0.26275141268032309 0 0.045372505498807933 -0.25408090721008542 0 0.053380735395516472 -0.25867595766617779 0 0.053158010572478251 -0.26777612517812432 0 0.04428054005230446 -0.26275141268032309 0 0.053380735395516472 -0.25867595766617779 0 0.045372505498807933 -0.25408090721008542 0 0.05268811686830014 -0.24901610311096159 0 0.053380735395516472 -0.25867595766617779 0 0.061490933840310687 -0.25382890142296882 0 0.05268811686830014 -0.24901610311096159 0 0.053380735395516472 -0.25867595766617779 0 0.060614126731859473 -0.2624009925450973 0 0.053158010572478251 -0.26777612517812432 0 0.053380735395516472 -0.25867595766617779 0 0.061490933840310687 -0.25382890142296882 0 0.060614126731859473 -0.2624009925450973 0 0.0646939085167762 -0.2722383315448984 0 0.060614126731859473 -0.2624009925450973 0 0.053158010572478251 -0.26777612517812432 0 0.0646939085167762 -0.2722383315448984 0 0.059449054433483903 -0.28956707473318272 0 0.051749435803858171 -0.27840569125857739 0 0.0646939085167762 -0.2722383315448984 0 0.051749435803858171 -0.27840569125857739 0 0.053158010572478251 -0.26777612517812432 0 0.053158010572478251 -0.26777612517812432 0 0.044229316934554799 -0.27218436537367241 0 0.04428054005230446 -0.26275141268032309 0 0.051749435803858171 -0.27840569125857739 0 0.053158010572478251 -0.26777612517812432 0 0.044229316934554799 -0.27218436537367241 0 0.044229316934554799 -0.27218436537367241 0 0.031885251388666561 -0.26470215361104171 0 0.04428054005230446 -0.26275141268032309 0 0.051749435803858171 -0.27840569125857739 0 0.044229316934554799 -0.27218436537367241 0 0.038396769586432553 -0.27977596087564799 0 0.044229316934554799 -0.27218436537367241 0 0.038396769586432553 -0.27977596087564799 0 0.029696712261103771 -0.27487286106778819 0 0.029398966714908509 -0.28692964748338379 0 0.038396769586432553 -0.27977596087564799 0 0.029696712261103771 -0.27487286106778819 0 0.044229316934554799 -0.27218436537367241 0 0.031885251388666561 -0.26470215361104171 0 0.029696712261103771 -0.27487286106778819 0 0.037315510146954597 -0.25849363249326118 0 0.031885251388666561 -0.26470215361104171 0 0.04428054005230446 -0.26275141268032309 0 0.037315510146954597 -0.25849363249326118 0 0.031885251388666561 -0.26470215361104171 0 0.03069464768829987 -0.25176037071845259 0 0.037315510146954597 -0.25849363249326118 0 0.04428054005230446 -0.26275141268032309 0 0.045372505498807933 -0.25408090721008542 0 0.045372505498807933 -0.25408090721008542 0 0.03069464768829987 -0.25176037071845259 0 0.042588116356466379 -0.2448823624008481 0 0.037315510146954597 -0.25849363249326118 0 0.045372505498807933 -0.25408090721008542 0 0.03069464768829987 -0.25176037071845259 0 0.031885251388666561 -0.26470215361104171 0 0.021199614426200629 -0.26114166245967918 0 0.019908913466960752 -0.27058631964059482 0 0.031885251388666561 -0.26470215361104171 0 0.03069464768829987 -0.25176037071845259 0 0.021199614426200629 -0.26114166245967918 0 0.03069464768829987 -0.25176037071845259 0 0.021199614426200629 -0.26114166245967918 0 0.016145176335298529 -0.25210595968411048 0 0.029398966714908509 -0.28692964748338379 0 0.029696712261103771 -0.27487286106778819 0 0.01908241754038794 -0.28073467218482329 0 0.031885251388666561 -0.26470215361104171 0 0.029696712261103771 -0.27487286106778819 0 0.019908913466960752 -0.27058631964059482 0 0.019908913466960752 -0.27058631964059482 0 0.01908241754038794 -0.28073467218482329 0 0.01128192931255503 -0.27464126756021451 0 0.029696712261103771 -0.27487286106778819 0 0.019908913466960752 -0.27058631964059482 0 0.01908241754038794 -0.28073467218482329 0 -0.01145854626600548 -0.26602311564559261 0 0.01128192931255503 -0.27464126756021451 0 0.0057158633005241696 -0.26337829885565528 0 0.0066437179820165657 -0.2861171845936395 0 0.01908241754038794 -0.28073467218482329 0 0.01128192931255503 -0.27464126756021451 0 0.019908913466960752 -0.27058631964059482 0 0.01128192931255503 -0.27464126756021451 0 0.0057158633005241696 -0.26337829885565528 0 -0.002848760243290064 -0.27761611820401882 0 0.0066437179820165657 -0.2861171845936395 0 0.01128192931255503 -0.27464126756021451 0 0.016145176335298529 -0.25210595968411048 0 0.0057158633005241696 -0.26337829885565528 0 0.0054759062840018038 -0.25064707341720888 0 0.021199614426200629 -0.26114166245967918 0 0.019908913466960752 -0.27058631964059482 0 0.0057158633005241696 -0.26337829885565528 0 0.021199614426200629 -0.26114166245967918 0 0.016145176335298529 -0.25210595968411048 0 0.0057158633005241696 -0.26337829885565528 0 -0.0009620894167222515 -0.25496392916579452 0 0.0057158633005241696 -0.26337829885565528 0 0.0054759062840018038 -0.25064707341720888 0 -0.0009620894167222515 -0.25496392916579452 0 -0.0029313858115674811 -0.24854412401401971 0 0.0054759062840018038 -0.25064707341720888 0 0.0054759062840018038 -0.25064707341720888 0 0.0026199421412959989 -0.2430643023623929 0 0.011589873569895199 -0.24127835128668559 0 -0.0029313858115674811 -0.24854412401401971 0 0.0054759062840018038 -0.25064707341720888 0 0.0026199421412959989 -0.2430643023623929 0 0.016145176335298529 -0.25210595968411048 0 0.0054759062840018038 -0.25064707341720888 0 0.011589873569895199 -0.24127835128668559 0 0.011589873569895199 -0.24127835128668559 0 0.010668172172219499 -0.2272828987723072 0 0.020574075722817331 -0.2351284197632682 0 0.0026199421412959989 -0.2430643023623929 0 0.011589873569895199 -0.24127835128668559 0 0.0017465435191736189 -0.23378549097037141 0 -0.00080535468136348092 -0.21995366459000901 0 0.010668172172219499 -0.2272828987723072 0 0.01016515501406726 -0.20926501301563591 0 -0.00080535468136348092 -0.21995366459000901 0 0.0017465435191736189 -0.23378549097037141 0 0.010668172172219499 -0.2272828987723072 0 0.010668172172219499 -0.2272828987723072 0 0.02170661161633574 -0.22145314359659171 0 0.01016515501406726 -0.20926501301563591 0 0.011589873569895199 -0.24127835128668559 0 0.0017465435191736189 -0.23378549097037141 0 0.010668172172219499 -0.2272828987723072 0 0.010668172172219499 -0.2272828987723072 0 0.02170661161633574 -0.22145314359659171 0 0.020574075722817331 -0.2351284197632682 0 0.02170661161633574 -0.22145314359659171 0 0.02866695829179056 -0.22960637228307629 0 0.036392787169896093 -0.22322562645731159 0 0.02170661161633574 -0.22145314359659171 0 0.02866695829179056 -0.22960637228307629 0 0.020574075722817331 -0.2351284197632682 0 0.02866695829179056 -0.22960637228307629 0 0.020574075722817331 -0.2351284197632682 0 0.032071787069821417 -0.24054619649286721 0 0.022195152742869501 -0.2444300013669817 0 0.020574075722817331 -0.2351284197632682 0 0.032071787069821417 -0.24054619649286721 0 0.03069464768829987 -0.25176037071845259 0 0.022195152742869501 -0.2444300013669817 0 0.032071787069821417 -0.24054619649286721 0 0.03069464768829987 -0.25176037071845259 0 0.016145176335298529 -0.25210595968411048 0 0.022195152742869501 -0.2444300013669817 0 0.016145176335298529 -0.25210595968411048 0 0.011589873569895199 -0.24127835128668559 0 0.022195152742869501 -0.2444300013669817 0 0.011589873569895199 -0.24127835128668559 0 0.022195152742869501 -0.2444300013669817 0 0.020574075722817331 -0.2351284197632682 0 -0.003739977245034012 -0.19168309442994089 0 0.010514116253606281 -0.1925853606064957 0 0.01016515501406726 -0.20926501301563591 0 0.010514116253606281 -0.1925853606064957 0 0.01016515501406726 -0.20926501301563591 0 0.018596641755985681 -0.20049862993462389 0 0.02170661161633574 -0.22145314359659171 0 0.01016515501406726 -0.20926501301563591 0 0.028304225500431591 -0.20785134554231141 0 0.01016515501406726 -0.20926501301563591 0 0.028304225500431591 -0.20785134554231141 0 0.018596641755985681 -0.20049862993462389 0 0.02170661161633574 -0.22145314359659171 0 0.028304225500431591 -0.20785134554231141 0 0.036392787169896093 -0.22322562645731159 0 0.028304225500431591 -0.20785134554231141 0 0.018596641755985681 -0.20049862993462389 0 0.02540307025583758 -0.19229280057405279 0 0.010514116253606281 -0.1925853606064957 0 0.018596641755985681 -0.20049862993462389 0 0.02540307025583758 -0.19229280057405279 0 0.010514116253606281 -0.1925853606064957 0 0.02540307025583758 -0.19229280057405279 0 0.015764016274472759 -0.1812646672695073 0 0.02540307025583758 -0.19229280057405279 0 0.041440672425083092 -0.19607701236864419 0 0.030421272951226121 -0.1778391783376792 0 0.028304225500431591 -0.20785134554231141 0 0.02540307025583758 -0.19229280057405279 0 0.041440672425083092 -0.19607701236864419 0 0.041440672425083092 -0.19607701236864419 0 0.042310424588804782 -0.2140630995529598 0 0.055497750511994078 -0.2086068857692274 0 0.028304225500431591 -0.20785134554231141 0 0.041440672425083092 -0.19607701236864419 0 0.042310424588804782 -0.2140630995529598 0 0.028304225500431591 -0.20785134554231141 0 0.042310424588804782 -0.2140630995529598 0 0.036392787169896093 -0.22322562645731159 0 0.042310424588804782 -0.2140630995529598 0 0.055497750511994078 -0.2086068857692274 0 0.052955454276687589 -0.2198291654371925 0 0.062338921595789062 -0.21792006704763969 0 0.055497750511994078 -0.2086068857692274 0 0.052955454276687589 -0.2198291654371925 0 0.062338921595789062 -0.21792006704763969 0 0.055497750511994078 -0.2086068857692274 0 0.067863046951983474 -0.20503048868511209 0 0.055497750511994078 -0.2086068857692274 0 0.056257937900538298 -0.19577788601322099 0 0.067863046951983474 -0.20503048868511209 0 0.041440672425083092 -0.19607701236864419 0 0.056257937900538298 -0.19577788601322099 0 0.051449240160577621 -0.1762857105508405 0 0.041440672425083092 -0.19607701236864419 0 0.055497750511994078 -0.2086068857692274 0 0.056257937900538298 -0.19577788601322099 0 0.040491861427302538 -0.2355872617630255 0 0.042588116356466379 -0.2448823624008481 0 0.052307832003780613 -0.23884346229351339 0 0.040491861427302538 -0.2355872617630255 0 0.045866106706223042 -0.22907627795895011 0 0.052307832003780613 -0.23884346229351339 0 0.03069464768829987 -0.25176037071845259 0 0.042588116356466379 -0.2448823624008481 0 0.032071787069821417 -0.24054619649286721 0 0.040491861427302538 -0.2355872617630255 0 0.042588116356466379 -0.2448823624008481 0 0.032071787069821417 -0.24054619649286721 0 0.02866695829179056 -0.22960637228307629 0 0.040491861427302538 -0.2355872617630255 0 0.032071787069821417 -0.24054619649286721 0 0.02866695829179056 -0.22960637228307629 0 0.040491861427302538 -0.2355872617630255 0 0.036392787169896093 -0.22322562645731159 0 0.042310424588804782 -0.2140630995529598 0 0.036392787169896093 -0.22322562645731159 0 0.045866106706223042 -0.22907627795895011 0 0.040491861427302538 -0.2355872617630255 0 0.036392787169896093 -0.22322562645731159 0 0.045866106706223042 -0.22907627795895011 0 0.045866106706223042 -0.22907627795895011 0 0.058764067980626958 -0.22947949685718549 0 0.052307832003780613 -0.23884346229351339 0 0.045866106706223042 -0.22907627795895011 0 0.052955454276687589 -0.2198291654371925 0 0.058764067980626958 -0.22947949685718549 0 0.042310424588804782 -0.2140630995529598 0 0.045866106706223042 -0.22907627795895011 0 0.052955454276687589 -0.2198291654371925 0 0.062338921595789062 -0.21792006704763969 0 0.058764067980626958 -0.22947949685718549 0 0.065719467571416057 -0.22489822263154319 0 0.062338921595789062 -0.21792006704763969 0 0.052955454276687589 -0.2198291654371925 0 0.058764067980626958 -0.22947949685718549 0 0.058764067980626958 -0.22947949685718549 0 0.062159259289524899 -0.2368834247622158 0 0.052307832003780613 -0.23884346229351339 0 0.062159259289524899 -0.2368834247622158 0 0.052307832003780613 -0.23884346229351339 0 0.061229972926465738 -0.2445427902389527 0 0.045372505498807933 -0.25408090721008542 0 0.042588116356466379 -0.2448823624008481 0 0.05268811686830014 -0.24901610311096159 0 0.042588116356466379 -0.2448823624008481 0 0.052307832003780613 -0.23884346229351339 0 0.05268811686830014 -0.24901610311096159 0 0.061490933840310687 -0.25382890142296882 0 0.05268811686830014 -0.24901610311096159 0 0.061229972926465738 -0.2445427902389527 0 0.052307832003780613 -0.23884346229351339 0 0.05268811686830014 -0.24901610311096159 0 0.061229972926465738 -0.2445427902389527 0 0.061490933840310687 -0.25382890142296882 0 0.061229972926465738 -0.2445427902389527 0 0.070069103552599196 -0.24823964670048029 0 0.061229972926465738 -0.2445427902389527 0 0.070069103552599196 -0.24823964670048029 0 0.069856411684105391 -0.23913895996007839 0 0.062159259289524899 -0.2368834247622158 0 0.061229972926465738 -0.2445427902389527 0 0.069856411684105391 -0.23913895996007839 0 0.062159259289524899 -0.2368834247622158 0 0.069856411684105391 -0.23913895996007839 0 0.067142239376285745 -0.23139328163069281 0 0.069856411684105391 -0.23913895996007839 0 0.077788170153509889 -0.24196191377257101 0 0.076767606518392539 -0.23187249677345001 0 0.080071368274292315 -0.25145738896057979 0 0.070069103552599196 -0.24823964670048029 0 0.077788170153509889 -0.24196191377257101 0 0.070069103552599196 -0.24823964670048029 0 0.069856411684105391 -0.23913895996007839 0 0.077788170153509889 -0.24196191377257101 0 0.080071368274292315 -0.25145738896057979 0 0.090706365013478091 -0.25245448435890872 0 0.085906732882507178 -0.24385162082211831 0 0.080071368274292315 -0.25145738896057979 0 0.077788170153509889 -0.24196191377257101 0 0.085906732882507178 -0.24385162082211831 0 0.077788170153509889 -0.24196191377257101 0 0.085906732882507178 -0.24385162082211831 0 0.083256636250354649 -0.23616880796388259 0 0.077788170153509889 -0.24196191377257101 0 0.083256636250354649 -0.23616880796388259 0 0.076767606518392539 -0.23187249677345001 0 0.085906732882507178 -0.24385162082211831 0 0.089657973372422345 -0.23730775202069579 0 0.094006026236525903 -0.2441335510050745 0 0.085906732882507178 -0.24385162082211831 0 0.083256636250354649 -0.23616880796388259 0 0.089657973372422345 -0.23730775202069579 0 0.083256636250354649 -0.23616880796388259 0 0.089657973372422345 -0.23730775202069579 0 0.089763789457938253 -0.2306791647953326 0 0.089657973372422345 -0.23730775202069579 0 0.089763789457938253 -0.2306791647953326 0 0.096012267649498176 -0.23702186761809721 0 0.089657973372422345 -0.23730775202069579 0 0.094006026236525903 -0.2441335510050745 0 0.096012267649498176 -0.23702186761809721 0 0.090706365013478091 -0.25245448435890872 0 0.085906732882507178 -0.24385162082211831 0 0.094006026236525903 -0.2441335510050745 0 0.086446736705125371 -0.22420087797706609 0 0.091303359373345411 -0.22339335178318359 0 0.089763789457938253 -0.2306791647953326 0 0.086446736705125371 -0.22420087797706609 0 0.091303359373345411 -0.22339335178318359 0 0.086853981468707001 -0.2185547472363609 0 0.091303359373345411 -0.22339335178318359 0 0.086853981468707001 -0.2185547472363609 0 0.09077468002378962 -0.21857675351640271 0 0.091303359373345411 -0.22339335178318359 0 0.09077468002378962 -0.21857675351640271 0 0.094530837428433365 -0.22086489816084981 0 0.091303359373345411 -0.22339335178318359 0 0.089763789457938253 -0.2306791647953326 0 0.098670227838192195 -0.22970514568366851 0 0.086446736705125371 -0.22420087797706609 0 0.089763789457938253 -0.2306791647953326 0 0.083020570332336119 -0.22791650227557511 0 0.083256636250354649 -0.23616880796388259 0 0.083020570332336119 -0.22791650227557511 0 0.076767606518392539 -0.23187249677345001 0 0.083256636250354649 -0.23616880796388259 0 0.089763789457938253 -0.2306791647953326 0 0.083020570332336119 -0.22791650227557511 0 0.083020570332336119 -0.22791650227557511 0 0.077930889523722374 -0.22519622511208121 0 0.076767606518392539 -0.23187249677345001 0 0.083020570332336119 -0.22791650227557511 0 0.081291982893300085 -0.22046062379487821 0 0.077930889523722374 -0.22519622511208121 0 0.086446736705125371 -0.22420087797706609 0 0.083020570332336119 -0.22791650227557511 0 0.081291982893300085 -0.22046062379487821 0 0.086446736705125371 -0.22420087797706609 0 0.081291982893300085 -0.22046062379487821 0 0.086853981468707001 -0.2185547472363609 0 0.081291982893300085 -0.22046062379487821 0 0.077930889523722374 -0.22519622511208121 0 0.073706539318973169 -0.21796036257100029 0 0.072234091795087663 -0.22574485878751241 0 0.065719467571416057 -0.22489822263154319 0 0.073706539318973169 -0.21796036257100029 0 0.077930889523722374 -0.22519622511208121 0 0.072234091795087663 -0.22574485878751241 0 0.073706539318973169 -0.21796036257100029 0 0.069856411684105391 -0.23913895996007839 0 0.076767606518392539 -0.23187249677345001 0 0.067142239376285745 -0.23139328163069281 0 0.072234091795087663 -0.22574485878751241 0 0.076767606518392539 -0.23187249677345001 0 0.067142239376285745 -0.23139328163069281 0 0.077930889523722374 -0.22519622511208121 0 0.072234091795087663 -0.22574485878751241 0 0.076767606518392539 -0.23187249677345001 0 0.058764067980626958 -0.22947949685718549 0 0.062159259289524899 -0.2368834247622158 0 0.067142239376285745 -0.23139328163069281 0 0.058764067980626958 -0.22947949685718549 0 0.067142239376285745 -0.23139328163069281 0 0.065719467571416057 -0.22489822263154319 0 0.072234091795087663 -0.22574485878751241 0 0.067142239376285745 -0.23139328163069281 0 0.065719467571416057 -0.22489822263154319 0 0.062338921595789062 -0.21792006704763969 0 0.065719467571416057 -0.22489822263154319 0 0.073706539318973169 -0.21796036257100029 0 0.062338921595789062 -0.21792006704763969 0 0.067863046951983474 -0.20503048868511209 0 0.073706539318973169 -0.21796036257100029 0 0.067863046951983474 -0.20503048868511209 0 0.073706539318973169 -0.21796036257100029 0 0.079094442607528917 -0.20913243433380641 0 0.067863046951983474 -0.20503048868511209 0 0.081482512553192915 -0.1953056794767786 0 0.079094442607528917 -0.20913243433380641 0 0.056257937900538298 -0.19577788601322099 0 0.067863046951983474 -0.20503048868511209 0 0.066040058368007956 -0.18964665730407451 0 0.067863046951983474 -0.20503048868511209 0 0.066040058368007956 -0.18964665730407451 0 0.081482512553192915 -0.1953056794767786 0 0.081482512553192915 -0.1953056794767786 0 0.095454742848087734 -0.19451486061966669 0 0.093505174579280592 -0.1731787749771625 0 0.081482512553192915 -0.1953056794767786 0 0.08833530696517819 -0.21036332105093219 0 0.095454742848087734 -0.19451486061966669 0 0.08833530696517819 -0.21036332105093219 0 0.097404311116896569 -0.21585094626217091 0 0.095454742848087734 -0.19451486061966669 0 0.081291982893300085 -0.22046062379487821 0 0.073706539318973169 -0.21796036257100029 0 0.082946926161669862 -0.2149195339015407 0 0.082946926161669862 -0.2149195339015407 0 0.079094442607528917 -0.20913243433380641 0 0.08833530696517819 -0.21036332105093219 0 0.073706539318973169 -0.21796036257100029 0 0.082946926161669862 -0.2149195339015407 0 0.079094442607528917 -0.20913243433380641 0 0.081291982893300085 -0.22046062379487821 0 0.082946926161669862 -0.2149195339015407 0 0.086853981468707001 -0.2185547472363609 0 0.081482512553192915 -0.1953056794767786 0 0.079094442607528917 -0.20913243433380641 0 0.08833530696517819 -0.21036332105093219 0 0.082946926161669862 -0.2149195339015407 0 0.08833530696517819 -0.21036332105093219 0 0.086853981468707001 -0.2185547472363609 0 0.08833530696517819 -0.21036332105093219 0 0.086853981468707001 -0.2185547472363609 0 0.09077468002378962 -0.21857675351640271 0 0.08833530696517819 -0.21036332105093219 0 0.09077468002378962 -0.21857675351640271 0 0.092213447725184278 -0.21529843562297729 0 0.08833530696517819 -0.21036332105093219 0 0.092213447725184278 -0.21529843562297729 0 0.097404311116896569 -0.21585094626217091 0 0.09077468002378962 -0.21857675351640271 0 0.094501608789943028 -0.21679829355882299 0 0.094530837428433365 -0.22086489816084981 0 0.09077468002378962 -0.21857675351640271 0 0.092213447725184278 -0.21529843562297729 0 0.094501608789943028 -0.21679829355882299 0 0.094501608789943028 -0.21679829355882299 0 0.097404311116896569 -0.21585094626217091 0 0.094530837428433365 -0.22086489816084981 0 0.092213447725184278 -0.21529843562297729 0 0.094501608789943028 -0.21679829355882299 0 0.097404311116896569 -0.21585094626217091 0 0.097404311116896569 -0.21585094626217091 0 0.095454742848087734 -0.19451486061966669 0 0.097404311116896569 -0.21585094626217091 0 0.1059898830346106 -0.20430933332548051 0 0.095454742848087734 -0.19451486061966669 0 0.097404311116896569 -0.21585094626217091 0 0.1089347031997706 -0.21297733173581901 0 0.1146171121197104 -0.21980430615730401 0 0.097404311116896569 -0.21585094626217091 0 0.1059898830346106 -0.20430933332548051 0 0.1089347031997706 -0.21297733173581901 0 0.095454742848087734 -0.19451486061966669 0 0.1128143282819509 -0.19216489626002589 0 0.10772522460311169 -0.17968171223372481 0 0.1059898830346106 -0.20430933332548051 0 0.095454742848087734 -0.19451486061966669 0 0.1128143282819509 -0.19216489626002589 0 0.1128143282819509 -0.19216489626002589 0 0.1237689835273371 -0.19605207676116951 0 0.1178461100078927 -0.20838697738218431 0 0.1059898830346106 -0.20430933332548051 0 0.1128143282819509 -0.19216489626002589 0 0.1178461100078927 -0.20838697738218431 0 0.1128143282819509 -0.19216489626002589 0 0.1237689835273371 -0.19605207676116951 0 0.1232013989280239 -0.1819146573535104 0 0.1089347031997706 -0.21297733173581901 0 0.1178461100078927 -0.20838697738218431 0 0.1146171121197104 -0.21980430615730401 0 0.1059898830346106 -0.20430933332548051 0 0.1089347031997706 -0.21297733173581901 0 0.1178461100078927 -0.20838697738218431 0 0.1178461100078927 -0.20838697738218431 0 0.1146171121197104 -0.21980430615730401 0 0.12895394136930069 -0.22163642029703709 0 0.1146171121197104 -0.21980430615730401 0 0.12018370186474731 -0.23305432747703519 0 0.12895394136930069 -0.22163642029703709 0 0.097404311116896569 -0.21585094626217091 0 0.1146171121197104 -0.21980430615730401 0 0.12018370186474731 -0.23305432747703519 0 0.1212054647883809 -0.25073068226796852 0 0.12018370186474731 -0.23305432747703519 0 0.1059281586602189 -0.23527494890652931 0 0.13217397618885759 -0.25462043987800831 0 0.1212054647883809 -0.25073068226796852 0 0.12018370186474731 -0.23305432747703519 0 0.1212054647883809 -0.25073068226796852 0 0.1059281586602189 -0.23527494890652931 0 0.1078238037173969 -0.24832262031645649 0 0.1212054647883809 -0.25073068226796852 0 0.1059281586602189 -0.23527494890652931 0 0.099550463170151926 -0.25262580003909579 0 0.1078238037173969 -0.24832262031645649 0 0.10103467245524091 -0.24298905409433241 0 0.1059281586602189 -0.23527494890652931 0 0.1078238037173969 -0.24832262031645649 0 0.10103467245524091 -0.24298905409433241 0 0.099550463170151926 -0.25262580003909579 0 0.10103467245524091 -0.24298905409433241 0 0.094006026236525903 -0.2441335510050745 0 0.090706365013478091 -0.25245448435890872 0 0.099550463170151926 -0.25262580003909579 0 0.094006026236525903 -0.2441335510050745 0 0.1059281586602189 -0.23527494890652931 0 0.10103467245524091 -0.24298905409433241 0 0.096012267649498176 -0.23702186761809721 0 0.10103467245524091 -0.24298905409433241 0 0.094006026236525903 -0.2441335510050745 0 0.096012267649498176 -0.23702186761809721 0 0.1059281586602189 -0.23527494890652931 0 0.096012267649498176 -0.23702186761809721 0 0.098670227838192195 -0.22970514568366851 0 0.089763789457938253 -0.2306791647953326 0 0.096012267649498176 -0.23702186761809721 0 0.098670227838192195 -0.22970514568366851 0 0.097404311116896569 -0.21585094626217091 0 0.12018370186474731 -0.23305432747703519 0 0.097404311116896569 -0.21585094626217091 0 0.12018370186474731 -0.23305432747703519 0 0.1059281586602189 -0.23527494890652931 0 0.097404311116896569 -0.21585094626217091 0 0.1059281586602189 -0.23527494890652931 0 0.098670227838192195 -0.22970514568366851 0 0.091303359373345411 -0.22339335178318359 0 0.098670227838192195 -0.22970514568366851 0 0.094530837428433365 -0.22086489816084981 0 0.097404311116896569 -0.21585094626217091 0 0.098670227838192195 -0.22970514568366851 0 0.094530837428433365 -0.22086489816084981 0 0.097404311116896569 -0.21585094626217091 0 0.098670227838192195 -0.22970514568366851 0 0.1071373084330472 -0.14482826815459701 0 0.1035248479174861 -0.15311019857333261 0 0.098760878024456711 -0.14050656481393209 0 0.1071373084330472 -0.14482826815459701 0 0.1035248479174861 -0.15311019857333261 0 0.1121477659277255 -0.1503271840913511 0 0.1035248479174861 -0.15311019857333261 0 0.098760878024456711 -0.14050656481393209 0 0.091560400862706559 -0.15189516094014111 0 0.098760878024456711 -0.14050656481393209 0 0.099399694252258627 -0.1328638184600745 0 0.089615627146132512 -0.13061154690311971 0 0.099399694252258627 -0.1328638184600745 0 0.099525338641528904 -0.12611341339503321 0 0.089615627146132512 -0.13061154690311971 0 0.099525338641528904 -0.12611341339503321 0 0.1096969331969164 -0.13422374872821319 0 0.1121708616464093 -0.1216807098986791 0 0.099399694252258627 -0.1328638184600745 0 0.099525338641528904 -0.12611341339503321 0 0.1096969331969164 -0.13422374872821319 0 0.098760878024456711 -0.14050656481393209 0 0.099399694252258627 -0.1328638184600745 0 0.1096969331969164 -0.13422374872821319 0 0.1071373084330472 -0.14482826815459701 0 0.098760878024456711 -0.14050656481393209 0 0.1096969331969164 -0.13422374872821319 0 0.1096969331969164 -0.13422374872821319 0 0.1155243526086871 -0.14484298486410191 0 0.12532898621889721 -0.13663811256420449 0 0.1096969331969164 -0.13422374872821319 0 0.11997683785091839 -0.1276371159963853 0 0.12532898621889721 -0.13663811256420449 0 0.1096969331969164 -0.13422374872821319 0 0.11997683785091839 -0.1276371159963853 0 0.1121708616464093 -0.1216807098986791 0 0.1217036921304827 -0.1482443959076799 0 0.1155243526086871 -0.14484298486410191 0 0.12532898621889721 -0.13663811256420449 0 0.1217036921304827 -0.1482443959076799 0 0.1155243526086871 -0.14484298486410191 0 0.1179114041550178 -0.15136128022523329 0 0.1071373084330472 -0.14482826815459701 0 0.1155243526086871 -0.14484298486410191 0 0.1121477659277255 -0.1503271840913511 0 0.1071373084330472 -0.14482826815459701 0 0.1096969331969164 -0.13422374872821319 0 0.1155243526086871 -0.14484298486410191 0 0.1035248479174861 -0.15311019857333261 0 0.1121477659277255 -0.1503271840913511 0 0.1169082366172023 -0.15609331882735419 0 0.1155243526086871 -0.14484298486410191 0 0.1121477659277255 -0.1503271840913511 0 0.1179114041550178 -0.15136128022523329 0 0.1121477659277255 -0.1503271840913511 0 0.1169082366172023 -0.15609331882735419 0 0.1179114041550178 -0.15136128022523329 0 0.1169082366172023 -0.15609331882735419 0 0.1179114041550178 -0.15136128022523329 0 0.12324902196630889 -0.15465793599018671 0 0.1217036921304827 -0.1482443959076799 0 0.1179114041550178 -0.15136128022523329 0 0.12324902196630889 -0.15465793599018671 0 0.1217036921304827 -0.1482443959076799 0 0.12324902196630889 -0.15465793599018671 0 0.12831016946945831 -0.1492440347933528 0 0.1035248479174861 -0.15311019857333261 0 0.12443417021765769 -0.1709717485187108 0 0.1227471198665283 -0.15880086614903269 0 0.12098675462827781 -0.16200852072179159 0 0.1290045142054978 -0.1612372837293575 0 0.1035248479174861 -0.15311019857333261 0 0.12443417021765769 -0.1709717485187108 0 0.12083528946942131 -0.1711597280255607 0 0.1035248479174861 -0.15311019857333261 0 0.12098675462827781 -0.16200852072179159 0 0.12443417021765769 -0.1709717485187108 0 0.1035248479174861 -0.15311019857333261 0 0.1169082366172023 -0.15609331882735419 0 0.12098675462827781 -0.16200852072179159 0 0.1169082366172023 -0.15609331882735419 0 0.1227471198665283 -0.15880086614903269 0 0.12098675462827781 -0.16200852072179159 0 0.1169082366172023 -0.15609331882735419 0 0.12324902196630889 -0.15465793599018671 0 0.1227471198665283 -0.15880086614903269 0 0.12098675462827781 -0.16200852072179159 0 0.12443417021765769 -0.1709717485187108 0 0.12715697753007521 -0.16591248018761531 0 0.1128143282819509 -0.19216489626002589 0 0.1232013989280239 -0.1819146573535104 0 0.1157139550245927 -0.18029465614444529 0 0.12083528946942131 -0.1711597280255607 0 0.1232013989280239 -0.1819146573535104 0 0.1157139550245927 -0.18029465614444529 0 0.12443417021765769 -0.1709717485187108 0 0.12083528946942131 -0.1711597280255607 0 0.1232013989280239 -0.1819146573535104 0 0.12083528946942131 -0.1711597280255607 0 0.1157139550245927 -0.18029465614444529 0 0.10772522460311169 -0.17968171223372481 0 0.1128143282819509 -0.19216489626002589 0 0.1157139550245927 -0.18029465614444529 0 0.10772522460311169 -0.17968171223372481 0 0.095454742848087734 -0.19451486061966669 0 0.10772522460311169 -0.17968171223372481 0 0.093505174579280592 -0.1731787749771625 0 0.12083528946942131 -0.1711597280255607 0 0.093505174579280592 -0.1731787749771625 0 0.095454742848087734 -0.19451486061966669 0 0.093505174579280592 -0.1731787749771625 0 0.12083528946942131 -0.1711597280255607 0 0.10772522460311169 -0.17968171223372481 0 0.093505174579280592 -0.1731787749771625 0 0.1035248479174861 -0.15311019857333261 0 0.093505174579280592 -0.1731787749771625 0 0.091560400862706559 -0.15189516094014111 0 0.1035248479174861 -0.15311019857333261 0 0.12083528946942131 -0.1711597280255607 0 0.093505174579280592 -0.1731787749771625 0 0.078133883947979807 -0.15717501910519549 0 0.093505174579280592 -0.1731787749771625 0 0.091560400862706559 -0.15189516094014111 0 0.078133883947979807 -0.15717501910519549 0 0.093505174579280592 -0.1731787749771625 0 0.072477207369929117 -0.17473224276400179 0 0.093505174579280592 -0.1731787749771625 0 0.091560400862706559 -0.15189516094014111 0 0.081482512553192915 -0.1953056794767786 0 0.093505174579280592 -0.1731787749771625 0 0.072477207369929117 -0.17473224276400179 0 0.093505174579280592 -0.1731787749771625 0 0.072477207369929117 -0.17473224276400179 0 0.066040058368007956 -0.18964665730407451 0 0.072477207369929117 -0.17473224276400179 0 0.051449240160577621 -0.1762857105508405 0 0.066040058368007956 -0.18964665730407451 0 0.081482512553192915 -0.1953056794767786 0 0.072477207369929117 -0.17473224276400179 0 0.078133883947979807 -0.15717501910519549 0 0.072477207369929117 -0.17473224276400179 0 0.063878974636528515 -0.16401540189567099 0 0.072477207369929117 -0.17473224276400179 0 0.063878974636528515 -0.16401540189567099 0 0.051449240160577621 -0.1762857105508405 0 0.078133883947979807 -0.15717501910519549 0 0.063878974636528515 -0.16401540189567099 0 0.06522271263887458 -0.15305574504012881 0 0.06522271263887458 -0.15305574504012881 0 0.069316279952888193 -0.14186668388360371 0 0.075278834721760557 -0.14616760919767161 0 0.06522271263887458 -0.15305574504012881 0 0.069316279952888193 -0.14186668388360371 0 0.05757515479497001 -0.1486962131740798 0 0.069316279952888193 -0.14186668388360371 0 0.075278834721760557 -0.14616760919767161 0 0.079765110473415279 -0.13788087003968491 0 0.078133883947979807 -0.15717501910519549 0 0.06522271263887458 -0.15305574504012881 0 0.075278834721760557 -0.14616760919767161 0 0.098760878024456711 -0.14050656481393209 0 0.091560400862706559 -0.15189516094014111 0 0.089615627146132512 -0.13061154690311971 0 0.078133883947979807 -0.15717501910519549 0 0.083611330147541921 -0.14459745320402559 0 0.091560400862706559 -0.15189516094014111 0 0.091560400862706559 -0.15189516094014111 0 0.089615627146132512 -0.13061154690311971 0 0.078133883947979807 -0.15717501910519549 0 0.075278834721760557 -0.14616760919767161 0 0.083611330147541921 -0.14459745320402559 0 0.083611330147541921 -0.14459745320402559 0 0.091560400862706559 -0.15189516094014111 0 0.089615627146132512 -0.13061154690311971 0 0.075278834721760557 -0.14616760919767161 0 0.083611330147541921 -0.14459745320402559 0 0.079765110473415279 -0.13788087003968491 0 0.099525338641528904 -0.12611341339503321 0 0.089615627146132512 -0.13061154690311971 0 0.081894058627025895 -0.12584863130967919 0 0.083611330147541921 -0.14459745320402559 0 0.089615627146132512 -0.13061154690311971 0 0.079765110473415279 -0.13788087003968491 0 0.089615627146132512 -0.13061154690311971 0 0.079765110473415279 -0.13788087003968491 0 0.081894058627025895 -0.12584863130967919 0 0.081894058627025895 -0.12584863130967919 0 0.065576399090336079 -0.13067912082877309 0 0.057907204523981459 -0.13951585418161591 0 0.081894058627025895 -0.12584863130967919 0 0.057907204523981459 -0.13951585418161591 0 0.069316279952888193 -0.14186668388360371 0 0.081894058627025895 -0.12584863130967919 0 0.057907204523981459 -0.13951585418161591 0 0.081894058627025895 -0.12584863130967919 0 0.068207364780656948 -0.12563827965844471 0 0.065576399090336079 -0.13067912082877309 0 0.069316279952888193 -0.14186668388360371 0 0.079765110473415279 -0.13788087003968491 0 0.081894058627025895 -0.12584863130967919 0 0.068207364780656948 -0.12563827965844471 0 0.065576399090336079 -0.13067912082877309 0 0.054296968429680029 -0.13171371816535249 0 0.054296968429680029 -0.13171371816535249 0 0.057907204523981459 -0.13951585418161591 0 0.034849001543539322 -0.1503583031021323 0 0.054296968429680029 -0.13171371816535249 0 0.045553716665441668 -0.12681104972785159 0 0.052448498866582129 -0.1166826243517366 0 0.065576399090336079 -0.13067912082877309 0 0.054296968429680029 -0.13171371816535249 0 0.057907204523981459 -0.13951585418161591 0 0.069316279952888193 -0.14186668388360371 0 0.057907204523981459 -0.13951585418161591 0 0.05757515479497001 -0.1486962131740798 0 0.06522271263887458 -0.15305574504012881 0 0.05757515479497001 -0.1486962131740798 0 0.052111829065281459 -0.15882829201818821 0 0.046808539919221563 -0.15014413002933799 0 0.052111829065281459 -0.15882829201818821 0 0.043031393960321331 -0.1571354857308308 0 0.05757515479497001 -0.1486962131740798 0 0.046808539919221563 -0.15014413002933799 0 0.052111829065281459 -0.15882829201818821 0 0.057907204523981459 -0.13951585418161591 0 0.05757515479497001 -0.1486962131740798 0 0.046808539919221563 -0.15014413002933799 0 0.057907204523981459 -0.13951585418161591 0 0.046808539919221563 -0.15014413002933799 0 0.033920350420936912 -0.1531830770535528 0 0.057907204523981459 -0.13951585418161591 0 0.034849001543539322 -0.1503583031021323 0 0.033920350420936912 -0.1531830770535528 0 0.054296968429680029 -0.13171371816535249 0 0.034849001543539322 -0.1503583031021323 0 0.038558521200612962 -0.14006542407622449 0 0.054296968429680029 -0.13171371816535249 0 0.034849001543539322 -0.1503583031021323 0 0.057907204523981459 -0.13951585418161591 0 0.033920350420936912 -0.1531830770535528 0 0.046808539919221563 -0.15014413002933799 0 0.040219483271594643 -0.15466785876887121 0 0.033920350420936912 -0.1531830770535528 0 0.046808539919221563 -0.15014413002933799 0 0.040219483271594643 -0.15466785876887121 0 0.043031393960321331 -0.1571354857308308 0 0.040219483271594643 -0.15466785876887121 0 0.033920350420936912 -0.1531830770535528 0 0.037117648785898759 -0.15820874226176301 0 0.034849001543539322 -0.1503583031021323 0 0.031672068294339203 -0.14528428076340441 0 0.030051573782975471 -0.15027594372919439 0 0.034849001543539322 -0.1503583031021323 0 0.033920350420936912 -0.1531830770535528 0 0.030051573782975471 -0.15027594372919439 0 0.034849001543539322 -0.1503583031021323 0 0.031672068294339203 -0.14528428076340441 0 0.038558521200612962 -0.14006542407622449 0 0.031672068294339203 -0.14528428076340441 0 0.038558521200612962 -0.14006542407622449 0 0.030566093298411881 -0.13865773310914861 0 0.054296968429680029 -0.13171371816535249 0 0.038558521200612962 -0.14006542407622449 0 0.040644455285911409 -0.1338393175667463 0 0.038558521200612962 -0.14006542407622449 0 0.040644455285911409 -0.1338393175667463 0 0.030566093298411881 -0.13865773310914861 0 0.034824944079593127 -0.12500853882757099 0 0.040644455285911409 -0.1338393175667463 0 0.030566093298411881 -0.13865773310914861 0 0.034824944079593127 -0.12500853882757099 0 0.045553716665441668 -0.12681104972785159 0 0.040644455285911409 -0.1338393175667463 0 0.054296968429680029 -0.13171371816535249 0 0.045553716665441668 -0.12681104972785159 0 0.040644455285911409 -0.1338393175667463 0 0.072477207369929117 -0.17473224276400179 0 0.051449240160577621 -0.1762857105508405 0 0.056257937900538298 -0.19577788601322099 0 0.066040058368007956 -0.18964665730407451 0 0.051449240160577621 -0.1762857105508405 0 0.063878974636528515 -0.16401540189567099 0 0.051449240160577621 -0.1762857105508405 0 0.052111829065281459 -0.15882829201818821 0 0.051449240160577621 -0.1762857105508405 0 0.052111829065281459 -0.15882829201818821 0 0.040502396519655252 -0.1663673850483231 0 0.063878974636528515 -0.16401540189567099 0 0.06522271263887458 -0.15305574504012881 0 0.052111829065281459 -0.15882829201818821 0 0.043031393960321331 -0.1571354857308308 0 0.037117648785898759 -0.15820874226176301 0 0.040502396519655252 -0.1663673850483231 0 0.052111829065281459 -0.15882829201818821 0 0.043031393960321331 -0.1571354857308308 0 0.040502396519655252 -0.1663673850483231 0 0.040219483271594643 -0.15466785876887121 0 0.043031393960321331 -0.1571354857308308 0 0.037117648785898759 -0.15820874226176301 0 0.033920350420936912 -0.1531830770535528 0 0.033509818979212957 -0.15868168045615499 0 0.027465449436243041 -0.1628752445715565 0 0.037117648785898759 -0.15820874226176301 0 0.034071859908748191 -0.1623715567021686 0 0.040502396519655252 -0.1663673850483231 0 0.033920350420936912 -0.1531830770535528 0 0.037117648785898759 -0.15820874226176301 0 0.033509818979212957 -0.15868168045615499 0 0.037117648785898759 -0.15820874226176301 0 0.033509818979212957 -0.15868168045615499 0 0.034071859908748191 -0.1623715567021686 0 0.033509818979212957 -0.15868168045615499 0 0.034071859908748191 -0.1623715567021686 0 0.027465449436243041 -0.1628752445715565 0 0.031586668938662611 -0.1691709391612749 0 0.040502396519655252 -0.1663673850483231 0 0.030421272951226121 -0.1778391783376792 0 0.034071859908748191 -0.1623715567021686 0 0.031586668938662611 -0.1691709391612749 0 0.040502396519655252 -0.1663673850483231 0 0.051449240160577621 -0.1762857105508405 0 0.040502396519655252 -0.1663673850483231 0 0.030421272951226121 -0.1778391783376792 0 0.041440672425083092 -0.19607701236864419 0 0.051449240160577621 -0.1762857105508405 0 0.030421272951226121 -0.1778391783376792 0 0.051449240160577621 -0.1762857105508405 0 0.030421272951226121 -0.1778391783376792 0 0.02540307025583758 -0.19229280057405279 0 0.015764016274472759 -0.1812646672695073 0 0.030421272951226121 -0.1778391783376792 0 0.031586668938662611 -0.1691709391612749 0 0.030421272951226121 -0.1778391783376792 0 0.021575687727073561 -0.1734893605992324 0 0.015764016274472759 -0.1812646672695073 0 0.021575687727073561 -0.1734893605992324 0 0.012676990919703311 -0.16924925594887871 0 0.015764016274472759 -0.1812646672695073 0 0.030421272951226121 -0.1778391783376792 0 0.021575687727073561 -0.1734893605992324 0 0.033920350420936912 -0.1531830770535528 0 0.009933496317892726 -0.16685029992549011 0 0.02294500892830088 -0.1542832107784407 0 0.033920350420936912 -0.1531830770535528 0 0.027465449436243041 -0.1628752445715565 0 0.009933496317892726 -0.16685029992549011 0 0.019596439448784399 -0.16744493330375371 0 0.027465449436243041 -0.1628752445715565 0 0.009933496317892726 -0.16685029992549011 0 0.033920350420936912 -0.1531830770535528 0 0.009933496317892726 -0.16685029992549011 0 0.021575687727073561 -0.1734893605992324 0 0.019596439448784399 -0.16744493330375371 0 0.012676990919703311 -0.16924925594887871 0 0.021575687727073561 -0.1734893605992324 0 0.019596439448784399 -0.16744493330375371 0 0.025540403417393751 -0.1677775419388785 0 0.031586668938662611 -0.1691709391612749 0 0.021575687727073561 -0.1734893605992324 0 0.025540403417393751 -0.1677775419388785 0 0.019596439448784399 -0.16744493330375371 0 0.025540403417393751 -0.1677775419388785 0 0.027465449436243041 -0.1628752445715565 0 0.034071859908748191 -0.1623715567021686 0 0.031586668938662611 -0.1691709391612749 0 0.027465449436243041 -0.1628752445715565 0 0.031586668938662611 -0.1691709391612749 0 0.025540403417393751 -0.1677775419388785 0 0.027465449436243041 -0.1628752445715565 0 0.009933496317892726 -0.16685029992549011 0 0.01648447247354291 -0.15404273338364399 0 0.02294500892830088 -0.1542832107784407 0 0.009933496317892726 -0.16685029992549011 0 0.01648447247354291 -0.15404273338364399 0 0.0068311679390763679 -0.1533437069849535 0 0.019596439448784399 -0.16744493330375371 0 0.009933496317892726 -0.16685029992549011 0 0.012676990919703311 -0.16924925594887871 0 0.009933496317892726 -0.16685029992549011 0 0.012676990919703311 -0.16924925594887871 0 0.0034571977838801569 -0.17702496179755631 0 0.009933496317892726 -0.16685029992549011 0 0.012676990919703311 -0.16924925594887871 0 -0.0085976242789068957 -0.177408956520272 0 0.009933496317892726 -0.16685029992549011 0 -0.0085976242789068957 -0.177408956520272 0 0.009933496317892726 -0.16685029992549011 0 0.0034571977838801569 -0.17702496179755631 0 0.015764016274472759 -0.1812646672695073 0 0.012676990919703311 -0.16924925594887871 0 0.0034571977838801569 -0.17702496179755631 0 -0.003739977245034012 -0.19168309442994089 0 0.010514116253606281 -0.1925853606064957 0 0.0034571977838801569 -0.17702496179755631 0 0.010514116253606281 -0.1925853606064957 0 0.015764016274472759 -0.1812646672695073 0 0.0034571977838801569 -0.17702496179755631 0 0.02166725362828328 -0.1398342401410575 0 0.019282665512654749 -0.1297026577714144 0 0.01241268948209219 -0.14437852502616319 0 0.034824944079593127 -0.12500853882757099 0 0.019282665512654749 -0.1297026577714144 0 0.030566093298411881 -0.13865773310914861 0 0.02166725362828328 -0.1398342401410575 0 0.019282665512654749 -0.1297026577714144 0 0.030566093298411881 -0.13865773310914861 0 0.031672068294339203 -0.14528428076340441 0 0.030566093298411881 -0.13865773310914861 0 0.024335151646156381 -0.14706399980032239 0 0.02166725362828328 -0.1398342401410575 0 0.030566093298411881 -0.13865773310914861 0 0.024335151646156381 -0.14706399980032239 0 0.031672068294339203 -0.14528428076340441 0 0.024335151646156381 -0.14706399980032239 0 0.030051573782975471 -0.15027594372919439 0 0.033920350420936912 -0.1531830770535528 0 0.030051573782975471 -0.15027594372919439 0 0.02294500892830088 -0.1542832107784407 0 0.024335151646156381 -0.14706399980032239 0 0.030051573782975471 -0.15027594372919439 0 0.02294500892830088 -0.1542832107784407 0 0.024335151646156381 -0.14706399980032239 0 0.01648447247354291 -0.15404273338364399 0 0.01241268948209219 -0.14437852502616319 0 0.024335151646156381 -0.14706399980032239 0 0.01648447247354291 -0.15404273338364399 0 0.02294500892830088 -0.1542832107784407 0 0.02166725362828328 -0.1398342401410575 0 0.024335151646156381 -0.14706399980032239 0 0.01241268948209219 -0.14437852502616319 0 -0.011505986517222349 -0.14810326960451681 0 0.01241268948209219 -0.14437852502616319 0 0.0068311679390763679 -0.1533437069849535 0 -0.011505986517222349 -0.14810326960451681 0 0.009933496317892726 -0.16685029992549011 0 0.0068311679390763679 -0.1533437069849535 0 -0.011505986517222349 -0.14810326960451681 0 0.01241268948209219 -0.14437852502616319 0 0.0027021066240326768 -0.1317064378292063 0 0.01648447247354291 -0.15404273338364399 0 0.01241268948209219 -0.14437852502616319 0 0.0068311679390763679 -0.1533437069849535 0 0.019282665512654749 -0.1297026577714144 0 0.01241268948209219 -0.14437852502616319 0 0.0027021066240326768 -0.1317064378292063 0 0.019282665512654749 -0.1297026577714144 0 0.0027021066240326768 -0.1317064378292063 0 0.005085065621477718 -0.1151057880332567 0 0.019282665512654749 -0.1297026577714144 0 0.005085065621477718 -0.1151057880332567 0 0.024129304522527751 -0.1089818526354679 0 0.034824944079593127 -0.12500853882757099 0 0.019282665512654749 -0.1297026577714144 0 0.024129304522527751 -0.1089818526354679 0 0.024129304522527751 -0.1089818526354679 0 0.01380815825635252 -0.094132232187142617 0 0.031293966725895003 -0.08518965294817829 0 -0.00044729776891663488 -0.1011528385718463 0 0.005085065621477718 -0.1151057880332567 0 0.01380815825635252 -0.094132232187142617 0 0.005085065621477718 -0.1151057880332567 0 0.024129304522527751 -0.1089818526354679 0 0.01380815825635252 -0.094132232187142617 0 0.01380815825635252 -0.094132232187142617 0 0.0042106568376920582 -0.081118225430045127 0 0.020039989671696231 -0.071989185162356889 0 -0.00044729776891663488 -0.1011528385718463 0 0.01380815825635252 -0.094132232187142617 0 0.0042106568376920582 -0.081118225430045127 0 0.0042106568376920582 -0.081118225430045127 0 0.0052181775422467033 -0.064346337314722044 0 0.020039989671696231 -0.071989185162356889 0 -0.0043762627118289626 -0.071729097412358583 0 0.0042106568376920582 -0.081118225430045127 0 0.0052181775422467033 -0.064346337314722044 0 0.0052181775422467033 -0.064346337314722044 0 0.020039989671696231 -0.071989185162356889 0 0.0052181775422467033 -0.064346337314722044 0 0.020039989671696231 -0.071989185162356889 0 0.017880224012190679 -0.058506375123621113 0 0.020039989671696231 -0.071989185162356889 0 0.017880224012190679 -0.058506375123621113 0 0.035073137211611732 -0.060365082031122411 0 0.020039989671696231 -0.071989185162356889 0 0.031293966725895003 -0.08518965294817829 0 0.035073137211611732 -0.060365082031122411 0 0.01380815825635252 -0.094132232187142617 0 0.020039989671696231 -0.071989185162356889 0 0.031293966725895003 -0.08518965294817829 0 0.031293966725895003 -0.08518965294817829 0 0.050629459546369923 -0.074776417317023003 0 0.042727201812981508 -0.099892478072297022 0 0.050629459546369923 -0.074776417317023003 0 0.042727201812981508 -0.099892478072297022 0 0.031293966725895003 -0.08518965294817829 0 0.050629459546369923 -0.074776417317023003 0 0.035073137211611732 -0.060365082031122411 0 0.050629459546369923 -0.074776417317023003 0 0.058531717279758283 -0.049660356561749108 0 0.072219385832792832 -0.066659644627356851 0 0.050629459546369923 -0.074776417317023003 0 0.042727201812981508 -0.099892478072297022 0 0.069701838591585213 -0.089386546866783212 0 0.059655618646742382 -0.10475769562984739 0 0.052448498866582129 -0.1166826243517366 0 0.042727201812981508 -0.099892478072297022 0 0.059655618646742382 -0.10475769562984739 0 0.042727201812981508 -0.099892478072297022 0 0.069701838591585213 -0.089386546866783212 0 0.054296968429680029 -0.13171371816535249 0 0.052448498866582129 -0.1166826243517366 0 0.073744935315820714 -0.1130691332285727 0 0.059655618646742382 -0.10475769562984739 0 0.052448498866582129 -0.1166826243517366 0 0.073744935315820714 -0.1130691332285727 0 0.034824944079593127 -0.12500853882757099 0 0.045553716665441668 -0.12681104972785159 0 0.052448498866582129 -0.1166826243517366 0 0.034824944079593127 -0.12500853882757099 0 0.052448498866582129 -0.1166826243517366 0 0.042727201812981508 -0.099892478072297022 0 0.034824944079593127 -0.12500853882757099 0 0.024129304522527751 -0.1089818526354679 0 0.042727201812981508 -0.099892478072297022 0 0.034824944079593127 -0.12500853882757099 0 0.042727201812981508 -0.099892478072297022 0 0.024129304522527751 -0.1089818526354679 0 0.031293966725895003 -0.08518965294817829 0 0.042727201812981508 -0.099892478072297022 0 0.034885408484197772 0.0062912350017927032 0 0.01265631079038235 -0.01012693536007268 0 0.042517259973231587 -0.011683923625132649 0 -0.00118246574067416 -0.01324232368796026 0 0.0012074066645448821 -0.00065723147797176382 0 0.01265631079038235 -0.01012693536007268 0 0.01265631079038235 -0.01012693536007268 0 0.02406773205363014 -0.026959444655171291 0 0.0015263381015913891 -0.033415212413580753 0 0.01265631079038235 -0.01012693536007268 0 0.0015263381015913891 -0.033415212413580753 0 -0.00118246574067416 -0.01324232368796026 0 0.01265631079038235 -0.01012693536007268 0 0.0015263381015913891 -0.033415212413580753 0 0.01265631079038235 -0.01012693536007268 0 0.02406773205363014 -0.026959444655171291 0 0.042517259973231587 -0.011683923625132649 0 0.02406773205363014 -0.026959444655171291 0 0.021771409900077709 -0.044354063799483319 0 0.04186734150286768 -0.035217088077587062 0 0.02406773205363014 -0.026959444655171291 0 0.021771409900077709 -0.044354063799483319 0 0.0015263381015913891 -0.033415212413580753 0 0.021771409900077709 -0.044354063799483319 0 0.0015263381015913891 -0.033415212413580753 0 0.007298405735321048 -0.051477207310420908 0 -0.0096036345872028556 -0.056703489467087059 0 0.0052181775422467033 -0.064346337314722044 0 0.007298405735321048 -0.051477207310420908 0 0.0052181775422467033 -0.064346337314722044 0 0.007298405735321048 -0.051477207310420908 0 0.017880224012190679 -0.058506375123621113 0 0.021771409900077709 -0.044354063799483319 0 0.017880224012190679 -0.058506375123621113 0 0.035073137211611732 -0.060365082031122411 0 0.021771409900077709 -0.044354063799483319 0 0.007298405735321048 -0.051477207310420908 0 0.017880224012190679 -0.058506375123621113 0 0.035073137211611732 -0.060365082031122411 0 0.058531717279758283 -0.049660356561749108 0 0.04186734150286768 -0.035217088077587062 0 0.050629459546369923 -0.074776417317023003 0 0.058531717279758283 -0.049660356561749108 0 0.050629459546369923 -0.074776417317023003 0 0.035073137211611732 -0.060365082031122411 0 0.058531717279758283 -0.049660356561749108 0 0.058531717279758283 -0.049660356561749108 0 0.066433975013146629 -0.02454429580647528 0 0.058531717279758283 -0.049660356561749108 0 0.04186734150286768 -0.035217088077587062 0 0.066433975013146629 -0.02454429580647528 0 0.021771409900077709 -0.044354063799483319 0 0.035073137211611732 -0.060365082031122411 0 0.04186734150286768 -0.035217088077587062 0 0.02406773205363014 -0.026959444655171291 0 0.04186734150286768 -0.035217088077587062 0 0.042517259973231587 -0.011683923625132649 0 0.04186734150286768 -0.035217088077587062 0 0.042517259973231587 -0.011683923625132649 0 0.066433975013146629 -0.02454429580647528 0 0.052968053050369737 0.0090809173488315582 0 0.042517259973231587 -0.011683923625132649 0 0.067492943165135169 -0.0019794682467893379 0 0.042517259973231587 -0.011683923625132649 0 0.067492943165135169 -0.0019794682467893379 0 0.066433975013146629 -0.02454429580647528 0 0.087040675587819916 -0.0096101539263870796 0 0.066433975013146629 -0.02454429580647528 0 0.098032226742104309 -0.02831505409649597 0 0.083930998993742512 0.0059737405228527038 0 0.087040675587819916 -0.0096101539263870796 0 0.067492943165135169 -0.0019794682467893379 0 0.083930998993742512 0.0059737405228527038 0 0.098495163759696414 0.0029673617968291321 0 0.087040675587819916 -0.0096101539263870796 0 0.087040675587819916 -0.0096101539263870796 0 0.067492943165135169 -0.0019794682467893379 0 0.066433975013146629 -0.02454429580647528 0 0.066433975013146629 -0.02454429580647528 0 0.080663194565618018 -0.042742664855397232 0 0.098032226742104309 -0.02831505409649597 0 0.080663194565618018 -0.042742664855397232 0 0.099119978598511321 -0.045144617550746849 0 0.098032226742104309 -0.02831505409649597 0 0.058531717279758283 -0.049660356561749108 0 0.066433975013146629 -0.02454429580647528 0 0.080663194565618018 -0.042742664855397232 0 0.058531717279758283 -0.049660356561749108 0 0.080663194565618018 -0.042742664855397232 0 0.072219385832792832 -0.066659644627356851 0 0.080663194565618018 -0.042742664855397232 0 0.091985945990252393 -0.059557823171565508 0 0.072219385832792832 -0.066659644627356851 0 0.080663194565618018 -0.042742664855397232 0 0.091985945990252393 -0.059557823171565508 0 0.099119978598511321 -0.045144617550746849 0 0.091985945990252393 -0.059557823171565508 0 0.109385226414503 -0.056941989317685793 0 0.099119978598511321 -0.045144617550746849 0 0.109385226414503 -0.056941989317685793 0 0.1174221699598199 -0.069046986946925279 0 0.12664898879935529 -0.055605769639440771 0 0.109385226414503 -0.056941989317685793 0 0.1155332992800789 -0.038165556312589707 0 0.12664898879935529 -0.055605769639440771 0 0.1155332992800789 -0.038165556312589707 0 0.12954193793015309 -0.041748568408345607 0 0.12664898879935529 -0.055605769639440771 0 0.1155332992800789 -0.038165556312589707 0 0.1294320674019063 -0.023146095115484211 0 0.12954193793015309 -0.041748568408345607 0 0.109385226414503 -0.056941989317685793 0 0.1155332992800789 -0.038165556312589707 0 0.099119978598511321 -0.045144617550746849 0 0.1155332992800789 -0.038165556312589707 0 0.099119978598511321 -0.045144617550746849 0 0.098032226742104309 -0.02831505409649597 0 0.1155332992800789 -0.038165556312589707 0 0.098032226742104309 -0.02831505409649597 0 0.1112777463759113 -0.012222875866518469 0 0.087040675587819916 -0.0096101539263870796 0 0.098032226742104309 -0.02831505409649597 0 0.1112777463759113 -0.012222875866518469 0 0.1155332992800789 -0.038165556312589707 0 0.1112777463759113 -0.012222875866518469 0 0.1294320674019063 -0.023146095115484211 0 0.1158546052028349 0.0064685721448778594 0 0.13464870039648349 0.00080453217212592717 0 0.1112777463759113 -0.012222875866518469 0 0.098495163759696414 0.0029673617968291321 0 0.087040675587819916 -0.0096101539263870796 0 0.1112777463759113 -0.012222875866518469 0 0.1158546052028349 0.0064685721448778594 0 0.098495163759696414 0.0029673617968291321 0 0.1112777463759113 -0.012222875866518469 0 0.093192902201961414 -0.094424548291792879 0 0.088899626305776192 -0.1113374325741409 0 0.073744935315820714 -0.1130691332285727 0 0.093192902201961414 -0.094424548291792879 0 0.073744935315820714 -0.1130691332285727 0 0.069701838591585213 -0.089386546866783212 0 0.093192902201961414 -0.094424548291792879 0 0.073744935315820714 -0.1130691332285727 0 0.081894058627025895 -0.12584863130967919 0 0.088899626305776192 -0.1113374325741409 0 0.09397493983509804 -0.11322330148444169 0 0.081894058627025895 -0.12584863130967919 0 0.079920122843727764 -0.11786127252462281 0 0.075141871126288284 -0.1211898929860986 0 0.081894058627025895 -0.12584863130967919 0 0.088899626305776192 -0.1113374325741409 0 0.079920122843727764 -0.11786127252462281 0 0.088899626305776192 -0.1113374325741409 0 0.079920122843727764 -0.11786127252462281 0 0.073744935315820714 -0.1130691332285727 0 0.068207364780656948 -0.12563827965844471 0 0.054296968429680029 -0.13171371816535249 0 0.073744935315820714 -0.1130691332285727 0 0.054296968429680029 -0.13171371816535249 0 0.073744935315820714 -0.1130691332285727 0 0.068207364780656948 -0.12563827965844471 0 0.073744935315820714 -0.1130691332285727 0 0.075141871126288284 -0.1211898929860986 0 0.079920122843727764 -0.11786127252462281 0 0.073744935315820714 -0.1130691332285727 0 0.075141871126288284 -0.1211898929860986 0 0.081894058627025895 -0.12584863130967919 0 0.068207364780656948 -0.12563827965844471 0 0.075141871126288284 -0.1211898929860986 0 0.059655618646742382 -0.10475769562984739 0 0.073744935315820714 -0.1130691332285727 0 0.069701838591585213 -0.089386546866783212 0 0.050629459546369923 -0.074776417317023003 0 0.069701838591585213 -0.089386546866783212 0 0.072219385832792832 -0.066659644627356851 0 0.069701838591585213 -0.089386546866783212 0 0.072219385832792832 -0.066659644627356851 0 0.089711563165187497 -0.078251462936863553 0 0.091985945990252393 -0.059557823171565508 0 0.072219385832792832 -0.066659644627356851 0 0.089711563165187497 -0.078251462936863553 0 0.093192902201961414 -0.094424548291792879 0 0.069701838591585213 -0.089386546866783212 0 0.089711563165187497 -0.078251462936863553 0 0.093192902201961414 -0.094424548291792879 0 0.089711563165187497 -0.078251462936863553 0 0.1048667032735431 -0.089595599910983495 0 0.089711563165187497 -0.078251462936863553 0 0.1048667032735431 -0.089595599910983495 0 0.1056935618466131 -0.072691272791708894 0 0.1048667032735431 -0.089595599910983495 0 0.1056935618466131 -0.072691272791708894 0 0.11564058922802831 -0.08068930143821873 0 0.091985945990252393 -0.059557823171565508 0 0.089711563165187497 -0.078251462936863553 0 0.1056935618466131 -0.072691272791708894 0 0.091985945990252393 -0.059557823171565508 0 0.109385226414503 -0.056941989317685793 0 0.1056935618466131 -0.072691272791708894 0 0.1174221699598199 -0.069046986946925279 0 0.12840026197867099 -0.078951386265116219 0 0.12664898879935529 -0.055605769639440771 0 0.109385226414503 -0.056941989317685793 0 0.1056935618466131 -0.072691272791708894 0 0.1174221699598199 -0.069046986946925279 0 0.1056935618466131 -0.072691272791708894 0 0.1174221699598199 -0.069046986946925279 0 0.11564058922802831 -0.08068930143821873 0 0.1174221699598199 -0.069046986946925279 0 0.11564058922802831 -0.08068930143821873 0 0.12840026197867099 -0.078951386265116219 0 0.1048667032735431 -0.089595599910983495 0 0.11564058922802831 -0.08068930143821873 0 0.1191358060176364 -0.092450830711447801 0 0.1191358060176364 -0.092450830711447801 0 0.12840026197867099 -0.078951386265116219 0 0.11564058922802831 -0.08068930143821873 0 0.1191358060176364 -0.092450830711447801 0 0.12840026197867099 -0.078951386265116219 0 0.1058809127300703 -0.11218140843774239 0 0.12023297736745781 -0.1110263554770618 0 0.12986776683311119 -0.098514185565799078 0 0.1058809127300703 -0.11218140843774239 0 0.12986776683311119 -0.098514185565799078 0 0.1048667032735431 -0.089595599910983495 0 0.1191358060176364 -0.092450830711447801 0 0.10987135005660249 -0.1059502751577799 0 0.10987135005660249 -0.1059502751577799 0 0.1058809127300703 -0.11218140843774239 0 0.12986776683311119 -0.098514185565799078 0 0.1191358060176364 -0.092450830711447801 0 0.10987135005660249 -0.1059502751577799 0 0.12986776683311119 -0.098514185565799078 0 0.1191358060176364 -0.092450830711447801 0 0.10987135005660249 -0.1059502751577799 0 0.093192902201961414 -0.094424548291792879 0 0.088899626305776192 -0.1113374325741409 0 0.099225161677519755 -0.1035257336162041 0 0.1048667032735431 -0.089595599910983495 0 0.10987135005660249 -0.1059502751577799 0 0.099225161677519755 -0.1035257336162041 0 0.10987135005660249 -0.1059502751577799 0 0.099225161677519755 -0.1035257336162041 0 0.1058809127300703 -0.11218140843774239 0 0.088899626305776192 -0.1113374325741409 0 0.099225161677519755 -0.1035257336162041 0 0.09397493983509804 -0.11322330148444169 0 0.093192902201961414 -0.094424548291792879 0 0.1048667032735431 -0.089595599910983495 0 0.099225161677519755 -0.1035257336162041 0 0.081894058627025895 -0.12584863130967919 0 0.1058809127300703 -0.11218140843774239 0 0.099525338641528904 -0.12611341339503321 0 0.081894058627025895 -0.12584863130967919 0 0.1058809127300703 -0.11218140843774239 0 0.081894058627025895 -0.12584863130967919 0 0.09397493983509804 -0.11322330148444169 0 0.1058809127300703 -0.11218140843774239 0 0.099225161677519755 -0.1035257336162041 0 0.09397493983509804 -0.11322330148444169 0 0.1058809127300703 -0.11218140843774239 0 0.099525338641528904 -0.12611341339503321 0 0.1058809127300703 -0.11218140843774239 0 0.1121708616464093 -0.1216807098986791 0 0.1058809127300703 -0.11218140843774239 0 0.1121708616464093 -0.1216807098986791 0 0.12023297736745781 -0.1110263554770618 0 0.11997683785091839 -0.1276371159963853 0 0.121067612134044 -0.1214532534018402 0 0.13188977167139071 -0.12546883223523481 0 0.12023297736745781 -0.1110263554770618 0 0.121067612134044 -0.1214532534018402 0 0.13188977167139071 -0.12546883223523481 0 0.11997683785091839 -0.1276371159963853 0 0.1121708616464093 -0.1216807098986791 0 0.121067612134044 -0.1214532534018402 0 0.1121708616464093 -0.1216807098986791 0 0.12023297736745781 -0.1110263554770618 0 0.121067612134044 -0.1214532534018402 0 0.12023297736745781 -0.1110263554770618 0 0.12986776683311119 -0.098514185565799078 0 0.13188977167139071 -0.12546883223523481 0 0.12986776683311119 -0.098514185565799078 0 0.13188977167139071 -0.12546883223523481 0 0.14925441928633251 -0.10969288085116551 0 0.13995942417209239 -0.1034127274713456 0 0.13188977167139071 -0.12546883223523481 0 0.14724036225017881 -0.1245170930860646 0 0.14925441928633251 -0.10969288085116551 0 0.13188977167139071 -0.12546883223523481 0 0.14925441928633251 -0.10969288085116551 0 0.15485465026004211 -0.11932571079310079 0 0.15999890680388329 -0.1096406796162286 0 0.14724036225017881 -0.1245170930860646 0 0.15485465026004211 -0.11932571079310079 0 0.15557261582888751 -0.13003178131142151 0 0.14724036225017881 -0.1245170930860646 0 0.14925441928633251 -0.10969288085116551 0 0.15485465026004211 -0.11932571079310079 0 0.14925441928633251 -0.10969288085116551 0 0.14348993397904131 -0.092765062884646393 0 0.1620153957752187 -0.097165399419701551 0 0.14348993397904131 -0.092765062884646393 0 0.1620153957752187 -0.097165399419701551 0 0.14925441928633251 -0.10969288085116551 0 0.13995942417209239 -0.1034127274713456 0 0.14348993397904131 -0.092765062884646393 0 0.13995942417209239 -0.1034127274713456 0 0.12986776683311119 -0.098514185565799078 0 0.13188977167139071 -0.12546883223523481 0 0.13995942417209239 -0.1034127274713456 0 0.12986776683311119 -0.098514185565799078 0 0.14348993397904131 -0.092765062884646393 0 0.12986776683311119 -0.098514185565799078 0 0.12840026197867099 -0.078951386265116219 0 0.1428482005174804 -0.076716741777837147 0 0.1191358060176364 -0.092450830711447801 0 0.12986776683311119 -0.098514185565799078 0 0.12840026197867099 -0.078951386265116219 0 0.12986776683311119 -0.098514185565799078 0 0.12840026197867099 -0.078951386265116219 0 0.12840026197867099 -0.078951386265116219 0 0.12664898879935529 -0.055605769639440771 0 0.12840026197867099 -0.078951386265116219 0 0.12664898879935529 -0.055605769639440771 0 0.14464694777039611 -0.055277979731059648 0 0.12840026197867099 -0.078951386265116219 0 0.1428482005174804 -0.076716741777837147 0 0.14464694777039611 -0.055277979731059648 0 0.12840026197867099 -0.078951386265116219 0 0.14464694777039611 -0.055277979731059648 0 0.1428482005174804 -0.076716741777837147 0 0.15680899227989839 -0.06637062400294011 0 0.14464694777039611 -0.055277979731059648 0 0.1428482005174804 -0.076716741777837147 0 0.15451703372532541 -0.084469533324270707 0 0.15680899227989839 -0.06637062400294011 0 0.12986776683311119 -0.098514185565799078 0 0.15451703372532541 -0.084469533324270707 0 0.12986776683311119 -0.098514185565799078 0 0.14348993397904131 -0.092765062884646393 0 0.15451703372532541 -0.084469533324270707 0 0.14348993397904131 -0.092765062884646393 0 0.15451703372532541 -0.084469533324270707 0 0.1620153957752187 -0.097165399419701551 0 0.12986776683311119 -0.098514185565799078 0 0.1428482005174804 -0.076716741777837147 0 0.15451703372532541 -0.084469533324270707 0 0.15451703372532541 -0.084469533324270707 0 0.1674193516126988 -0.088794767656503876 0 0.1620153957752187 -0.097165399419701551 0 0.15451703372532541 -0.084469533324270707 0 0.1674193516126988 -0.088794767656503876 0 0.16389165652408541 -0.076485311925560115 0 0.1674193516126988 -0.088794767656503876 0 0.16389165652408541 -0.076485311925560115 0 0.17613181446746839 -0.084287857658230353 0 0.15451703372532541 -0.084469533324270707 0 0.15680899227989839 -0.06637062400294011 0 0.16389165652408541 -0.076485311925560115 0 0.16389165652408541 -0.076485311925560115 0 0.1717227713635387 -0.067009979361705274 0 0.17613181446746839 -0.084287857658230353 0 0.15680899227989839 -0.06637062400294011 0 0.16389165652408541 -0.076485311925560115 0 0.1717227713635387 -0.067009979361705274 0 0.15680899227989839 -0.06637062400294011 0 0.1717227713635387 -0.067009979361705274 0 0.1652446184022294 -0.054500080927008407 0 0.1717227713635387 -0.067009979361705274 0 0.17613181446746839 -0.084287857658230353 0 0.1717227713635387 -0.067009979361705274 0 0.18346211879182289 -0.064955309332027283 0 0.18137547142311691 -0.085525622921553163 0 0.18346211879182289 -0.064955309332027283 0 0.18137547142311691 -0.085525622921553163 0 0.1952329782378138 -0.068464889048657496 0 0.1717227713635387 -0.067009979361705274 0 0.18137547142311691 -0.085525622921553163 0 0.1717227713635387 -0.067009979361705274 0 0.18346211879182289 -0.064955309332027283 0 0.1746283364613696 -0.057560297553190053 0 0.18137547142311691 -0.085525622921553163 0 0.17613181446746839 -0.084287857658230353 0 0.18054085757139629 -0.1015657359547559 0 0.17613181446746839 -0.084287857658230353 0 0.18054085757139629 -0.1015657359547559 0 0.1674193516126988 -0.088794767656503876 0 0.17613181446746839 -0.084287857658230353 0 0.18054085757139629 -0.1015657359547559 0 0.1717227713635387 -0.067009979361705274 0 0.18137547142311691 -0.085525622921553163 0 0.17613181446746839 -0.084287857658230353 0 0.18137547142311691 -0.085525622921553163 0 0.19100769245097829 -0.1040519139747048 0 0.18137547142311691 -0.085525622921553163 0 0.18054085757139629 -0.1015657359547559 0 0.19100769245097829 -0.1040519139747048 0 0.18054085757139629 -0.1015657359547559 0 0.1749190978293893 -0.1165979942053425 0 0.16884250162088479 -0.1080310140379921 0 0.18054085757139629 -0.1015657359547559 0 0.19100769245097829 -0.1040519139747048 0 0.18054085757139629 -0.1015657359547559 0 0.1862357176231304 -0.1238823921021804 0 0.1749190978293893 -0.1165979942053425 0 0.18054085757139629 -0.1015657359547559 0 0.1862357176231304 -0.1238823921021804 0 0.19100769245097829 -0.1040519139747048 0 0.18054085757139629 -0.1015657359547559 0 0.1862357176231304 -0.1238823921021804 0 0.1862357176231304 -0.1238823921021804 0 0.1749190978293893 -0.1165979942053425 0 0.17324983187337631 -0.13165498831909611 0 0.1749190978293893 -0.1165979942053425 0 0.16471491079178111 -0.1205264202314431 0 0.16884250162088479 -0.1080310140379921 0 0.16471491079178111 -0.1205264202314431 0 0.15999890680388329 -0.1096406796162286 0 0.16884250162088479 -0.1080310140379921 0 0.1749190978293893 -0.1165979942053425 0 0.16471491079178111 -0.1205264202314431 0 0.17324983187337631 -0.13165498831909611 0 0.15485465026004211 -0.11932571079310079 0 0.16471491079178111 -0.1205264202314431 0 0.15557261582888751 -0.13003178131142151 0 0.15485465026004211 -0.11932571079310079 0 0.16471491079178111 -0.1205264202314431 0 0.15999890680388329 -0.1096406796162286 0 0.18054085757139629 -0.1015657359547559 0 0.1620153957752187 -0.097165399419701551 0 0.1674193516126988 -0.088794767656503876 0 0.18054085757139629 -0.1015657359547559 0 0.1620153957752187 -0.097165399419701551 0 0.14925441928633251 -0.10969288085116551 0 0.15999890680388329 -0.1096406796162286 0 0.1620153957752187 -0.097165399419701551 0 0.15999890680388329 -0.1096406796162286 0 0.1620153957752187 -0.097165399419701551 0 0.16884250162088479 -0.1080310140379921 0 0.18054085757139629 -0.1015657359547559 0 0.1620153957752187 -0.097165399419701551 0 0.16884250162088479 -0.1080310140379921 0 0.13464870039648349 0.00080453217212592717 0 0.15480995508657039 -0.001084596553268768 0 0.14892696920713289 -0.018041582065753459 0 0.13464870039648349 0.00080453217212592717 0 0.1294320674019063 -0.023146095115484211 0 0.14892696920713289 -0.018041582065753459 0 0.13464870039648349 0.00080453217212592717 0 0.1112777463759113 -0.012222875866518469 0 0.1294320674019063 -0.023146095115484211 0 0.1294320674019063 -0.023146095115484211 0 0.14892696920713289 -0.018041582065753459 0 0.14270131340979469 -0.036531096068384838 0 0.14892696920713289 -0.018041582065753459 0 0.14270131340979469 -0.036531096068384838 0 0.16089363356212191 -0.031604573197003549 0 0.14270131340979469 -0.036531096068384838 0 0.14464694777039611 -0.055277979731059648 0 0.16089363356212191 -0.031604573197003549 0 0.14464694777039611 -0.055277979731059648 0 0.15561449558007559 -0.051164132387281437 0 0.16089363356212191 -0.031604573197003549 0 0.14464694777039611 -0.055277979731059648 0 0.16089363356212191 -0.031604573197003549 0 0.14270131340979469 -0.036531096068384838 0 0.12954193793015309 -0.041748568408345607 0 0.14464694777039611 -0.055277979731059648 0 0.1294320674019063 -0.023146095115484211 0 0.14270131340979469 -0.036531096068384838 0 0.12954193793015309 -0.041748568408345607 0 0.12954193793015309 -0.041748568408345607 0 0.12664898879935529 -0.055605769639440771 0 0.14464694777039611 -0.055277979731059648 0 0.15680899227989839 -0.06637062400294011 0 0.14464694777039611 -0.055277979731059648 0 0.15561449558007559 -0.051164132387281437 0 0.15680899227989839 -0.06637062400294011 0 0.15561449558007559 -0.051164132387281437 0 0.1652446184022294 -0.054500080927008407 0 0.15561449558007559 -0.051164132387281437 0 0.1652446184022294 -0.054500080927008407 0 0.1617942405007988 -0.043199732881276223 0 0.1652446184022294 -0.054500080927008407 0 0.1746283364613696 -0.057560297553190053 0 0.1617942405007988 -0.043199732881276223 0 0.1717227713635387 -0.067009979361705274 0 0.1652446184022294 -0.054500080927008407 0 0.1717227713635387 -0.067009979361705274 0 0.1652446184022294 -0.054500080927008407 0 0.1746283364613696 -0.057560297553190053 0 0.1746283364613696 -0.057560297553190053 0 0.1828119860636557 -0.050363577362968731 0 0.1617942405007988 -0.043199732881276223 0 0.18346211879182289 -0.064955309332027283 0 0.1746283364613696 -0.057560297553190053 0 0.1828119860636557 -0.050363577362968731 0 0.18346211879182289 -0.064955309332027283 0 0.1828119860636557 -0.050363577362968731 0 0.19188844298534441 -0.056659859735039647 0 0.1617942405007988 -0.043199732881276223 0 0.18853740735089011 -0.033706188378118708 0 0.1828119860636557 -0.050363577362968731 0 0.1617942405007988 -0.043199732881276223 0 0.18853740735089011 -0.033706188378118708 0 0.15561449558007559 -0.051164132387281437 0 0.16089363356212191 -0.031604573197003549 0 0.1617942405007988 -0.043199732881276223 0 0.16089363356212191 -0.031604573197003549 0 0.1617942405007988 -0.043199732881276223 0 0.18853740735089011 -0.033706188378118708 0 0.16089363356212191 -0.031604573197003549 0 0.17714031935384769 -0.0079311666629475405 0 0.14892696920713289 -0.018041582065753459 0 0.16089363356212191 -0.031604573197003549 0 0.17714031935384769 -0.0079311666629475405 0 0.16089363356212191 -0.031604573197003549 0 0.17714031935384769 -0.0079311666629475405 0 0.18853740735089011 -0.033706188378118708 0 0.1657030786406338 0.0084270166623369204 0 0.15480995508657039 -0.001084596553268768 0 0.17714031935384769 -0.0079311666629475405 0 0.15480995508657039 -0.001084596553268768 0 0.14892696920713289 -0.018041582065753459 0 0.17714031935384769 -0.0079311666629475405 0 0.21351355446813719 -0.0021103410187178909 0 0.2110126965438916 -0.012672932103663791 0 0.2228246624943325 -0.0092295053444410857 0 0.2110126965438916 -0.012672932103663791 0 0.21911622703360889 -0.015650702578479541 0 0.2228246624943325 -0.0092295053444410857 0 0.21351355446813719 -0.0021103410187178909 0 0.2110126965438916 -0.012672932103663791 0 0.19836939172364151 -0.01016904411482358 0 0.1998105265397013 0.00335350757378736 0 0.21351355446813719 -0.0021103410187178909 0 0.19836939172364151 -0.01016904411482358 0 0.1998105265397013 0.00335350757378736 0 0.17714031935384769 -0.0079311666629475405 0 0.19836939172364151 -0.01016904411482358 0 0.17714031935384769 -0.0079311666629475405 0 0.19836939172364151 -0.01016904411482358 0 0.18853740735089011 -0.033706188378118708 0 0.2110126965438916 -0.012672932103663791 0 0.19836939172364151 -0.01016904411482358 0 0.18853740735089011 -0.033706188378118708 0 0.21528057420098159 -0.024212643874961401 0 0.18853740735089011 -0.033706188378118708 0 0.2110126965438916 -0.012672932103663791 0 0.21528057420098159 -0.024212643874961401 0 0.18853740735089011 -0.033706188378118708 0 0.21528057420098159 -0.024212643874961401 0 0.20886364623554921 -0.031523512657201581 0 0.18853740735089011 -0.033706188378118708 0 0.2110126965438916 -0.012672932103663791 0 0.21528057420098159 -0.024212643874961401 0 0.21911622703360889 -0.015650702578479541 0 0.21528057420098159 -0.024212643874961401 0 0.2158000993154765 -0.027276596113623111 0 0.21360323626451261 -0.02858374534336202 0 0.21528057420098159 -0.024212643874961401 0 0.2158000993154765 -0.027276596113623111 0 0.21995729679401421 -0.029331280632926501 0 0.2158000993154765 -0.027276596113623111 0 0.21503400689837671 -0.030930810510401429 0 0.21995729679401421 -0.029331280632926501 0 0.2158000993154765 -0.027276596113623111 0 0.21503400689837671 -0.030930810510401429 0 0.21360323626451261 -0.02858374534336202 0 0.21528057420098159 -0.024212643874961401 0 0.21360323626451261 -0.02858374534336202 0 0.20886364623554921 -0.031523512657201581 0 0.21503400689837671 -0.030930810510401429 0 0.21360323626451261 -0.02858374534336202 0 0.20886364623554921 -0.031523512657201581 0 0.2128060919330283 -0.035124071741943173 0 0.2180191377477218 -0.035203133534298187 0 0.2167024847658664 -0.043974661413588162 0 0.21503400689837671 -0.030930810510401429 0 0.2128060919330283 -0.035124071741943173 0 0.20886364623554921 -0.031523512657201581 0 0.21503400689837671 -0.030930810510401429 0 0.2128060919330283 -0.035124071741943173 0 0.2180191377477218 -0.035203133534298187 0 0.21503400689837671 -0.030930810510401429 0 0.2180191377477218 -0.035203133534298187 0 0.21995729679401421 -0.029331280632926501 0 0.2167024847658664 -0.043974661413588162 0 0.20890374551960481 -0.040729144831228678 0 0.20897987019450001 -0.050060865146210963 0 0.2128060919330283 -0.035124071741943173 0 0.2167024847658664 -0.043974661413588162 0 0.20890374551960481 -0.040729144831228678 0 0.20890374551960481 -0.040729144831228678 0 0.19655169947710091 -0.043788383486002072 0 0.20897987019450001 -0.050060865146210963 0 0.2128060919330283 -0.035124071741943173 0 0.20890374551960481 -0.040729144831228678 0 0.20886364623554921 -0.031523512657201581 0 0.20890374551960481 -0.040729144831228678 0 0.20886364623554921 -0.031523512657201581 0 0.19655169947710091 -0.043788383486002072 0 0.1828119860636557 -0.050363577362968731 0 0.18853740735089011 -0.033706188378118708 0 0.19655169947710091 -0.043788383486002072 0 0.20886364623554921 -0.031523512657201581 0 0.18853740735089011 -0.033706188378118708 0 0.19655169947710091 -0.043788383486002072 0 0.19655169947710091 -0.043788383486002072 0 0.20138343235632811 -0.055727139445542639 0 0.20897987019450001 -0.050060865146210963 0 0.19655169947710091 -0.043788383486002072 0 0.19188844298534441 -0.056659859735039647 0 0.20138343235632811 -0.055727139445542639 0 0.1828119860636557 -0.050363577362968731 0 0.19655169947710091 -0.043788383486002072 0 0.19188844298534441 -0.056659859735039647 0 0.19188844298534441 -0.056659859735039647 0 0.20138343235632811 -0.055727139445542639 0 0.1952329782378138 -0.068464889048657496 0 0.20138343235632811 -0.055727139445542639 0 0.22670270369963491 -0.067064047377793826 0 0.20138343235632811 -0.055727139445542639 0 0.21577564808412511 -0.056666161138016313 0 0.22670270369963491 -0.067064047377793826 0 0.20138343235632811 -0.055727139445542639 0 0.20897987019450001 -0.050060865146210963 0 0.21577564808412511 -0.056666161138016313 0 0.2167024847658664 -0.043974661413588162 0 0.20897987019450001 -0.050060865146210963 0 0.21577564808412511 -0.056666161138016313 0 0.21577564808412511 -0.056666161138016313 0 0.23694359709532001 -0.061394592404840097 0 0.22670270369963491 -0.067064047377793826 0 0.21577564808412511 -0.056666161138016313 0 0.22648325856373289 -0.049317463857355977 0 0.23694359709532001 -0.061394592404840097 0 0.21577564808412511 -0.056666161138016313 0 0.23694359709532001 -0.061394592404840097 0 0.2167024847658664 -0.043974661413588162 0 0.21577564808412511 -0.056666161138016313 0 0.22648325856373289 -0.049317463857355977 0 0.22648325856373289 -0.049317463857355977 0 0.23694359709532001 -0.061394592404840097 0 0.23716366819637241 -0.046229271507985323 0 0.25811154610651499 -0.066123023671663908 0 0.23694359709532001 -0.061394592404840097 0 0.24870160087168189 -0.052882304334001928 0 0.23694359709532001 -0.061394592404840097 0 0.24870160087168189 -0.052882304334001928 0 0.23716366819637241 -0.046229271507985323 0 0.24870160087168189 -0.052882304334001928 0 0.23716366819637241 -0.046229271507985323 0 0.24731406762381819 -0.035960341631652723 0 0.23716366819637241 -0.046229271507985323 0 0.24731406762381819 -0.035960341631652723 0 0.23342582712955959 -0.033308149953783547 0 0.23342582712955959 -0.033308149953783547 0 0.2258308946769807 -0.038322632822349968 0 0.22548915127375299 -0.027513718828695861 0 0.22648325856373289 -0.049317463857355977 0 0.23716366819637241 -0.046229271507985323 0 0.2258308946769807 -0.038322632822349968 0 0.23716366819637241 -0.046229271507985323 0 0.23342582712955959 -0.033308149953783547 0 0.2258308946769807 -0.038322632822349968 0 0.2180191377477218 -0.035203133534298187 0 0.2167024847658664 -0.043974661413588162 0 0.2258308946769807 -0.038322632822349968 0 0.2167024847658664 -0.043974661413588162 0 0.22648325856373289 -0.049317463857355977 0 0.2258308946769807 -0.038322632822349968 0 0.2180191377477218 -0.035203133534298187 0 0.2258308946769807 -0.038322632822349968 0 0.21995729679401421 -0.029331280632926501 0 0.2258308946769807 -0.038322632822349968 0 0.22548915127375299 -0.027513718828695861 0 0.21995729679401421 -0.029331280632926501 0 0.21528057420098159 -0.024212643874961401 0 0.2313313538768734 -0.018514784978234038 0 0.22829619310998309 -0.01520182636873813 0 0.21528057420098159 -0.024212643874961401 0 0.2313313538768734 -0.018514784978234038 0 0.21528057420098159 -0.024212643874961401 0 0.22548915127375299 -0.027513718828695861 0 0.2313313538768734 -0.018514784978234038 0 0.21528057420098159 -0.024212643874961401 0 0.22548915127375299 -0.027513718828695861 0 0.21995729679401421 -0.029331280632926501 0 0.21528057420098159 -0.024212643874961401 0 0.22829619310998309 -0.01520182636873813 0 0.21528057420098159 -0.024212643874961401 0 0.21911622703360889 -0.015650702578479541 0 0.22829619310998309 -0.01520182636873813 0 0.2313313538768734 -0.018514784978234038 0 0.22829619310998309 -0.01520182636873813 0 0.23342582712955959 -0.033308149953783547 0 0.22548915127375299 -0.027513718828695861 0 0.2313313538768734 -0.018514784978234038 0 0.25508119948702751 -0.010083838205662381 0 0.2313313538768734 -0.018514784978234038 0 0.2482857443068576 -0.021714794414400052 0 0.24731406762381819 -0.035960341631652723 0 0.2313313538768734 -0.018514784978234038 0 0.2482857443068576 -0.021714794414400052 0 0.24731406762381819 -0.035960341631652723 0 0.23342582712955959 -0.033308149953783547 0 0.2313313538768734 -0.018514784978234038 0 0.24731406762381819 -0.035960341631652723 0 0.2313313538768734 -0.018514784978234038 0 0.25508119948702751 -0.010083838205662381 0 0.2313313538768734 -0.018514784978234038 0 0.24138147174972829 -0.0061427828714447699 0 0.25508119948702751 -0.010083838205662381 0 0.2313313538768734 -0.018514784978234038 0 0.24138147174972829 -0.0061427828714447699 0 0.22829619310998309 -0.01520182636873813 0 0.25446675038947358 0.0029162606258486688 0 0.2541426920980116 -0.0036136263454906951 0 0.24138147174972829 -0.0061427828714447699 0 0.25446675038947358 0.0029162606258486688 0 0.24138147174972829 -0.0061427828714447699 0 0.22999165343287109 0.0038227322559807589 0 0.24138147174972829 -0.0061427828714447699 0 0.23189167676904729 -0.0064153040848911828 0 0.22999165343287109 0.0038227322559807589 0 0.23189167676904729 -0.0064153040848911828 0 0.2228246624943325 -0.0092295053444410857 0 0.22999165343287109 0.0038227322559807589 0 0.21351355446813719 -0.0021103410187178909 0 0.2228246624943325 -0.0092295053444410857 0 0.23189167676904729 -0.0064153040848911828 0 0.22829619310998309 -0.01520182636873813 0 0.2228246624943325 -0.0092295053444410857 0 0.2313313538768734 -0.018514784978234038 0 0.24138147174972829 -0.0061427828714447699 0 0.22829619310998309 -0.01520182636873813 0 0.24138147174972829 -0.0061427828714447699 0 0.23189167676904729 -0.0064153040848911828 0 0.22829619310998309 -0.01520182636873813 0 0.21911622703360889 -0.015650702578479541 0 0.22829619310998309 -0.01520182636873813 0 0.2228246624943325 -0.0092295053444410857 0 0.22829619310998309 -0.01520182636873813 0 0.2228246624943325 -0.0092295053444410857 0 0.2084634723971549 -0.097930235578601213 0 0.21737999015654699 -0.1103161024944793 0 0.2275791846540145 -0.10054182369239011 0 0.21737999015654699 -0.1103161024944793 0 0.19100769245097829 -0.1040519139747048 0 0.2084634723971549 -0.097930235578601213 0 0.21140608144591419 -0.084503356370523836 0 0.2275791846540145 -0.10054182369239011 0 0.2084634723971549 -0.097930235578601213 0 0.21737999015654699 -0.1103161024944793 0 0.19100769245097829 -0.1040519139747048 0 0.21737999015654699 -0.1103161024944793 0 0.21277072480774051 -0.1248863227998855 0 0.20025029595199689 -0.1218288277367077 0 0.21737999015654699 -0.1103161024944793 0 0.21277072480774051 -0.1248863227998855 0 0.2239597136694004 -0.1277946194696456 0 0.1862357176231304 -0.1238823921021804 0 0.20025029595199689 -0.1218288277367077 0 0.19100769245097829 -0.1040519139747048 0 0.21737999015654699 -0.1103161024944793 0 0.20025029595199689 -0.1218288277367077 0 0.19100769245097829 -0.1040519139747048 0 0.20025029595199689 -0.1218288277367077 0 0.19100769245097829 -0.1040519139747048 0 0.2084634723971549 -0.097930235578601213 0 0.19100769245097829 -0.1040519139747048 0 0.19624682445825681 -0.08914472739044943 0 0.18137547142311691 -0.085525622921553163 0 0.19100769245097829 -0.1040519139747048 0 0.19624682445825681 -0.08914472739044943 0 0.19624682445825681 -0.08914472739044943 0 0.1952329782378138 -0.068464889048657496 0 0.21140608144591419 -0.084503356370523836 0 0.18137547142311691 -0.085525622921553163 0 0.19624682445825681 -0.08914472739044943 0 0.1952329782378138 -0.068464889048657496 0 0.20138343235632811 -0.055727139445542639 0 0.1952329782378138 -0.068464889048657496 0 0.21149591893834541 -0.070957707586151192 0 0.18346211879182289 -0.064955309332027283 0 0.19188844298534441 -0.056659859735039647 0 0.1952329782378138 -0.068464889048657496 0 0.1952329782378138 -0.068464889048657496 0 0.21140608144591419 -0.084503356370523836 0 0.20138343235632811 -0.055727139445542639 0 0.21149591893834541 -0.070957707586151192 0 0.22670270369963491 -0.067064047377793826 0 0.1952329782378138 -0.068464889048657496 0 0.21149591893834541 -0.070957707586151192 0 0.21140608144591419 -0.084503356370523836 0 0.2084634723971549 -0.097930235578601213 0 0.19624682445825681 -0.08914472739044943 0 0.21140608144591419 -0.084503356370523836 0 0.21149591893834541 -0.070957707586151192 0 0.21140608144591419 -0.084503356370523836 0 0.2227543989520358 -0.079029105688238177 0 0.21140608144591419 -0.084503356370523836 0 0.2275791846540145 -0.10054182369239011 0 0.2227543989520358 -0.079029105688238177 0 0.23449163343577681 -0.083610487294907485 0 0.2275791846540145 -0.10054182369239011 0 0.21140608144591419 -0.084503356370523836 0 0.2227543989520358 -0.079029105688238177 0 0.2275791846540145 -0.10054182369239011 0 0.2227543989520358 -0.079029105688238177 0 0.22670270369963491 -0.067064047377793826 0 0.23449163343577681 -0.083610487294907485 0 0.21149591893834541 -0.070957707586151192 0 0.2227543989520358 -0.079029105688238177 0 0.22670270369963491 -0.067064047377793826 0 0.25202197504294188 -0.078400955310045109 0 0.25811154610651499 -0.066123023671663908 0 0.23694359709532001 -0.061394592404840097 0 0.25202197504294188 -0.078400955310045109 0 0.22670270369963491 -0.067064047377793826 0 0.25202197504294188 -0.078400955310045109 0 0.22670270369963491 -0.067064047377793826 0 0.23449163343577681 -0.083610487294907485 0 0.25202197504294188 -0.078400955310045109 0 0.23694359709532001 -0.061394592404840097 0 0.22670270369963491 -0.067064047377793826 0 0.25811154610651499 -0.066123023671663908 0 0.23694359709532001 -0.061394592404840097 0 0.25202197504294188 -0.078400955310045109 0 0.23449163343577681 -0.083610487294907485 0 0.24624903761231479 -0.086847438891893419 0 0.23449163343577681 -0.083610487294907485 0 0.24292322406264641 -0.096552741650977186 0 0.2275791846540145 -0.10054182369239011 0 0.23449163343577681 -0.083610487294907485 0 0.24624903761231479 -0.086847438891893419 0 0.24292322406264641 -0.096552741650977186 0 0.25304747237378489 -0.090741332181114118 0 0.24624903761231479 -0.086847438891893419 0 0.24292322406264641 -0.096552741650977186 0 0.2275791846540145 -0.10054182369239011 0 0.24375228786211539 -0.116580291014256 0 0.24292322406264641 -0.096552741650977186 0 0.2275791846540145 -0.10054182369239011 0 0.24375228786211539 -0.116580291014256 0 0.25771864553297669 -0.099620140202181948 0 0.24292322406264641 -0.096552741650977186 0 0.24375228786211539 -0.116580291014256 0 0.21737999015654699 -0.1103161024944793 0 0.2275791846540145 -0.10054182369239011 0 0.24375228786211539 -0.116580291014256 0 0.21737999015654699 -0.1103161024944793 0 0.24375228786211539 -0.116580291014256 0 0.2239597136694004 -0.1277946194696456 0 0.21737999015654699 -0.1103161024944793 0 0.24375228786211539 -0.116580291014256 0 0.24375228786211539 -0.116580291014256 0 0.235054631712311 -0.13955626642273861 0 0.24955680073527009 -0.143898101237383 0 0.235054631712311 -0.13955626642273861 0 0.24955680073527009 -0.143898101237383 0 0.23627457688356679 -0.15840319400941011 0 0.25449645062408999 -0.16331052089379791 0 0.24955680073527009 -0.143898101237383 0 0.23627457688356679 -0.15840319400941011 0 0.235054631712311 -0.13955626642273861 0 0.22199130801810529 -0.1478171468904442 0 0.23627457688356679 -0.15840319400941011 0 0.24375228786211539 -0.116580291014256 0 0.235054631712311 -0.13955626642273861 0 0.2239597136694004 -0.1277946194696456 0 0.235054631712311 -0.13955626642273861 0 0.22199130801810529 -0.1478171468904442 0 0.2239597136694004 -0.1277946194696456 0 0.20025029595199689 -0.1218288277367077 0 0.20949289945301761 -0.1396057414987095 0 0.22199130801810529 -0.1478171468904442 0 0.2239597136694004 -0.1277946194696456 0 0.20949289945301761 -0.1396057414987095 0 0.21277072480774051 -0.1248863227998855 0 0.20025029595199689 -0.1218288277367077 0 0.20949289945301761 -0.1396057414987095 0 0.21277072480774051 -0.1248863227998855 0 0.2239597136694004 -0.1277946194696456 0 0.20949289945301761 -0.1396057414987095 0 0.22199130801810529 -0.1478171468904442 0 0.20949289945301761 -0.1396057414987095 0 0.2069794531536403 -0.1537888919124783 0 0.20949289945301761 -0.1396057414987095 0 0.2069794531536403 -0.1537888919124783 0 0.1919305776748628 -0.1461990482496055 0 0.2069794531536403 -0.1537888919124783 0 0.1919305776748628 -0.1461990482496055 0 0.19225769977326759 -0.16432491474026781 0 0.1862357176231304 -0.1238823921021804 0 0.1919305776748628 -0.1461990482496055 0 0.19714487019074359 -0.1333469628700395 0 0.20025029595199689 -0.1218288277367077 0 0.20949289945301761 -0.1396057414987095 0 0.19714487019074359 -0.1333469628700395 0 0.20949289945301761 -0.1396057414987095 0 0.1919305776748628 -0.1461990482496055 0 0.19714487019074359 -0.1333469628700395 0 0.1862357176231304 -0.1238823921021804 0 0.1919305776748628 -0.1461990482496055 0 0.1862357176231304 -0.1238823921021804 0 0.20025029595199689 -0.1218288277367077 0 0.19714487019074359 -0.1333469628700395 0 0.19629081049063871 -0.1815365299480412 0 0.19225769977326759 -0.16432491474026781 0 0.17982600751226671 -0.1762593337595659 0 0.19629081049063871 -0.1815365299480412 0 0.19225769977326759 -0.16432491474026781 0 0.22018657323669569 -0.16775416802968299 0 0.2069794531536403 -0.1537888919124783 0 0.19225769977326759 -0.16432491474026781 0 0.22018657323669569 -0.16775416802968299 0 0.22199130801810529 -0.1478171468904442 0 0.2069794531536403 -0.1537888919124783 0 0.22018657323669569 -0.16775416802968299 0 0.19629081049063871 -0.1815365299480412 0 0.22018657323669569 -0.16775416802968299 0 0.21237941264848451 -0.18810475376770611 0 0.22018657323669569 -0.16775416802968299 0 0.23934418379307471 -0.18436482883247621 0 0.22018657323669569 -0.16775416802968299 0 0.23934418379307471 -0.18436482883247621 0 0.21237941264848451 -0.18810475376770611 0 0.22018657323669569 -0.16775416802968299 0 0.23627457688356679 -0.15840319400941011 0 0.23934418379307471 -0.18436482883247621 0 0.22199130801810529 -0.1478171468904442 0 0.22018657323669569 -0.16775416802968299 0 0.23627457688356679 -0.15840319400941011 0 0.25449645062408999 -0.16331052089379791 0 0.23627457688356679 -0.15840319400941011 0 0.23934418379307471 -0.18436482883247621 0 0.25850179434945381 -0.20097548963526929 0 0.23934418379307471 -0.18436482883247621 0 0.25850179434945381 -0.20097548963526929 0 0.23934418379307471 -0.18436482883247621 0 0.23907695871134879 -0.21289681242661959 0 0.23907695871134879 -0.21289681242661959 0 0.22308479462261119 -0.20217133576560289 0 0.21722062693650279 -0.2226466586169516 0 0.23934418379307471 -0.18436482883247621 0 0.22308479462261119 -0.20217133576560289 0 0.21237941264848451 -0.18810475376770611 0 0.23934418379307471 -0.18436482883247621 0 0.23907695871134879 -0.21289681242661959 0 0.22308479462261119 -0.20217133576560289 0 0.25037283077400019 -0.2416092145933311 0 0.23239962387573149 -0.2337287944253621 0 0.2339549802858914 -0.24933471903745599 0 0.25658827463044448 -0.2222138965281123 0 0.23907695871134879 -0.21289681242661959 0 0.2446094219978813 -0.2276121794933563 0 0.25037283077400019 -0.2416092145933311 0 0.2446094219978813 -0.2276121794933563 0 0.23239962387573149 -0.2337287944253621 0 0.23907695871134879 -0.21289681242661959 0 0.2446094219978813 -0.2276121794933563 0 0.23239962387573149 -0.2337287944253621 0 0.23907695871134879 -0.21289681242661959 0 0.23239962387573149 -0.2337287944253621 0 0.21722062693650279 -0.2226466586169516 0 0.23239962387573149 -0.2337287944253621 0 0.2194561222393229 -0.23682627783696539 0 0.21722062693650279 -0.2226466586169516 0 0.23239962387573149 -0.2337287944253621 0 0.22502312889380549 -0.2426362774769398 0 0.2339549802858914 -0.24933471903745599 0 0.2194561222393229 -0.23682627783696539 0 0.22502312889380549 -0.2426362774769398 0 0.21456577207223029 -0.24270171036535029 0 0.23239962387573149 -0.2337287944253621 0 0.2194561222393229 -0.23682627783696539 0 0.22502312889380549 -0.2426362774769398 0 0.22331750647786899 -0.25281133177650322 0 0.22502312889380549 -0.2426362774769398 0 0.21456577207223029 -0.24270171036535029 0 0.22331750647786899 -0.25281133177650322 0 0.22502312889380549 -0.2426362774769398 0 0.2339549802858914 -0.24933471903745599 0 0.2084475354763706 -0.25511513831035743 0 0.2080714594183444 -0.2424179483002232 0 0.21336353465090491 -0.24693864317134839 0 0.2080714594183444 -0.2424179483002232 0 0.21336353465090491 -0.24693864317134839 0 0.2080714594183444 -0.2424179483002232 0 0.21336353465090491 -0.24693864317134839 0 0.21456577207223029 -0.24270171036535029 0 0.2194561222393229 -0.23682627783696539 0 0.2080714594183444 -0.2424179483002232 0 0.21456577207223029 -0.24270171036535029 0 0.21722062693650279 -0.2226466586169516 0 0.20244123733496699 -0.2260211367091485 0 0.19848523837712481 -0.2136299623964425 0 0.2080714594183444 -0.2424179483002232 0 0.21722062693650279 -0.2226466586169516 0 0.2194561222393229 -0.23682627783696539 0 0.2080714594183444 -0.2424179483002232 0 0.21722062693650279 -0.2226466586169516 0 0.2080714594183444 -0.2424179483002232 0 0.21722062693650279 -0.2226466586169516 0 0.20244123733496699 -0.2260211367091485 0 0.2080714594183444 -0.2424179483002232 0 0.18716213711817259 -0.22455639835484539 0 0.2080714594183444 -0.2424179483002232 0 0.20244123733496699 -0.2260211367091485 0 0.18716213711817259 -0.22455639835484539 0 0.20244123733496699 -0.2260211367091485 0 0.19848523837712481 -0.2136299623964425 0 0.18716213711817259 -0.22455639835484539 0 0.2080714594183444 -0.2424179483002232 0 0.19254414318066221 -0.24961624770678509 0 0.1866817818972302 -0.23981118877977231 0 0.2080714594183444 -0.2424179483002232 0 0.1866817818972302 -0.23981118877977231 0 0.18716213711817259 -0.22455639835484539 0 0.19254414318066221 -0.24961624770678509 0 0.18399505531774341 -0.24981832115951039 0 0.1866817818972302 -0.23981118877977231 0 0.21237941264848451 -0.18810475376770611 0 0.20793523744788639 -0.20366419955677639 0 0.19447652973028121 -0.19759128756789451 0 0.22308479462261119 -0.20217133576560289 0 0.21237941264848451 -0.18810475376770611 0 0.20793523744788639 -0.20366419955677639 0 0.22308479462261119 -0.20217133576560289 0 0.21722062693650279 -0.2226466586169516 0 0.20793523744788639 -0.20366419955677639 0 0.21722062693650279 -0.2226466586169516 0 0.20793523744788639 -0.20366419955677639 0 0.19848523837712481 -0.2136299623964425 0 0.19848523837712481 -0.2136299623964425 0 0.19447652973028121 -0.19759128756789451 0 0.1831457957419608 -0.2071674304332729 0 0.20793523744788639 -0.20366419955677639 0 0.19848523837712481 -0.2136299623964425 0 0.19447652973028121 -0.19759128756789451 0 0.19848523837712481 -0.2136299623964425 0 0.1831457957419608 -0.2071674304332729 0 0.18716213711817259 -0.22455639835484539 0 0.19629081049063871 -0.1815365299480412 0 0.19447652973028121 -0.19759128756789451 0 0.1840061663436266 -0.1900566622106199 0 0.19629081049063871 -0.1815365299480412 0 0.21237941264848451 -0.18810475376770611 0 0.19447652973028121 -0.19759128756789451 0 0.19447652973028121 -0.19759128756789451 0 0.1840061663436266 -0.1900566622106199 0 0.1831457957419608 -0.2071674304332729 0 0.1840061663436266 -0.1900566622106199 0 0.1831457957419608 -0.2071674304332729 0 0.16486725365112659 -0.18785963188663279 0 0.1831457957419608 -0.2071674304332729 0 0.16486725365112659 -0.18785963188663279 0 0.1831457957419608 -0.2071674304332729 0 0.16625281481800089 -0.2066948484094672 0 0.18716213711817259 -0.22455639835484539 0 0.16625281481800089 -0.2066948484094672 0 0.18716213711817259 -0.22455639835484539 0 0.16625281481800089 -0.2066948484094672 0 0.18716213711817259 -0.22455639835484539 0 0.16937657335138201 -0.22198425569814831 0 0.16625281481800089 -0.2066948484094672 0 0.15661990237239229 -0.21733625041789439 0 0.14909823278687431 -0.20687378182447139 0 0.16625281481800089 -0.2066948484094672 0 0.15661990237239229 -0.21733625041789439 0 0.16937657335138201 -0.22198425569814831 0 0.1831457957419608 -0.2071674304332729 0 0.16625281481800089 -0.2066948484094672 0 0.16486725365112659 -0.18785963188663279 0 0.16625281481800089 -0.2066948484094672 0 0.16486725365112659 -0.18785963188663279 0 0.14534349251782941 -0.188833298464089 0 0.17619278994504239 -0.24587918172992959 0 0.18399505531774341 -0.24981832115951039 0 0.1866817818972302 -0.23981118877977231 0 0.17619278994504239 -0.24587918172992959 0 0.17450151464944069 -0.23276490516368609 0 0.16609645978724119 -0.24143951784646769 0 0.17619278994504239 -0.24587918172992959 0 0.1866817818972302 -0.23981118877977231 0 0.17450151464944069 -0.23276490516368609 0 0.17450151464944069 -0.23276490516368609 0 0.18716213711817259 -0.22455639835484539 0 0.16937657335138201 -0.22198425569814831 0 0.1866817818972302 -0.23981118877977231 0 0.17450151464944069 -0.23276490516368609 0 0.18716213711817259 -0.22455639835484539 0 0.15661990237239229 -0.21733625041789439 0 0.1623464977989032 -0.22856887614484861 0 0.15090654410468329 -0.22688320449844629 0 0.15661990237239229 -0.21733625041789439 0 0.16937657335138201 -0.22198425569814831 0 0.1623464977989032 -0.22856887614484861 0 0.17450151464944069 -0.23276490516368609 0 0.1623464977989032 -0.22856887614484861 0 0.16609645978724119 -0.24143951784646769 0 0.17450151464944069 -0.23276490516368609 0 0.16937657335138201 -0.22198425569814831 0 0.1623464977989032 -0.22856887614484861 0 0.1623464977989032 -0.22856887614484861 0 0.16609645978724119 -0.24143951784646769 0 0.1528270009437688 -0.23836283418195289 0 0.16001236861667459 -0.2513654190734112 0 0.16609645978724119 -0.24143951784646769 0 0.1528270009437688 -0.23836283418195289 0 0.16978669848249819 -0.25098739912941831 0 0.17619278994504239 -0.24587918172992959 0 0.16609645978724119 -0.24143951784646769 0 0.16001236861667459 -0.2513654190734112 0 0.16978669848249819 -0.25098739912941831 0 0.16609645978724119 -0.24143951784646769 0 0.1429630926125974 -0.2502577086919005 0 0.16001236861667459 -0.2513654190734112 0 0.1528270009437688 -0.23836283418195289 0 0.1429630926125974 -0.2502577086919005 0 0.1528270009437688 -0.23836283418195289 0 0.13988621804673579 -0.23152362256679451 0 0.1528270009437688 -0.23836283418195289 0 0.15090654410468329 -0.22688320449844629 0 0.13988621804673579 -0.23152362256679451 0 0.1623464977989032 -0.22856887614484861 0 0.1528270009437688 -0.23836283418195289 0 0.15090654410468329 -0.22688320449844629 0 0.15661990237239229 -0.21733625041789439 0 0.15090654410468329 -0.22688320449844629 0 0.1428531013616163 -0.21862443918074129 0 0.15090654410468329 -0.22688320449844629 0 0.13988621804673579 -0.23152362256679451 0 0.1428531013616163 -0.21862443918074129 0 0.12018370186474731 -0.23305432747703519 0 0.12895394136930069 -0.22163642029703709 0 0.13988621804673579 -0.23152362256679451 0 0.12895394136930069 -0.22163642029703709 0 0.13988621804673579 -0.23152362256679451 0 0.1428531013616163 -0.21862443918074129 0 0.1429630926125974 -0.2502577086919005 0 0.12018370186474731 -0.23305432747703519 0 0.1429630926125974 -0.2502577086919005 0 0.12018370186474731 -0.23305432747703519 0 0.13988621804673579 -0.23152362256679451 0 0.13217397618885759 -0.25462043987800831 0 0.1429630926125974 -0.2502577086919005 0 0.12018370186474731 -0.23305432747703519 0 0.16625281481800089 -0.2066948484094672 0 0.14534349251782941 -0.188833298464089 0 0.16625281481800089 -0.2066948484094672 0 0.14534349251782941 -0.188833298464089 0 0.14909823278687431 -0.20687378182447139 0 0.14534349251782941 -0.188833298464089 0 0.14909823278687431 -0.20687378182447139 0 0.1346280568372662 -0.20359450925845249 0 0.15661990237239229 -0.21733625041789439 0 0.14909823278687431 -0.20687378182447139 0 0.1428531013616163 -0.21862443918074129 0 0.14909823278687431 -0.20687378182447139 0 0.1428531013616163 -0.21862443918074129 0 0.1346280568372662 -0.20359450925845249 0 0.1178461100078927 -0.20838697738218431 0 0.12895394136930069 -0.22163642029703709 0 0.1346280568372662 -0.20359450925845249 0 0.12895394136930069 -0.22163642029703709 0 0.1428531013616163 -0.21862443918074129 0 0.1346280568372662 -0.20359450925845249 0 0.14534349251782941 -0.188833298464089 0 0.1346280568372662 -0.20359450925845249 0 0.13128332926409281 -0.18787359724935929 0 0.1237689835273371 -0.19605207676116951 0 0.1178461100078927 -0.20838697738218431 0 0.1346280568372662 -0.20359450925845249 0 0.1237689835273371 -0.19605207676116951 0 0.1346280568372662 -0.20359450925845249 0 0.13128332926409281 -0.18787359724935929 0 0.1237689835273371 -0.19605207676116951 0 0.1232013989280239 -0.1819146573535104 0 0.13128332926409281 -0.18787359724935929 0 0.12443417021765769 -0.1709717485187108 0 0.14534349251782941 -0.188833298464089 0 0.12443417021765769 -0.1709717485187108 0 0.1232013989280239 -0.1819146573535104 0 0.13128332926409281 -0.18787359724935929 0 0.12443417021765769 -0.1709717485187108 0 0.14534349251782941 -0.188833298464089 0 0.13128332926409281 -0.18787359724935929 0 0.12443417021765769 -0.1709717485187108 0 0.14534349251782941 -0.188833298464089 0 0.13540865390058859 -0.1688207667960602 0 0.14534349251782941 -0.188833298464089 0 0.14658871156029241 -0.16855183333999291 0 0.13540865390058859 -0.1688207667960602 0 0.16486725365112659 -0.18785963188663279 0 0.14658871156029241 -0.16855183333999291 0 0.16486725365112659 -0.18785963188663279 0 0.14534349251782941 -0.188833298464089 0 0.14658871156029241 -0.16855183333999291 0 0.14658871156029241 -0.16855183333999291 0 0.13391177650968769 -0.15242347890466901 0 0.14971917460686079 -0.1530450482394467 0 0.14658871156029241 -0.16855183333999291 0 0.14971917460686079 -0.1530450482394467 0 0.16192904395431579 -0.15800089119817939 0 0.14658871156029241 -0.16855183333999291 0 0.13391177650968769 -0.15242347890466901 0 0.12831016946945831 -0.1492440347933528 0 0.14658871156029241 -0.16855183333999291 0 0.12831016946945831 -0.1492440347933528 0 0.14658871156029241 -0.16855183333999291 0 0.13540865390058859 -0.1688207667960602 0 0.1290045142054978 -0.1612372837293575 0 0.14658871156029241 -0.16855183333999291 0 0.1290045142054978 -0.1612372837293575 0 0.12831016946945831 -0.1492440347933528 0 0.13540865390058859 -0.1688207667960602 0 0.12715697753007521 -0.16591248018761531 0 0.1290045142054978 -0.1612372837293575 0 0.12443417021765769 -0.1709717485187108 0 0.13540865390058859 -0.1688207667960602 0 0.12715697753007521 -0.16591248018761531 0 0.12098675462827781 -0.16200852072179159 0 0.12715697753007521 -0.16591248018761531 0 0.1290045142054978 -0.1612372837293575 0 0.12324902196630889 -0.15465793599018671 0 0.1227471198665283 -0.15880086614903269 0 0.1290045142054978 -0.1612372837293575 0 0.13391177650968769 -0.15242347890466901 0 0.12831016946945831 -0.1492440347933528 0 0.12532898621889721 -0.13663811256420449 0 0.12324902196630889 -0.15465793599018671 0 0.1290045142054978 -0.1612372837293575 0 0.12831016946945831 -0.1492440347933528 0 0.1217036921304827 -0.1482443959076799 0 0.12831016946945831 -0.1492440347933528 0 0.12532898621889721 -0.13663811256420449 0 0.13391177650968769 -0.15242347890466901 0 0.13188977167139071 -0.12546883223523481 0 0.13391177650968769 -0.15242347890466901 0 0.13188977167139071 -0.12546883223523481 0 0.1446303542042412 -0.1380662602394005 0 0.13391177650968769 -0.15242347890466901 0 0.13188977167139071 -0.12546883223523481 0 0.12532898621889721 -0.13663811256420449 0 0.11997683785091839 -0.1276371159963853 0 0.13188977167139071 -0.12546883223523481 0 0.12532898621889721 -0.13663811256420449 0 0.1446303542042412 -0.1380662602394005 0 0.15557261582888751 -0.13003178131142151 0 0.1621281360659286 -0.14191921566573409 0 0.14724036225017881 -0.1245170930860646 0 0.13188977167139071 -0.12546883223523481 0 0.1446303542042412 -0.1380662602394005 0 0.14724036225017881 -0.1245170930860646 0 0.1446303542042412 -0.1380662602394005 0 0.15557261582888751 -0.13003178131142151 0 0.13391177650968769 -0.15242347890466901 0 0.1446303542042412 -0.1380662602394005 0 0.14971917460686079 -0.1530450482394467 0 0.1446303542042412 -0.1380662602394005 0 0.14971917460686079 -0.1530450482394467 0 0.1621281360659286 -0.14191921566573409 0 0.1621281360659286 -0.14191921566573409 0 0.17324983187337631 -0.13165498831909611 0 0.17651024624945799 -0.1485415537171802 0 0.14971917460686079 -0.1530450482394467 0 0.1621281360659286 -0.14191921566573409 0 0.16192904395431579 -0.15800089119817939 0 0.1621281360659286 -0.14191921566573409 0 0.17651024624945799 -0.1485415537171802 0 0.16192904395431579 -0.15800089119817939 0 0.16471491079178111 -0.1205264202314431 0 0.15557261582888751 -0.13003178131142151 0 0.1639163736399934 -0.1310331013819237 0 0.15557261582888751 -0.13003178131142151 0 0.1621281360659286 -0.14191921566573409 0 0.1639163736399934 -0.1310331013819237 0 0.1621281360659286 -0.14191921566573409 0 0.1639163736399934 -0.1310331013819237 0 0.17324983187337631 -0.13165498831909611 0 0.16471491079178111 -0.1205264202314431 0 0.1639163736399934 -0.1310331013819237 0 0.17324983187337631 -0.13165498831909611 0 0.1862357176231304 -0.1238823921021804 0 0.1919305776748628 -0.1461990482496055 0 0.17324983187337631 -0.13165498831909611 0 0.1919305776748628 -0.1461990482496055 0 0.17324983187337631 -0.13165498831909611 0 0.17651024624945799 -0.1485415537171802 0 0.1919305776748628 -0.1461990482496055 0 0.19225769977326759 -0.16432491474026781 0 0.17651024624945799 -0.1485415537171802 0 0.19225769977326759 -0.16432491474026781 0 0.17526083145963689 -0.16308053239281189 0 0.17982600751226671 -0.1762593337595659 0 0.19225769977326759 -0.16432491474026781 0 0.17651024624945799 -0.1485415537171802 0 0.17526083145963689 -0.16308053239281189 0 0.17526083145963689 -0.16308053239281189 0 0.17982600751226671 -0.1762593337595659 0 0.16627328335530381 -0.17069773137902189 0 0.1840061663436266 -0.1900566622106199 0 0.16486725365112659 -0.18785963188663279 0 0.17982600751226671 -0.1762593337595659 0 0.19629081049063871 -0.1815365299480412 0 0.1840061663436266 -0.1900566622106199 0 0.17982600751226671 -0.1762593337595659 0 0.16486725365112659 -0.18785963188663279 0 0.14658871156029241 -0.16855183333999291 0 0.16627328335530381 -0.17069773137902189 0 0.16486725365112659 -0.18785963188663279 0 0.17982600751226671 -0.1762593337595659 0 0.16627328335530381 -0.17069773137902189 0 0.14658871156029241 -0.16855183333999291 0 0.16192904395431579 -0.15800089119817939 0 0.16627328335530381 -0.17069773137902189 0 0.17526083145963689 -0.16308053239281189 0 0.16192904395431579 -0.15800089119817939 0 0.16627328335530381 -0.17069773137902189 0 0.17651024624945799 -0.1485415537171802 0 0.17526083145963689 -0.16308053239281189 0 0.16192904395431579 -0.15800089119817939 0 
</DataArray>
</Points>
<Cells>
<DataArray type="UInt32" Name="connectivity" format="ascii">
0 1 2 3 4 5 6 7 8 9 10 11 12 13 14 15 16 17 18 19 20 21 22 23 24 25 26 27 28 29 30 31 32 33 34 35 36 37 38 39 40 41 42 43 44 45 46 47 48 49 50 51 52 53 54 55 56 57 58 59 60 61 62 63 64 65 66 67 68 69 70 71 72 73 74 75 76 77 78 79 80 81 82 83 84 85 86 87 88 89 90 91 92 93 94 95 96 97 98 99 100 101 102 103 104 105 106 107 108 109 110 111 112 113 114 115 116 117 118 119 120 121 122 123 124 125 126 127 128 129 130 131 132 133 134 135 136 137 138 139 140 141 142 143 144 145 146 147 148 149 150 151 152 153 154 155 156 157 158 159 160 161 162 163 164 165 166 167 168 169 170 171 172 173 174 175 176 177 178 179 180 181 182 183 184 185 186 187 188 189 190 191 192 193 194 195 196 197 198 199 200 201 202 203 204 205 206 207 208 209 210 211 212 213 214 215 216 217 218 219 220 221 222 223 224 225 226 227 228 229 230 231 232 233 234 235 236 237 238 239 240 241 242 243 244 245 246 247 248 249 250 251 252 253 254 255 256 257 258 259 260 261 262 263 264 265 266 267 268 269 270 271 272 273 274 275 276 277 278 279 280 281 282 283 284 285 286 287 288 289 290 291 292 293 294 295 296 297 298 299 300 301 302 303 304 305 306 307 308 309 310 311 312 313 314 315 316 317 318 319 320 321 322 323 324 325 326 327 328 329 330 331 332 333 334 335 336 337 338 339 340 341 342 343 344 345 346 347 348 349 350 351 352 353 354 355 356 357 358 359 360 361 362 363 364 365 366 367 368 369 370 371 372 373 374 375 376 377 378 379 380 381 382 383 384 385 386 387 388 389 390 391 392 393 394 395 396 397 398 399 400 401 402 403 404 405 406 407 408 409 410 411 412 413 414 415 416 417 418 419 420 421 422 423 424 425 426 427 428 429 430 431 432 433 434 435 436 437 438 439 440 441 442 443 444 445 446 447 448 449 450 451 452 453 454 455 456 457 458 459 460 461 462 463 464 465 466 467 468 469 470 471 472 473 474 475 476 477 478 479 480 481 482 483 484 485 486 487 488 489 490 491 492 493 494 495 496 497 498 499 500 501 502 503 504 505 506 507 508 509 510 511 512 513 514 515 516 517 518 519 520 521 522 523 524 525 526 527 528 529 530 531 532 533 534 535 536 537 538 539 540 541 542 543 544 545 546 547 548 549 550 551 552 553 554 555 556 557 558 559 560 561 562 563 564 565 566 567 568 569 570 571 572 573 574 575 576 577 578 579 580 581 582 583 584 585 586 587 588 589 590 591 592 593 594 595 596 597 598 599 600 601 602 603 604 605 606 607 608 609 610 611 612 613 614 615 616 617 618 619 620 621 622 623 624 625 626 627 628 629 630 631 632 633 634 635 636 637 638 639 640 641 642 643 644 645 646 647 648 649 650 651 652 653 654 655 656 657 658 659 660 661 662 663 664 665 666 667 668 669 670 671 672 673 674 675 676 677 678 679 680 681 682 683 684 685 686 687 688 689 690 691 692 693 694 695 696 697 698 699 700 701 702 703 704 705 706 707 708 709 710 711 712 713 714 715 716 717 718 719 720 721 722 723 724 725 726 727 728 729 730 731 732 733 734 735 736 737 738 739 740 741 742 743 744 745 746 747 748 749 750 751 752 753 754 755 756 757 758 759 760 761 762 763 764 765 766 767 768 769 770 771 772 773 774 775 776 777 778 779 780 781 782 783 784 785 786 787 788 789 790 791 792 793 794 795 796 797 798 799 800 801 802 803 804 805 806 807 808 809 810 811 812 813 814 815 816 817 818 819 820 821 822 823 824 825 826 827 828 829 830 831 832 833 834 835 836 837 838 839 840 841 842 843 844 845 846 847 848 849 850 851 852 853 854 855 856 857 858 859 860 861 862 863 864 865 866 867 868 869 870 871 872 873 874 875 876 877 878 879 880 881 882 883 884 885 886 887 888 889 890 891 892 893 894 895 896 897 898 899 900 901 902 903 904 905 906 907 908 909 910 911 912 913 914 915 916 917 918 919 920 921 922 923 924 925 926 927 928 929 930 931 932 933 934 935 936 937 938 939 940 941 942 943 944 945 946 947 948 949 950 951 952 953 954 955 956 957 958 959 960 961 962 963 964 965 966 967 968 969 970 971 972 973 974 975 976 977 978 979 980 981 982 983 984 985 986 987 988 989 990 991 992 993 994 995 996 997 998 999 1000 1001 1002 1003 1004 1005 1006 1007 1008 1009 1010 1011 1012 1013 1014 1015 1016 1017 1018 1019 1020 1021 1022 1023 1024 1025 1026 1027 1028 1029 1030 1031 1032 1033 1034 1035 1036 1037 1038 1039 1040 1041 1042 1043 1044 1045 1046 1047 1048 1049 1050 1051 1052 1053 1054 1055 1056 1057 1058 1059 1060 1061 1062 1063 1064 1065 1066 1067 1068 1069 1070 1071 1072 1073 1074 1075 1076 1077 1078 1079 1080 1081 1082 1083 1084 1085 1086 1087 1088 1089 1090 1091 1092 1093 1094 1095 1096 1097 1098 1099 1100 1101 1102 1103 1104 1105 1106 1107 1108 1109 1110 1111 1112 1113 1114 1115 1116 1117 1118 1119 1120 1121 1122 1123 1124 1125 1126 1127 1128 1129 1130 1131 1132 1133 1134 1135 1136 1137 1138 1139 1140 1141 1142 1143 1144 1145 1146 1147 1148 1149 1150 1151 1152 1153 1154 1155 1156 1157 1158 1159 1160 1161 1162 1163 1164 1165 1166 1167 1168 1169 1170 1171 1172 1173 1174 1175 1176 1177 1178 1179 1180 1181 1182 1183 1184 1185 1186 1187 1188 1189 1190 1191 1192 1193 1194 1195 1196 1197 1198 1199 1200 1201 1202 1203 1204 1205 1206 1207 1208 1209 1210 1211 1212 1213 1214 1215 1216 1217 1218 1219 1220 1221 1222 1223 1224 1225 1226 1227 1228 1229 1230 1231 1232 1233 1234 1235 1236 1237 1238 1239 1240 1241 1242 1243 1244 1245 1246 1247 1248 1249 1250 1251 1252 1253 1254 1255 1256 1257 1258 1259 1260 1261 1262 1263 1264 1265 1266 1267 1268 1269 1270 1271 1272 1273 1274 1275 1276 1277 1278 1279 1280 1281 1282 1283 1284 1285 1286 1287 1288 1289 1290 1291 1292 1293 1294 1295 1296 1297 1298 1299 1300 1301 1302 1303 1304 1305 1306 1307 1308 1309 1310 1311 1312 1313 1314 1315 1316 1317 1318 1319 1320 1321 1322 1323 1324 1325 1326 1327 1328 1329 1330 1331 1332 1333 1334 1335 1336 1337 1338 1339 1340 1341 1342 1343 1344 1345 1346 1347 1348 1349 1350 1351 1352 1353 1354 1355 1356 1357 1358 1359 1360 1361 1362 1363 1364 1365 1366 1367 1368 1369 1370 1371 1372 1373 1374 1375 1376 1377 1378 1379 1380 1381 1382 1383 1384 1385 1386 1387 1388 1389 1390 1391 1392 1393 1394 1395 1396 1397 1398 1399 1400 1401 1402 1403 1404 1405 1406 1407 1408 1409 1410 1411 1412 1413 1414 1415 1416 1417 1418 1419 1420 1421 1422 1423 1424 1425 1426 1427 1428 1429 1430 1431 1432 1433 1434 1435 1436 1437 1438 1439 1440 1441 1442 1443 1444 1445 1446 1447 1448 1449 1450 1451 1452 1453 1454 1455 1456 1457 1458 1459 1460 1461 1462 1463 1464 1465 1466 1467 1468 1469 1470 1471 1472 1473 1474 1475 1476 1477 1478 1479 1480 1481 1482 1483 1484 1485 1486 1487 1488 1489 1490 1491 1492 1493 1494 1495 1496 1497 1498 1499 1500 1501 1502 1503 1504 1505 1506 1507 1508 1509 1510 1511 1512 1513 1514 1515 1516 1517 1518 1519 1520 1521 1522 1523 1524 1525 1526 1527 1528 1529 1530 1531 1532 1533 1534 1535 1536 1537 1538 1539 1540 1541 1542 1543 1544 1545 1546 1547 1548 1549 1550 1551 1552 1553 1554 1555 1556 1557 1558 1559 1560 1561 1562 1563 1564 1565 1566 1567 1568 1569 1570 1571 1572 1573 1574 1575 1576 1577 1578 1579 1580 1581 1582 1583 1584 1585 1586 1587 1588 1589 1590 1591 1592 1593 1594 1595 1596 1597 1598 1599 1600 1601 1602 1603 1604 1605 1606 1607 1608 1609 1610 1611 1612 1613 1614 1615 1616 1617 1618 1619 1620 1621 1622 1623 1624 1625 1626 1627 1628 1629 1630 1631 1632 1633 1634 1635 1636 1637 1638 1639 1640 1641 1642 1643 1644 1645 1646 1647 1648 1649 1650 1651 1652 1653 1654 1655 1656 1657 1658 1659 1660 1661 1662 1663 1664 1665 1666 1667 1668 1669 1670 1671 1672 1673 1674 1675 1676 1677 1678 1679 1680 1681 1682 1683 1684 1685 1686 1687 1688 1689 1690 1691 1692 1693 1694 1695 1696 1697 1698 1699 1700 1701 1702 1703 1704 1705 1706 1707 1708 1709 1710 1711 1712 1713 1714 1715 1716 1717 1718 1719 1720 1721 1722 1723 1724 1725 1726 1727 1728 1729 1730 1731 1732 1733 1734 1735 1736 1737 1738 1739 1740 1741 1742 1743 1744 1745 1746 1747 1748 1749 1750 1751 1752 1753 1754 1755 1756 1757 1758 1759 1760 1761 1762 1763 1764 1765 1766 1767 1768 1769 1770 1771 1772 1773 1774 1775 1776 1777 1778 1779 1780 1781 1782 1783 1784 1785 1786 1787 1788 1789 1790 1791 1792 1793 1794 1795 1796 1797 1798 1799 1800 1801 1802 1803 1804 1805 1806 1807 1808 1809 1810 1811 1812 1813 1814 1815 1816 1817 1818 1819 1820 1821 1822 1823 1824 1825 1826 1827 1828 1829 1830 1831 1832 1833 1834 1835 1836 1837 1838 1839 1840 1841 1842 1843 1844 1845 1846 1847 1848 1849 1850 1851 1852 1853 1854 1855 1856 1857 1858 1859 1860 1861 1862 1863 1864 1865 1866 1867 1868 1869 1870 1871 1872 1873 1874 1875 1876 1877 1878 1879 1880 1881 1882 1883 1884 1885 1886 1887 1888 1889 1890 1891 1892 1893 1894 1895 1896 1897 1898 1899 1900 1901 1902 1903 1904 1905 1906 1907 1908 1909 1910 1911 1912 1913 1914 1915 1916 1917 1918 1919 1920 1921 1922 1923 1924 1925 1926 1927 1928 1929 1930 1931 1932 1933 1934 1935 1936 1937 1938 1939 1940 1941 1942 1943 1944 1945 1946 1947 1948 1949 1950 1951 1952 1953 1954 1955 1956 1957 1958 1959 1960 1961 1962 1963 1964 1965 1966 1967 1968 1969 1970 1971 1972 1973 1974 1975 1976 1977 1978 1979 1980 1981 1982 1983 1984 1985 1986 1987 1988 1989 1990 1991 1992 1993 1994 1995 1996 1997 1998 1999 2000 2001 2002 2003 2004 2005 2006 2007 2008 2009 2010 2011 2012 2013 2014 2015 2016 2017 2018 2019 2020 2021 2022 2023 2024 2025 2026 2027 2028 2029 2030 2031 2032 2033 2034 2035 2036 2037 2038 2039 2040 2041 2042 2043 2044 2045 2046 2047 2048 2049 2050 2051 2052 2053 2054 2055 2056 2057 2058 2059 2060 2061 2062 2063 2064 2065 2066 2067 2068 2069 2070 2071 2072 2073 2074 2075 2076 2077 2078 2079 2080 2081 2082 2083 2084 2085 2086 2087 2088 2089 2090 2091 2092 2093 2094 2095 2096 2097 2098 2099 2100 2101 2102 2103 2104 2105 2106 2107 2108 2109 2110 2111 2112 2113 2114 2115 2116 2117 2118 2119 2120 2121 2122 2123 2124 2125 2126 2127 2128 2129 2130 2131 2132 2133 2134 2135 2136 2137 2138 2139 2140 2141 2142 2143 2144 2145 2146 2147 2148 2149 2150 2151 2152 2153 2154 2155 2156 2157 2158 2159 2160 2161 2162 2163 2164 2165 2166 2167 2168 2169 2170 2171 2172 2173 2174 2175 2176 2177 2178 2179 2180 2181 2182 2183 2184 2185 2186 2187 2188 2189 2190 2191 2192 2193 2194 2195 2196 2197 2198 2199 2200 2201 2202 2203 2204 2205 2206 2207 2208 2209 2210 2211 2212 2213 2214 2215 2216 2217 2218 2219 2220 2221 2222 2223 2224 2225 2226 2227 2228 2229 2230 2231 2232 2233 2234 2235 2236 2237 2238 2239 2240 2241 2242 2243 2244 2245 2246 2247 2248 2249 2250 2251 2252 2253 2254 2255 2256 2257 2258 2259 2260 2261 2262 2263 2264 2265 2266 2267 2268 2269 2270 2271 2272 2273 2274 2275 2276 2277 2278 2279 2280 2281 2282 2283 2284 2285 2286 2287 2288 2289 2290 2291 2292 2293 2294 2295 2296 2297 2298 2299 2300 2301 2302 2303 2304 2305 2306 2307 2308 2309 2310 2311 2312 2313 2314 2315 2316 2317 2318 2319 2320 2321 2322 2323 2324 2325 2326 2327 2328 2329 2330 2331 2332 2333 2334 2335 2336 2337 2338 2339 2340 2341 2342 2343 2344 2345 2346 2347 2348 2349 2350 2351 2352 2353 2354 2355 2356 2357 2358 2359 2360 2361 2362 2363 2364 2365 2366 2367 2368 2369 2370 2371 2372 2373 2374 2375 2376 2377 2378 2379 2380 2381 2382 2383 2384 2385 2386 2387 2388 2389 2390 2391 2392 2393 2394 2395 2396 2397 2398 2399 2400 2401 2402 2403 2404 2405 2406 2407 2408 2409 2410 2411 2412 2413 2414 2415 2416 2417 2418 2419 2420 2421 2422 2423 2424 2425 2426 2427 2428 2429 2430 2431 2432 2433 2434 2435 2436 2437 2438 2439 2440 2441 2442 2443 2444 2445 2446 2447 2448 2449 2450 2451 2452 2453 2454 2455 2456 2457 2458 2459 2460 2461 2462 2463 2464 2465 2466 2467 2468 2469 2470 2471 2472 2473 2474 2475 2476 2477 2478 2479 2480 2481 2482 2483 2484 2485 2486 2487 2488 2489 2490 2491 2492 2493 2494 2495 2496 2497 2498 2499 2500 2501 2502 2503 2504 2505 2506 2507 2508 2509 2510 2511 2512 2513 2514 2515 2516 2517 2518 2519 2520 2521 2522 2523 2524 2525 2526 2527 2528 2529 2530 2531 2532 2533 2534 2535 2536 2537 2538 2539 2540 2541 2542 2543 2544 2545 2546 2547 2548 2549 2550 2551 2552 2553 2554 2555 2556 2557 2558 2559 2560 2561 2562 2563 2564 2565 2566 2567 2568 2569 2570 2571 2572 2573 2574 2575 2576 2577 2578 2579 2580 2581 2582 2583 2584 2585 2586 2587 2588 2589 2590 2591 2592 2593 2594 2595 2596 2597 2598 2599 2600 2601 2602 2603 2604 2605 2606 2607 2608 2609 2610 2611 2612 2613 2614 2615 2616 2617 2618 2619 2620 2621 2622 2623 2624 2625 2626 2627 2628 2629 2630 2631 2632 2633 2634 2635 2636 2637 2638 2639 2640 2641 2642 2643 2644 2645 2646 2647 2648 2649 2650 2651 2652 2653 2654 2655 2656 2657 2658 2659 2660 2661 2662 2663 2664 2665 2666 2667 2668 2669 2670 2671 2672 2673 2674 2675 2676 2677 2678 2679 2680 2681 2682 2683 2684 2685 2686 2687 2688 2689 2690 2691 2692 2693 2694 2695 2696 2697 2698 2699 2700 2701 2702 2703 2704 2705 2706 2707 2708 2709 2710 2711 2712 2713 2714 2715 2716 2717 2718 2719 2720 2721 2722 2723 2724 2725 2726 2727 2728 2729 2730 2731 2732 2733 2734 2735 2736 2737 2738 2739 2740 2741 2742 2743 2744 2745 2746 2747 2748 2749 2750 2751 2752 2753 2754 2755 2756 2757 2758 2759 2760 2761 2762 2763 2764 2765 2766 2767 2768 2769 2770 2771 2772 2773 2774 2775 2776 2777 2778 2779 2780 2781 2782 2783 2784 2785 2786 2787 2788 2789 2790 2791 2792 2793 2794 2795 2796 2797 2798 2799 2800 2801 2802 2803 2804 2805 2806 2807 2808 2809 2810 2811 2812 2813 2814 2815 2816 2817 2818 2819 2820 2821 2822 2823 2824 2825 2826 2827 2828 2829 2830 2831 2832 2833 2834 2835 2836 2837 2838 2839 2840 2841 2842 2843 2844 2845 2846 2847 2848 2849 2850 2851 2852 2853 2854 2855 2856 2857 2858 2859 2860 2861 2862 2863 2864 2865 2866 2867 2868 2869 2870 2871 2872 2873 2874 2875 2876 2877 2878 2879 2880 2881 2882 2883 2884 2885 2886 2887 2888 2889 2890 2891 2892 2893 2894 2895 2896 2897 2898 2899 2900 2901 2902 2903 2904 2905 2906 2907 2908 2909 2910 2911 2912 2913 2914 2915 2916 2917 2918 2919 2920 2921 2922 2923 2924 2925 2926 2927 2928 2929 2930 2931 2932 2933 2934 2935 2936 2937 2938 2939 2940 2941 2942 2943 2944 2945 2946 2947 2948 2949 2950 2951 2952 2953 2954 2955 2956 2957 2958 2959 2960 2961 2962 2963 2964 2965 2966 2967 2968 2969 2970 2971 2972 2973 2974 2975 2976 2977 2978 2979 2980 2981 2982 2983 2984 2985 2986 2987 2988 2989 2990 2991 2992 2993 2994 2995 2996 2997 2998 2999 3000 3001 3002 3003 3004 3005 3006 3007 3008 3009 3010 3011 3012 3013 3014 3015 3016 3017 3018 3019 3020 3021 3022 3023 3024 3025 3026 3027 3028 3029 3030 3031 3032 3033 3034 3035 3036 3037 3038 3039 3040 3041 3042 3043 3044 3045 3046 3047 3048 3049 3050 3051 3052 3053 3054 3055 3056 3057 3058 3059 3060 3061 3062 3063 3064 3065 3066 3067 3068 3069 3070 3071 3072 3073 3074 3075 3076 3077 3078 3079 3080 3081 3082 3083 3084 3085 3086 3087 3088 3089 3090 3091 3092 3093 3094 3095 3096 3097 3098 3099 3100 3101 3102 3103 3104 3105 3106 3107 3108 3109 3110 3111 3112 3113 3114 3115 3116 3117 3118 3119 3120 3121 3122 3123 3124 3125 3126 3127 3128 3129 3130 3131 3132 3133 3134 3135 3136 3137 3138 3139 3140 3141 3142 3143 3144 3145 3146 3147 3148 3149 3150 3151 3152 3153 3154 3155 3156 3157 3158 3159 3160 3161 3162 3163 3164 3165 3166 3167 3168 3169 3170 3171 3172 3173 3174 3175 3176 3177 3178 3179 3180 3181 3182 3183 3184 3185 3186 3187 3188 3189 3190 3191 3192 3193 3194 3195 3196 3197 3198 3199 3200 3201 3202 3203 3204 3205 3206 3207 3208 3209 3210 3211 3212 3213 3214 3215 3216 3217 3218 3219 3220 3221 3222 3223 3224 3225 3226 3227 3228 3229 3230 3231 3232 3233 3234 3235 3236 3237 3238 3239 3240 3241 3242 3243 3244 3245 3246 3247 3248 3249 3250 3251 3252 3253 3254 3255 3256 3257 3258 3259 3260 3261 3262 3263 3264 3265 3266 3267 3268 3269 3270 3271 3272 3273 3274 3275 3276 3277 3278 3279 3280 3281 3282 3283 3284 3285 3286 3287 3288 3289 3290 3291 3292 3293 3294 3295 3296 3297 3298 3299 3300 3301 3302 3303 3304 3305 3306 3307 3308 3309 3310 3311 3312 3313 3314 3315 3316 3317 3318 3319 3320 3321 3322 3323 3324 3325 3326 3327 3328 3329 3330 3331 3332 3333 3334 3335 3336 3337 3338 3339 3340 3341 3342 3343 3344 3345 3346 3347 3348 3349 3350 3351 3352 3353 3354 3355 3356 3357 3358 3359 3360 3361 3362 3363 3364 3365 3366 3367 3368 3369 3370 3371 3372 3373 3374 3375 3376 3377 3378 3379 3380 3381 3382 3383 3384 3385 3386 3387 3388 3389 3390 3391 3392 3393 3394 3395 3396 3397 3398 3399 3400 3401 3402 3403 3404 3405 3406 3407 3408 3409 3410 3411 3412 3413 3414 3415 3416 3417 3418 3419 3420 3421 3422 3423 3424 3425 3426 3427 3428 3429 3430 3431 3432 3433 3434 3435 3436 3437 3438 3439 3440 3441 3442 3443 3444 3445 3446 3447 3448 3449 3450 3451 3452 3453 3454 3455 3456 3457 3458 3459 3460 3461 3462 3463 3464 3465 3466 3467 3468 3469 3470 3471 3472 3473 3474 3475 3476 3477 3478 3479 3480 3481 3482 3483 3484 3485 3486 3487 3488 3489 3490 3491 3492 3493 3494 3495 3496 3497 3498 3499 3500 3501 3502 3503 3504 3505 3506 3507 3508 3509 3510 3511 3512 3513 3514 3515 3516 3517 3518 3519 3520 3521 3522 3523 3524 3525 3526 3527 3528 3529 3530 3531 3532 3533 3534 3535 3536 3537 3538 3539 3540 3541 3542 3543 3544 3545 3546 3547 3548 3549 3550 3551 3552 3553 3554 3555 3556 3557 3558 3559 3560 3561 3562 3563 3564 3565 3566 3567 3568 3569 3570 3571 3572 3573 3574 3575 3576 3577 3578 3579 3580 3581 3582 3583 3584 3585 3586 3587 3588 3589 3590 3591 3592 3593 3594 3595 3596 3597 3598 3599 3600 3601 3602 3603 3604 3605 3606 3607 3608 3609 3610 3611 3612 3613 3614 3615 3616 3617 3618 3619 3620 3621 3622 3623 3624 3625 3626 3627 3628 3629 3630 3631 3632 3633 3634 3635 3636 3637 3638 3639 3640 3641 3642 3643 3644 3645 3646 3647 3648 3649 3650 3651 3652 3653 3654 3655 3656 3657 3658 3659 3660 3661 3662 3663 3664 3665 3666 3667 3668 3669 3670 3671 3672 3673 3674 3675 3676 3677 3678 3679 3680 3681 3682 3683 3684 3685 3686 3687 3688 3689 3690 3691 3692 3693 3694 3695 3696 3697 3698 3699 3700 3701 3702 3703 3704 3705 3706 3707 3708 3709 3710 3711 3712 3713 3714 3715 3716 3717 3718 3719 3720 3721 3722 3723 3724 3725 3726 3727 3728 3729 3730 3731 3732 3733 3734 3735 3736 3737 3738 3739 3740 3741 3742 3743 3744 3745 3746 3747 3748 3749 3750 3751 3752 3753 3754 3755 3756 3757 3758 3759 3760 3761 3762 3763 3764 3765 3766 3767 3768 3769 3770 3771 3772 3773 3774 3775 3776 3777 3778 3779 3780 3781 3782 3783 3784 3785 3786 3787 3788 3789 3790 3791 3792 3793 3794 3795 3796 3797 3798 3799 3800 3801 3802 3803 3804 3805 3806 3807 3808 3809 3810 3811 3812 3813 3814 3815 3816 3817 3818 3819 3820 3821 3822 3823 3824 3825 3826 3827 3828 3829 3830 3831 3832 3833 3834 3835 3836 3837 3838 3839 3840 3841 3842 3843 3844 3845 3846 3847 3848 3849 3850 3851 3852 3853 3854 3855 3856 3857 3858 3859 3860 3861 3862 3863 3864 3865 3866 3867 3868 3869 3870 3871 3872 3873 3874 3875 3876 3877 3878 3879 3880 3881 3882 3883 3884 3885 3886 3887 3888 3889 3890 3891 3892 3893 3894 3895 3896 3897 3898 3899 3900 3901 3902 3903 3904 3905 3906 3907 3908 3909 3910 3911 3912 3913 3914 3915 3916 3917 3918 3919 3920 3921 3922 3923 3924 3925 3926 3927 3928 3929 3930 3931 3932 3933 3934 3935 3936 3937 3938 3939 3940 3941 3942 3943 3944 3945 3946 3947 3948 3949 3950 3951 3952 3953 3954 3955 3956 3957 3958 3959 3960 3961 3962 3963 3964 3965 3966 3967 3968 3969 3970 3971 3972 3973 3974 3975 3976 3977 3978 3979 3980 3981 3982 3983 3984 3985 3986 3987 3988 3989 3990 3991 3992 3993 3994 3995 3996 3997 3998 3999 4000 4001 4002 4003 4004 4005 4006 4007 4008 4009 4010 4011 4012 4013 4014 4015 4016 4017 4018 4019 4020 4021 4022 4023 4024 4025 4026 4027 4028 4029 4030 4031 4032 4033 4034 4035 4036 4037 4038 4039 4040 4041 4042 4043 4044 4045 4046 4047 4048 4049 4050 4051 4052 4053 4054 4055 4056 4057 4058 4059 4060 4061 4062 4063 4064 4065 4066 4067 4068 4069 4070 4071 4072 4073 4074 4075 4076 4077 4078 4079 4080 4081 4082 4083 4084 4085 4086 4087 4088 4089 4090 4091 4092 4093 4094 4095 4096 4097 4098 4099 4100 4101 4102 4103 4104 4105 4106 4107 4108 4109 4110 4111 4112 4113 4114 4115 4116 4117 4118 4119 4120 4121 4122 4123 4124 4125 4126 4127 4128 4129 4130 4131 4132 4133 4134 4135 4136 4137 4138 4139 4140 4141 4142 4143 4144 4145 4146 4147 4148 4149 4150 4151 4152 4153 4154 4155 4156 4157 4158 4159 4160 4161 4162 4163 4164 4165 4166 4167 4168 4169 4170 4171 4172 4173 4174 4175 4176 4177 4178 4179 4180 4181 4182 4183 4184 4185 4186 4187 4188 4189 4190 4191 4192 4193 4194 4195 4196 4197 4198 4199 4200 4201 4202 4203 4204 4205 4206 4207 4208 4209 4210 4211 4212 4213 4214 4215 4216 4217 4218 4219 4220 4221 4222 4223 4224 4225 4226 4227 4228 4229 4230 4231 4232 4233 4234 4235 4236 4237 4238 4239 4240 4241 4242 4243 4244 4245 4246 4247 4248 4249 4250 4251 4252 4253 4254 4255 4256 4257 4258 4259 4260 4261 4262 4263 4264 4265 4266 4267 4268 4269 4270 4271 4272 4273 4274 4275 4276 4277 4278 4279 4280 4281 4282 4283 4284 4285 4286 4287 4288 4289 4290 4291 4292 4293 4294 4295 4296 4297 4298 4299 4300 4301 4302 4303 4304 4305 4306 4307 4308 4309 4310 4311 4312 4313 4314 4315 4316 4317 4318 4319 4320 4321 4322 4323 4324 4325 4326 4327 4328 4329 4330 4331 4332 4333 4334 4335 4336 4337 4338 4339 4340 4341 4342 4343 4344 4345 4346 4347 4348 4349 4350 4351 4352 4353 4354 4355 4356 4357 4358 4359 4360 4361 4362 4363 4364 4365 4366 4367 4368 4369 4370 4371 4372 4373 4374 4375 4376 4377 4378 4379 4380 4381 4382 4383 4384 4385 4386 4387 4388 4389 4390 4391 4392 4393 4394 4395 4396 4397 4398 4399 4400 4401 4402 4403 4404 4405 4406 4407 4408 4409 4410 4411 4412 4413 4414 4415 4416 4417 4418 4419 4420 4421 4422 4423 4424 4425 4426 4427 4428 4429 4430 4431 4432 4433 4434 4435 4436 4437 4438 4439 4440 4441 4442 4443 4444 4445 4446 4447 4448 4449 4450 4451 4452 4453 4454 4455 4456 4457 4458 4459 4460 4461 4462 4463 4464 4465 4466 4467 4468 4469 4470 4471 4472 4473 4474 4475 4476 4477 4478 4479 4480 4481 4482 4483 4484 4485 4486 4487 4488 4489 4490 4491 4492 4493 4494 4495 4496 4497 4498 4499 4500 4501 4502 4503 4504 4505 4506 4507 4508 4509 4510 4511 4512 4513 4514 4515 4516 4517 4518 4519 4520 4521 4522 4523 4524 4525 4526 4527 4528 4529 4530 4531 4532 4533 4534 4535 4536 4537 4538 4539 4540 4541 4542 4543 4544 4545 4546 4547 4548 4549 4550 4551 4552 4553 4554 4555 4556 4557 4558 4559 4560 4561 4562 4563 4564 4565 4566 4567 4568 4569 4570 4571 4572 4573 4574 4575 4576 4577 4578 4579 4580 4581 4582 4583 4584 4585 4586 4587 4588 4589 4590 4591 4592 4593 4594 4595 4596 4597 4598 4599 4600 4601 4602 4603 4604 4605 4606 4607 4608 4609 4610 4611 4612 4613 4614 4615 4616 4617 4618 4619 4620 4621 4622 4623 4624 4625 4626 4627 4628 4629 4630 4631 4632 4633 4634 4635 4636 4637 4638 4639 4640 4641 4642 4643 4644 4645 4646 4647 4648 4649 4650 4651 4652 4653 4654 4655 4656 4657 4658 4659 4660 4661 4662 4663 4664 4665 4666 4667 4668 4669 4670 4671 4672 4673 4674 4675 4676 4677 4678 4679 4680 4681 4682 4683 4684 4685 4686 4687 4688 4689 4690 4691 4692 4693 4694 4695 4696 4697 4698 4699 4700 4701 4702 4703 4704 4705 4706 4707 4708 4709 4710 4711 4712 4713 4714 4715 4716 4717 4718 4719 4720 4721 4722 4723 4724 4725 4726 4727 4728 4729 4730 4731 4732 4733 4734 4735 4736 4737 4738 4739 4740 4741 4742 4743 4744 4745 4746 4747 4748 4749 4750 4751 4752 4753 4754 4755 4756 4757 4758 4759 4760 4761 4762 4763 4764 4765 4766 4767 4768 4769 4770 4771 4772 4773 4774 4775 4776 4777 4778 4779 4780 4781 4782 4783 4784 4785 4786 4787 4788 4789 4790 4791 4792 4793 4794 4795 4796 4797 4798 4799 4800 4801 4802 4803 4804 4805 4806 4807 4808 4809 4810 4811 4812 4813 4814 4815 4816 4817 4818 4819 4820 4821 4822 4823 4824 4825 4826 4827 4828 4829 4830 4831 4832 4833 4834 4835 4836 4837 4838 4839 4840 4841 4842 4843 4844 4845 4846 4847 4848 4849 4850 4851 4852 4853 4854 4855 4856 4857 4858 4859 4860 4861 4862 4863 4864 4865 4866 4867 4868 4869 4870 4871 4872 4873 4874 4875 4876 4877 4878 4879 4880 4881 4882 4883 4884 4885 4886 4887 4888 4889 4890 4891 4892 4893 4894 4895 4896 4897 4898 4899 4900 4901 4902 4903 4904 4905 4906 4907 4908 4909 4910 4911 4912 4913 4914 4915 4916 4917 4918 4919 4920 4921 4922 4923 4924 4925 4926 4927 4928 4929 4930 4931 4932 4933 4934 4935 4936 4937 4938 4939 4940 4941 4942 4943 4944 4945 4946 4947 4948 4949 4950 4951 4952 4953 4954 4955 4956 4957 4958 4959 4960 4961 4962 4963 4964 4965 4966 4967 4968 4969 4970 4971 4972 4973 4974 4975 4976 4977 4978 4979 4980 4981 4982 4983 4984 4985 4986 4987 4988 4989 4990 4991 4992 4993 4994 4995 4996 4997 4998 4999 5000 5001 5002 5003 5004 5005 5006 5007 5008 5009 5010 5011 5012 5013 5014 5015 5016 5017 5018 5019 5020 5021 5022 5023 5024 5025 5026 5027 5028 5029 5030 5031 5032 5033 5034 5035 5036 5037 5038 5039 5040 5041 5042 5043 5044 5045 5046 5047 5048 5049 5050 5051 5052 5053 5054 5055 5056 5057 5058 5059 5060 5061 5062 5063 5064 5065 5066 5067 5068 5069 5070 5071 5072 5073 5074 5075 5076 5077 5078 5079 5080 5081 5082 5083 5084 5085 5086 5087 5088 5089 5090 5091 5092 5093 5094 5095 5096 5097 5098 5099 5100 5101 5102 5103 5104 5105 5106 5107 5108 5109 5110 5111 5112 5113 5114 5115 5116 5117 5118 5119 5120 5121 5122 5123 5124 5125 5126 5127 5128 5129 5130 5131 5132 5133 5134 5135 5136 5137 5138 5139 5140 5141 5142 5143 5144 5145 5146 5147 5148 5149 5150 5151 5152 5153 5154 5155 5156 5157 5158 5159 5160 5161 5162 5163 5164 5165 5166 5167 5168 5169 5170 5171 5172 5173 5174 5175 5176 5177 5178 5179 5180 5181 5182 5183 5184 5185 5186 5187 5188 5189 5190 5191 5192 5193 5194 5195 5196 5197 5198 5199 5200 5201 5202 5203 5204 5205 5206 5207 5208 5209 5210 5211 5212 5213 5214 5215 5216 5217 5218 5219 5220 5221 5222 5223 5224 5225 5226 5227 5228 5229 5230 5231 5232 5233 5234 5235 5236 5237 5238 5239 5240 5241 5242 5243 5244 5245 5246 5247 5248 5249 5250 5251 5252 5253 5254 5255 5256 5257 5258 5259 5260 5261 5262 5263 5264 5265 5266 5267 5268 5269 5270 5271 5272 5273 5274 5275 5276 5277 5278 5279 5280 5281 5282 5283 5284 5285 5286 5287 5288 5289 5290 5291 5292 5293 5294 5295 5296 5297 5298 5299 5300 5301 5302 5303 5304 5305 5306 5307 5308 5309 5310 5311 5312 5313 5314 5315 5316 5317 5318 5319 5320 5321 5322 5323 5324 5325 5326 5327 5328 5329 5330 5331 5332 5333 5334 5335 5336 5337 5338 5339 5340 5341 5342 5343 5344 5345 5346 5347 5348 5349 5350 5351 5352 5353 5354 5355 5356 5357 5358 5359 5360 5361 5362 5363 5364 5365 5366 5367 5368 5369 5370 5371 5372 5373 5374 5375 5376 5377 5378 5379 5380 5381 5382 5383 5384 5385 5386 5387 5388 5389 5390 5391 5392 5393 5394 5395 5396 5397 5398 5399 5400 5401 5402 5403 5404 5405 5406 5407 5408 5409 5410 5411 5412 5413 5414 5415 5416 5417 5418 5419 5420 5421 5422 5423 5424 5425 5426 5427 5428 5429 5430 5431 5432 5433 5434 5435 5436 5437 5438 5439 5440 5441 5442 5443 5444 5445 5446 5447 5448 5449 5450 5451 5452 5453 5454 5455 5456 5457 5458 5459 5460 5461 5462 5463 5464 5465 5466 5467 5468 5469 5470 5471 5472 5473 5474 5475 5476 5477 5478 5479 5480 5481 5482 5483 5484 5485 5486 5487 5488 5489 5490 5491 5492 5493 5494 5495 5496 5497 5498 5499 5500 5501 5502 5503 5504 5505 5506 5507 5508 5509 5510 5511 5512 5513 5514 5515 5516 5517 5518 5519 5520 5521 5522 5523 5524 5525 5526 5527 5528 5529 5530 5531 5532 5533 5534 5535 5536 5537 5538 5539 5540 5541 5542 5543 5544 5545 5546 5547 5548 5549 5550 5551 5552 5553 5554 5555 5556 5557 5558 5559 5560 5561 5562 5563 5564 5565 5566 5567 5568 5569 5570 5571 5572 5573 5574 5575 5576 5577 5578 5579 5580 5581 5582 5583 5584 5585 5586 5587 5588 5589 5590 5591 5592 5593 5594 5595 5596 5597 5598 5599 5600 5601 5602 5603 5604 5605 5606 5607 5608 5609 5610 5611 5612 5613 5614 5615 5616 5617 5618 5619 5620 5621 5622 5623 5624 5625 5626 5627 5628 5629 5630 5631 5632 5633 5634 5635 5636 5637 5638 5639 5640 5641 5642 5643 5644 5645 5646 5647 5648 5649 5650 5651 5652 5653 5654 5655 5656 5657 5658 5659 5660 5661 5662 5663 5664 5665 5666 5667 5668 5669 5670 5671 5672 5673 5674 5675 5676 5677 5678 5679 5680 5681 5682 5683 5684 5685 5686 5687 5688 5689 5690 5691 5692 5693 5694 5695 5696 5697 5698 5699 5700 5701 5702 5703 5704 5705 5706 5707 5708 5709 5710 5711 5712 5713 5714 5715 5716 5717 5718 5719 5720 5721 5722 5723 5724 5725 5726 5727 5728 5729 5730 5731 5732 5733 5734 5735 5736 5737 5738 5739 5740 5741 5742 5743 5744 5745 5746 5747 5748 5749 5750 5751 5752 5753 5754 5755 5756 5757 5758 5759 5760 5761 5762 5763 5764 5765 5766 5767 5768 5769 5770 5771 5772 5773 5774 5775 5776 5777 5778 5779 5780 5781 5782 5783 5784 5785 5786 5787 5788 5789 5790 5791 5792 5793 5794 5795 5796 5797 5798 5799 5800 5801 5802 5803 5804 5805 5806 5807 5808 5809 5810 5811 5812 5813 5814 5815 5816 5817 5818 5819 5820 5821 5822 5823 5824 5825 5826 5827 5828 5829 5830 5831 5832 5833 5834 5835 5836 5837 5838 5839 5840 5841 5842 5843 5844 5845 5846 5847 5848 5849 5850 5851 5852 5853 5854 5855 5856 5857 5858 5859 5860 5861 5862 5863 5864 5865 5866 5867 5868 5869 5870 5871 5872 5873 5874 5875 5876 5877 5878 5879 5880 5881 5882 5883 5884 5885 5886 5887 5888 5889 5890 5891 5892 5893 5894 5895 5896 5897 5898 5899 5900 5901 5902 5903 5904 5905 5906 5907 5908 5909 5910 5911 5912 5913 5914 5915 5916 5917 5918 5919 5920 5921 5922 5923 5924 5925 5926 5927 5928 5929 5930 5931 5932 5933 5934 5935 5936 5937 5938 5939 5940 5941 5942 5943 5944 5945 5946 5947 5948 5949 5950 5951 5952 5953 5954 5955 5956 5957 5958 5959 5960 5961 5962 5963 5964 5965 5966 5967 5968 5969 5970 5971 5972 5973 5974 5975 5976 5977 5978 5979 5980 5981 5982 5983 5984 5985 5986 5987 5988 5989 5990 5991 5992 5993 5994 5995 5996 5997 5998 5999 6000 6001 6002 6003 6004 6005 6006 6007 6008 6009 6010 6011 6012 6013 6014 6015 6016 6017 6018 6019 6020 6021 6022 6023 6024 6025 6026 6027 6028 6029 6030 6031 6032 6033 6034 6035 6036 6037 6038 6039 6040 6041 6042 6043 6044 6045 6046 6047 6048 6049 6050 6051 6052 6053 6054 6055 6056 6057 6058 6059 6060 6061 6062 6063 6064 6065 6066 6067 6068 6069 6070 6071 6072 6073 6074 6075 6076 6077 6078 6079 6080 6081 6082 6083 6084 6085 6086 6087 6088 6089 6090 6091 6092 6093 6094 6095 6096 6097 6098 6099 6100 6101 6102 6103 6104 6105 6106 6107 6108 6109 6110 6111 6112 6113 6114 6115 6116 6117 6118 6119 6120 6121 6122 6123 6124 6125 6126 6127 6128 6129 6130 6131 6132 6133 6134 6135 6136 6137 6138 6139 6140 6141 6142 6143 6144 6145 6146 6147 6148 6149 6150 6151 6152 6153 6154 6155 6156 6157 6158 6159 6160 6161 6162 6163 6164 6165 6166 6167 6168 6169 6170 6171 6172 6173 6174 6175 6176 6177 6178 6179 6180 6181 6182 6183 6184 6185 6186 6187 6188 6189 6190 6191 6192 6193 6194 6195 6196 6197 6198 6199 6200 6201 6202 6203 6204 6205 6206 6207 6208 6209 6210 6211 6212 6213 6214 6215 6216 6217 6218 6219 6220 6221 6222 6223 6224 6225 6226 6227 6228 6229 6230 6231 6232 6233 6234 6235 6236 6237 6238 6239 6240 6241 6242 6243 6244 6245 6246 6247 6248 6249 6250 6251 6252 6253 6254 6255 6256 6257 6258 6259 6260 6261 6262 6263 6264 6265 6266 6267 6268 6269 6270 6271 6272 6273 6274 6275 6276 6277 6278 6279 6280 6281 6282 6283 6284 6285 6286 6287 6288 6289 6290 6291 6292 6293 6294 6295 6296 6297 6298 6299 6300 6301 6302 6303 6304 6305 6306 6307 6308 6309 6310 6311 6312 6313 6314 6315 6316 6317 6318 6319 6320 6321 6322 6323 6324 6325 6326 6327 6328 6329 6330 6331 6332 6333 6334 6335 6336 6337 6338 6339 6340 6341 6342 6343 6344 6345 6346 6347 6348 6349 6350 6351 6352 6353 6354 6355 6356 6357 6358 6359 6360 6361 6362 6363 6364 6365 6366 6367 6368 6369 6370 6371 6372 6373 6374 6375 6376 6377 6378 6379 6380 6381 6382 6383 6384 6385 6386 6387 6388 6389 6390 6391 6392 6393 6394 6395 6396 6397 6398 6399 6400 6401 6402 6403 6404 6405 6406 6407 6408 6409 6410 6411 6412 6413 6414 6415 6416 6417 6418 6419 6420 6421 6422 6423 6424 6425 6426 6427 6428 6429 6430 6431 6432 6433 6434 6435 6436 6437 6438 6439 6440 6441 6442 6443 6444 6445 6446 6447 6448 6449 6450 6451 6452 6453 6454 6455 6456 6457 6458 6459 6460 6461 6462 6463 6464 6465 6466 6467 6468 6469 6470 6471 6472 6473 6474 6475 6476 6477 6478 6479 6480 6481 6482 6483 6484 6485 6486 6487 6488 6489 6490 6491 6492 6493 6494 6495 6496 6497 6498 6499 6500 6501 6502 6503 6504 6505 6506 6507 6508 6509 6510 6511 6512 6513 6514 6515 6516 6517 6518 6519 6520 6521 6522 6523 6524 6525 6526 6527 6528 6529 6530 6531 6532 6533 6534 6535 6536 6537 6538 6539 6540 6541 6542 6543 6544 6545 6546 6547 6548 6549 6550 6551 6552 6553 6554 6555 6556 6557 6558 6559 6560 6561 6562 6563 6564 6565 6566 6567 6568 6569 6570 6571 6572 6573 6574 6575 6576 6577 6578 6579 6580 6581 6582 6583 6584 6585 6586 6587 6588 6589 6590 6591 6592 6593 6594 6595 6596 6597 6598 6599 6600 6601 6602 6603 6604 6605 6606 6607 6608 6609 6610 6611 6612 6613 6614 6615 6616 6617 6618 6619 6620 6621 6622 6623 6624 6625 6626 6627 6628 6629 6630 6631 6632 6633 6634 6635 6636 6637 6638 6639 6640 6641 6642 6643 6644 6645 6646 6647 6648 6649 6650 6651 6652 6653 6654 6655 6656 6657 6658 6659 6660 6661 6662 6663 6664 6665 6666 6667 6668 6669 6670 6671 6672 6673 6674 6675 6676 6677 6678 6679 6680 6681 6682 6683 6684 6685 6686 6687 6688 6689 6690 6691 6692 6693 6694 6695 6696 6697 6698 6699 6700 6701 6702 6703 6704 6705 6706 6707 6708 6709 6710 6711 6712 6713 6714 6715 6716 6717 6718 6719 6720 6721 6722 6723 6724 6725 6726 6727 6728 6729 6730 6731 6732 6733 6734 6735 6736 6737 6738 6739 6740 6741 6742 6743 6744 6745 6746 6747 6748 6749 6750 6751 6752 6753 6754 6755 6756 6757 6758 6759 6760 6761 6762 6763 6764 6765 6766 6767 6768 6769 6770 6771 6772 6773 6774 6775 6776 6777 6778 6779 6780 6781 6782 6783 6784 6785 6786 6787 6788 6789 6790 6791 6792 6793 6794 6795 6796 6797 6798 6799 6800 6801 6802 6803 6804 6805 6806 6807 6808 6809 6810 6811 6812 6813 6814 6815 6816 6817 6818 6819 6820 6821 6822 6823 6824 6825 6826 6827 6828 6829 6830 6831 6832 6833 6834 6835 6836 6837 6838 6839 6840 6841 6842 6843 6844 6845 6846 6847 6848 6849 6850 6851 6852 6853 6854 6855 6856 6857 6858 6859 6860 6861 6862 6863 6864 6865 6866 6867 6868 6869 6870 6871 6872 6873 6874 6875 6876 6877 6878 6879 6880 6881 6882 6883 6884 6885 6886 6887 6888 6889 6890 6891 6892 6893 6894 6895 6896 6897 6898 6899 6900 6901 6902 6903 6904 6905 6906 6907 6908 6909 6910 6911 6912 6913 6914 6915 6916 6917 6918 6919 6920 6921 6922 6923 6924 6925 6926 6927 6928 6929 6930 6931 6932 6933 6934 6935 6936 6937 6938 6939 6940 6941 6942 6943 6944 6945 6946 6947 6948 6949 6950 6951 6952 6953 6954 6955 6956 6957 6958 6959 6960 6961 6962 6963 6964 6965 6966 6967 6968 6969 6970 6971 6972 6973 6974 6975 6976 6977 6978 6979 6980 6981 6982 6983 6984 6985 6986 6987 6988 6989 6990 6991 6992 6993 6994 6995 6996 6997 6998 6999 7000 7001 7002 7003 7004 7005 7006 7007 7008 7009 7010 7011 7012 7013 7014 7015 7016 7017 7018 7019 7020 7021 7022 7023 7024 7025 7026 7027 7028 7029 7030 7031 7032 7033 7034 7035 7036 7037 7038 7039 7040 7041 7042 7043 7044 7045 7046 7047 7048 7049 7050 7051 7052 7053 7054 7055 7056 7057 7058 7059 7060 7061 7062 7063 7064 7065 7066 7067 7068 7069 7070 7071 7072 7073 7074 7075 7076 7077 7078 7079 7080 7081 7082 7083 7084 7085 7086 7087 7088 7089 7090 7091 7092 7093 7094 7095 7096 7097 7098 7099 7100 7101 7102 7103 7104 7105 7106 7107 7108 7109 7110 7111 7112 7113 7114 7115 7116 7117 7118 7119 7120 7121 7122 7123 7124 7125 7126 7127 7128 7129 7130 7131 7132 7133 7134 7135 7136 7137 7138 7139 7140 7141 7142 7143 7144 7145 7146 7147 7148 7149 7150 7151 7152 7153 7154 7155 7156 7157 7158 7159 7160 7161 7162 7163 7164 7165 7166 7167 7168 7169 7170 7171 7172 7173 7174 7175 7176 7177 7178 7179 7180 7181 7182 7183 7184 7185 7186 7187 7188 7189 7190 7191 7192 7193 7194 7195 7196 7197 7198 7199 7200 7201 7202 7203 7204 7205 7206 7207 7208 7209 7210 7211 7212 7213 7214 7215 7216 7217 7218 7219 7220 7221 7222 7223 7224 7225 7226 7227 7228 7229 7230 7231 7232 7233 7234 7235 7236 7237 7238 7239 7240 7241 7242 7243 7244 7245 7246 7247 7248 7249 7250 7251 7252 7253 7254 7255 7256 7257 7258 7259 7260 7261 7262 7263 7264 7265 7266 7267 7268 7269 7270 7271 7272 7273 7274 7275 7276 7277 7278 7279 7280 7281 7282 7283 7284 7285 7286 7287 7288 7289 7290 7291 7292 7293 7294 7295 7296 7297 7298 7299 7300 7301 7302 7303 7304 7305 7306 7307 7308 7309 7310 7311 7312 7313 7314 7315 7316 7317 7318 7319 7320 7321 7322 7323 7324 7325 7326 7327 7328 7329 7330 7331 7332 7333 7334 7335 7336 7337 7338 7339 7340 7341 7342 7343 7344 7345 7346 7347 7348 7349 7350 7351 7352 7353 7354 7355 7356 7357 7358 7359 7360 7361 7362 7363 7364 7365 7366 7367 7368 7369 7370 7371 7372 7373 7374 7375 7376 7377 7378 7379 7380 7381 7382 7383 7384 7385 7386 7387 7388 7389 7390 7391 7392 7393 7394 7395 7396 7397 7398 7399 7400 7401 7402 7403 7404 7405 7406 7407 7408 7409 7410 7411 7412 7413 7414 7415 7416 7417 7418 7419 7420 7421 7422 7423 7424 7425 7426 7427 7428 7429 7430 7431 7432 7433 7434 7435 7436 7437 7438 7439 7440 7441 7442 7443 7444 7445 7446 7447 7448 7449 7450 7451 7452 7453 7454 7455 7456 7457 7458 7459 7460 7461 7462 7463 7464 7465 7466 7467 7468 7469 7470 7471 7472 7473 7474 7475 7476 7477 7478 7479 7480 7481 7482 7483 7484 7485 7486 7487 7488 7489 7490 7491 7492 7493 7494 7495 7496 7497 7498 7499 7500 7501 7502 7503 7504 7505 7506 7507 7508 7509 7510 7511 7512 7513 7514 7515 7516 7517 7518 7519 7520 7521 7522 7523 7524 7525 7526 7527 7528 7529 7530 7531 7532 7533 7534 7535 7536 7537 7538 7539 7540 7541 7542 7543 7544 7545 7546 7547 7548 7549 7550 7551 7552 7553 7554 7555 7556 7557 7558 7559 7560 7561 7562 7563 7564 7565 7566 7567 7568 7569 7570 7571 7572 7573 7574 7575 7576 7577 7578 7579 7580 7581 7582 7583 7584 7585 7586 7587 7588 7589 7590 7591 7592 7593 7594 7595 7596 7597 7598 7599 7600 7601 7602 7603 7604 7605 7606 7607 7608 7609 7610 7611 7612 7613 7614 7615 7616 7617 7618 7619 7620 7621 7622 7623 7624 7625 7626 7627 7628 7629 7630 7631 7632 7633 7634 7635 7636 7637 7638 7639 7640 7641 7642 7643 7644 7645 7646 7647 7648 7649 7650 7651 7652 7653 7654 7655 7656 7657 7658 7659 7660 7661 7662 7663 7664 7665 7666 7667 7668 7669 7670 7671 7672 7673 7674 7675 7676 7677 7678 7679 7680 7681 7682 7683 7684 7685 7686 7687 7688 7689 7690 7691 7692 7693 7694 7695 7696 7697 7698 7699 7700 7701 7702 7703 7704 7705 7706 7707 7708 7709 7710 7711 7712 7713 7714 7715 7716 7717 7718 7719 7720 7721 7722 7723 7724 7725 7726 7727 7728 7729 7730 7731 7732 7733 7734 7735 7736 7737 7738 7739 7740 7741 7742 7743 7744 7745 7746 7747 7748 7749 7750 7751 7752 7753 7754 7755 7756 7757 7758 7759 7760 7761 7762 7763 7764 7765 7766 7767 7768 7769 7770 7771 7772 7773 7774 7775 7776 7777 7778 7779 7780 7781 7782 7783 7784 7785 7786 7787 7788 7789 7790 7791 7792 7793 7794 7795 7796 7797 7798 7799 7800 7801 7802 7803 7804 7805 7806 7807 7808 7809 7810 7811 7812 7813 7814 7815 7816 7817 7818 7819 7820 7821 7822 7823 7824 7825 7826 7827 7828 7829 7830 7831 7832 7833 7834 7835 7836 7837 7838 7839 7840 7841 7842 7843 7844 7845 7846 7847 7848 7849 7850 7851 7852 7853 7854 7855 7856 7857 7858 7859 7860 7861 7862 7863 7864 7865 7866 7867 7868 7869 7870 7871 7872 7873 7874 7875 7876 7877 7878 7879 7880 7881 7882 7883 7884 7885 7886 7887 7888 7889 7890 7891 7892 7893 7894 7895 7896 7897 7898 7899 7900 7901 7902 7903 7904 7905 7906 7907 7908 7909 7910 7911 7912 7913 7914 7915 7916 7917 7918 7919 7920 7921 7922 7923 7924 7925 7926 7927 7928 7929 7930 7931 7932 7933 7934 7935 7936 7937 7938 7939 7940 7941 7942 7943 7944 7945 7946 7947 7948 7949 7950 7951 7952 7953 7954 7955 7956 7957 7958 7959 7960 7961 7962 7963 7964 7965 7966 7967 7968 7969 7970 7971 7972 7973 7974 7975 7976 7977 7978 7979 7980 7981 7982 7983 7984 7985 7986 7987 7988 7989 7990 7991 7992 7993 7994 7995 7996 7997 7998 7999 8000 8001 8002 8003 8004 8005 8006 8007 8008 8009 8010 8011 8012 8013 8014 8015 8016 8017 8018 8019 8020 8021 8022 8023 8024 8025 8026 8027 8028 8029 8030 8031 8032 8033 8034 8035 8036 8037 8038 8039 8040 8041 8042 8043 8044 8045 8046 8047 8048 8049 8050 8051 8052 8053 8054 8055 8056 8057 8058 8059 8060 8061 8062 8063 8064 8065 8066 8067 8068 8069 8070 8071 8072 8073 8074 8075 8076 8077 8078 8079 8080 8081 8082 8083 8084 8085 8086 8087 8088 8089 8090 8091 8092 8093 8094 8095 8096 8097 8098 8099 8100 8101 8102 8103 8104 8105 8106 8107 8108 8109 8110 8111 8112 8113 8114 8115 8116 8117 8118 8119 8120 8121 8122 8123 8124 8125 8126 8127 8128 8129 8130 8131 8132 8133 8134 8135 8136 8137 8138 8139 8140 8141 8142 8143 8144 8145 8146 8147 8148 8149 8150 8151 8152 8153 8154 8155 8156 8157 8158 8159 8160 8161 8162 8163 8164 8165 8166 8167 8168 8169 8170 8171 8172 8173 8174 8175 8176 8177 8178 8179 8180 8181 8182 8183 8184 8185 8186 8187 8188 8189 8190 8191 8192 8193 8194 8195 8196 8197 8198 8199 8200 8201 8202 8203 8204 8205 8206 8207 8208 8209 8210 8211 8212 8213 8214 8215 8216 8217 8218 8219 8220 8221 8222 8223 8224 8225 8226 8227 8228 8229 8230 8231 8232 8233 8234 8235 8236 8237 8238 8239 8240 8241 8242 8243 8244 8245 8246 8247 8248 8249 8250 8251 8252 8253 8254 8255 8256 8257 8258 8259 8260 8261 8262 8263 8264 8265 8266 8267 8268 8269 8270 8271 8272 8273 8274 8275 8276 8277 8278 8279 8280 8281 8282 8283 8284 8285 8286 8287 8288 8289 8290 8291 8292 8293 8294 8295 8296 8297 8298 8299 8300 8301 8302 8303 8304 8305 8306 8307 8308 8309 8310 8311 8312 8313 8314 8315 8316 8317 8318 8319 8320 8321 8322 8323 8324 8325 8326 8327 8328 8329 8330 8331 8332 8333 8334 8335 8336 8337 8338 8339 8340 8341 8342 8343 8344 8345 8346 8347 8348 8349 8350 8351 8352 8353 8354 8355 8356 8357 8358 8359 8360 8361 8362 8363 8364 8365 8366 8367 8368 8369 8370 8371 8372 8373 8374 8375 8376 8377 8378 8379 8380 8381 8382 8383 8384 8385 8386 8387 8388 8389 8390 8391 8392 8393 8394 8395 8396 8397 8398 8399 8400 8401 8402 8403 8404 8405 8406 8407 8408 8409 8410 8411 8412 8413 8414 8415 8416 8417 8418 8419 8420 8421 8422 8423 8424 8425 8426 8427 8428 8429 8430 8431 8432 8433 8434 8435 8436 8437 8438 8439 8440 8441 8442 8443 8444 8445 8446 8447 8448 8449 8450 8451 8452 8453 8454 8455 8456 8457 8458 8459 8460 8461 8462 8463 8464 8465 8466 8467 8468 8469 8470 8471 8472 8473 8474 8475 8476 8477 8478 8479 8480 8481 8482 8483 8484 8485 8486 8487 8488 8489 8490 8491 8492 8493 8494 8495 8496 8497 8498 8499 8500 8501 8502 8503 8504 8505 8506 8507 8508 8509 8510 8511 8512 8513 8514 8515 8516 8517 8518 8519 8520 8521 8522 8523 8524 8525 8526 8527 8528 8529 8530 8531 8532 8533 8534 8535 8536 8537 8538 8539 8540 8541 8542 8543 8544 8545 8546 8547 8548 8549 8550 8551 8552 8553 8554 8555 8556 8557 8558 8559 8560 8561 8562 8563 8564 8565 8566 8567 8568 8569 8570 8571 8572 8573 8574 8575 8576 8577 8578 8579 8580 8581 8582 8583 8584 8585 8586 8587 8588 8589 8590 8591 8592 8593 8594 8595 8596 8597 8598 8599 8600 8601 8602 8603 8604 8605 8606 8607 8608 8609 8610 8611 8612 8613 8614 8615 8616 8617 8618 8619 8620 8621 8622 8623 8624 8625 8626 8627 8628 8629 8630 8631 8632 8633 8634 8635 8636 8637 8638 8639 8640 8641 8642 8643 8644 8645 8646 8647 8648 8649 8650 8651 8652 8653 8654 8655 8656 8657 8658 8659 8660 8661 8662 8663 8664 8665 8666 8667 8668 8669 8670 8671 8672 8673 8674 8675 8676 8677 8678 8679 8680 8681 8682 8683 8684 8685 8686 8687 8688 8689 8690 8691 8692 8693 8694 8695 8696 8697 8698 8699 8700 8701 8702 8703 8704 8705 8706 8707 8708 8709 8710 8711 8712 8713 8714 8715 8716 8717 8718 8719 8720 8721 8722 8723 8724 8725 8726 8727 8728 8729 8730 8731 8732 8733 8734 8735 8736 8737 8738 8739 8740 8741 8742 8743 8744 8745 8746 8747 8748 8749 8750 8751 8752 8753 8754 8755 8756 8757 8758 8759 8760 8761 8762 8763 8764 8765 8766 8767 8768 8769 8770 8771 8772 8773 8774 8775 8776 8777 8778 8779 8780 8781 8782 8783 8784 8785 8786 8787 8788 8789 8790 8791 8792 8793 8794 8795 8796 8797 8798 8799 8800 8801 8802 8803 8804 8805 8806 8807 8808 8809 8810 8811 8812 8813 8814 8815 8816 8817 8818 8819 8820 8821 8822 8823 8824 8825 8826 8827 8828 8829 8830 8831 8832 8833 8834 8835 8836 8837 8838 8839 8840 8841 8842 8843 8844 8845 8846 8847 8848 8849 8850 8851 8852 8853 8854 8855 8856 8857 8858 8859 8860 8861 8862 8863 8864 8865 8866 8867 8868 8869 8870 8871 8872 8873 8874 8875 8876 8877 8878 8879 8880 8881 8882 8883 8884 8885 8886 8887 8888 8889 8890 8891 8892 8893 8894 8895 8896 8897 8898 8899 8900 8901 8902 8903 8904 8905 8906 8907 8908 8909 8910 8911 8912 8913 8914 8915 8916 8917 8918 8919 8920 8921 8922 8923 8924 8925 8926 8927 8928 8929 8930 8931 8932 8933 8934 8935 8936 8937 8938 8939 8940 8941 8942 8943 8944 8945 8946 8947 8948 8949 8950 8951 8952 8953 8954 8955 8956 8957 8958 8959 8960 8961 8962 8963 8964 8965 8966 8967 8968 8969 8970 8971 8972 8973 8974 8975 8976 8977 8978 8979 8980 8981 8982 8983 8984 8985 8986 8987 8988 8989 8990 8991 8992 8993 8994 8995 8996 8997 8998 8999 9000 9001 9002 9003 9004 9005 9006 9007 9008 9009 9010 9011 9012 9013 9014 9015 9016 9017 9018 9019 9020 9021 9022 9023 9024 9025 9026 9027 9028 9029 9030 9031 9032 9033 9034 9035 9036 9037 9038 9039 9040 9041 9042 9043 9044 9045 9046 9047 9048 9049 9050 9051 9052 9053 9054 9055 9056 9057 9058 9059 9060 9061 9062 9063 9064 9065 9066 9067 9068 9069 9070 9071 9072 9073 9074 9075 9076 9077 9078 9079 9080 9081 9082 9083 9084 9085 9086 9087 9088 9089 9090 9091 9092 9093 9094 9095 9096 9097 9098 9099 9100 9101 9102 9103 9104 9105 9106 9107 9108 9109 9110 9111 9112 9113 9114 9115 9116 9117 9118 9119 9120 9121 9122 9123 9124 9125 9126 9127 9128 9129 9130 9131 9132 9133 9134 9135 9136 9137 9138 9139 9140 9141 9142 9143 9144 9145 9146 9147 9148 9149 9150 9151 9152 9153 9154 9155 9156 9157 9158 9159 9160 9161 9162 9163 9164 9165 9166 9167 9168 9169 9170 9171 9172 9173 9174 9175 9176 9177 9178 9179 9180 9181 9182 9183 9184 9185 9186 9187 9188 9189 9190 9191 9192 9193 9194 9195 9196 9197 9198 9199 9200 9201 9202 9203 9204 9205 9206 9207 9208 9209 9210 9211 9212 9213 9214 9215 9216 9217 9218 9219 9220 9221 9222 9223 9224 9225 9226 9227 9228 9229 9230 9231 9232 9233 9234 9235 9236 9237 9238 9239 9240 9241 9242 9243 9244 9245 9246 9247 9248 9249 9250 9251 9252 9253 9254 9255 9256 9257 9258 9259 9260 9261 9262 9263 9264 9265 9266 9267 9268 9269 9270 9271 9272 9273 9274 9275 9276 9277 9278 9279 9280 9281 9282 9283 9284 9285 9286 9287 9288 9289 9290 9291 9292 9293 9294 9295 9296 9297 9298 9299 9300 9301 9302 9303 9304 9305 9306 9307 9308 9309 9310 9311 9312 9313 9314 9315 9316 9317 9318 9319 9320 9321 9322 9323 9324 9325 9326 9327 9328 9329 9330 9331 9332 9333 9334 9335 9336 9337 9338 9339 9340 9341 9342 9343 9344 9345 9346 9347 9348 9349 9350 9351 9352 9353 9354 9355 9356 9357 9358 9359 9360 9361 9362 9363 9364 9365 9366 9367 9368 9369 9370 9371 9372 9373 9374 9375 9376 9377 9378 9379 9380 9381 9382 9383 9384 9385 9386 9387 9388 9389 9390 9391 9392 9393 9394 9395 9396 9397 9398 9399 9400 9401 9402 9403 9404 9405 9406 9407 9408 9409 9410 9411 9412 9413 9414 9415 9416 9417 9418 9419 9420 9421 9422 9423 9424 9425 9426 9427 9428 9429 9430 9431 9432 9433 9434 9435 9436 9437 9438 9439 9440 9441 9442 9443 9444 9445 9446 9447 9448 9449 9450 9451 9452 9453 9454 9455 9456 9457 9458 9459 9460 9461 9462 9463 9464 9465 9466 9467 9468 9469 9470 9471 9472 9473 9474 9475 9476 9477 9478 9479 9480 9481 9482 9483 9484 9485 9486 9487 9488 9489 9490 9491 9492 9493 9494 9495 9496 9497 9498 9499 9500 9501 9502 9503 9504 9505 9506 9507 9508 9509 9510 9511 9512 9513 9514 9515 9516 9517 9518 9519 9520 9521 9522 9523 9524 9525 9526 9527 9528 9529 9530 9531 9532 9533 9534 9535 9536 9537 9538 9539 9540 9541 9542 9543 9544 9545 9546 9547 9548 9549 9550 9551 9552 9553 9554 9555 9556 9557 9558 9559 9560 9561 9562 9563 9564 9565 9566 9567 9568 9569 9570 9571 9572 9573 9574 9575 9576 9577 9578 9579 9580 9581 9582 9583 9584 9585 9586 9587 9588 9589 9590 9591 9592 9593 9594 9595 9596 9597 9598 9599 9600 9601 9602 9603 9604 9605 9606 9607 9608 9609 9610 9611 9612 9613 9614 9615 9616 9617 9618 9619 9620 9621 9622 9623 9624 9625 9626 9627 9628 9629 9630 9631 9632 9633 9634 9635 9636 9637 9638 9639 9640 9641 9642 9643 9644 9645 9646 9647 9648 9649 9650 9651 9652 9653 9654 9655 9656 9657 9658 9659 9660 9661 9662 9663 9664 9665 9666 9667 9668 9669 9670 9671 9672 9673 9674 9675 9676 9677 9678 9679 9680 9681 9682 9683 9684 9685 9686 9687 9688 9689 9690 9691 9692 9693 9694 9695 9696 9697 9698 9699 9700 9701 9702 9703 9704 9705 9706 9707 9708 9709 9710 9711 9712 9713 9714 9715 9716 9717 9718 9719 9720 9721 9722 9723 9724 9725 9726 9727 9728 9729 9730 9731 9732 9733 9734 9735 9736 9737 9738 9739 9740 9741 9742 9743 9744 9745 9746 9747 9748 9749 9750 9751 9752 9753 9754 9755 9756 9757 9758 9759 9760 9761 9762 9763 9764 9765 9766 9767 9768 9769 9770 9771 9772 9773 9774 9775 9776 9777 9778 9779 9780 9781 9782 9783 9784 9785 9786 9787 9788 9789 9790 9791 9792 9793 9794 9795 9796 9797 9798 9799 9800 9801 9802 9803 9804 9805 9806 9807 9808 9809 9810 9811 9812 9813 9814 9815 9816 9817 9818 9819 9820 9821 9822 9823 9824 9825 9826 9827 9828 9829 9830 9831 9832 9833 9834 9835 9836 9837 9838 9839 9840 9841 9842 9843 9844 9845 9846 9847 9848 9849 9850 9851 9852 9853 9854 9855 9856 9857 9858 9859 9860 9861 9862 9863 9864 9865 9866 9867 9868 9869 9870 9871 9872 9873 9874 9875 9876 9877 9878 9879 9880 9881 9882 9883 9884 9885 9886 9887 9888 9889 9890 9891 9892 9893 9894 9895 9896 9897 9898 9899 9900 9901 9902 9903 9904 9905 9906 9907 9908 9909 9910 9911 9912 9913 9914 9915 9916 9917 9918 9919 9920 9921 9922 9923 9924 9925 9926 9927 9928 9929 9930 9931 9932 9933 9934 9935 9936 9937 9938 9939 9940 9941 9942 9943 9944 9945 9946 9947 9948 9949 9950 9951 9952 9953 9954 9955 9956 9957 9958 9959 9960 9961 9962 9963 9964 9965 9966 9967 9968 9969 9970 9971 9972 9973 9974 9975 9976 9977 9978 9979 9980 9981 9982 9983 9984 9985 9986 9987 9988 9989 9990 9991 9992 9993 9994 9995 9996 9997 9998 9999 10000 10001 10002 10003 10004 10005 10006 10007 10008 10009 10010 10011 10012 10013 10014 10015 10016 10017 10018 10019 10020 10021 10022 10023 10024 10025 10026 10027 10028 10029 10030 10031 10032 10033 10034 10035 10036 10037 10038 10039 10040 10041 10042 10043 10044 10045 10046 10047 10048 10049 10050 10051 10052 10053 10054 10055 10056 10057 10058 10059 10060 10061 10062 10063 10064 10065 10066 10067 10068 10069 10070 10071 10072 10073 10074 10075 10076 10077 10078 10079 10080 10081 10082 10083 10084 10085 10086 10087 10088 10089 10090 10091 10092 10093 10094 10095 10096 10097 10098 10099 10100 10101 10102 10103 10104 10105 10106 10107 10108 10109 10110 10111 10112 10113 10114 10115 10116 10117 10118 10119 10120 10121 10122 10123 10124 10125 10126 10127 10128 10129 10130 10131 10132 10133 10134 10135 10136 10137 10138 10139 10140 10141 10142 10143 10144 10145 10146 10147 10148 10149 10150 10151 10152 10153 10154 10155 10156 10157 10158 10159 10160 10161 10162 10163 10164 10165 10166 10167 10168 10169 10170 10171 10172 10173 10174 10175 10176 10177 10178 10179 10180 10181 10182 10183 10184 10185 10186 10187 10188 10189 10190 10191 10192 10193 10194 10195 10196 10197 10198 10199 10200 10201 10202 10203 10204 10205 10206 10207 10208 10209 10210 10211 10212 10213 10214 10215 10216 10217 10218 10219 10220 10221 10222 10223 10224 10225 10226 10227 10228 10229 10230 10231 10232 10233 10234 10235 10236 10237 10238 10239 10240 10241 10242 10243 10244 10245 10246 10247 10248 10249 10250 10251 10252 10253 10254 10255 10256 10257 10258 10259 10260 10261 10262 10263 10264 10265 10266 10267 10268 10269 10270 10271 10272 10273 10274 10275 10276 10277 10278 10279 10280 10281 10282 10283 10284 10285 10286 10287 10288 10289 10290 10291 10292 10293 10294 10295 10296 10297 10298 10299 10300 10301 10302 10303 10304 10305 10306 10307 10308 10309 10310 10311 10312 10313 10314 10315 10316 10317 10318 10319 10320 10321 10322 10323 10324 10325 10326 10327 10328 10329 10330 10331 10332 10333 10334 10335 10336 10337 10338 10339 10340 10341 10342 10343 10344 10345 10346 10347 10348 10349 10350 10351 10352 10353 10354 10355 10356 10357 10358 10359 10360 10361 10362 10363 10364 10365 10366 10367 10368 10369 10370 10371 10372 10373 10374 10375 10376 10377 10378 10379 10380 10381 10382 10383 10384 10385 10386 10387 10388 10389 10390 10391 10392 10393 10394 10395 10396 10397 10398 10399 10400 10401 10402 10403 10404 10405 10406 10407 10408 10409 10410 10411 10412 10413 10414 10415 10416 10417 10418 10419 10420 10421 10422 10423 10424 10425 10426 10427 10428 10429 10430 10431 10432 10433 10434 10435 10436 10437 10438 10439 10440 10441 10442 10443 10444 10445 10446 10447 10448 10449 10450 10451 10452 10453 10454 10455 10456 10457 10458 10459 10460 10461 10462 10463 10464 10465 10466 10467 10468 10469 10470 10471 10472 10473 10474 10475 10476 10477 10478 10479 10480 10481 10482 10483 10484 10485 10486 10487 10488 10489 10490 10491 10492 10493 10494 10495 10496 10497 10498 10499 10500 10501 10502 10503 10504 10505 10506 10507 10508 10509 10510 10511 10512 10513 10514 10515 10516 10517 10518 10519 10520 10521 10522 10523 10524 10525 10526 10527 10528 10529 10530 10531 10532 10533 10534 10535 10536 10537 10538 10539 10540 10541 10542 10543 10544 10545 10546 10547 10548 10549 10550 10551 10552 10553 10554 10555 10556 10557 10558 10559 10560 10561 10562 10563 10564 10565 10566 10567 10568 10569 10570 10571 10572 10573 10574 10575 10576 10577 10578 10579 10580 10581 10582 10583 10584 10585 10586 10587 10588 10589 10590 10591 10592 10593 10594 10595 10596 10597 10598 10599 10600 10601 10602 10603 10604 10605 10606 10607 10608 10609 10610 10611 10612 10613 10614 10615 10616 10617 10618 10619 10620 10621 10622 10623 10624 10625 10626 10627 10628 10629 10630 10631 10632 10633 10634 10635 10636 10637 10638 10639 10640 10641 10642 10643 10644 10645 10646 10647 10648 10649 10650 10651 10652 10653 10654 10655 10656 10657 10658 10659 10660 10661 10662 10663 10664 10665 10666 10667 10668 10669 10670 10671 10672 10673 10674 10675 10676 10677 10678 10679 10680 10681 10682 10683 10684 10685 10686 10687 10688 10689 10690 10691 10692 10693 10694 10695 10696 10697 10698 10699 10700 10701 10702 10703 10704 10705 10706 10707 10708 10709 10710 10711 10712 10713 10714 10715 10716 10717 10718 10719 10720 10721 10722 10723 10724 10725 10726 10727 10728 10729 10730 10731 10732 10733 10734 10735 10736 10737 10738 10739 10740 10741 10742 10743 10744 10745 10746 10747 10748 10749 10750 10751 10752 10753 10754 10755 10756 10757 10758 10759 10760 10761 10762 10763 10764 10765 10766 10767 10768 10769 10770 10771 10772 10773 10774 10775 10776 10777 10778 10779 10780 10781 10782 10783 10784 10785 10786 10787 10788 10789 10790 10791 10792 10793 10794 10795 10796 10797 10798 10799 10800 10801 10802 10803 10804 10805 10806 10807 10808 10809 10810 10811 10812 10813 10814 10815 10816 10817 10818 10819 10820 10821 10822 10823 10824 10825 10826 10827 10828 10829 10830 10831 10832 10833 10834 10835 10836 10837 10838 10839 10840 10841 10842 10843 10844 10845 10846 10847 10848 10849 10850 10851 10852 10853 10854 10855 10856 10857 10858 10859 10860 10861 10862 10863 10864 10865 10866 10867 10868 10869 10870 10871 10872 10873 10874 10875 10876 10877 10878 10879 10880 10881 10882 10883 10884 10885 10886 10887 10888 10889 10890 10891 10892 10893 10894 10895 10896 10897 10898 10899 10900 10901 10902 10903 10904 10905 10906 10907 10908 10909 10910 10911 10912 10913 10914 10915 10916 10917 10918 10919 10920 10921 10922 10923 10924 10925 10926 10927 10928 10929 10930 10931 10932 10933 10934 10935 10936 10937 10938 10939 10940 10941 10942 10943 10944 10945 10946 10947 10948 10949 10950 10951 10952 10953 10954 10955 10956 10957 10958 10959 10960 10961 10962 10963 10964 10965 10966 10967 10968 10969 10970 10971 10972 10973 10974 10975 10976 10977 10978 10979 10980 10981 10982 10983 10984 10985 10986 10987 10988 10989 10990 10991 10992 10993 10994 10995 10996 10997 10998 10999 11000 11001 11002 11003 11004 11005 11006 11007 11008 11009 11010 11011 11012 11013 11014 11015 11016 11017 11018 11019 11020 11021 11022 11023 11024 11025 11026 11027 11028 11029 11030 11031 11032 11033 11034 11035 11036 11037 11038 11039 11040 11041 11042 11043 11044 11045 11046 11047 11048 11049 11050 11051 11052 11053 11054 11055 11056 11057 11058 11059 11060 11061 11062 11063 11064 11065 11066 11067 11068 11069 11070 11071 11072 11073 11074 11075 11076 11077 11078 11079 11080 11081 11082 11083 11084 11085 11086 11087 11088 11089 11090 11091 11092 11093 11094 11095 11096 11097 11098 11099 11100 11101 11102 11103 11104 11105 11106 11107 11108 11109 11110 11111 11112 11113 11114 11115 11116 11117 11118 11119 11120 11121 11122 11123 11124 11125 11126 11127 11128 11129 11130 11131 11132 11133 11134 11135 11136 11137 11138 11139 11140 11141 11142 11143 11144 11145 11146 11147 11148 11149 11150 11151 11152 11153 11154 11155 11156 11157 11158 11159 11160 11161 11162 11163 11164 11165 11166 11167 11168 11169 11170 11171 11172 11173 11174 11175 11176 11177 11178 11179 11180 11181 11182 11183 11184 11185 11186 11187 11188 11189 11190 11191 11192 11193 11194 11195 11196 11197 11198 11199 11200 11201 11202 11203 11204 11205 11206 11207 11208 11209 11210 11211 11212 11213 11214 11215 11216 11217 11218 11219 11220 11221 11222 11223 11224 11225 11226 11227 11228 11229 11230 11231 11232 11233 11234 11235 11236 11237 11238 11239 11240 11241 11242 11243 11244 11245 11246 11247 11248 11249 11250 11251 11252 11253 11254 11255 11256 11257 11258 11259 11260 11261 11262 11263 11264 11265 11266 11267 11268 11269 11270 11271 11272 11273 11274 11275 11276 11277 11278 11279 11280 11281 11282 11283 11284 11285 11286 11287 11288 11289 11290 11291 11292 11293 11294 11295 11296 11297 11298 11299 11300 11301 11302 11303 11304 11305 11306 11307 11308 11309 11310 11311 11312 11313 11314 11315 11316 11317 11318 11319 11320 11321 11322 11323 11324 11325 11326 11327 11328 11329 11330 11331 11332 11333 11334 11335 11336 11337 11338 11339 11340 11341 11342 11343 11344 11345 11346 11347 11348 11349 11350 11351 11352 11353 11354 11355 11356 11357 11358 11359 11360 11361 11362 11363 11364 11365 11366 11367 11368 11369 11370 11371 11372 11373 11374 11375 11376 11377 11378 11379 11380 11381 11382 11383 11384 11385 11386 11387 11388 11389 11390 11391 11392 11393 11394 11395 11396 11397 11398 11399 11400 11401 11402 11403 11404 11405 11406 11407 11408 11409 11410 11411 11412 11413 11414 11415 11416 11417 11418 11419 11420 11421 11422 11423 11424 11425 11426 11427 11428 11429 11430 11431 11432 11433 11434 11435 11436 11437 11438 11439 11440 11441 11442 11443 11444 11445 11446 11447 11448 11449 11450 11451 11452 11453 11454 11455 11456 11457 11458 11459 11460 11461 11462 11463 11464 11465 11466 11467 11468 11469 11470 11471 11472 11473 11474 11475 11476 11477 11478 11479 11480 11481 11482 11483 11484 11485 11486 11487 11488 11489 11490 11491 11492 11493 11494 11495 11496 11497 11498 11499 11500 11501 11502 11503 11504 11505 11506 11507 11508 11509 11510 11511 11512 11513 11514 11515 11516 11517 11518 11519 11520 11521 11522 11523 11524 11525 11526 11527 11528 11529 11530 11531 11532 11533 11534 11535 11536 11537 11538 11539 11540 11541 11542 11543 11544 11545 11546 11547 11548 11549 11550 11551 11552 11553 11554 11555 11556 11557 11558 11559 11560 11561 11562 11563 11564 11565 11566 11567 11568 11569 11570 11571 11572 11573 11574 11575 11576 11577 11578 11579 11580 11581 11582 11583 11584 11585 11586 11587 11588 11589 11590 11591 11592 11593 11594 11595 11596 11597 11598 11599 11600 11601 11602 11603 11604 11605 11606 11607 11608 11609 11610 11611 11612 11613 11614 11615 11616 11617 11618 11619 11620 11621 11622 11623 11624 11625 11626 11627 11628 11629 11630 11631 11632 11633 11634 11635 11636 11637 11638 11639 11640 11641 11642 11643 11644 11645 11646 11647 11648 11649 11650 11651 11652 11653 11654 11655 11656 11657 11658 11659 11660 11661 11662 11663 11664 11665 11666 11667 11668 11669 11670 11671 11672 11673 11674 11675 11676 11677 11678 11679 11680 11681 11682 11683 11684 11685 11686 11687 11688 11689 11690 11691 11692 11693 11694 11695 11696 11697 11698 11699 11700 11701 11702 11703 11704 11705 11706 11707 11708 11709 11710 11711 11712 11713 11714 11715 11716 11717 11718 11719 11720 11721 11722 11723 11724 11725 11726 11727 11728 11729 11730 11731 11732 11733 11734 11735 11736 11737 11738 11739 11740 11741 11742 11743 11744 11745 11746 11747 11748 11749 11750 11751 11752 11753 11754 11755 11756 11757 11758 11759 11760 11761 11762 11763 11764 11765 11766 11767 11768 11769 11770 11771 11772 11773 11774 11775 11776 11777 11778 11779 11780 11781 11782 11783 11784 11785 11786 11787 11788 11789 11790 11791 11792 11793 11794 11795 11796 11797 11798 11799 11800 11801 11802 11803 11804 11805 11806 11807 11808 11809 11810 11811 11812 11813 11814 11815 11816 11817 11818 11819 11820 11821 11822 11823 11824 11825 11826 11827 11828 11829 11830 11831 11832 11833 11834 11835 11836 11837 11838 11839 11840 11841 11842 11843 11844 11845 11846 11847 11848 11849 11850 11851 11852 11853 11854 11855 11856 11857 11858 11859 11860 11861 11862 11863 11864 11865 11866 11867 11868 11869 11870 11871 11872 11873 11874 11875 11876 11877 11878 11879 11880 11881 11882 11883 11884 11885 11886 11887 11888 11889 11890 11891 11892 11893 11894 11895 11896 11897 11898 11899 11900 11901 11902 11903 11904 11905 11906 11907 11908 11909 11910 11911 11912 11913 11914 11915 11916 11917 11918 11919 11920 11921 11922 11923 11924 11925 11926 11927 11928 11929 11930 11931 11932 11933 11934 11935 11936 11937 11938 11939 11940 11941 11942 11943 11944 11945 11946 11947 11948 11949 11950 11951 11952 11953 11954 11955 11956 11957 11958 11959 11960 11961 11962 11963 11964 11965 11966 11967 11968 11969 11970 11971 11972 11973 11974 11975 11976 11977 11978 11979 11980 11981 11982 11983 11984 11985 11986 11987 11988 11989 11990 11991 11992 11993 11994 11995 11996 11997 11998 11999 12000 12001 12002 12003 12004 12005 12006 12007 12008 12009 12010 12011 12012 12013 12014 12015 12016 12017 12018 12019 12020 12021 12022 12023 12024 12025 12026 12027 12028 12029 12030 12031 12032 12033 12034 12035 12036 12037 12038 12039 12040 12041 12042 12043 12044 12045 12046 12047 12048 12049 12050 12051 12052 12053 12054 12055 12056 12057 12058 12059 12060 12061 12062 12063 12064 12065 12066 12067 12068 12069 12070 12071 12072 12073 12074 12075 12076 12077 12078 12079 12080 12081 12082 12083 12084 12085 12086 12087 12088 12089 12090 12091 12092 12093 12094 12095 12096 12097 12098 12099 12100 12101 12102 12103 12104 12105 12106 12107 12108 12109 12110 12111 12112 12113 12114 12115 12116 12117 12118 12119 12120 12121 12122 12123 12124 12125 12126 12127 12128 12129 12130 12131 12132 12133 12134 12135 12136 12137 12138 12139 12140 12141 12142 12143 12144 12145 12146 12147 12148 12149 12150 12151 12152 12153 12154 12155 12156 12157 12158 12159 12160 12161 12162 12163 12164 12165 12166 12167 12168 12169 12170 12171 12172 12173 12174 12175 12176 12177 12178 12179 12180 12181 12182 12183 12184 12185 12186 12187 12188 12189 12190 12191 12192 12193 12194 12195 12196 12197 12198 12199 12200 12201 12202 12203 12204 12205 12206 12207 12208 12209 12210 12211 12212 12213 12214 12215 12216 12217 12218 12219 12220 12221 12222 12223 12224 12225 12226 12227 12228 12229 12230 12231 12232 12233 12234 12235 12236 12237 12238 12239 12240 12241 12242 12243 12244 12245 12246 12247 12248 12249 12250 12251 12252 12253 12254 12255 12256 12257 12258 12259 12260 12261 12262 12263 12264 12265 12266 12267 12268 12269 12270 12271 12272 12273 12274 12275 12276 12277 12278 12279 12280 12281 12282 12283 12284 12285 12286 12287 12288 12289 12290 12291 12292 12293 12294 12295 12296 12297 12298 12299 12300 12301 12302 12303 12304 12305 12306 12307 12308 12309 12310 12311 12312 12313 12314 12315 12316 12317 12318 12319 12320 12321 12322 12323 12324 12325 12326 12327 12328 12329 12330 12331 12332 12333 12334 12335 12336 12337 12338 12339 12340 12341 12342 12343 12344 12345 12346 12347 12348 12349 12350 12351 12352 12353 12354 12355 12356 12357 12358 12359 12360 12361 12362 12363 12364 12365 12366 12367 12368 12369 12370 12371 12372 12373 12374 12375 12376 12377 12378 12379 12380 12381 12382 12383 12384 12385 12386 12387 12388 12389 12390 12391 12392 12393 12394 12395 12396 12397 12398 12399 12400 12401 12402 12403 12404 12405 12406 12407 12408 12409 12410 12411 12412 12413 12414 12415 12416 12417 12418 12419 12420 12421 12422 12423 12424 12425 12426 12427 12428 12429 12430 12431 12432 12433 12434 12435 12436 12437 12438 12439 12440 12441 12442 12443 12444 12445 12446 12447 12448 12449 12450 12451 12452 12453 12454 12455 12456 12457 12458 12459 12460 12461 12462 12463 12464 12465 12466 12467 12468 12469 12470 12471 12472 12473 12474 12475 12476 12477 12478 12479 12480 12481 12482 12483 12484 12485 12486 12487 12488 12489 12490 12491 12492 12493 12494 12495 12496 12497 12498 12499 12500 12501 12502 12503 12504 12505 12506 12507 12508 12509 12510 12511 12512 12513 12514 12515 12516 12517 12518 12519 12520 12521 12522 12523 12524 12525 12526 12527 12528 12529 12530 12531 12532 12533 12534 12535 12536 12537 12538 12539 12540 12541 12542 12543 12544 12545 12546 12547 12548 12549 12550 12551 12552 12553 12554 12555 12556 12557 12558 12559 12560 12561 12562 12563 12564 12565 12566 12567 12568 12569 12570 12571 12572 12573 12574 12575 12576 12577 12578 12579 12580 12581 12582 12583 12584 12585 12586 12587 12588 12589 12590 12591 12592 12593 12594 12595 12596 12597 12598 12599 12600 12601 12602 12603 12604 12605 12606 12607 12608 12609 12610 12611 12612 12613 12614 12615 12616 12617 12618 12619 12620 12621 12622 12623 12624 12625 12626 12627 12628 12629 12630 12631 12632 12633 12634 12635 12636 12637 12638 12639 12640 12641 12642 12643 12644 12645 12646 12647 12648 12649 12650 12651 12652 12653 12654 12655 12656 12657 12658 12659 12660 12661 12662 12663 12664 12665 12666 12667 12668 12669 12670 12671 12672 12673 12674 12675 12676 12677 12678 12679 12680 12681 12682 12683 12684 12685 12686 12687 12688 12689 12690 12691 12692 12693 12694 12695 12696 12697 12698 12699 12700 12701 12702 12703 12704 12705 12706 12707 12708 12709 12710 12711 12712 12713 12714 12715 12716 12717 12718 12719 12720 12721 12722 12723 12724 12725 12726 12727 12728 12729 12730 12731 12732 12733 12734 12735 12736 12737 12738 12739 12740 12741 12742 12743 12744 12745 12746 12747 12748 12749 12750 12751 12752 12753 12754 12755 12756 12757 12758 12759 12760 12761 12762 12763 12764 12765 12766 12767 12768 12769 12770 12771 12772 12773 12774 12775 12776 12777 12778 12779 12780 12781 12782 12783 12784 12785 12786 12787 12788 12789 12790 12791 12792 12793 12794 12795 12796 12797 12798 12799 12800 12801 12802 12803 12804 12805 12806 12807 12808 12809 12810 12811 12812 12813 12814 12815 12816 12817 12818 12819 12820 12821 12822 12823 12824 12825 12826 12827 12828 12829 12830 12831 12832 12833 12834 12835 12836 12837 12838 12839 12840 12841 12842 12843 12844 12845 12846 12847 12848 12849 12850 12851 12852 12853 12854 12855 12856 12857 12858 12859 12860 12861 12862 12863 12864 12865 12866 12867 12868 12869 12870 12871 12872 12873 12874 12875 12876 12877 12878 12879 12880 12881 12882 12883 12884 12885 12886 12887 12888 12889 12890 12891 12892 12893 12894 12895 12896 12897 12898 12899 12900 12901 12902 12903 12904 12905 12906 12907 12908 12909 12910 12911 12912 12913 12914 12915 12916 12917 12918 12919 12920 12921 12922 12923 12924 12925 12926 12927 12928 12929 12930 12931 12932 12933 12934 12935 12936 12937 12938 12939 12940 12941 12942 12943 12944 12945 12946 12947 12948 12949 12950 12951 12952 12953 12954 12955 12956 12957 12958 12959 12960 12961 12962 12963 12964 12965 12966 12967 12968 12969 12970 12971 12972 12973 12974 12975 12976 12977 12978 12979 12980 12981 12982 12983 12984 12985 12986 12987 12988 12989 12990 12991 12992 12993 12994 12995 12996 12997 12998 12999 13000 13001 13002 13003 13004 13005 13006 13007 13008 13009 13010 13011 13012 13013 13014 13015 13016 13017 13018 13019 13020 13021 13022 13023 13024 13025 13026 13027 13028 13029 13030 13031 13032 13033 13034 13035 13036 13037 13038 13039 13040 13041 13042 13043 13044 13045 13046 13047 13048 13049 13050 13051 13052 13053 13054 13055 13056 13057 13058 13059 13060 13061 13062 13063 13064 13065 13066 13067 13068 13069 13070 13071 13072 13073 13074 13075 13076 13077 13078 13079 13080 13081 13082 13083 13084 13085 13086 13087 13088 13089 13090 13091 13092 13093 13094 13095 13096 13097 13098 13099 13100 13101 13102 13103 13104 13105 13106 13107 13108 13109 13110 13111 13112 13113 13114 13115 13116 13117 13118 13119 13120 13121 13122 13123 13124 13125 13126 13127 13128 13129 13130 13131 13132 13133 13134 13135 13136 13137 13138 13139 13140 13141 13142 13143 13144 13145 13146 13147 13148 13149 13150 13151 13152 13153 13154 13155 13156 13157 13158 13159 13160 13161 13162 13163 13164 13165 13166 13167 13168 13169 13170 13171 13172 13173 13174 13175 13176 13177 13178 13179 13180 13181 13182 13183 13184 13185 13186 13187 13188 13189 13190 13191 13192 13193 13194 13195 13196 13197 13198 13199 13200 13201 13202 13203 13204 13205 13206 13207 13208 13209 13210 13211 13212 13213 13214 13215 13216 13217 13218 13219 13220 13221 13222 13223 13224 13225 13226 13227 13228 13229 13230 13231 13232 13233 13234 13235 13236 13237 13238 13239 13240 13241 13242 13243 13244 13245 13246 13247 13248 13249 13250 13251 13252 13253 13254 13255 13256 13257 13258 13259 13260 13261 13262 13263 13264 13265 13266 13267 13268 13269 13270 13271 13272 13273 13274 13275 13276 13277 13278 13279 13280 13281 13282 13283 13284 13285 13286 13287 13288 13289 13290 13291 13292 13293 13294 13295 13296 13297 13298 13299 13300 13301 13302 13303 13304 13305 13306 13307 13308 13309 13310 13311 13312 13313 13314 13315 13316 13317 13318 13319 13320 13321 13322 13323 13324 13325 13326 13327 13328 13329 13330 13331 13332 13333 13334 13335 13336 13337 13338 13339 13340 13341 13342 13343 13344 13345 13346 13347 13348 13349 13350 13351 13352 13353 13354 13355 13356 13357 13358 13359 13360 13361 13362 13363 13364 13365 13366 13367 13368 13369 13370 13371 13372 13373 13374 13375 13376 13377 13378 13379 13380 13381 13382 13383 13384 13385 13386 13387 13388 13389 13390 13391 13392 13393 13394 13395 13396 13397 13398 13399 13400 13401 13402 13403 13404 13405 13406 13407 13408 13409 13410 13411 13412 13413 13414 13415 13416 13417 13418 13419 13420 13421 13422 13423 13424 13425 13426 13427 13428 13429 13430 13431 13432 13433 13434 13435 13436 13437 13438 13439 13440 13441 13442 13443 13444 13445 13446 13447 13448 13449 13450 13451 13452 13453 13454 13455 13456 13457 13458 13459 13460 13461 13462 13463 13464 13465 13466 13467 13468 13469 13470 13471 13472 13473 13474 13475 13476 13477 13478 13479 13480 13481 13482 13483 13484 13485 13486 13487 13488 13489 13490 13491 13492 13493 13494 13495 13496 13497 13498 13499 13500 13501 13502 13503 13504 13505 13506 13507 13508 13509 13510 13511 13512 13513 13514 13515 13516 13517 13518 13519 13520 13521 13522 13523 13524 13525 13526 13527 13528 13529 13530 13531 13532 13533 13534 13535 13536 13537 13538 13539 13540 13541 13542 13543 13544 13545 13546 13547 13548 13549 13550 13551 13552 13553 13554 13555 13556 13557 13558 13559 13560 13561 13562 13563 13564 13565 13566 13567 13568 13569 13570 13571 13572 13573 13574 13575 13576 13577 13578 13579 13580 13581 13582 13583 13584 13585 13586 13587 13588 13589 13590 13591 13592 13593 13594 13595 13596 13597 13598 13599 13600 13601 13602 13603 13604 13605 13606 13607 13608 13609 13610 13611 13612 13613 13614 13615 13616 13617 13618 13619 13620 13621 13622 13623 13624 13625 13626 13627 13628 13629 13630 13631 13632 13633 13634 13635 13636 13637 13638 13639 13640 13641 13642 13643 13644 13645 13646 13647 13648 13649 13650 13651 13652 13653 13654 13655 13656 13657 13658 13659 13660 13661 13662 13663 13664 13665 13666 13667 13668 13669 13670 13671 13672 13673 13674 13675 13676 13677 13678 13679 13680 13681 13682 13683 13684 13685 13686 13687 13688 13689 13690 13691 13692 13693 13694 13695 13696 13697 13698 13699 13700 13701 13702 13703 13704 13705 13706 13707 13708 13709 13710 13711 13712 13713 13714 13715 13716 13717 13718 13719 13720 13721 13722 13723 13724 13725 13726 13727 13728 13729 13730 13731 13732 13733 13734 13735 13736 13737 13738 13739 13740 13741 13742 13743 13744 13745 13746 13747 13748 13749 13750 13751 13752 13753 13754 13755 13756 13757 13758 13759 13760 13761 13762 13763 13764 13765 13766 13767 13768 13769 13770 13771 13772 13773 13774 13775 13776 13777 13778 13779 13780 13781 13782 13783 13784 13785 13786 13787 13788 13789 13790 13791 13792 13793 13794 13795 13796 13797 13798 13799 13800 13801 13802 13803 13804 13805 13806 13807 13808 13809 13810 13811 13812 13813 13814 13815 13816 13817 13818 13819 13820 13821 13822 13823 13824 13825 13826 13827 13828 13829 13830 13831 13832 13833 13834 13835 13836 13837 13838 13839 13840 13841 13842 13843 13844 13845 13846 13847 13848 13849 13850 13851 13852 13853 13854 13855 13856 13857 13858 13859 13860 13861 13862 13863 13864 13865 13866 13867 13868 13869 13870 13871 13872 13873 13874 13875 13876 13877 13878 13879 13880 13881 13882 13883 13884 13885 13886 13887 13888 13889 13890 13891 13892 13893 13894 13895 13896 13897 13898 13899 13900 13901 13902 13903 13904 13905 13906 13907 13908 13909 13910 13911 13912 13913 13914 13915 13916 13917 13918 13919 13920 13921 13922 13923 13924 13925 13926 13927 13928 13929 13930 13931 13932 13933 13934 13935 13936 13937 13938 13939 13940 13941 13942 13943 13944 13945 13946 13947 13948 13949 13950 13951 13952 13953 13954 13955 13956 13957 13958 13959 13960 13961 13962 13963 13964 13965 13966 13967 13968 13969 13970 13971 13972 13973 13974 13975 13976 13977 13978 13979 13980 13981 13982 13983 13984 13985 13986 13987 13988 13989 13990 13991 13992 13993 13994 13995 13996 13997 13998 13999 14000 14001 14002 14003 14004 14005 14006 14007 14008 14009 14010 14011 14012 14013 14014 14015 14016 14017 14018 14019 14020 14021 14022 14023 14024 14025 14026 14027 14028 14029 14030 14031 14032 14033 14034 14035 14036 14037 14038 14039 14040 14041 14042 14043 14044 14045 14046 14047 14048 14049 14050 14051 14052 14053 14054 14055 14056 14057 14058 14059 14060 14061 14062 14063 14064 14065 14066 14067 14068 14069 14070 14071 14072 14073 14074 14075 14076 14077 14078 14079 14080 14081 14082 14083 14084 14085 14086 14087 14088 14089 14090 14091 14092 14093 14094 14095 14096 14097 14098 14099 14100 14101 14102 14103 14104 14105 14106 14107 14108 14109 14110 14111 14112 14113 14114 14115 14116 14117 14118 14119 14120 14121 14122 14123 14124 14125 14126 14127 14128 14129 14130 14131 14132 14133 14134 14135 14136 14137 14138 14139 14140 14141 14142 14143 14144 14145 14146 14147 14148 14149 14150 14151 14152 14153 14154 14155 14156 14157 14158 14159 14160 14161 14162 14163 14164 14165 14166 14167 14168 14169 14170 14171 14172 14173 14174 14175 14176 14177 14178 14179 14180 14181 14182 14183 14184 14185 14186 14187 14188 14189 14190 14191 14192 14193 14194 14195 14196 14197 14198 14199 14200 14201 14202 14203 14204 14205 14206 14207 14208 14209 14210 14211 14212 14213 14214 14215 14216 14217 14218 14219 14220 14221 14222 14223 14224 14225 14226 14227 14228 14229 14230 14231 14232 14233 14234 14235 14236 14237 14238 14239 14240 14241 14242 14243 14244 14245 14246 14247 14248 14249 14250 14251 14252 14253 14254 14255 14256 14257 14258 14259 14260 14261 14262 14263 14264 14265 14266 14267 14268 14269 14270 14271 14272 14273 14274 14275 14276 14277 14278 14279 14280 14281 14282 14283 14284 14285 14286 14287 14288 14289 14290 14291 14292 14293 14294 14295 14296 14297 14298 14299 14300 14301 14302 14303 14304 14305 14306 14307 14308 14309 14310 14311 14312 14313 14314 14315 14316 14317 14318 14319 14320 14321 14322 14323 14324 14325 14326 14327 14328 14329 14330 14331 14332 14333 14334 14335 14336 14337 14338 14339 14340 14341 14342 14343 14344 14345 14346 14347 14348 14349 14350 14351 14352 14353 14354 14355 14356 14357 14358 14359 14360 14361 14362 14363 14364 14365 14366 14367 14368 14369 14370 14371 14372 14373 14374 14375 14376 14377 14378 14379 14380 14381 14382 14383 14384 14385 14386 14387 14388 14389 14390 14391 14392 14393 14394 14395 14396 14397 14398 14399 14400 14401 14402 14403 14404 14405 14406 14407 14408 14409 14410 14411 14412 14413 14414 14415 14416 14417 14418 14419 14420 14421 14422 14423 14424 14425 14426 14427 14428 14429 14430 14431 14432 14433 14434 14435 14436 14437 14438 14439 14440 14441 14442 14443 14444 14445 14446 14447 14448 14449 14450 14451 14452 14453 14454 14455 14456 14457 14458 14459 14460 14461 14462 14463 14464 14465 14466 14467 14468 14469 14470 14471 14472 14473 14474 14475 14476 14477 14478 14479 14480 14481 14482 14483 14484 14485 14486 14487 14488 14489 14490 14491 14492 14493 14494 14495 14496 14497 14498 14499 14500 14501 14502 14503 14504 14505 14506 14507 14508 14509 14510 14511 14512 14513 14514 14515 14516 14517 14518 14519 14520 14521 14522 14523 14524 14525 14526 14527 14528 14529 14530 14531 14532 14533 14534 14535 14536 14537 14538 14539 14540 14541 14542 14543 14544 14545 14546 14547 14548 14549 14550 14551 14552 14553 14554 14555 14556 14557 14558 14559 14560 14561 14562 14563 14564 14565 14566 14567 14568 14569 14570 14571 14572 14573 14574 14575 14576 14577 14578 14579 14580 14581 14582 14583 14584 14585 14586 14587 14588 14589 14590 14591 14592 14593 14594 14595 14596 14597 14598 14599 14600 14601 14602 14603 14604 14605 14606 14607 14608 14609 14610 14611 14612 14613 14614 14615 14616 14617 14618 14619 14620 14621 14622 14623 14624 14625 14626 14627 14628 14629 14630 14631 14632 14633 14634 14635 14636 14637 14638 14639 14640 14641 14642 14643 14644 14645 14646 14647 14648 14649 14650 14651 14652 14653 14654 14655 14656 14657 14658 14659 14660 14661 14662 14663 14664 14665 14666 14667 14668 14669 14670 14671 14672 14673 14674 14675 14676 14677 14678 14679 14680 14681 14682 14683 14684 14685 14686 14687 14688 14689 14690 14691 14692 14693 14694 14695 14696 14697 14698 14699 14700 14701 14702 14703 14704 14705 14706 14707 14708 14709 14710 14711 14712 14713 14714 14715 14716 14717 14718 14719 14720 14721 14722 14723 14724 14725 14726 14727 14728 14729 14730 14731 14732 14733 14734 14735 14736 14737 14738 14739 14740 14741 14742 14743 14744 14745 14746 14747 14748 14749 14750 14751 14752 14753 14754 14755 14756 14757 14758 14759 14760 14761 14762 14763 14764 14765 14766 14767 14768 14769 14770 14771 14772 14773 14774 14775 14776 14777 14778 14779 14780 14781 14782 14783 14784 14785 14786 14787 14788 14789 14790 14791 14792 14793 14794 14795 14796 14797 14798 14799 14800 14801 14802 14803 14804 14805 14806 14807 14808 14809 14810 14811 14812 14813 14814 14815 14816 14817 14818 14819 14820 14821 14822 14823 14824 14825 14826 14827 14828 14829 14830 14831 14832 14833 14834 14835 14836 14837 14838 14839 14840 14841 14842 14843 14844 14845 14846 14847 14848 14849 14850 14851 14852 14853 14854 14855 14856 14857 14858 14859 14860 14861 14862 14863 14864 14865 14866 14867 14868 14869 14870 14871 14872 14873 14874 14875 14876 14877 14878 14879 14880 14881 14882 14883 14884 14885 14886 14887 14888 14889 14890 14891 14892 14893 14894 14895 14896 14897 14898 14899 14900 14901 14902 14903 14904 14905 14906 14907 14908 14909 14910 14911 14912 14913 14914 14915 14916 14917 14918 14919 14920 14921 14922 14923 14924 14925 14926 14927 14928 14929 14930 14931 14932 14933 14934 14935 14936 14937 14938 14939 14940 14941 14942 14943 14944 14945 14946 14947 14948 14949 14950 14951 14952 14953 14954 14955 14956 14957 14958 14959 14960 14961 14962 14963 14964 14965 14966 14967 14968 14969 14970 14971 14972 14973 14974 14975 14976 14977 14978 14979 14980 14981 14982 14983 14984 14985 14986 14987 14988 14989 14990 14991 14992 14993 14994 14995 14996 14997 14998 14999 15000 15001 15002 15003 15004 15005 15006 15007 15008 15009 15010 15011 15012 15013 15014 15015 15016 15017 15018 15019 15020 15021 15022 15023 15024 15025 15026 15027 15028 15029 15030 15031 15032 15033 15034 15035 15036 15037 15038 15039 15040 15041 15042 15043 15044 15045 15046 15047 15048 15049 15050 15051 15052 15053 15054 15055 15056 15057 15058 15059 15060 15061 15062 15063 15064 15065 15066 15067 15068 15069 15070 15071 15072 15073 15074 15075 15076 15077 15078 15079 15080 15081 15082 15083 15084 15085 15086 15087 15088 15089 15090 15091 15092 15093 15094 15095 15096 15097 15098 15099 15100 15101 15102 15103 15104 15105 15106 15107 15108 15109 15110 15111 15112 15113 15114 15115 15116 15117 15118 15119 15120 15121 15122 15123 15124 15125 15126 15127 15128 15129 15130 15131 15132 15133 15134 15135 15136 15137 15138 15139 15140 15141 15142 15143 15144 15145 15146 15147 15148 15149 15150 15151 15152 15153 15154 15155 15156 15157 15158 15159 15160 15161 15162 15163 15164 15165 15166 15167 15168 15169 15170 15171 15172 15173 15174 15175 15176 15177 15178 15179 15180 15181 15182 15183 15184 15185 15186 15187 15188 15189 15190 15191 15192 15193 15194 15195 15196 15197 15198 15199 15200 15201 15202 15203 15204 15205 15206 15207 15208 15209 15210 15211 15212 15213 15214 15215 15216 15217 15218 15219 15220 15221 15222 15223 15224 15225 15226 15227 15228 15229 15230 15231 15232 15233 15234 15235 15236 15237 15238 15239 15240 15241 15242 15243 15244 15245 15246 15247 15248 15249 15250 15251 15252 15253 15254 15255 15256 15257 15258 15259 15260 15261 15262 15263 15264 15265 15266 15267 15268 15269 15270 15271 15272 15273 15274 15275 15276 15277 15278 15279 15280 15281 15282 15283 15284 15285 15286 15287 15288 15289 15290 15291 15292 15293 15294 15295 15296 15297 15298 15299 15300 15301 15302 15303 15304 15305 15306 15307 15308 15309 15310 15311 15312 15313 15314 15315 15316 15317 15318 15319 15320 15321 15322 15323 15324 15325 15326 15327 15328 15329 15330 15331 15332 15333 15334 15335 15336 15337 15338 15339 15340 15341 15342 15343 15344 15345 15346 15347 15348 15349 15350 15351 15352 15353 15354 15355 15356 15357 15358 15359 15360 15361 15362 15363 15364 15365 15366 15367 15368 15369 15370 15371 15372 15373 15374 15375 15376 15377 15378 15379 15380 15381 15382 15383 15384 15385 15386 15387 15388 15389 15390 15391 15392 15393 15394 15395 15396 15397 15398 15399 15400 15401 15402 15403 15404 15405 15406 15407 15408 15409 15410 15411 15412 15413 15414 15415 15416 15417 15418 15419 15420 15421 15422 15423 15424 15425 15426 15427 15428 15429 15430 15431 15432 15433 15434 15435 15436 15437 15438 15439 15440 15441 15442 15443 15444 15445 15446 15447 15448 15449 15450 15451 15452 15453 15454 15455 15456 15457 15458 15459 15460 15461 15462 15463 15464 15465 15466 15467 15468 15469 15470 15471 15472 15473 15474 15475 15476 15477 15478 15479 15480 15481 15482 15483 15484 15485 15486 15487 15488 15489 15490 15491 15492 15493 15494 15495 15496 15497 15498 15499 15500 15501 15502 15503 15504 15505 15506 15507 15508 15509 15510 15511 15512 15513 15514 15515 15516 15517 15518 15519 15520 15521 15522 15523 15524 15525 15526 15527 15528 15529 15530 15531 15532 15533 15534 15535 15536 15537 15538 15539 15540 15541 15542 15543 15544 15545 15546 15547 15548 15549 15550 15551 15552 15553 15554 15555 15556 15557 15558 15559 15560 15561 15562 15563 15564 15565 15566 15567 15568 15569 15570 15571 15572 15573 15574 15575 15576 15577 15578 15579 15580 15581 15582 15583 15584 15585 15586 15587 15588 15589 15590 15591 15592 15593 15594 15595 15596 15597 15598 15599 15600 15601 15602 15603 15604 15605 15606 15607 15608 15609 15610 15611 15612 15613 15614 15615 15616 15617 15618 15619 15620 15621 15622 15623 15624 15625 15626 15627 15628 15629 15630 15631 15632 15633 15634 15635 15636 15637 15638 15639 15640 15641 15642 15643 15644 15645 15646 15647 15648 15649 15650 15651 15652 15653 15654 15655 15656 15657 15658 15659 15660 15661 15662 15663 15664 15665 15666 15667 15668 15669 15670 15671 15672 15673 15674 15675 15676 15677 15678 15679 15680 15681 15682 15683 15684 15685 15686 15687 15688 15689 15690 15691 15692 15693 15694 15695 15696 15697 15698 15699 15700 15701 15702 15703 15704 15705 15706 15707 15708 15709 15710 15711 15712 15713 15714 15715 15716 15717 15718 15719 15720 15721 15722 15723 15724 15725 15726 15727 15728 15729 15730 15731 15732 15733 15734 15735 15736 15737 15738 15739 15740 15741 15742 15743 15744 15745 15746 15747 15748 15749 15750 15751 15752 15753 15754 15755 15756 15757 15758 15759 15760 15761 15762 15763 15764 15765 15766 15767 15768 15769 15770 15771 15772 15773 15774 15775 15776 15777 15778 15779 15780 15781 15782 15783 15784 15785 15786 15787 15788 15789 15790 15791 15792 15793 15794 15795 15796 15797 15798 15799 15800 15801 15802 15803 15804 15805 15806 15807 15808 15809 15810 15811 15812 15813 15814 15815 15816 15817 15818 15819 15820 15821 15822 15823 15824 15825 15826 15827 15828 15829 15830 15831 15832 15833 15834 15835 15836 15837 15838 15839 15840 15841 15842 15843 15844 15845 15846 15847 15848 15849 15850 15851 15852 15853 15854 15855 15856 15857 15858 15859 15860 15861 15862 15863 15864 15865 15866 15867 15868 15869 15870 15871 15872 15873 15874 15875 15876 15877 15878 15879 15880 15881 15882 15883 15884 15885 15886 15887 15888 15889 15890 15891 15892 15893 15894 15895 15896 15897 15898 15899 15900 15901 15902 15903 15904 15905 15906 15907 15908 15909 15910 15911 15912 15913 15914 15915 15916 15917 15918 15919 15920 15921 15922 15923 15924 15925 15926 15927 15928 15929 15930 15931 15932 15933 15934 15935 15936 15937 15938 15939 15940 15941 15942 15943 15944 15945 15946 15947 15948 15949 15950 15951 15952 15953 15954 15955 15956 15957 15958 15959 15960 15961 15962 15963 15964 15965 15966 15967 15968 15969 15970 15971 15972 15973 15974 15975 15976 15977 15978 15979 15980 15981 15982 15983 15984 15985 15986 15987 15988 15989 15990 15991 15992 15993 15994 15995 15996 15997 15998 15999 16000 16001 16002 16003 16004 16005 16006 16007 16008 16009 16010 16011 16012 16013 16014 16015 16016 16017 16018 16019 16020 16021 16022 16023 16024 16025 16026 16027 16028 16029 16030 16031 16032 16033 16034 16035 16036 16037 16038 16039 16040 16041 16042 16043 16044 16045 16046 16047 16048 16049 16050 16051 16052 16053 16054 16055 16056 16057 16058 16059 16060 16061 16062 16063 16064 16065 16066 16067 16068 16069 16070 16071 16072 16073 16074 16075 16076 16077 16078 16079 16080 16081 16082 16083 16084 16085 16086 16087 16088 16089 16090 16091 16092 16093 16094 16095 16096 16097 16098 16099 16100 16101 16102 16103 16104 16105 16106 16107 16108 16109 16110 16111 16112 16113 16114 16115 16116 16117 16118 16119 16120 16121 16122 16123 16124 16125 16126 16127 16128 16129 16130 16131 16132 16133 16134 16135 16136 16137 16138 16139 16140 16141 16142 16143 16144 16145 16146 16147 16148 16149 16150 16151 16152 16153 16154 16155 16156 16157 16158 16159 16160 16161 16162 16163 16164 16165 16166 16167 16168 16169 16170 16171 16172 16173 16174 16175 16176 16177 16178 16179 16180 16181 16182 16183 16184 16185 16186 16187 16188 16189 16190 16191 16192 16193 16194 16195 16196 16197 16198 16199 16200 16201 16202 16203 16204 16205 16206 16207 16208 16209 16210 16211 16212 16213 16214 16215 16216 16217 16218 16219 16220 16221 16222 16223 16224 16225 16226 16227 16228 16229 16230 16231 16232 16233 16234 16235 16236 16237 16238 16239 16240 16241 16242 16243 16244 16245 16246 16247 16248 16249 16250 16251 16252 16253 16254 16255 16256 16257 16258 16259 16260 16261 16262 16263 16264 16265 16266 16267 16268 16269 16270 16271 16272 16273 16274 16275 16276 16277 16278 16279 16280 16281 16282 16283 16284 16285 16286 16287 16288 16289 16290 16291 16292 16293 16294 16295 16296 16297 16298 16299 16300 16301 16302 16303 16304 16305 16306 16307 16308 16309 16310 16311 16312 16313 16314 16315 16316 16317 16318 16319 16320 16321 16322 16323 16324 16325 16326 16327 16328 16329 16330 16331 16332 16333 16334 16335 16336 16337 16338 16339 16340 16341 16342 16343 16344 16345 16346 16347 16348 16349 16350 16351 16352 16353 16354 16355 16356 16357 16358 16359 16360 16361 16362 16363 16364 16365 16366 16367 16368 16369 16370 16371 16372 16373 16374 16375 16376 16377 16378 16379 16380 16381 16382 16383 16384 16385 16386 16387 16388 16389 16390 16391 16392 16393 16394 16395 16396 16397 16398 16399 16400 16401 16402 16403 16404 16405 16406 16407 16408 16409 16410 16411 16412 16413 16414 16415 16416 16417 16418 16419 16420 16421 16422 16423 16424 16425 16426 16427 16428 16429 16430 16431 16432 16433 16434 16435 16436 16437 16438 16439 16440 16441 16442 16443 16444 16445 16446 16447 16448 16449 16450 16451 16452 16453 16454 16455 16456 16457 16458 16459 16460 16461 16462 16463 16464 16465 16466 16467 16468 16469 16470 16471 16472 16473 16474 16475 16476 16477 16478 16479 16480 16481 16482 16483 16484 16485 16486 16487 16488 16489 16490 16491 16492 16493 16494 16495 16496 16497 16498 16499 16500 16501 16502 16503 16504 16505 16506 16507 16508 16509 16510 16511 16512 16513 16514 16515 16516 16517 16518 16519 16520 16521 16522 16523 16524 16525 16526 16527 16528 16529 16530 16531 16532 16533 16534 16535 16536 16537 16538 16539 16540 16541 16542 16543 16544 16545 16546 16547 16548 16549 16550 16551 16552 16553 16554 16555 16556 16557 16558 16559 16560 16561 16562 16563 16564 16565 16566 16567 16568 16569 16570 16571 16572 16573 16574 16575 16576 16577 16578 16579 16580 16581 16582 16583 16584 16585 16586 16587 16588 16589 16590 16591 16592 16593 16594 16595 16596 16597 16598 16599 16600 16601 16602 16603 16604 16605 16606 16607 16608 16609 16610 16611 16612 16613 16614 16615 16616 16617 16618 16619 16620 16621 16622 16623 16624 16625 16626 16627 16628 16629 16630 16631 16632 16633 16634 16635 16636 16637 16638 16639 16640 16641 16642 16643 16644 16645 16646 16647 16648 16649 16650 16651 16652 16653 16654 16655 16656 16657 16658 16659 16660 16661 16662 16663 16664 16665 16666 16667 16668 16669 16670 16671 16672 16673 16674 16675 16676 16677 16678 16679 16680 16681 16682 16683 16684 16685 16686 16687 16688 16689 16690 16691 16692 16693 16694 16695 16696 16697 16698 16699 16700 16701 16702 16703 16704 16705 16706 16707 16708 16709 16710 16711 16712 16713 16714 16715 16716 16717 16718 16719 16720 16721 16722 16723 16724 16725 16726 16727 16728 16729 16730 16731 16732 16733 16734 16735 16736 16737 16738 16739 16740 16741 16742 16743 16744 16745 16746 16747 16748 16749 16750 16751 16752 16753 16754 16755 16756 16757 16758 16759 16760 16761 16762 16763 16764 16765 16766 16767 16768 16769 16770 16771 16772 16773 16774 16775 16776 16777 16778 16779 16780 16781 16782 16783 16784 16785 16786 16787 16788 16789 16790 16791 16792 16793 16794 16795 16796 16797 16798 16799 16800 16801 16802 16803 16804 16805 16806 16807 16808 16809 16810 16811 16812 16813 16814 16815 16816 16817 16818 16819 16820 16821 16822 16823 16824 16825 16826 16827 16828 16829 16830 16831 16832 16833 16834 16835 16836 16837 16838 16839 16840 16841 16842 16843 16844 16845 16846 16847 16848 16849 16850 16851 16852 16853 16854 16855 16856 16857 16858 16859 16860 16861 16862 16863 16864 16865 16866 16867 16868 16869 16870 16871 16872 16873 16874 16875 16876 16877 16878 16879 16880 16881 16882 16883 16884 16885 16886 16887 16888 16889 16890 16891 16892 16893 16894 16895 16896 16897 16898 16899 16900 16901 16902 16903 16904 16905 16906 16907 16908 16909 16910 16911 16912 16913 16914 16915 16916 16917 16918 16919 16920 16921 16922 16923 16924 16925 16926 16927 16928 16929 16930 16931 16932 16933 16934 16935 16936 16937 16938 16939 16940 16941 16942 16943 16944 16945 16946 16947 16948 16949 16950 16951 16952 16953 16954 16955 16956 16957 16958 16959 16960 16961 16962 16963 16964 16965 16966 16967 16968 16969 16970 16971 16972 16973 16974 16975 16976 16977 16978 16979 16980 16981 16982 16983 16984 16985 16986 16987 16988 16989 16990 16991 16992 16993 16994 16995 16996 16997 16998 16999 17000 17001 17002 17003 17004 17005 17006 17007 17008 17009 17010 17011 17012 17013 17014 17015 17016 17017 17018 17019 17020 17021 17022 17023 17024 17025 17026 17027 17028 17029 17030 17031 17032 17033 17034 17035 17036 17037 17038 17039 17040 17041 17042 17043 17044 17045 17046 17047 17048 17049 17050 17051 17052 17053 17054 17055 17056 17057 17058 17059 17060 17061 17062 17063 17064 17065 17066 17067 17068 17069 17070 17071 17072 17073 17074 17075 17076 17077 17078 17079 17080 17081 17082 17083 17084 17085 17086 17087 17088 17089 17090 17091 17092 17093 17094 17095 17096 17097 17098 17099 17100 17101 17102 17103 17104 17105 17106 17107 17108 17109 17110 17111 17112 17113 17114 17115 17116 17117 17118 17119 17120 17121 17122 17123 17124 17125 17126 17127 17128 17129 17130 17131 17132 17133 17134 17135 17136 17137 17138 17139 17140 17141 17142 17143 17144 17145 17146 17147 17148 17149 17150 17151 17152 17153 17154 17155 17156 17157 17158 17159 17160 17161 17162 17163 17164 17165 17166 17167 17168 17169 17170 17171 17172 17173 17174 17175 17176 17177 17178 17179 17180 17181 17182 17183 17184 17185 17186 17187 17188 17189 17190 17191 17192 17193 17194 17195 17196 17197 17198 17199 17200 17201 17202 17203 17204 17205 17206 17207 17208 17209 17210 17211 17212 17213 17214 17215 17216 17217 17218 17219 17220 17221 17222 17223 17224 17225 17226 17227 17228 17229 17230 17231 17232 17233 17234 17235 17236 17237 17238 17239 17240 17241 17242 17243 17244 17245 17246 17247 17248 17249 17250 17251 17252 17253 17254 17255 17256 17257 17258 17259 17260 17261 17262 17263 17264 17265 17266 17267 17268 17269 17270 17271 17272 17273 17274 17275 17276 17277 17278 17279 17280 17281 17282 17283 17284 17285 17286 17287 17288 17289 17290 17291 17292 17293 17294 17295 17296 17297 17298 17299 17300 17301 17302 17303 17304 17305 17306 17307 17308 17309 17310 17311 17312 17313 17314 17315 17316 17317 17318 17319 17320 17321 17322 17323 17324 17325 17326 17327 17328 17329 17330 17331 17332 17333 17334 17335 17336 17337 17338 17339 17340 17341 17342 17343 17344 17345 17346 17347 17348 17349 17350 17351 17352 17353 17354 17355 17356 17357 17358 17359 17360 17361 17362 17363 17364 17365 17366 17367 17368 17369 17370 17371 17372 17373 17374 17375 17376 17377 17378 17379 17380 17381 17382 17383 17384 17385 17386 17387 17388 17389 17390 17391 17392 17393 17394 17395 17396 17397 17398 17399 17400 17401 17402 17403 17404 17405 17406 17407 17408 17409 17410 17411 17412 17413 17414 17415 17416 17417 17418 17419 17420 17421 17422 17423 17424 17425 17426 17427 17428 17429 17430 17431 17432 17433 17434 17435 17436 17437 17438 17439 17440 17441 17442 17443 17444 17445 17446 17447 17448 17449 17450 17451 17452 17453 17454 17455 17456 17457 17458 17459 17460 17461 17462 17463 17464 17465 17466 17467 17468 17469 17470 17471 17472 17473 17474 17475 17476 17477 17478 17479 17480 17481 17482 17483 17484 17485 17486 17487 17488 17489 17490 17491 17492 17493 17494 17495 17496 17497 17498 17499 17500 17501 17502 17503 17504 17505 17506 17507 17508 17509 17510 17511 17512 17513 17514 17515 17516 17517 17518 17519 17520 17521 17522 17523 17524 17525 17526 17527 17528 17529 17530 17531 17532 17533 17534 17535 17536 17537 17538 17539 17540 17541 17542 17543 17544 17545 17546 17547 17548 17549 17550 17551 17552 17553 17554 17555 17556 17557 17558 17559 17560 17561 17562 17563 17564 17565 17566 17567 17568 17569 17570 17571 17572 17573 17574 17575 17576 17577 17578 17579 17580 17581 17582 17583 17584 17585 17586 17587 17588 17589 17590 17591 17592 17593 17594 17595 17596 17597 17598 17599 17600 17601 17602 17603 17604 17605 17606 17607 17608 17609 17610 17611 17612 17613 17614 17615 17616 17617 17618 17619 17620 17621 17622 17623 17624 17625 17626 17627 17628 17629 17630 17631 17632 17633 17634 17635 17636 17637 17638 17639 17640 17641 17642 17643 17644 17645 17646 17647 17648 17649 17650 17651 17652 17653 17654 17655 17656 17657 17658 17659 17660 17661 17662 17663 17664 17665 17666 17667 17668 17669 17670 17671 17672 17673 17674 17675 17676 17677 17678 17679 17680 17681 17682 17683 17684 17685 17686 17687 17688 17689 17690 17691 17692 17693 17694 17695 17696 17697 17698 17699 17700 17701 17702 17703 17704 17705 17706 17707 17708 17709 17710 17711 17712 17713 17714 17715 17716 17717 17718 17719 17720 17721 17722 17723 17724 17725 17726 17727 17728 17729 17730 17731 17732 17733 17734 17735 17736 17737 17738 17739 17740 17741 17742 17743 17744 17745 17746 17747 17748 17749 17750 17751 17752 17753 17754 17755 17756 17757 17758 17759 17760 17761 17762 17763 17764 17765 17766 17767 17768 17769 17770 17771 17772 17773 17774 17775 17776 17777 17778 17779 17780 17781 17782 17783 17784 17785 17786 17787 17788 17789 17790 17791 17792 17793 17794 17795 17796 17797 17798 17799 17800 17801 17802 17803 17804 17805 17806 17807 17808 17809 17810 17811 17812 17813 17814 17815 17816 17817 17818 17819 17820 17821 17822 17823 17824 17825 17826 17827 17828 17829 17830 17831 17832 17833 17834 17835 17836 17837 17838 17839 17840 17841 17842 17843 17844 17845 17846 17847 17848 17849 17850 17851 17852 17853 17854 17855 17856 17857 17858 17859 17860 17861 17862 17863 17864 17865 17866 17867 17868 17869 17870 17871 17872 17873 17874 17875 17876 17877 17878 17879 17880 17881 17882 17883 17884 17885 17886 17887 17888 17889 17890 17891 17892 17893 17894 17895 17896 17897 17898 17899 17900 17901 17902 17903 17904 17905 17906 17907 17908 17909 17910 17911 17912 17913 17914 17915 17916 17917 17918 17919 17920 17921 17922 17923 17924 17925 17926 17927 17928 17929 17930 17931 17932 17933 17934 17935 17936 17937 17938 17939 17940 17941 17942 17943 17944 17945 17946 17947 17948 17949 17950 17951 17952 17953 17954 17955 17956 17957 17958 17959 17960 17961 17962 17963 17964 17965 17966 17967 17968 17969 17970 17971 17972 17973 17974 17975 17976 17977 17978 17979 17980 17981 17982 17983 17984 17985 17986 17987 17988 17989 17990 17991 17992 17993 17994 17995 17996 17997 17998 17999 18000 18001 18002 18003 18004 18005 18006 18007 18008 18009 18010 18011 18012 18013 18014 18015 18016 18017 18018 18019 18020 18021 18022 18023 18024 18025 18026 18027 18028 18029 18030 18031 18032 18033 18034 18035 18036 18037 18038 18039 18040 18041 18042 18043 18044 18045 18046 18047 18048 18049 18050 18051 18052 18053 18054 18055 18056 18057 18058 18059 18060 18061 18062 18063 18064 18065 18066 18067 18068 18069 18070 18071 18072 18073 18074 18075 18076 18077 18078 18079 18080 18081 18082 18083 18084 18085 18086 18087 18088 18089 18090 18091 18092 18093 18094 18095 18096 18097 18098 18099 18100 18101 18102 18103 18104 18105 18106 18107 18108 18109 18110 18111 18112 18113 18114 18115 18116 18117 18118 18119 18120 18121 18122 18123 18124 18125 18126 18127 18128 18129 18130 18131 18132 18133 18134 18135 18136 18137 18138 18139 18140 18141 18142 18143 18144 18145 18146 18147 18148 18149 18150 18151 18152 18153 18154 18155 18156 18157 18158 18159 18160 18161 18162 18163 18164 18165 18166 18167 18168 18169 18170 18171 18172 18173 18174 18175 18176 18177 18178 18179 18180 18181 18182 18183 18184 18185 18186 18187 18188 18189 18190 18191 18192 18193 18194 18195 18196 18197 18198 18199 18200 18201 18202 18203 18204 18205 18206 18207 18208 18209 18210 18211 18212 18213 18214 18215 18216 18217 18218 18219 18220 18221 18222 18223 18224 18225 18226 18227 18228 18229 18230 18231 18232 18233 18234 18235 18236 18237 18238 18239 18240 18241 18242 18243 18244 18245 18246 18247 18248 18249 18250 18251 18252 18253 18254 18255 18256 18257 18258 18259 18260 18261 18262 18263 18264 18265 18266 18267 18268 18269 18270 18271 18272 18273 18274 18275 18276 18277 18278 18279 18280 18281 18282 18283 18284 18285 18286 18287 18288 18289 18290 18291 18292 18293 18294 18295 18296 18297 18298 18299 18300 18301 18302 18303 18304 18305 18306 18307 18308 18309 18310 18311 18312 18313 18314 18315 18316 18317 18318 18319 18320 18321 18322 18323 18324 18325 18326 18327 18328 18329 18330 18331 18332 18333 18334 18335 18336 18337 18338 18339 18340 18341 18342 18343 18344 18345 18346 18347 18348 18349 18350 18351 18352 18353 18354 18355 18356 18357 18358 18359 18360 18361 18362 18363 18364 18365 18366 18367 18368 18369 18370 18371 18372 18373 18374 18375 18376 18377 18378 18379 18380 18381 18382 18383 18384 18385 18386 18387 18388 18389 18390 18391 18392 18393 18394 18395 18396 18397 18398 18399 18400 18401 18402 18403 18404 18405 18406 18407 18408 18409 18410 18411 18412 18413 18414 18415 18416 18417 18418 18419 18420 18421 18422 18423 18424 18425 18426 18427 18428 18429 18430 18431 18432 18433 18434 18435 18436 18437 18438 18439 18440 18441 18442 18443 18444 18445 18446 18447 18448 18449 18450 18451 18452 18453 18454 18455 18456 18457 18458 18459 18460 18461 18462 18463 18464 18465 18466 18467 18468 18469 18470 18471 18472 18473 18474 18475 18476 18477 18478 18479 18480 18481 18482 18483 18484 18485 18486 18487 18488 18489 18490 18491 18492 18493 18494 18495 18496 18497 18498 18499 18500 18501 18502 18503 18504 18505 18506 18507 18508 18509 18510 18511 18512 18513 18514 18515 18516 18517 18518 18519 18520 18521 18522 18523 18524 18525 18526 18527 18528 18529 18530 18531 18532 18533 18534 18535 18536 18537 18538 18539 18540 18541 18542 18543 18544 18545 18546 18547 18548 18549 18550 18551 18552 18553 18554 18555 18556 18557 18558 18559 18560 18561 18562 18563 18564 18565 18566 18567 18568 18569 18570 18571 18572 18573 18574 18575 18576 18577 18578 18579 18580 18581 18582 18583 18584 18585 18586 18587 18588 18589 18590 18591 18592 18593 18594 18595 18596 18597 18598 18599 18600 18601 18602 18603 18604 18605 18606 18607 18608 18609 18610 18611 18612 18613 18614 18615 18616 18617 18618 18619 18620 18621 18622 18623 18624 18625 18626 18627 18628 18629 18630 18631 18632 18633 18634 18635 18636 18637 18638 18639 18640 18641 18642 18643 18644 18645 18646 18647 18648 18649 18650 18651 18652 18653 18654 18655 18656 18657 18658 18659 18660 18661 18662 18663 18664 18665 18666 18667 18668 18669 18670 18671 18672 18673 18674 18675 18676 18677 18678 18679 18680 18681 18682 18683 18684 18685 18686 18687 18688 18689 18690 18691 18692 18693 18694 18695 18696 18697 18698 18699 18700 18701 18702 18703 18704 18705 18706 18707 18708 18709 18710 18711 18712 18713 18714 18715 18716 18717 18718 18719 18720 18721 18722 18723 18724 18725 18726 18727 18728 18729 18730 18731 18732 18733 18734 18735 18736 18737 18738 18739 18740 18741 18742 18743 18744 18745 18746 18747 18748 18749 18750 18751 18752 18753 18754 18755 18756 18757 18758 18759 18760 18761 18762 18763 18764 18765 18766 18767 18768 18769 18770 18771 18772 18773 18774 18775 18776 18777 18778 18779 18780 18781 18782 18783 18784 18785 18786 18787 18788 18789 18790 18791 18792 18793 18794 18795 18796 18797 18798 18799 18800 18801 18802 18803 18804 18805 18806 18807 18808 18809 18810 18811 18812 18813 18814 18815 18816 18817 18818 18819 18820 18821 18822 18823 18824 18825 18826 18827 18828 18829 18830 18831 18832 18833 18834 18835 18836 18837 18838 18839 18840 18841 18842 18843 18844 18845 18846 18847 18848 18849 18850 18851 18852 18853 18854 18855 18856 18857 18858 18859 18860 18861 18862 18863 18864 18865 18866 18867 18868 18869 18870 18871 18872 18873 18874 18875 18876 18877 18878 18879 18880 18881 18882 18883 18884 18885 18886 18887 18888 18889 18890 18891 18892 18893 18894 18895 18896 18897 18898 18899 18900 18901 18902 18903 18904 18905 18906 18907 18908 18909 18910 18911 18912 18913 18914 18915 18916 18917 18918 18919 18920 18921 18922 18923 18924 18925 18926 18927 18928 18929 18930 18931 18932 18933 18934 18935 18936 18937 18938 18939 18940 18941 18942 18943 18944 18945 18946 18947 18948 18949 18950 18951 18952 18953 18954 18955 18956 18957 18958 18959 18960 18961 18962 18963 18964 18965 18966 18967 18968 18969 18970 18971 18972 18973 18974 18975 18976 18977 18978 18979 18980 18981 18982 18983 18984 18985 18986 18987 18988 18989 18990 18991 18992 18993 18994 18995 18996 18997 18998 18999 19000 19001 19002 19003 19004 19005 19006 19007 19008 19009 19010 19011 19012 19013 19014 19015 19016 19017 19018 19019 19020 19021 19022 19023 19024 19025 19026 19027 19028 19029 19030 19031 19032 19033 19034 19035 19036 19037 19038 19039 19040 19041 19042 19043 19044 19045 19046 19047 19048 19049 19050 19051 19052 19053 19054 19055 19056 19057 19058 19059 19060 19061 19062 19063 19064 19065 19066 19067 19068 19069 19070 19071 19072 19073 19074 19075 19076 19077 19078 19079 19080 19081 19082 19083 19084 19085 19086 19087 19088 19089 19090 19091 19092 19093 19094 19095 19096 19097 19098 19099 19100 19101 19102 19103 19104 19105 19106 19107 19108 19109 19110 19111 19112 19113 19114 19115 19116 19117 19118 19119 19120 19121 19122 19123 19124 19125 19126 19127 19128 19129 19130 19131 19132 19133 19134 19135 19136 19137 19138 19139 19140 19141 19142 19143 19144 19145 19146 19147 19148 19149 19150 19151 19152 19153 19154 19155 19156 19157 19158 19159 19160 19161 19162 19163 19164 19165 19166 19167 19168 19169 19170 19171 19172 19173 19174 19175 19176 19177 19178 19179 19180 19181 19182 19183 19184 19185 19186 19187 19188 19189 19190 19191 19192 19193 19194 19195 19196 19197 19198 19199 19200 19201 19202 19203 19204 19205 19206 19207 19208 19209 19210 19211 19212 19213 19214 19215 19216 19217 19218 19219 19220 19221 19222 19223 19224 19225 19226 19227 19228 19229 19230 19231 19232 19233 19234 19235 19236 19237 19238 19239 19240 19241 19242 19243 19244 19245 19246 19247 19248 19249 19250 19251 19252 19253 19254 19255 19256 19257 19258 19259 19260 19261 19262 19263 19264 19265 19266 19267 19268 19269 19270 19271 19272 19273 19274 19275 19276 19277 19278 19279 19280 19281 19282 19283 19284 19285 19286 19287 19288 19289 19290 19291 19292 19293 19294 19295 19296 19297 19298 19299 19300 19301 19302 19303 19304 19305 19306 19307 19308 19309 19310 19311 19312 19313 19314 19315 19316 19317 19318 19319 19320 19321 19322 19323 19324 19325 19326 19327 19328 19329 19330 19331 19332 19333 19334 19335 19336 19337 19338 19339 19340 19341 19342 19343 19344 19345 19346 19347 19348 19349 19350 19351 19352 19353 19354 19355 19356 19357 19358 19359 19360 19361 19362 19363 19364 19365 19366 19367 19368 19369 19370 19371 19372 19373 19374 19375 19376 19377 19378 19379 19380 19381 19382 19383 19384 19385 19386 19387 19388 19389 19390 19391 19392 19393 19394 19395 19396 19397 19398 19399 19400 19401 19402 19403 19404 19405 19406 19407 19408 19409 19410 19411 19412 19413 19414 19415 19416 19417 19418 19419 19420 19421 19422 19423 19424 19425 19426 19427 19428 19429 19430 19431 19432 19433 19434 19435 19436 19437 19438 19439 19440 19441 19442 19443 19444 19445 19446 19447 19448 19449 19450 19451 19452 19453 19454 19455 19456 19457 19458 19459 19460 19461 19462 19463 19464 19465 19466 19467 19468 19469 19470 19471 19472 19473 19474 19475 19476 19477 19478 19479 19480 19481 19482 19483 19484 19485 19486 19487 19488 19489 19490 19491 19492 19493 19494 19495 19496 19497 19498 19499 19500 19501 19502 19503 19504 19505 19506 19507 19508 19509 19510 19511 19512 19513 19514 19515 19516 19517 19518 19519 19520 19521 19522 19523 19524 19525 19526 19527 19528 19529 19530 19531 19532 19533 19534 19535 19536 19537 19538 19539 19540 19541 19542 19543 19544 19545 19546 19547 19548 19549 19550 19551 19552 19553 19554 19555 19556 19557 19558 19559 19560 19561 19562 19563 19564 19565 19566 19567 19568 19569 19570 19571 19572 19573 19574 19575 19576 19577 19578 19579 19580 19581 19582 19583 19584 19585 19586 19587 19588 19589 19590 19591 19592 19593 19594 19595 19596 19597 19598 19599 19600 19601 19602 19603 19604 19605 19606 19607 19608 19609 19610 19611 19612 19613 19614 19615 19616 19617 19618 19619 19620 19621 19622 19623 19624 19625 19626 19627 19628 19629 19630 19631 19632 19633 19634 19635 19636 19637 19638 19639 19640 19641 19642 19643 19644 19645 19646 19647 19648 19649 19650 19651 19652 19653 19654 19655 19656 19657 19658 19659 19660 19661 19662 19663 19664 19665 19666 19667 19668 19669 19670 19671 19672 19673 19674 19675 19676 19677 19678 19679 19680 19681 19682 19683 19684 19685 19686 19687 19688 19689 19690 19691 19692 19693 19694 19695 19696 19697 19698 19699 19700 19701 19702 19703 19704 19705 19706 19707 19708 19709 19710 19711 19712 19713 19714 19715 19716 19717 19718 19719 19720 19721 19722 19723 19724 19725 19726 19727 19728 19729 19730 19731 19732 19733 19734 19735 19736 19737 19738 19739 19740 19741 19742 19743 19744 19745 19746 19747 19748 19749 19750 19751 19752 19753 19754 19755 19756 19757 19758 19759 19760 19761 19762 19763 19764 19765 19766 19767 19768 19769 19770 19771 19772 19773 19774 19775 19776 19777 19778 19779 19780 19781 19782 19783 19784 19785 19786 19787 19788 19789 19790 19791 19792 19793 19794 19795 19796 19797 19798 19799 19800 19801 19802 19803 19804 19805 19806 19807 19808 19809 19810 19811 19812 19813 19814 19815 19816 19817 19818 19819 19820 19821 19822 19823 19824 19825 19826 19827 19828 19829 19830 19831 19832 19833 19834 19835 19836 19837 19838 19839 19840 19841 19842 19843 19844 19845 19846 19847 19848 19849 19850 19851 19852 19853 19854 19855 19856 19857 19858 19859 19860 19861 19862 19863 19864 19865 19866 19867 19868 19869 19870 19871 19872 19873 19874 19875 19876 19877 19878 19879 19880 19881 19882 19883 19884 19885 19886 19887 19888 19889 19890 19891 19892 19893 19894 19895 19896 19897 19898 19899 19900 19901 19902 19903 19904 19905 19906 19907 19908 19909 19910 19911 19912 19913 19914 19915 19916 19917 19918 19919 19920 19921 19922 19923 19924 19925 19926 19927 19928 19929 19930 19931 19932 19933 19934 19935 19936 19937 19938 19939 19940 19941 19942 19943 19944 19945 19946 19947 19948 19949 19950 19951 19952 19953 19954 19955 19956 19957 19958 19959 19960 19961 19962 19963 19964 19965 19966 19967 19968 19969 19970 19971 19972 19973 19974 19975 19976 19977 19978 19979 19980 19981 19982 19983 19984 19985 19986 19987 19988 19989 19990 19991 19992 19993 19994 19995 19996 19997 19998 19999 20000 20001 20002 20003 20004 20005 20006 20007 20008 20009 20010 20011 20012 20013 20014 20015 20016 20017 20018 20019 20020 20021 20022 20023 20024 20025 20026 20027 20028 20029 20030 20031 20032 20033 20034 20035 20036 20037 20038 20039 20040 20041 20042 20043 20044 20045 20046 20047 20048 20049 20050 20051 20052 20053 20054 20055 20056 20057 20058 20059 20060 20061 20062 20063 20064 20065 20066 20067 20068 20069 20070 20071 20072 20073 20074 20075 20076 20077 20078 20079 20080 20081 20082 20083 20084 20085 20086 20087 20088 20089 20090 20091 20092 20093 20094 20095 20096 20097 20098 20099 20100 20101 20102 20103 20104 20105 20106 20107 20108 20109 20110 20111 20112 20113 20114 20115 20116 20117 20118 20119 20120 20121 20122 20123 20124 20125 20126 20127 20128 20129 20130 20131 20132 20133 20134 20135 20136 20137 20138 20139 20140 20141 20142 20143 20144 20145 20146 20147 20148 20149 20150 20151 20152 20153 20154 20155 20156 20157 20158 20159 20160 20161 20162 20163 20164 20165 20166 20167 20168 20169 20170 20171 20172 20173 20174 20175 20176 20177 20178 20179 20180 20181 20182 20183 20184 20185 20186 20187 20188 20189 20190 20191 20192 20193 20194 20195 20196 20197 20198 20199 20200 20201 20202 20203 20204 20205 20206 20207 20208 20209 20210 20211 20212 20213 20214 20215 20216 20217 20218 20219 20220 20221 20222 20223 20224 20225 20226 20227 20228 20229 20230 20231 20232 20233 20234 20235 20236 20237 20238 20239 20240 20241 20242 20243 20244 20245 20246 20247 20248 20249 20250 20251 20252 20253 20254 20255 20256 20257 20258 20259 20260 20261 20262 20263 20264 20265 20266 20267 20268 20269 20270 20271 20272 20273 20274 20275 20276 20277 20278 20279 20280 20281 20282 20283 20284 20285 20286 20287 20288 20289 20290 20291 20292 20293 20294 20295 20296 20297 20298 20299 20300 20301 20302 20303 20304 20305 20306 20307 20308 20309 20310 20311 20312 20313 20314 20315 20316 20317 20318 20319 20320 20321 20322 20323 20324 20325 20326 20327 20328 20329 20330 20331 20332 20333 20334 20335 20336 20337 20338 20339 20340 20341 20342 20343 20344 20345 20346 20347 20348 20349 20350 20351 20352 20353 20354 20355 20356 20357 20358 20359 20360 20361 20362 20363 20364 20365 20366 20367 20368 20369 20370 20371 20372 20373 20374 20375 20376 20377 20378 20379 20380 20381 20382 20383 20384 20385 20386 20387 20388 20389 20390 20391 20392 20393 20394 20395 20396 20397 20398 20399 20400 20401 20402 20403 20404 20405 20406 20407 20408 20409 20410 20411 20412 20413 20414 20415 20416 20417 20418 20419 20420 20421 20422 20423 20424 20425 20426 20427 20428 20429 20430 20431 20432 20433 20434 20435 20436 20437 20438 20439 20440 20441 20442 20443 20444 20445 20446 20447 20448 20449 20450 20451 20452 20453 20454 20455 20456 20457 20458 20459 20460 20461 20462 20463 20464 20465 20466 20467 20468 20469 20470 20471 20472 20473 20474 20475 20476 20477 20478 20479 20480 20481 20482 20483 20484 20485 20486 20487 20488 20489 20490 20491 20492 20493 20494 20495 20496 20497 20498 20499 20500 20501 20502 20503 20504 20505 20506 20507 20508 20509 20510 20511 20512 20513 20514 20515 20516 20517 20518 20519 20520 20521 20522 20523 20524 20525 20526 20527 20528 20529 20530 20531 20532 20533 20534 20535 20536 20537 20538 20539 20540 20541 20542 20543 20544 20545 20546 20547 20548 20549 20550 20551 20552 20553 20554 20555 20556 20557 20558 20559 20560 20561 20562 20563 20564 20565 20566 20567 20568 20569 20570 20571 20572 20573 20574 20575 20576 20577 20578 20579 20580 20581 20582 20583 20584 20585 20586 20587 20588 20589 20590 20591 20592 20593 20594 20595 20596 20597 20598 20599 20600 20601 20602 20603 20604 20605 20606 20607 20608 20609 20610 20611 20612 20613 20614 20615 20616 20617 20618 20619 20620 20621 20622 20623 20624 20625 20626 20627 20628 20629 20630 20631 20632 20633 20634 20635 20636 20637 20638 20639 20640 20641 20642 20643 20644 20645 20646 20647 20648 20649 20650 20651 20652 20653 20654 20655 20656 20657 20658 20659 20660 20661 20662 20663 20664 20665 20666 20667 20668 20669 20670 20671 20672 20673 20674 20675 20676 20677 20678 20679 20680 20681 20682 20683 20684 20685 20686 20687 20688 20689 20690 20691 20692 20693 20694 20695 20696 20697 20698 20699 20700 20701 20702 20703 20704 20705 20706 20707 20708 20709 20710 20711 20712 20713 20714 20715 20716 20717 20718 20719 20720 20721 20722 20723 20724 20725 20726 20727 20728 20729 20730 20731 20732 20733 20734 20735 20736 20737 20738 20739 20740 20741 20742 20743 20744 20745 20746 20747 20748 20749 20750 20751 20752 20753 20754 20755 20756 20757 20758 20759 20760 20761 20762 20763 20764 20765 20766 20767 20768 20769 20770 20771 20772 20773 20774 20775 20776 20777 20778 20779 20780 20781 20782 20783 20784 20785 20786 20787 20788 20789 20790 20791 20792 20793 20794 20795 20796 20797 20798 20799 20800 20801 20802 20803 20804 20805 20806 20807 20808 20809 20810 20811 20812 20813 20814 20815 20816 20817 20818 20819 20820 20821 20822 20823 20824 20825 20826 20827 20828 20829 20830 20831 20832 20833 20834 20835 20836 20837 20838 20839 20840 20841 20842 20843 20844 20845 20846 20847 20848 20849 20850 20851 20852 20853 20854 20855 20856 20857 20858 20859 20860 20861 20862 20863 20864 20865 20866 20867 20868 20869 20870 20871 20872 20873 20874 20875 20876 20877 20878 20879 20880 20881 20882 20883 20884 20885 20886 20887 20888 20889 20890 20891 20892 20893 20894 20895 20896 20897 20898 20899 20900 20901 20902 20903 20904 20905 20906 20907 20908 20909 20910 20911 20912 20913 20914 20915 20916 20917 20918 20919 20920 20921 20922 20923 20924 20925 20926 20927 20928 20929 20930 20931 20932 20933 20934 20935 20936 20937 20938 20939 20940 20941 20942 20943 20944 20945 20946 20947 20948 20949 20950 20951 20952 20953 20954 20955 20956 20957 20958 20959 20960 20961 20962 20963 20964 20965 20966 20967 20968 20969 20970 20971 20972 20973 20974 20975 20976 20977 20978 20979 20980 20981 20982 20983 20984 20985 20986 20987 20988 20989 20990 20991 20992 20993 20994 20995 20996 20997 20998 20999 21000 21001 21002 21003 21004 21005 21006 21007 21008 21009 21010 21011 21012 21013 21014 21015 21016 21017 21018 21019 21020 21021 21022 21023 21024 21025 21026 21027 21028 21029 21030 21031 21032 21033 21034 21035 21036 21037 21038 21039 21040 21041 21042 21043 21044 21045 21046 21047 21048 21049 21050 21051 21052 21053 21054 21055 21056 21057 21058 21059 21060 21061 21062 21063 21064 21065 21066 21067 21068 21069 21070 21071 21072 21073 21074 21075 21076 21077 21078 21079 21080 21081 21082 21083 21084 21085 21086 21087 21088 21089 21090 21091 21092 21093 21094 21095 21096 21097 21098 21099 21100 21101 21102 21103 21104 21105 21106 21107 21108 21109 21110 21111 21112 21113 21114 21115 21116 21117 21118 21119 21120 21121 21122 21123 21124 21125 21126 21127 21128 21129 21130 21131 21132 21133 21134 21135 21136 21137 21138 21139 21140 21141 21142 21143 21144 21145 21146 21147 21148 21149 21150 21151 21152 21153 21154 21155 21156 21157 21158 21159 21160 21161 21162 21163 21164 21165 21166 21167 21168 21169 21170 21171 21172 21173 21174 21175 21176 21177 21178 21179 21180 21181 21182 21183 21184 21185 21186 21187 21188 21189 21190 21191 21192 21193 21194 21195 21196 21197 21198 21199 21200 21201 21202 21203 21204 21205 21206 21207 21208 21209 21210 21211 21212 21213 21214 21215 21216 21217 21218 21219 21220 21221 21222 21223 21224 21225 21226 21227 21228 21229 21230 21231 21232 21233 21234 21235 21236 21237 21238 21239 21240 21241 21242 21243 21244 21245 21246 21247 21248 21249 21250 21251 21252 21253 21254 21255 21256 21257 21258 21259 21260 21261 21262 21263 21264 21265 21266 21267 21268 21269 21270 21271 21272 21273 21274 21275 21276 21277 21278 21279 21280 21281 21282 21283 21284 21285 21286 21287 21288 21289 21290 21291 21292 21293 21294 21295 21296 21297 21298 21299 21300 21301 21302 21303 21304 21305 21306 21307 21308 21309 21310 21311 21312 21313 21314 21315 21316 21317 21318 21319 21320 21321 21322 21323 21324 21325 21326 21327 21328 21329 21330 21331 21332 21333 21334 21335 21336 21337 21338 21339 21340 21341 21342 21343 21344 21345 21346 21347 21348 21349 21350 21351 21352 21353 21354 21355 21356 21357 21358 21359 21360 21361 21362 21363 21364 21365 21366 21367 21368 21369 21370 21371 21372 21373 21374 21375 21376 21377 21378 21379 21380 21381 21382 21383 21384 21385 21386 21387 21388 21389 21390 21391 21392 21393 21394 21395 21396 21397 21398 21399 21400 21401 21402 21403 21404 21405 21406 21407 21408 21409 21410 21411 21412 21413 21414 21415 21416 21417 21418 21419 21420 21421 21422 21423 21424 21425 21426 21427 21428 21429 21430 21431 21432 21433 21434 21435 21436 21437 21438 21439 21440 21441 21442 21443 21444 21445 21446 21447 21448 21449 21450 21451 21452 21453 21454 21455 21456 21457 21458 21459 21460 21461 21462 21463 21464 21465 21466 21467 21468 21469 21470 21471 21472 21473 21474 21475 21476 21477 21478 21479 21480 21481 21482 21483 21484 21485 21486 21487 21488 21489 21490 21491 21492 21493 21494 21495 21496 21497 21498 21499 21500 21501 21502 21503 21504 21505 21506 21507 21508 21509 21510 21511 21512 21513 21514 21515 21516 21517 21518 21519 21520 21521 21522 21523 21524 21525 21526 21527 21528 21529 21530 21531 21532 21533 21534 21535 21536 21537 21538 21539 21540 21541 21542 21543 21544 21545 21546 21547 21548 21549 21550 21551 21552 21553 21554 21555 21556 21557 21558 21559 21560 21561 21562 21563 21564 21565 21566 21567 21568 21569 21570 21571 21572 21573 21574 21575 21576 21577 21578 21579 21580 21581 21582 21583 21584 21585 21586 21587 21588 21589 21590 21591 21592 21593 21594 21595 21596 21597 21598 21599 21600 21601 21602 21603 21604 21605 21606 21607 21608 21609 21610 21611 21612 21613 21614 21615 21616 21617 21618 21619 21620 21621 21622 21623 21624 21625 21626 21627 21628 21629 21630 21631 21632 21633 21634 21635 21636 21637 21638 21639 21640 21641 21642 21643 21644 21645 21646 21647 21648 21649 21650 21651 21652 21653 21654 21655 21656 21657 21658 21659 21660 21661 21662 21663 21664 21665 21666 21667 21668 21669 21670 21671 21672 21673 21674 21675 21676 21677 21678 21679 21680 21681 21682 21683 21684 21685 21686 21687 21688 21689 21690 21691 21692 21693 21694 21695 21696 21697 21698 21699 21700 21701 21702 21703 21704 21705 21706 21707 21708 21709 21710 21711 21712 21713 21714 21715 21716 21717 21718 21719 21720 21721 21722 21723 21724 21725 21726 21727 21728 21729 21730 21731 21732 21733 21734 21735 21736 21737 21738 21739 21740 21741 21742 21743 21744 21745 21746 21747 21748 21749 21750 21751 21752 21753 21754 21755 21756 21757 21758 21759 21760 21761 21762 21763 21764 21765 21766 21767 21768 21769 21770 21771 21772 21773 21774 21775 21776 21777 21778 21779 21780 21781 21782 21783 21784 21785 21786 21787 21788 21789 21790 21791 21792 21793 21794 21795 21796 21797 21798 21799 21800 21801 21802 21803 21804 21805 21806 21807 21808 21809 21810 21811 21812 21813 21814 21815 21816 21817 21818 21819 21820 21821 21822 21823 21824 21825 21826 21827 21828 21829 21830 21831 21832 21833 21834 21835 21836 21837 21838 21839 21840 21841 21842 21843 21844 21845 21846 21847 21848 21849 21850 21851 21852 21853 21854 21855 21856 21857 21858 21859 21860 21861 21862 21863 21864 21865 21866 21867 21868 21869 21870 21871 21872 21873 21874 21875 21876 21877 21878 21879 21880 21881 21882 21883 21884 21885 21886 21887 21888 21889 21890 21891 21892 21893 21894 21895 21896 21897 21898 21899 21900 21901 21902 21903 21904 21905 21906 21907 21908 21909 21910 21911 21912 21913 21914 21915 21916 21917 21918 21919 21920 21921 21922 21923 21924 21925 21926 21927 21928 21929 21930 21931 21932 21933 21934 21935 21936 21937 21938 21939 21940 21941 21942 21943 21944 21945 21946 21947 21948 21949 21950 21951 21952 21953 21954 21955 21956 21957 21958 21959 21960 21961 21962 21963 21964 21965 21966 21967 21968 21969 21970 21971 21972 21973 21974 21975 21976 21977 21978 21979 21980 21981 21982 21983 21984 21985 21986 21987 21988 21989 21990 21991 21992 21993 21994 21995 21996 21997 21998 21999 22000 22001 22002 22003 22004 22005 22006 22007 22008 22009 22010 22011 22012 22013 22014 22015 22016 22017 22018 22019 22020 22021 22022 22023 22024 22025 22026 22027 22028 22029 22030 22031 22032 22033 22034 22035 22036 22037 22038 22039 22040 22041 22042 22043 22044 22045 22046 22047 22048 22049 22050 22051 22052 22053 22054 22055 22056 22057 22058 22059 22060 22061 22062 22063 22064 22065 22066 22067 22068 22069 22070 22071 22072 22073 22074 22075 22076 22077 22078 22079 22080 22081 22082 22083 22084 22085 22086 22087 22088 22089 22090 22091 22092 22093 22094 22095 22096 22097 22098 22099 22100 22101 22102 22103 22104 22105 22106 22107 22108 22109 22110 22111 22112 22113 22114 22115 22116 22117 22118 22119 22120 22121 22122 22123 22124 22125 22126 22127 22128 22129 22130 22131 22132 22133 22134 22135 22136 22137 22138 22139 22140 22141 22142 22143 22144 22145 22146 22147 22148 22149 22150 22151 22152 22153 22154 22155 22156 22157 22158 22159 22160 22161 22162 22163 22164 22165 22166 22167 22168 22169 22170 22171 22172 22173 22174 22175 22176 22177 22178 22179 22180 22181 22182 22183 22184 22185 22186 22187 22188 22189 22190 22191 22192 22193 22194 22195 22196 22197 22198 22199 22200 22201 22202 22203 22204 22205 22206 22207 22208 22209 22210 22211 22212 22213 22214 22215 22216 22217 22218 22219 22220 22221 22222 22223 22224 22225 22226 22227 22228 22229 22230 22231 22232 22233 22234 22235 22236 22237 22238 22239 22240 22241 22242 22243 22244 22245 22246 22247 22248 22249 22250 22251 22252 22253 22254 22255 22256 22257 22258 22259 22260 22261 22262 22263 22264 22265 22266 22267 22268 22269 22270 22271 22272 22273 22274 22275 22276 22277 22278 22279 22280 22281 22282 22283 22284 22285 22286 22287 22288 22289 22290 22291 22292 22293 22294 22295 22296 22297 22298 22299 22300 22301 22302 22303 22304 22305 22306 22307 22308 22309 22310 22311 22312 22313 22314 22315 22316 22317 22318 22319 22320 22321 22322 22323 22324 22325 22326 22327 22328 22329 22330 22331 22332 22333 22334 22335 22336 22337 22338 22339 22340 22341 22342 22343 22344 22345 22346 22347 22348 22349 22350 22351 22352 22353 22354 22355 22356 22357 22358 22359 22360 22361 22362 22363 22364 22365 22366 22367 22368 22369 22370 22371 22372 22373 22374 22375 22376 22377 22378 22379 22380 22381 22382 22383 22384 22385 22386 22387 22388 22389 22390 22391 22392 22393 22394 22395 22396 22397 22398 22399 22400 22401 22402 22403 22404 22405 22406 22407 22408 22409 22410 22411 22412 22413 22414 22415 22416 22417 22418 22419 22420 22421 22422 22423 22424 22425 22426 22427 22428 22429 22430 22431 22432 22433 22434 22435 22436 22437 22438 22439 22440 22441 22442 22443 22444 22445 22446 22447 22448 22449 22450 22451 22452 22453 22454 22455 22456 22457 22458 22459 22460 22461 22462 22463 22464 22465 22466 22467 22468 22469 22470 22471 22472 22473 22474 22475 22476 22477 22478 22479 22480 22481 22482 22483 22484 22485 22486 22487 22488 22489 22490 22491 22492 22493 22494 22495 22496 22497 22498 22499 22500 22501 22502 22503 22504 22505 22506 22507 22508 22509 22510 22511 22512 22513 22514 22515 22516 22517 22518 22519 22520 22521 22522 22523 22524 22525 22526 22527 22528 22529 22530 22531 22532 22533 22534 22535 22536 22537 22538 22539 22540 22541 22542 22543 22544 22545 22546 22547 22548 22549 22550 22551 22552 22553 22554 22555 22556 22557 22558 22559 22560 22561 22562 22563 22564 22565 22566 22567 22568 22569 22570 22571 22572 22573 22574 22575 22576 22577 22578 22579 22580 22581 22582 22583 22584 22585 22586 22587 22588 22589 22590 22591 22592 22593 22594 22595 22596 22597 22598 22599 22600 22601 22602 22603 22604 22605 22606 22607 22608 22609 22610 22611 22612 22613 22614 22615 22616 22617 22618 22619 22620 22621 22622 22623 22624 22625 22626 22627 22628 22629 22630 22631 22632 22633 22634 22635 22636 22637 22638 22639 22640 22641 22642 22643 22644 22645 22646 22647 22648 22649 22650 22651 22652 22653 22654 22655 22656 22657 22658 22659 22660 22661 22662 22663 22664 22665 22666 22667 22668 22669 22670 22671 22672 22673 22674 22675 22676 22677 22678 22679 22680 22681 22682 22683 22684 22685 22686 22687 22688 22689 22690 22691 22692 22693 22694 22695 22696 22697 22698 22699 22700 22701 22702 22703 22704 22705 22706 22707 22708 22709 22710 22711 22712 22713 22714 22715 22716 22717 22718 22719 22720 22721 22722 22723 22724 22725 22726 22727 22728 22729 22730 22731 22732 22733 22734 22735 22736 22737 22738 22739 22740 22741 22742 22743 22744 22745 22746 22747 22748 22749 22750 22751 22752 22753 22754 22755 22756 22757 22758 22759 22760 22761 22762 22763 22764 22765 22766 22767 22768 22769 22770 22771 22772 22773 22774 22775 22776 22777 22778 22779 22780 22781 22782 22783 22784 22785 22786 22787 22788 22789 22790 22791 22792 22793 22794 22795 22796 22797 22798 22799 22800 22801 22802 22803 22804 22805 22806 22807 22808 22809 22810 22811 22812 22813 22814 22815 22816 22817 22818 22819 22820 22821 22822 22823 22824 22825 22826 22827 22828 22829 22830 22831 22832 22833 22834 22835 22836 22837 22838 22839 22840 22841 22842 22843 22844 22845 22846 22847 22848 22849 22850 22851 22852 22853 22854 22855 22856 22857 22858 22859 22860 22861 22862 22863 22864 22865 22866 22867 22868 22869 22870 22871 22872 22873 22874 22875 22876 22877 22878 22879 22880 22881 22882 22883 22884 22885 22886 22887 22888 22889 22890 22891 22892 22893 22894 22895 22896 22897 22898 22899 22900 22901 22902 22903 22904 22905 22906 22907 22908 22909 22910 22911 22912 22913 22914 22915 22916 22917 22918 22919 22920 22921 22922 22923 22924 22925 22926 22927 22928 22929 22930 22931 22932 22933 22934 22935 22936 22937 22938 22939 22940 22941 22942 22943 22944 22945 22946 22947 22948 22949 22950 22951 22952 22953 22954 22955 22956 22957 22958 22959 22960 22961 22962 22963 22964 22965 22966 22967 22968 22969 22970 22971 22972 22973 22974 22975 22976 22977 22978 22979 22980 22981 22982 22983 22984 22985 22986 22987 22988 22989 22990 22991 22992 22993 22994 22995 22996 22997 22998 22999 23000 23001 23002 23003 23004 23005 23006 23007 23008 23009 23010 23011 23012 23013 23014 23015 23016 23017 23018 23019 23020 23021 23022 23023 23024 23025 23026 23027 23028 23029 23030 23031 23032 23033 23034 23035 23036 23037 23038 23039 23040 23041 23042 23043 23044 23045 23046 23047 23048 23049 23050 23051 23052 23053 23054 23055 23056 23057 23058 23059 23060 23061 23062 23063 23064 23065 23066 23067 23068 23069 23070 23071 23072 23073 23074 23075 23076 23077 23078 23079 23080 23081 23082 23083 23084 23085 23086 23087 23088 23089 23090 23091 23092 23093 23094 23095 23096 23097 23098 23099 23100 23101 23102 23103 23104 23105 23106 23107 23108 23109 23110 23111 23112 23113 23114 23115 23116 23117 23118 23119 23120 23121 23122 23123 23124 23125 23126 23127 23128 23129 23130 23131 23132 23133 23134 23135 23136 23137 23138 23139 23140 23141 23142 23143 23144 23145 23146 23147 23148 23149 23150 23151 23152 23153 23154 23155 23156 23157 23158 23159 23160 23161 23162 23163 23164 23165 23166 23167 23168 23169 23170 23171 23172 23173 23174 23175 23176 23177 23178 23179 23180 23181 23182 23183 23184 23185 23186 23187 23188 23189 23190 23191 23192 23193 23194 23195 23196 23197 23198 23199 23200 23201 23202 23203 23204 23205 23206 23207 23208 23209 23210 23211 23212 23213 23214 23215 23216 23217 23218 23219 23220 23221 23222 23223 23224 23225 23226 23227 23228 23229 23230 23231 23232 23233 23234 23235 23236 23237 23238 23239 23240 23241 23242 23243 23244 23245 23246 23247 23248 23249 23250 23251 23252 23253 23254 23255 23256 23257 23258 23259 23260 23261 23262 23263 23264 23265 23266 23267 23268 23269 23270 23271 23272 23273 23274 23275 23276 23277 23278 23279 23280 23281 23282 23283 23284 23285 23286 23287 23288 23289 23290 23291 23292 23293 23294 23295 23296 23297 23298 23299 23300 23301 23302 23303 23304 23305 23306 23307 23308 23309 23310 23311 23312 23313 23314 23315 23316 23317 23318 23319 23320 23321 23322 23323 23324 23325 23326 23327 23328 23329 23330 23331 23332 23333 23334 23335 23336 23337 23338 23339 23340 23341 23342 23343 23344 23345 23346 23347 23348 23349 23350 23351 23352 23353 23354 23355 23356 23357 23358 23359 23360 23361 23362 23363 23364 23365 23366 23367 23368 23369 23370 23371 23372 23373 23374 23375 23376 23377 23378 23379 23380 23381 23382 23383 23384 23385 23386 23387 23388 23389 23390 23391 23392 23393 23394 23395 23396 23397 23398 23399 23400 23401 23402 23403 23404 23405 23406 23407 23408 23409 23410 23411 23412 23413 23414 23415 23416 23417 23418 23419 23420 23421 23422 23423 23424 23425 23426 23427 23428 23429 23430 23431 23432 23433 23434 23435 23436 23437 23438 23439 23440 23441 23442 23443 23444 23445 23446 23447 23448 23449 23450 23451 23452 23453 23454 23455 23456 23457 23458 23459 23460 23461 23462 23463 23464 23465 23466 23467 23468 23469 23470 23471 23472 23473 23474 23475 23476 23477 23478 23479 23480 23481 23482 23483 23484 23485 23486 23487 23488 23489 23490 23491 23492 23493 23494 23495 23496 23497 23498 23499 23500 23501 23502 23503 23504 23505 23506 23507 23508 23509 23510 23511 23512 23513 23514 23515 23516 23517 23518 23519 23520 23521 23522 23523 23524 23525 23526 23527 23528 23529 23530 23531 23532 23533 23534 23535 23536 23537 23538 23539 23540 23541 23542 23543 23544 23545 23546 23547 23548 23549 23550 23551 23552 23553 23554 23555 23556 23557 23558 23559 23560 23561 23562 23563 23564 23565 23566 23567 23568 23569 23570 23571 23572 23573 23574 23575 23576 23577 23578 23579 23580 23581 23582 23583 23584 23585 23586 23587 23588 23589 23590 23591 23592 23593 23594 23595 23596 23597 23598 23599 23600 23601 23602 23603 23604 23605 23606 23607 23608 23609 23610 23611 23612 23613 23614 23615 23616 23617 23618 23619 23620 23621 23622 23623 23624 23625 23626 23627 23628 23629 23630 23631 23632 23633 23634 23635 23636 23637 23638 23639 23640 23641 23642 23643 23644 23645 23646 23647 23648 23649 23650 23651 23652 23653 23654 23655 23656 23657 23658 23659 23660 23661 23662 23663 23664 23665 23666 23667 23668 23669 23670 23671 23672 23673 23674 23675 23676 23677 23678 23679 23680 23681 23682 23683 23684 23685 23686 23687 23688 23689 23690 23691 23692 23693 23694 23695 23696 23697 23698 23699 23700 23701 23702 23703 23704 23705 23706 23707 23708 23709 23710 23711 23712 23713 23714 23715 23716 23717 23718 23719 23720 23721 23722 23723 23724 23725 23726 23727 23728 23729 23730 23731 23732 23733 23734 23735 23736 23737 23738 23739 23740 23741 23742 23743 23744 23745 23746 23747 23748 23749 23750 23751 23752 23753 23754 23755 23756 23757 23758 23759 23760 23761 23762 23763 23764 23765 23766 23767 23768 23769 23770 23771 23772 23773 23774 23775 23776 23777 23778 23779 23780 23781 23782 23783 23784 23785 23786 23787 23788 23789 23790 23791 23792 23793 23794 23795 23796 23797 23798 23799 23800 23801 23802 23803 23804 23805 23806 23807 23808 23809 23810 23811 23812 23813 23814 23815 23816 23817 23818 23819 23820 23821 23822 23823 23824 23825 23826 23827 23828 23829 23830 23831 23832 23833 23834 23835 23836 23837 23838 23839 23840 23841 23842 23843 23844 23845 23846 23847 23848 23849 23850 23851 23852 23853 23854 23855 23856 23857 23858 23859 23860 23861 23862 23863 23864 23865 23866 23867 23868 23869 23870 23871 23872 23873 23874 23875 23876 23877 23878 23879 23880 23881 23882 23883 23884 23885 23886 23887 23888 23889 23890 23891 23892 23893 23894 23895 23896 23897 23898 23899 23900 23901 23902 23903 23904 23905 23906 23907 23908 23909 23910 23911 23912 23913 23914 23915 23916 23917 23918 23919 23920 23921 23922 23923 23924 23925 23926 23927 23928 23929 23930 23931 23932 23933 23934 23935 23936 23937 23938 23939 23940 23941 23942 23943 23944 23945 23946 23947 23948 23949 23950 23951 23952 23953 23954 23955 23956 23957 23958 23959 23960 23961 23962 23963 23964 23965 23966 23967 23968 23969 23970 23971 23972 23973 23974 23975 23976 23977 23978 23979 23980 23981 23982 23983 23984 23985 23986 23987 23988 23989 23990 23991 23992 23993 23994 23995 23996 23997 23998 23999 24000 24001 24002 24003 24004 24005 24006 24007 24008 24009 24010 24011 24012 24013 24014 24015 24016 24017 24018 24019 24020 24021 24022 24023 24024 24025 24026 24027 24028 24029 24030 24031 24032 24033 24034 24035 24036 24037 24038 24039 24040 24041 24042 24043 24044 24045 24046 24047 24048 24049 24050 24051 24052 24053 24054 24055 24056 24057 24058 24059 24060 24061 24062 24063 24064 24065 24066 24067 24068 24069 24070 24071 24072 24073 24074 24075 24076 24077 24078 24079 24080 24081 24082 24083 24084 24085 24086 24087 24088 24089 24090 24091 24092 24093 24094 24095 24096 24097 24098 24099 24100 24101 24102 24103 24104 24105 24106 24107 24108 24109 24110 24111 24112 24113 24114 24115 24116 24117 24118 24119 24120 24121 24122 24123 24124 24125 24126 24127 24128 24129 24130 24131 24132 24133 24134 24135 24136 24137 24138 24139 24140 24141 24142 24143 24144 24145 24146 24147 24148 24149 24150 24151 24152 24153 24154 24155 24156 24157 24158 24159 24160 24161 24162 24163 24164 24165 24166 24167 24168 24169 24170 24171 24172 24173 24174 24175 24176 24177 24178 24179 24180 24181 24182 24183 24184 24185 24186 24187 24188 24189 24190 24191 24192 24193 24194 24195 24196 24197 24198 24199 24200 24201 24202 24203 24204 24205 24206 24207 24208 24209 24210 24211 24212 24213 24214 24215 24216 24217 24218 24219 24220 24221 24222 24223 24224 24225 24226 24227 24228 24229 24230 24231 24232 24233 24234 24235 24236 24237 24238 24239 24240 24241 24242 24243 24244 24245 24246 24247 24248 24249 24250 24251 24252 24253 24254 24255 24256 24257 24258 24259 24260 24261 24262 24263 24264 24265 24266 24267 24268 24269 24270 24271 24272 24273 24274 24275 24276 24277 24278 24279 24280 24281 24282 24283 24284 24285 24286 24287 24288 24289 24290 24291 24292 24293 24294 24295 24296 24297 24298 24299 24300 24301 24302 24303 24304 24305 24306 24307 24308 24309 24310 24311 24312 24313 24314 24315 24316 24317 24318 24319 24320 24321 24322 24323 24324 24325 24326 24327 24328 24329 24330 24331 24332 24333 24334 24335 24336 24337 24338 24339 24340 24341 24342 24343 24344 24345 24346 24347 24348 24349 24350 24351 24352 24353 24354 24355 24356 24357 24358 24359 24360 24361 24362 24363 24364 24365 24366 24367 24368 24369 24370 24371 24372 24373 24374 24375 24376 24377 24378 24379 24380 24381 24382 24383 24384 24385 24386 24387 24388 24389 24390 24391 24392 24393 24394 24395 24396 24397 24398 24399 24400 24401 24402 24403 24404 24405 24406 24407 24408 24409 24410 24411 24412 24413 24414 24415 24416 24417 24418 24419 24420 24421 24422 24423 24424 24425 24426 24427 24428 24429 24430 24431 24432 24433 24434 24435 24436 24437 24438 24439 24440 24441 24442 24443 24444 24445 24446 24447 24448 24449 24450 24451 24452 24453 24454 24455 24456 24457 24458 24459 24460 24461 24462 24463 24464 24465 24466 24467 24468 24469 24470 24471 24472 24473 24474 24475 24476 24477 24478 24479 24480 24481 24482 24483 24484 24485 24486 24487 24488 24489 24490 24491 24492 24493 24494 24495 24496 24497 24498 24499 24500 24501 24502 24503 24504 24505 24506 24507 24508 24509 24510 24511 24512 24513 24514 24515 24516 24517 24518 24519 24520 24521 24522 24523 24524 24525 24526 24527 24528 24529 24530 24531 24532 24533 24534 24535 24536 24537 24538 24539 24540 24541 24542 24543 24544 24545 24546 24547 24548 24549 24550 24551 24552 24553 24554 24555 24556 24557 24558 24559 24560 24561 24562 24563 24564 24565 24566 24567 24568 24569 24570 24571 24572 24573 24574 24575 24576 24577 24578 24579 24580 24581 24582 24583 24584 24585 24586 24587 24588 24589 24590 24591 24592 24593 24594 24595 24596 24597 24598 24599 24600 24601 24602 24603 24604 24605 24606 24607 24608 24609 24610 24611 24612 24613 24614 24615 24616 24617 24618 24619 24620 24621 24622 24623 24624 24625 24626 24627 24628 24629 24630 24631 24632 24633 24634 24635 24636 24637 24638 24639 24640 24641 24642 24643 24644 24645 24646 24647 24648 24649 24650 24651 24652 24653 24654 24655 24656 24657 24658 24659 24660 24661 24662 24663 24664 24665 24666 24667 24668 24669 24670 24671 24672 24673 24674 24675 24676 24677 24678 24679 24680 24681 24682 24683 24684 24685 24686 24687 24688 24689 24690 24691 24692 24693 24694 24695 24696 24697 24698 24699 24700 24701 24702 24703 24704 24705 24706 24707 24708 24709 24710 24711 24712 24713 24714 24715 24716 24717 24718 24719 24720 24721 24722 24723 24724 24725 24726 24727 24728 24729 24730 24731 24732 24733 24734 24735 24736 24737 24738 24739 24740 24741 24742 24743 24744 24745 24746 24747 24748 24749 24750 24751 24752 24753 24754 24755 24756 24757 24758 24759 24760 24761 24762 24763 24764 24765 24766 24767 24768 24769 24770 24771 24772 24773 24774 24775 24776 24777 24778 24779 24780 24781 24782 24783 24784 24785 24786 24787 24788 24789 24790 24791 24792 24793 24794 24795 24796 24797 24798 24799 24800 24801 24802 24803 24804 24805 24806 24807 24808 24809 24810 24811 24812 24813 24814 24815 24816 24817 24818 24819 24820 24821 24822 24823 24824 24825 24826 24827 24828 24829 24830 24831 24832 24833 24834 24835 24836 24837 24838 24839 24840 24841 24842 24843 24844 24845 24846 24847 24848 24849 24850 24851 24852 24853 24854 24855 24856 24857 24858 24859 24860 24861 24862 24863 24864 24865 24866 24867 24868 24869 24870 24871 24872 24873 24874 24875 24876 24877 24878 24879 24880 24881 24882 24883 24884 24885 24886 24887 24888 24889 24890 24891 24892 24893 24894 24895 24896 24897 24898 24899 24900 24901 24902 24903 24904 24905 24906 24907 24908 24909 24910 24911 24912 24913 24914 24915 24916 24917 24918 24919 24920 24921 24922 24923 24924 24925 24926 24927 24928 24929 24930 24931 24932 24933 24934 24935 24936 24937 24938 24939 24940 24941 24942 24943 24944 24945 24946 24947 24948 24949 24950 24951 24952 24953 24954 24955 24956 24957 24958 24959 24960 24961 24962 24963 24964 24965 24966 24967 24968 24969 24970 24971 24972 24973 24974 24975 24976 24977 24978 24979 24980 24981 24982 24983 24984 24985 24986 24987 24988 24989 24990 24991 24992 24993 24994 24995 24996 24997 24998 24999 25000 25001 25002 25003 25004 25005 25006 25007 25008 25009 25010 25011 25012 25013 25014 25015 25016 25017 25018 25019 25020 25021 25022 25023 25024 25025 25026 25027 25028 25029 25030 25031 25032 25033 25034 25035 25036 25037 25038 25039 25040 25041 25042 25043 25044 25045 25046 25047 25048 25049 25050 25051 25052 25053 25054 25055 25056 25057 25058 25059 25060 25061 25062 25063 25064 25065 25066 25067 25068 25069 25070 25071 25072 25073 25074 25075 25076 25077 25078 25079 25080 25081 25082 25083 25084 25085 25086 25087 25088 25089 25090 25091 25092 25093 25094 25095 25096 25097 25098 25099 25100 25101 25102 25103 25104 25105 25106 25107 25108 25109 25110 25111 25112 25113 25114 25115 25116 25117 25118 25119 25120 25121 25122 25123 25124 25125 25126 25127 25128 25129 25130 25131 25132 25133 25134 25135 25136 25137 25138 25139 25140 25141 25142 25143 25144 25145 25146 25147 25148 25149 25150 25151 25152 25153 25154 25155 25156 25157 25158 25159 25160 25161 25162 25163 25164 25165 25166 25167 25168 25169 25170 25171 25172 25173 25174 25175 25176 25177 25178 25179 25180 25181 25182 25183 25184 25185 25186 25187 25188 25189 25190 25191 25192 25193 25194 25195 25196 25197 25198 25199 25200 25201 25202 25203 25204 25205 25206 25207 25208 25209 25210 25211 25212 25213 25214 25215 25216 25217 25218 25219 25220 25221 25222 25223 25224 25225 25226 25227 25228 25229 25230 25231 25232 25233 25234 25235 25236 25237 25238 25239 25240 25241 25242 25243 25244 25245 25246 25247 25248 25249 25250 25251 25252 25253 25254 25255 25256 25257 25258 25259 25260 25261 25262 25263 25264 25265 25266 25267 25268 25269 25270 25271 25272 25273 25274 25275 25276 25277 25278 25279 25280 25281 25282 25283 25284 25285 25286 25287 25288 25289 25290 25291 25292 25293 25294 25295 25296 25297 25298 25299 25300 25301 25302 25303 25304 25305 25306 25307 25308 25309 25310 25311 25312 25313 25314 25315 25316 25317 25318 25319 25320 25321 25322 25323 25324 25325 25326 25327 25328 25329 25330 25331 25332 25333 25334 25335 25336 25337 25338 25339 25340 25341 25342 25343 25344 25345 25346 25347 25348 25349 25350 25351 25352 25353 25354 25355 25356 25357 25358 25359 25360 25361 25362 25363 25364 25365 25366 25367 25368 25369 25370 25371 25372 25373 25374 25375 25376 25377 25378 25379 25380 25381 25382 25383 25384 25385 25386 25387 25388 25389 25390 25391 25392 25393 25394 25395 25396 25397 25398 25399 25400 25401 25402 25403 25404 25405 25406 25407 25408 25409 25410 25411 25412 25413 25414 25415 25416 25417 25418 25419 25420 25421 25422 25423 25424 25425 25426 25427 25428 25429 25430 25431 25432 25433 25434 25435 25436 25437 25438 25439 25440 25441 25442 25443 25444 25445 25446 25447 25448 25449 25450 25451 25452 25453 25454 25455 25456 25457 25458 25459 25460 25461 25462 25463 25464 25465 25466 25467 25468 25469 25470 25471 25472 25473 25474 25475 25476 25477 25478 25479 25480 25481 25482 25483 25484 25485 25486 25487 25488 25489 25490 25491 25492 25493 25494 25495 25496 25497 25498 25499 25500 25501 25502 25503 25504 25505 25506 25507 25508 25509 25510 25511 25512 25513 25514 25515 25516 25517 25518 25519 25520 25521 25522 25523 25524 25525 25526 25527 25528 25529 25530 25531 25532 25533 25534 25535 25536 25537 25538 25539 25540 25541 25542 25543 25544 25545 25546 25547 25548 25549 25550 25551 25552 25553 25554 25555 25556 25557 25558 25559 25560 25561 25562 25563 25564 25565 25566 25567 25568 25569 25570 25571 25572 25573 25574 25575 25576 25577 25578 25579 25580 25581 25582 25583 25584 25585 25586 25587 25588 25589 25590 25591 25592 25593 25594 25595 25596 25597 25598 25599 25600 25601 25602 25603 25604 25605 25606 25607 25608 25609 25610 25611 25612 25613 25614 25615 25616 25617 25618 25619 25620 25621 25622 25623 25624 25625 25626 25627 25628 25629 25630 25631 25632 25633 25634 25635 25636 25637 25638 25639 25640 25641 25642 25643 25644 25645 25646 25647 25648 25649 25650 25651 25652 25653 25654 25655 25656 25657 25658 25659 25660 25661 25662 25663 25664 25665 25666 25667 25668 25669 25670 25671 25672 25673 25674 25675 25676 25677 25678 25679 25680 25681 25682 25683 25684 25685 25686 25687 25688 25689 25690 25691 25692 25693 25694 25695 25696 25697 25698 25699 25700 25701 25702 25703 25704 25705 25706 25707 25708 25709 25710 25711 25712 25713 25714 25715 25716 25717 25718 25719 25720 25721 25722 25723 25724 25725 25726 25727 25728 25729 25730 25731 25732 25733 25734 25735 25736 25737 25738 25739 25740 25741 25742 25743 25744 25745 25746 25747 25748 25749 25750 25751 25752 25753 25754 25755 25756 25757 25758 25759 25760 25761 25762 25763 25764 25765 25766 25767 25768 25769 25770 25771 25772 25773 25774 25775 25776 25777 25778 25779 25780 25781 25782 25783 25784 25785 25786 25787 25788 25789 25790 25791 25792 25793 25794 25795 25796 25797 25798 25799 25800 25801 25802 25803 25804 25805 25806 25807 25808 25809 25810 25811 25812 25813 25814 25815 25816 25817 25818 25819 25820 25821 25822 25823 25824 25825 25826 25827 25828 25829 25830 25831 25832 25833 25834 25835 25836 25837 25838 25839 25840 25841 25842 25843 25844 25845 25846 25847 25848 25849 25850 25851 25852 25853 25854 25855 25856 25857 25858 25859 25860 25861 25862 25863 25864 25865 25866 25867 25868 25869 25870 25871 25872 25873 25874 25875 25876 25877 25878 25879 25880 25881 25882 25883 25884 25885 25886 25887 25888 25889 25890 25891 25892 25893 25894 25895 25896 25897 25898 25899 25900 25901 25902 25903 25904 25905 25906 25907 25908 25909 25910 25911 25912 25913 25914 25915 25916 25917 25918 25919 25920 25921 25922 25923 25924 25925 25926 25927 25928 25929 25930 25931 25932 25933 25934 25935 25936 25937 25938 25939 25940 25941 25942 25943 25944 25945 25946 25947 25948 25949 25950 25951 25952 25953 25954 25955 25956 25957 25958 25959 25960 25961 25962 25963 25964 25965 25966 25967 25968 25969 25970 25971 25972 25973 25974 25975 25976 25977 25978 25979 25980 25981 25982 25983 25984 25985 25986 25987 25988 25989 25990 25991 25992 25993 25994 25995 25996 25997 25998 25999 26000 26001 26002 26003 26004 26005 26006 26007 26008 26009 26010 26011 26012 26013 26014 26015 26016 26017 26018 26019 26020 26021 26022 26023 26024 26025 26026 26027 26028 26029 26030 26031 26032 26033 26034 26035 26036 26037 26038 26039 26040 26041 26042 26043 26044 26045 26046 26047 26048 26049 26050 26051 26052 26053 26054 26055 26056 26057 26058 26059 26060 26061 26062 26063 26064 26065 26066 26067 26068 26069 26070 26071 26072 26073 26074 26075 26076 26077 26078 26079 26080 26081 26082 26083 26084 26085 26086 26087 26088 26089 26090 26091 26092 26093 26094 26095 26096 26097 26098 26099 26100 26101 26102 26103 26104 26105 26106 26107 26108 26109 26110 26111 26112 26113 26114 26115 26116 26117 26118 26119 26120 26121 26122 26123 26124 26125 26126 26127 26128 26129 26130 26131 26132 26133 26134 26135 26136 26137 26138 26139 26140 26141 26142 26143 26144 26145 26146 26147 26148 26149 26150 26151 26152 26153 26154 26155 26156 26157 26158 26159 26160 26161 26162 26163 26164 26165 26166 26167 26168 26169 26170 26171 26172 26173 26174 26175 26176 26177 26178 26179 26180 26181 26182 26183 26184 26185 26186 26187 26188 26189 26190 26191 26192 26193 26194 26195 26196 26197 26198 26199 26200 26201 26202 26203 26204 26205 26206 26207 26208 26209 26210 26211 26212 26213 26214 26215 26216 26217 26218 26219 26220 26221 26222 26223 26224 26225 26226 26227 26228 26229 26230 26231 26232 26233 26234 26235 26236 26237 26238 26239 26240 26241 26242 26243 26244 26245 26246 26247 26248 26249 26250 26251 26252 26253 26254 26255 26256 26257 26258 26259 26260 26261 26262 26263 26264 26265 26266 26267 26268 26269 26270 26271 26272 26273 26274 26275 26276 26277 26278 26279 26280 26281 26282 26283 26284 26285 26286 26287 26288 26289 26290 26291 26292 26293 26294 26295 26296 26297 26298 26299 26300 26301 26302 26303 26304 26305 26306 26307 26308 26309 26310 26311 26312 26313 26314 26315 26316 26317 26318 26319 26320 26321 26322 26323 26324 26325 26326 26327 26328 26329 26330 26331 26332 26333 26334 26335 26336 26337 26338 26339 26340 26341 26342 26343 26344 26345 26346 26347 26348 26349 26350 26351 26352 26353 26354 26355 26356 26357 26358 26359 26360 26361 26362 26363 26364 26365 26366 26367 26368 26369 26370 26371 26372 26373 26374 26375 26376 26377 26378 26379 26380 26381 26382 26383 26384 26385 26386 26387 26388 26389 26390 26391 26392 26393 26394 26395 26396 26397 26398 26399 26400 26401 26402 26403 26404 26405 26406 26407 26408 26409 26410 26411 26412 26413 26414 26415 26416 26417 26418 26419 26420 26421 26422 26423 26424 26425 26426 26427 26428 26429 26430 26431 26432 26433 26434 26435 26436 26437 26438 26439 26440 26441 26442 26443 26444 26445 26446 26447 26448 26449 26450 26451 26452 26453 26454 26455 26456 26457 26458 26459 26460 26461 26462 26463 26464 26465 26466 26467 26468 26469 26470 26471 26472 26473 26474 26475 26476 26477 26478 26479 26480 26481 26482 26483 26484 26485 26486 26487 26488 26489 26490 26491 26492 26493 26494 26495 26496 26497 26498 26499 26500 26501 26502 26503 26504 26505 26506 26507 26508 26509 26510 26511 26512 26513 26514 26515 26516 26517 26518 26519 26520 26521 26522 26523 26524 26525 26526 26527 26528 26529 26530 26531 26532 26533 26534 26535 26536 26537 26538 26539 26540 26541 26542 26543 26544 26545 26546 26547 26548 26549 26550 26551 26552 26553 26554 26555 26556 26557 26558 26559 26560 26561 26562 26563 26564 26565 26566 26567 26568 26569 26570 26571 26572 26573 26574 26575 26576 26577 26578 26579 26580 26581 26582 26583 26584 26585 26586 26587 26588 26589 26590 26591 26592 26593 26594 26595 26596 26597 26598 26599 26600 26601 26602 26603 26604 26605 26606 26607 26608 26609 26610 26611 26612 26613 26614 26615 26616 26617 26618 26619 26620 26621 26622 26623 26624 26625 26626 26627 26628 26629 26630 26631 26632 26633 26634 26635 26636 26637 26638 26639 26640 26641 26642 26643 26644 26645 26646 26647 26648 26649 26650 26651 26652 26653 26654 26655 26656 26657 26658 26659 26660 26661 26662 26663 26664 26665 26666 26667 26668 26669 26670 26671 26672 26673 26674 26675 26676 26677 26678 26679 26680 26681 26682 26683 26684 26685 26686 26687 26688 26689 26690 26691 26692 26693 26694 26695 26696 26697 26698 26699 26700 26701 26702 26703 26704 26705 26706 26707 26708 26709 26710 26711 26712 26713 26714 26715 26716 26717 26718 26719 26720 26721 26722 26723 26724 26725 26726 26727 26728 26729 26730 26731 26732 26733 26734 26735 26736 26737 26738 26739 26740 26741 26742 26743 26744 26745 26746 26747 26748 26749 26750 26751 26752 26753 26754 26755 26756 26757 26758 26759 26760 26761 26762 26763 26764 26765 26766 26767 26768 26769 26770 26771 26772 26773 26774 26775 26776 26777 26778 26779 26780 26781 26782 26783 26784 26785 26786 26787 26788 26789 26790 26791 26792 26793 26794 26795 26796 26797 26798 26799 26800 26801 26802 26803 26804 26805 26806 26807 26808 26809 26810 26811 26812 26813 26814 26815 26816 26817 26818 26819 26820 26821 26822 26823 26824 26825 26826 26827 26828 26829 26830 26831 26832 26833 26834 26835 26836 26837 26838 26839 26840 26841 26842 26843 26844 26845 26846 26847 26848 26849 26850 26851 26852 26853 26854 26855 26856 26857 26858 26859 26860 26861 26862 26863 26864 26865 26866 26867 26868 26869 26870 26871 26872 26873 26874 26875 26876 26877 26878 26879 26880 26881 26882 26883 26884 26885 26886 26887 26888 26889 26890 26891 26892 26893 26894 26895 26896 26897 26898 26899 26900 26901 26902 26903 26904 26905 26906 26907 26908 26909 26910 26911 26912 26913 26914 26915 26916 26917 26918 26919 26920 26921 26922 26923 26924 26925 26926 26927 26928 26929 26930 26931 26932 26933 26934 26935 26936 26937 26938 26939 26940 26941 26942 26943 26944 26945 26946 26947 26948 26949 26950 26951 26952 26953 26954 26955 26956 26957 26958 26959 26960 26961 26962 26963 26964 26965 26966 26967 26968 26969 26970 26971 26972 26973 26974 26975 26976 26977 26978 26979 26980 26981 26982 26983 26984 26985 26986 26987 26988 26989 26990 26991 26992 26993 26994 26995 26996 26997 26998 26999 27000 27001 27002 27003 27004 27005 27006 27007 27008 27009 27010 27011 27012 27013 27014 27015 27016 27017 27018 27019 27020 27021 27022 27023 27024 27025 27026 27027 27028 27029 27030 27031 27032 27033 27034 27035 27036 27037 27038 27039 27040 27041 27042 27043 27044 27045 27046 27047 27048 27049 27050 27051 27052 27053 27054 27055 27056 27057 27058 27059 27060 27061 27062 27063 27064 27065 27066 27067 27068 27069 27070 27071 27072 27073 27074 27075 27076 27077 27078 27079 27080 27081 27082 27083 27084 27085 27086 27087 27088 27089 27090 27091 27092 27093 27094 27095 27096 27097 27098 27099 27100 27101 27102 27103 27104 27105 27106 27107 27108 27109 27110 27111 27112 27113 27114 27115 27116 27117 27118 27119 27120 27121 27122 27123 27124 27125 27126 27127 27128 27129 27130 27131 27132 27133 27134 27135 27136 27137 27138 27139 27140 27141 27142 27143 27144 27145 27146 27147 27148 27149 27150 27151 27152 27153 27154 27155 27156 27157 27158 27159 27160 27161 27162 27163 27164 27165 27166 27167 27168 27169 27170 27171 27172 27173 27174 27175 27176 27177 27178 27179 27180 27181 27182 27183 27184 27185 27186 27187 27188 27189 27190 27191 27192 27193 27194 27195 27196 27197 27198 27199 27200 27201 27202 27203 27204 27205 27206 27207 27208 27209 27210 27211 27212 27213 27214 27215 27216 27217 27218 27219 27220 27221 27222 27223 27224 27225 27226 27227 27228 27229 27230 27231 27232 27233 27234 27235 27236 27237 27238 27239 27240 27241 27242 27243 27244 27245 27246 27247 27248 27249 27250 27251 27252 27253 27254 27255 27256 27257 27258 27259 27260 27261 27262 27263 27264 27265 27266 27267 27268 27269 27270 27271 27272 27273 27274 27275 27276 27277 27278 27279 27280 27281 27282 27283 27284 27285 27286 27287 27288 27289 27290 27291 27292 27293 27294 27295 27296 27297 27298 27299 27300 27301 27302 27303 27304 27305 27306 27307 27308 27309 27310 27311 27312 27313 27314 27315 27316 27317 27318 27319 27320 27321 27322 27323 27324 27325 27326 27327 27328 27329 27330 27331 27332 27333 27334 27335 27336 27337 27338 27339 27340 27341 27342 27343 27344 27345 27346 27347 27348 27349 27350 27351 27352 27353 27354 27355 27356 27357 27358 27359 27360 27361 27362 27363 27364 27365 27366 27367 27368 27369 27370 27371 27372 27373 27374 27375 27376 27377 27378 27379 27380 27381 27382 27383 27384 27385 27386 27387 27388 27389 27390 27391 27392 27393 27394 27395 27396 27397 27398 27399 27400 27401 27402 27403 27404 27405 27406 27407 27408 27409 27410 27411 27412 27413 27414 27415 27416 27417 27418 27419 27420 27421 27422 27423 27424 27425 27426 27427 27428 27429 27430 27431 27432 27433 27434 27435 27436 27437 27438 27439 27440 27441 27442 27443 27444 27445 27446 27447 27448 27449 27450 27451 27452 27453 27454 27455 27456 27457 27458 27459 27460 27461 27462 27463 27464 27465 27466 27467 27468 27469 27470 27471 27472 27473 27474 27475 27476 27477 27478 27479 27480 27481 27482 27483 27484 27485 27486 27487 27488 27489 27490 27491 27492 27493 27494 27495 27496 27497 27498 27499 27500 27501 27502 27503 27504 27505 27506 27507 27508 27509 27510 27511 27512 27513 27514 27515 27516 27517 27518 27519 27520 27521 27522 27523 27524 27525 27526 27527 27528 27529 27530 27531 27532 27533 27534 27535 27536 27537 27538 27539 27540 27541 27542 27543 27544 27545 27546 27547 27548 27549 27550 27551 27552 27553 27554 27555 27556 27557 27558 27559 27560 27561 27562 27563 27564 27565 27566 27567 27568 27569 27570 27571 27572 27573 27574 27575 27576 27577 27578 27579 27580 27581 27582 27583 27584 27585 27586 27587 27588 27589 27590 27591 27592 27593 27594 27595 27596 27597 27598 27599 27600 27601 27602 27603 27604 27605 27606 27607 27608 27609 27610 27611 27612 27613 27614 27615 27616 27617 27618 27619 27620 27621 27622 27623 27624 27625 27626 27627 27628 27629 27630 27631 27632 27633 27634 27635 27636 27637 27638 27639 27640 27641 27642 27643 27644 27645 27646 27647 27648 27649 27650 27651 27652 27653 27654 27655 27656 27657 27658 27659 27660 27661 27662 27663 27664 27665 27666 27667 27668 27669 27670 27671 27672 27673 27674 27675 27676 27677 27678 27679 27680 27681 27682 27683 27684 27685 27686 27687 27688 27689 27690 27691 27692 27693 27694 27695 27696 27697 27698 27699 27700 27701 27702 27703 27704 27705 27706 27707 27708 27709 27710 27711 27712 27713 27714 27715 27716 27717 27718 27719 27720 27721 27722 27723 27724 27725 27726 27727 27728 27729 27730 27731 27732 27733 27734 27735 27736 27737 27738 27739 27740 27741 27742 27743 27744 27745 27746 27747 27748 27749 27750 27751 27752 27753 27754 27755 27756 27757 27758 27759 27760 27761 27762 27763 27764 27765 27766 27767 27768 27769 27770 27771 27772 27773 27774 27775 27776 27777 27778 27779 27780 27781 27782 27783 27784 27785 27786 27787 27788 27789 27790 27791 27792 27793 27794 27795 27796 27797 27798 27799 27800 27801 27802 27803 27804 27805 27806 27807 27808 27809 27810 27811 27812 27813 27814 27815 27816 27817 27818 27819 27820 27821 27822 27823 27824 27825 27826 27827 27828 27829 27830 27831 27832 27833 27834 27835 27836 27837 27838 27839 27840 27841 27842 27843 27844 27845 27846 27847 27848 27849 27850 27851 27852 27853 27854 27855 27856 27857 27858 27859 27860 27861 27862 27863 27864 27865 27866 27867 27868 27869 27870 27871 27872 27873 27874 27875 27876 27877 27878 27879 27880 27881 27882 27883 27884 27885 27886 27887 27888 27889 27890 27891 27892 27893 27894 27895 27896 27897 27898 27899 27900 27901 27902 27903 27904 27905 27906 27907 27908 27909 27910 27911 27912 27913 27914 27915 27916 27917 27918 27919 27920 27921 27922 27923 27924 27925 27926 27927 27928 27929 27930 27931 27932 27933 27934 27935 27936 27937 27938 27939 27940 27941 27942 27943 27944 27945 27946 27947 27948 27949 27950 27951 27952 27953 27954 27955 27956 27957 27958 27959 27960 27961 27962 27963 27964 27965 27966 27967 27968 27969 27970 27971 27972 27973 27974 27975 27976 27977 27978 27979 27980 27981 27982 27983 27984 27985 27986 27987 27988 27989 27990 27991 27992 27993 27994 27995 27996 27997 27998 27999 28000 28001 28002 28003 28004 28005 28006 28007 28008 28009 28010 28011 28012 28013 28014 28015 28016 28017 28018 28019 28020 28021 28022 28023 28024 28025 28026 28027 28028 28029 28030 28031 28032 28033 28034 28035 28036 28037 28038 28039 28040 28041 28042 28043 28044 28045 28046 28047 28048 28049 28050 28051 28052 28053 28054 28055 28056 28057 28058 28059 28060 28061 28062 28063 28064 28065 28066 28067 28068 28069 28070 28071 28072 28073 28074 28075 28076 28077 28078 28079 28080 28081 28082 28083 28084 28085 28086 28087 28088 28089 28090 28091 28092 28093 28094 28095 28096 28097 28098 28099 28100 28101 28102 28103 28104 28105 28106 28107 28108 28109 28110 28111 28112 28113 28114 28115 28116 28117 28118 28119 28120 28121 28122 28123 28124 28125 28126 28127 28128 28129 28130 28131 28132 28133 28134 28135 28136 28137 28138 28139 28140 28141 28142 28143 28144 28145 28146 28147 28148 28149 28150 28151 28152 28153 28154 28155 28156 28157 28158 28159 28160 28161 28162 28163 28164 28165 28166 28167 28168 28169 28170 28171 28172 28173 28174 28175 28176 28177 28178 28179 28180 28181 28182 28183 28184 28185 28186 28187 28188 28189 28190 28191 28192 28193 28194 28195 28196 28197 28198 28199 28200 28201 28202 28203 28204 28205 28206 28207 28208 28209 28210 28211 28212 28213 28214 28215 28216 28217 28218 28219 28220 28221 28222 28223 28224 28225 28226 28227 28228 28229 28230 28231 28232 28233 28234 28235 28236 28237 28238 28239 28240 28241 28242 28243 28244 28245 28246 28247 28248 28249 28250 28251 28252 28253 28254 28255 28256 28257 28258 28259 28260 28261 28262 28263 28264 28265 28266 28267 28268 28269 28270 28271 28272 28273 28274 28275 28276 28277 28278 28279 28280 28281 28282 28283 28284 28285 28286 28287 28288 28289 28290 28291 28292 28293 28294 28295 28296 28297 28298 28299 28300 28301 28302 28303 28304 28305 28306 28307 28308 28309 28310 28311 28312 28313 28314 28315 28316 28317 28318 28319 28320 28321 28322 28323 28324 28325 28326 28327 28328 28329 28330 28331 28332 28333 28334 28335 28336 28337 28338 28339 28340 28341 28342 28343 28344 28345 28346 28347 28348 28349 28350 28351 28352 28353 28354 28355 28356 28357 28358 28359 28360 28361 28362 28363 28364 28365 28366 28367 28368 28369 28370 28371 28372 28373 28374 28375 28376 28377 28378 28379 28380 28381 28382 28383 28384 28385 28386 28387 28388 28389 28390 28391 28392 28393 28394 28395 28396 28397 28398 28399 28400 28401 28402 28403 28404 28405 28406 28407 28408 28409 28410 28411 28412 28413 28414 28415 28416 28417 28418 28419 28420 28421 28422 28423 28424 28425 28426 28427 28428 28429 28430 28431 28432 28433 28434 28435 28436 28437 28438 28439 28440 28441 28442 28443 28444 28445 28446 28447 28448 28449 28450 28451 28452 28453 28454 28455 28456 28457 28458 28459 28460 28461 28462 28463 28464 28465 28466 28467 28468 28469 28470 28471 28472 28473 28474 28475 28476 28477 28478 28479 28480 28481 28482 28483 28484 28485 28486 28487 28488 28489 28490 28491 28492 28493 28494 28495 28496 28497 28498 28499 28500 28501 28502 28503 28504 28505 28506 28507 28508 28509 28510 28511 28512 28513 28514 28515 28516 28517 28518 28519 28520 28521 28522 28523 28524 28525 28526 28527 28528 28529 28530 28531 28532 28533 28534 28535 28536 28537 28538 28539 28540 28541 28542 28543 28544 28545 28546 28547 28548 28549 28550 28551 28552 28553 28554 28555 28556 28557 28558 28559 28560 28561 28562 28563 28564 28565 28566 28567 28568 28569 28570 28571 28572 28573 28574 28575 28576 28577 28578 28579 28580 28581 28582 28583 28584 28585 28586 28587 28588 28589 28590 28591 28592 28593 28594 28595 28596 28597 28598 28599 28600 28601 28602 28603 28604 28605 28606 28607 28608 28609 28610 28611 28612 28613 28614 28615 28616 28617 28618 28619 28620 28621 28622 28623 28624 28625 28626 28627 28628 28629 28630 28631 28632 28633 28634 28635 28636 28637 28638 28639 28640 28641 28642 28643 28644 28645 28646 28647 28648 28649 28650 28651 28652 28653 28654 28655 28656 28657 28658 28659 28660 28661 28662 28663 28664 28665 28666 28667 28668 28669 28670 28671 28672 28673 28674 28675 28676 28677 28678 28679 28680 28681 28682 28683 28684 28685 28686 28687 28688 28689 28690 28691 28692 28693 28694 28695 28696 28697 28698 28699 28700 28701 28702 28703 28704 28705 28706 28707 28708 28709 28710 28711 28712 28713 28714 28715 28716 28717 28718 28719 28720 28721 28722 28723 28724 28725 28726 28727 28728 28729 28730 28731 28732 28733 28734 28735 28736 28737 28738 28739 28740 28741 28742 28743 28744 28745 28746 28747 28748 28749 28750 28751 28752 28753 28754 28755 28756 28757 28758 28759 28760 28761 28762 28763 28764 28765 28766 28767 28768 28769 28770 28771 28772 28773 28774 28775 28776 28777 28778 28779 28780 28781 28782 28783 28784 28785 28786 28787 28788 28789 28790 28791 28792 28793 28794 28795 28796 28797 28798 28799 28800 28801 28802 28803 28804 28805 28806 28807 28808 28809 28810 28811 28812 28813 28814 28815 28816 28817 28818 28819 28820 28821 28822 28823 28824 28825 28826 28827 28828 28829 28830 28831 28832 28833 28834 28835 28836 28837 28838 28839 28840 28841 28842 28843 28844 28845 28846 28847 28848 28849 28850 28851 28852 28853 28854 28855 28856 28857 28858 28859 28860 28861 28862 28863 28864 28865 28866 28867 28868 28869 28870 28871 28872 28873 28874 28875 28876 28877 28878 28879 28880 28881 28882 28883 28884 28885 28886 28887 28888 28889 28890 28891 28892 28893 28894 28895 28896 28897 28898 28899 28900 28901 28902 28903 28904 28905 28906 28907 28908 28909 28910 28911 28912 28913 28914 28915 28916 28917 28918 28919 28920 28921 28922 28923 28924 28925 28926 28927 28928 28929 28930 28931 28932 28933 28934 28935 28936 28937 28938 28939 28940 28941 28942 28943 28944 28945 28946 28947 28948 28949 28950 28951 28952 28953 28954 28955 28956 28957 28958 28959 28960 28961 28962 28963 28964 28965 28966 28967 28968 28969 28970 28971 28972 28973 28974 28975 28976 28977 28978 28979 28980 28981 28982 28983 28984 28985 28986 28987 28988 28989 28990 28991 28992 28993 28994 28995 28996 28997 28998 28999 29000 29001 29002 29003 29004 29005 29006 29007 29008 29009 29010 29011 29012 29013 29014 29015 29016 29017 29018 29019 29020 29021 29022 29023 29024 29025 29026 29027 29028 29029 29030 29031 29032 29033 29034 29035 29036 29037 29038 29039 29040 29041 29042 29043 29044 29045 29046 29047 29048 29049 29050 29051 29052 29053 29054 29055 29056 29057 29058 29059 29060 29061 29062 29063 29064 29065 29066 29067 29068 29069 29070 29071 29072 29073 29074 29075 29076 29077 29078 29079 29080 29081 29082 29083 29084 29085 29086 29087 29088 29089 29090 29091 29092 29093 29094 29095 29096 29097 29098 29099 29100 29101 29102 29103 29104 29105 29106 29107 29108 29109 29110 29111 29112 29113 29114 29115 29116 29117 29118 29119 29120 29121 29122 29123 29124 29125 29126 29127 29128 29129 29130 29131 29132 29133 29134 29135 29136 29137 29138 29139 29140 29141 29142 29143 29144 29145 29146 29147 29148 29149 29150 29151 29152 29153 29154 29155 29156 29157 29158 29159 29160 29161 29162 29163 29164 29165 29166 29167 29168 29169 29170 29171 29172 29173 29174 29175 29176 29177 29178 29179 29180 29181 29182 29183 29184 29185 29186 29187 29188 29189 29190 29191 29192 29193 29194 29195 29196 29197 29198 29199 29200 29201 29202 29203 29204 29205 29206 29207 29208 29209 29210 29211 29212 29213 29214 29215 29216 29217 29218 29219 29220 29221 29222 29223 29224 29225 29226 29227 29228 29229 29230 29231 29232 29233 29234 29235 29236 29237 29238 29239 29240 29241 29242 29243 29244 29245 29246 29247 29248 29249 29250 29251 29252 29253 29254 29255 29256 29257 29258 29259 29260 29261 29262 29263 29264 29265 29266 29267 29268 29269 29270 29271 29272 29273 29274 29275 29276 29277 29278 29279 29280 29281 29282 29283 29284 29285 29286 29287 29288 29289 29290 29291 29292 29293 29294 29295 29296 29297 29298 29299 29300 29301 29302 29303 29304 29305 29306 29307 29308 29309 29310 29311 29312 29313 29314 29315 29316 29317 29318 29319 29320 29321 29322 29323 29324 29325 29326 29327 29328 29329 29330 29331 29332 29333 29334 29335 29336 29337 29338 29339 29340 29341 29342 29343 29344 29345 29346 29347 29348 29349 29350 29351 29352 29353 29354 29355 29356 29357 29358 29359 29360 29361 29362 29363 29364 29365 29366 29367 29368 29369 29370 29371 29372 29373 29374 29375 29376 29377 29378 29379 29380 29381 29382 29383 29384 29385 29386 29387 29388 29389 29390 29391 29392 29393 29394 29395 29396 29397 29398 29399 29400 29401 29402 29403 29404 29405 29406 29407 29408 29409 29410 29411 29412 29413 29414 29415 29416 29417 29418 29419 29420 29421 29422 29423 29424 29425 29426 29427 29428 29429 29430 29431 29432 29433 29434 29435 29436 29437 29438 29439 29440 29441 29442 29443 29444 29445 29446 29447 29448 29449 29450 29451 29452 29453 29454 29455 29456 29457 29458 29459 29460 29461 29462 29463 29464 29465 29466 29467 29468 29469 29470 29471 29472 29473 29474 29475 29476 29477 29478 29479 29480 29481 29482 29483 29484 29485 29486 29487 29488 29489 29490 29491 29492 29493 29494 29495 29496 29497 29498 29499 29500 29501 29502 29503 29504 29505 29506 29507 29508 29509 29510 29511 29512 29513 29514 29515 29516 29517 29518 29519 29520 29521 29522 29523 29524 29525 29526 29527 29528 29529 29530 29531 29532 29533 29534 29535 29536 29537 29538 29539 29540 29541 29542 29543 29544 29545 29546 29547 29548 29549 29550 29551 29552 29553 29554 29555 29556 29557 29558 29559 29560 29561 29562 29563 29564 29565 29566 29567 29568 29569 29570 29571 29572 29573 29574 29575 29576 29577 29578 29579 29580 29581 29582 29583 29584 29585 29586 29587 29588 29589 29590 29591 29592 29593 29594 29595 29596 29597 29598 29599 29600 29601 29602 29603 29604 29605 29606 29607 29608 29609 29610 29611 29612 29613 29614 29615 29616 29617 29618 29619 29620 29621 29622 29623 29624 29625 29626 29627 29628 29629 29630 29631 29632 29633 29634 29635 29636 29637 29638 29639 29640 29641 29642 29643 29644 29645 29646 29647 29648 29649 29650 29651 29652 29653 29654 29655 29656 29657 29658 29659 29660 29661 29662 29663 29664 29665 29666 29667 29668 29669 29670 29671 29672 29673 29674 29675 29676 29677 29678 29679 29680 29681 29682 29683 29684 29685 29686 29687 29688 29689 29690 29691 29692 29693 29694 29695 29696 29697 29698 29699 29700 29701 29702 29703 29704 29705 29706 29707 29708 29709 29710 29711 29712 29713 29714 29715 29716 29717 29718 29719 29720 29721 29722 29723 29724 29725 29726 29727 29728 29729 29730 29731 29732 29733 29734 29735 29736 29737 29738 29739 29740 29741 29742 29743 29744 29745 29746 29747 29748 29749 29750 29751 29752 29753 29754 29755 29756 29757 29758 29759 29760 29761 29762 29763 29764 29765 29766 29767 29768 29769 29770 29771 29772 29773 29774 29775 29776 29777 29778 29779 29780 29781 29782 29783 29784 29785 29786 29787 29788 29789 29790 29791 29792 29793 29794 29795 29796 29797 29798 29799 29800 29801 29802 29803 29804 29805 29806 29807 29808 29809 29810 29811 29812 29813 29814 29815 29816 29817 29818 29819 29820 29821 29822 29823 29824 29825 29826 29827 29828 29829 29830 29831 29832 29833 29834 29835 29836 29837 29838 29839 29840 29841 29842 29843 29844 29845 29846 29847 29848 29849 29850 29851 29852 29853 29854 29855 29856 29857 29858 29859 29860 29861 29862 29863 29864 29865 29866 29867 29868 29869 29870 29871 29872 29873 29874 29875 29876 29877 29878 29879 29880 29881 29882 29883 29884 29885 29886 29887 29888 29889 29890 29891 29892 29893 29894 29895 29896 29897 29898 29899 29900 29901 29902 29903 29904 29905 29906 29907 29908 29909 29910 29911 29912 29913 29914 29915 29916 29917 29918 29919 29920 29921 29922 29923 29924 29925 29926 29927 29928 29929 29930 29931 29932 29933 29934 29935 29936 29937 29938 29939 29940 29941 29942 29943 29944 29945 29946 29947 29948 29949 29950 29951 29952 29953 29954 29955 29956 29957 29958 29959 29960 29961 29962 29963 29964 29965 29966 29967 29968 29969 29970 29971 29972 29973 29974 29975 29976 29977 29978 29979 29980 29981 29982 29983 29984 29985 29986 29987 29988 29989 29990 29991 29992 29993 29994 29995 29996 29997 29998 29999 30000 30001 30002 30003 30004 30005 30006 30007 30008 30009 30010 30011 30012 30013 30014 30015 30016 30017 30018 30019 30020 30021 30022 30023 30024 30025 30026 30027 30028 30029 30030 30031 30032 30033 30034 30035 30036 30037 30038 30039 30040 30041 30042 30043 30044 30045 30046 30047 30048 30049 30050 30051 30052 30053 30054 30055 30056 30057 30058 30059 30060 30061 30062 30063 30064 30065 30066 30067 30068 30069 30070 30071 30072 30073 30074 30075 30076 30077 30078 30079 30080 30081 30082 30083 30084 30085 30086 30087 30088 30089 30090 30091 30092 30093 30094 30095 30096 30097 30098 30099 30100 30101 30102 30103 30104 30105 30106 30107 30108 30109 30110 30111 30112 30113 30114 30115 30116 30117 30118 30119 30120 30121 30122 30123 30124 30125 30126 30127 30128 30129 30130 30131 30132 30133 30134 30135 30136 30137 30138 30139 30140 30141 30142 30143 30144 30145 30146 30147 30148 30149 30150 30151 30152 30153 30154 30155 30156 30157 30158 30159 30160 30161 30162 30163 30164 30165 30166 30167 30168 30169 30170 30171 30172 30173 30174 30175 30176 30177 30178 30179 30180 30181 30182 30183 30184 30185 30186 30187 30188 30189 30190 30191 30192 30193 30194 30195 30196 30197 30198 30199 30200 30201 30202 30203 30204 30205 30206 30207 30208 30209 30210 30211 30212 30213 30214 30215 30216 30217 30218 30219 30220 30221 30222 30223 30224 30225 30226 30227 30228 30229 30230 30231 30232 30233 30234 30235 30236 30237 30238 30239 30240 30241 30242 30243 30244 30245 30246 30247 30248 30249 30250 30251 30252 30253 30254 30255 30256 30257 30258 30259 30260 30261 30262 30263 30264 30265 30266 30267 30268 30269 30270 30271 30272 30273 30274 30275 30276 30277 30278 30279 30280 30281 30282 30283 30284 30285 30286 30287 30288 30289 30290 30291 30292 30293 30294 30295 30296 30297 30298 30299 30300 30301 30302 30303 30304 30305 30306 30307 30308 30309 30310 30311 30312 30313 30314 30315 30316 30317 30318 30319 30320 30321 30322 30323 30324 30325 30326 30327 30328 30329 30330 30331 30332 30333 30334 30335 30336 30337 30338 30339 30340 30341 30342 30343 30344 30345 30346 30347 30348 30349 30350 30351 30352 30353 30354 30355 30356 30357 30358 30359 30360 30361 30362 30363 30364 30365 30366 30367 30368 30369 30370 30371 30372 30373 30374 30375 30376 30377 30378 30379 30380 30381 30382 30383 30384 30385 30386 30387 30388 30389 30390 30391 30392 30393 30394 30395 30396 30397 30398 30399 30400 30401 30402 30403 30404 30405 30406 30407 30408 30409 30410 30411 30412 30413 30414 30415 30416 30417 30418 30419 30420 30421 30422 30423 30424 30425 30426 30427 30428 30429 30430 30431 30432 30433 30434 30435 30436 30437 30438 30439 30440 30441 30442 30443 30444 30445 30446 30447 30448 30449 30450 30451 30452 30453 30454 30455 30456 30457 30458 30459 30460 30461 30462 30463 30464 30465 30466 30467 30468 30469 30470 30471 30472 30473 30474 30475 30476 30477 30478 30479 30480 30481 30482 30483 30484 30485 30486 30487 30488 30489 30490 30491 30492 30493 30494 30495 30496 30497 30498 30499 30500 30501 30502 30503 30504 30505 30506 30507 30508 30509 30510 30511 30512 30513 30514 30515 30516 30517 30518 30519 30520 30521 30522 30523 30524 30525 30526 30527 30528 30529 30530 30531 30532 30533 30534 30535 30536 30537 30538 30539 30540 30541 30542 30543 30544 30545 30546 30547 30548 30549 30550 30551 30552 30553 30554 30555 30556 30557 30558 30559 30560 30561 30562 30563 30564 30565 30566 30567 30568 30569 30570 30571 30572 30573 30574 30575 30576 30577 30578 30579 30580 30581 30582 30583 30584 30585 30586 30587 30588 30589 30590 30591 30592 30593 30594 30595 30596 30597 30598 30599 30600 30601 30602 30603 30604 30605 30606 30607 30608 30609 30610 30611 30612 30613 30614 30615 30616 30617 30618 30619 30620 30621 30622 30623 30624 30625 30626 30627 30628 30629 30630 30631 30632 30633 30634 30635 30636 30637 30638 30639 30640 30641 30642 30643 30644 30645 30646 30647 30648 30649 30650 30651 30652 30653 30654 30655 30656 30657 30658 30659 30660 30661 30662 30663 30664 30665 30666 30667 30668 30669 30670 30671 30672 30673 30674 30675 30676 30677 30678 30679 30680 30681 30682 30683 30684 30685 30686 30687 30688 30689 30690 30691 30692 30693 30694 30695 30696 30697 30698 30699 30700 30701 30702 30703 30704 30705 30706 30707 30708 30709 30710 30711 30712 30713 30714 30715 30716 30717 30718 30719 30720 30721 30722 30723 30724 30725 30726 30727 30728 30729 30730 30731 30732 30733 30734 30735 30736 30737 30738 30739 30740 30741 30742 30743 30744 30745 30746 30747 30748 30749 30750 30751 30752 30753 30754 30755 30756 30757 30758 30759 30760 30761 30762 30763 30764 30765 30766 30767 30768 30769 30770 30771 30772 30773 30774 30775 30776 30777 30778 30779 30780 30781 30782 30783 30784 30785 30786 30787 30788 30789 30790 30791 30792 30793 30794 30795 30796 30797 30798 30799 30800 30801 30802 30803 30804 30805 30806 30807 30808 30809 30810 30811 30812 30813 30814 30815 30816 30817 30818 30819 30820 30821 30822 30823 30824 30825 30826 30827 30828 30829 30830 30831 30832 30833 30834 30835 30836 30837 30838 30839 30840 30841 30842 30843 30844 30845 30846 30847 30848 30849 30850 30851 30852 30853 30854 30855 30856 30857 30858 30859 30860 30861 30862 30863 30864 30865 30866 30867 30868 30869 30870 30871 30872 30873 30874 30875 30876 30877 30878 30879 30880 30881 30882 30883 30884 30885 30886 30887 30888 30889 30890 30891 30892 30893 30894 30895 30896 30897 30898 30899 30900 30901 30902 30903 30904 30905 30906 30907 30908 30909 30910 30911 30912 30913 30914 30915 30916 30917 30918 30919 30920 30921 30922 30923 30924 30925 30926 30927 30928 30929 30930 30931 30932 30933 30934 30935 30936 30937 30938 30939 30940 30941 30942 30943 30944 30945 30946 30947 30948 30949 30950 30951 30952 30953 30954 30955 30956 30957 30958 30959 30960 30961 30962 30963 30964 30965 30966 30967 30968 30969 30970 30971 30972 30973 30974 30975 30976 30977 30978 30979 30980 30981 30982 30983 30984 30985 30986 30987 30988 30989 30990 30991 30992 30993 30994 30995 30996 30997 30998 30999 31000 31001 31002 31003 31004 31005 31006 31007 31008 31009 31010 31011 31012 31013 31014 31015 31016 31017 31018 31019 31020 31021 31022 31023 31024 31025 31026 31027 31028 31029 31030 31031 31032 31033 31034 31035 31036 31037 31038 31039 31040 31041 31042 31043 31044 31045 31046 31047 31048 31049 31050 31051 31052 31053 31054 31055 31056 31057 31058 31059 31060 31061 31062 31063 31064 31065 31066 31067 31068 31069 31070 31071 31072 31073 31074 31075 31076 31077 31078 31079 31080 31081 31082 31083 31084 31085 31086 31087 31088 31089 31090 31091 31092 31093 31094 31095 31096 31097 31098 31099 31100 31101 31102 31103 31104 31105 31106 31107 31108 31109 31110 31111 31112 31113 31114 31115 31116 31117 31118 31119 31120 31121 31122 31123 31124 31125 31126 31127 31128 31129 31130 31131 31132 31133 31134 31135 31136 31137 31138 31139 31140 31141 31142 31143 31144 31145 31146 31147 31148 31149 31150 31151 31152 31153 31154 31155 31156 31157 31158 31159 31160 31161 31162 31163 31164 31165 31166 31167 31168 31169 31170 31171 31172 31173 31174 31175 31176 31177 31178 31179 31180 31181 31182 31183 31184 31185 31186 31187 31188 31189 31190 31191 31192 31193 31194 31195 31196 31197 31198 31199 31200 31201 31202 31203 31204 31205 31206 31207 31208 31209 31210 31211 31212 31213 31214 31215 31216 31217 31218 31219 31220 31221 31222 31223 31224 31225 31226 31227 31228 31229 31230 31231 31232 31233 31234 31235 31236 31237 31238 31239 31240 31241 31242 31243 31244 31245 31246 31247 31248 31249 31250 31251 31252 31253 31254 31255 31256 31257 31258 31259 31260 31261 31262 31263 31264 31265 31266 31267 31268 31269 31270 31271 31272 31273 31274 31275 31276 31277 31278 31279 31280 31281 31282 31283 31284 31285 31286 31287 31288 31289 31290 31291 31292 31293 31294 31295 31296 31297 31298 31299 31300 31301 31302 31303 31304 31305 31306 31307 31308 31309 31310 31311 31312 31313 31314 31315 31316 31317 31318 31319 31320 31321 31322 31323 31324 31325 31326 31327 31328 31329 31330 31331 31332 31333 31334 31335 31336 31337 31338 31339 31340 31341 31342 31343 31344 31345 31346 31347 31348 31349 31350 31351 31352 31353 31354 31355 31356 31357 31358 31359 31360 31361 31362 31363 31364 31365 31366 31367 31368 31369 31370 31371 31372 31373 31374 31375 31376 31377 31378 31379 31380 31381 31382 31383 31384 31385 31386 31387 31388 31389 31390 31391 31392 31393 31394 31395 31396 31397 31398 31399 31400 31401 31402 31403 31404 31405 31406 31407 31408 31409 31410 31411 31412 31413 31414 31415 31416 31417 31418 31419 31420 31421 31422 31423 31424 31425 31426 31427 31428 31429 31430 31431 31432 31433 31434 31435 31436 31437 31438 31439 31440 31441 31442 31443 31444 31445 31446 31447 31448 31449 31450 31451 31452 31453 31454 31455 31456 31457 31458 31459 31460 31461 31462 31463 31464 31465 31466 31467 31468 31469 31470 31471 31472 31473 31474 31475 31476 31477 31478 31479 31480 31481 31482 31483 31484 31485 31486 31487 31488 31489 31490 31491 31492 31493 31494 31495 31496 31497 31498 31499 31500 31501 31502 31503 31504 31505 31506 31507 31508 31509 31510 31511 31512 31513 31514 31515 31516 31517 31518 31519 31520 31521 31522 31523 31524 31525 31526 31527 31528 31529 31530 31531 31532 31533 31534 31535 31536 31537 31538 31539 31540 31541 31542 31543 31544 31545 31546 31547 31548 31549 31550 31551 31552 31553 31554 31555 31556 31557 31558 31559 31560 31561 31562 31563 31564 31565 31566 31567 31568 31569 31570 31571 31572 31573 31574 31575 31576 31577 31578 31579 31580 31581 31582 31583 31584 31585 31586 31587 31588 31589 31590 31591 31592 31593 31594 31595 31596 31597 31598 31599 31600 31601 31602 31603 31604 31605 31606 31607 31608 31609 31610 31611 31612 31613 31614 31615 31616 31617 31618 31619 31620 31621 31622 31623 31624 31625 31626 31627 31628 31629 31630 31631 31632 31633 31634 31635 31636 31637 31638 31639 31640 31641 31642 31643 31644 31645 31646 31647 31648 31649 31650 31651 31652 31653 31654 31655 31656 31657 31658 31659 31660 31661 31662 31663 31664 31665 31666 31667 31668 31669 31670 31671 31672 31673 31674 31675 31676 31677 31678 31679 31680 31681 31682 31683 31684 31685 31686 31687 31688 31689 31690 31691 31692 31693 31694 31695 31696 31697 31698 31699 31700 31701 31702 31703 31704 31705 31706 31707 31708 31709 31710 31711 31712 31713 31714 31715 31716 31717 31718 31719 31720 31721 31722 31723 31724 31725 31726 31727 31728 31729 31730 31731 31732 31733 31734 31735 31736 31737 31738 31739 31740 31741 31742 31743 31744 31745 31746 31747 31748 31749 31750 31751 31752 31753 31754 31755 31756 31757 31758 31759 31760 31761 31762 31763 31764 31765 31766 31767 31768 31769 31770 31771 31772 31773 31774 31775 31776 31777 31778 31779 31780 31781 31782 31783 31784 31785 31786 31787 31788 31789 31790 31791 31792 31793 31794 31795 31796 31797 31798 31799 31800 31801 31802 31803 31804 31805 31806 31807 31808 31809 31810 31811 31812 31813 31814 31815 31816 31817 31818 31819 31820 31821 31822 31823 31824 31825 31826 31827 31828 31829 31830 31831 31832 31833 31834 31835 31836 31837 31838 31839 31840 31841 31842 31843 31844 31845 31846 31847 31848 31849 31850 31851 31852 31853 31854 31855 31856 31857 31858 31859 31860 31861 31862 31863 31864 31865 31866 31867 31868 31869 31870 31871 31872 31873 31874 31875 31876 31877 31878 31879 31880 31881 31882 31883 31884 31885 31886 31887 31888 31889 31890 31891 31892 31893 31894 31895 31896 31897 
</DataArray>
<DataArray type="UInt32" Name="offsets" format="ascii">
3 6 9 12 15 17 20 23 26 29 32 35 38 40 43 46 49 52 54 57 60 62 65 68 71 74 76 79 82 85 88 90 93 96 99 102 105 108 111 114 117 120 123 126 129 131 134 137 139 142 145 148 151 154 156 159 162 165 168 171 174 177 179 182 185 188 191 193 196 199 202 205 208 211 214 217 220 222 225 228 230 233 236 238 241 244 247 250 252 255 258 261 264 267 270 273 275 277 279 282 285 287 290 293 296 299 302 304 307 310 313 316 319 322 325 328 331 334 337 340 343 345 348 351 354 356 359 362 365 368 371 374 376 379 382 385 388 391 394 397 400 403 406 409 412 415 418 421 424 427 430 433 436 439 442 445 448 451 453 456 459 462 464 467 470 472 475 478 481 484 487 490 493 496 499 502 505 507 510 513 516 519 522 525 528 531 533 536 539 542 545 548 551 554 557 559 562 565 568 571 574 577 580 583 586 588 591 594 597 600 603 606 609 612 615 618 621 624 627 630 633 636 639 642 645 648 651 654 657 659 662 665 668 670 673 675 678 680 683 686 688 691 694 697 699 702 704 707 709 712 714 716 719 721 724 727 729 732 734 737 740 743 745 748 750 752 755 758 760 763 766 769 771 774 776 778 780 783 785 788 791 794 796 799 801 803 805 808 811 813 815 818 821 824 827 829 832 834 837 840 842 845 848 851 853 856 858 860 862 865 868 871 873 876 878 880 882 884 887 890 893 895 897 900 903 905 907 909 912 914 917 920 923 926 928 931 934 937 940 943 946 949 951 954 957 960 963 966 969 971 973 976 979 982 984 987 990 993 995 998 1000 1003 1005 1007 1010 1013 1016 1019 1021 1024 1027 1029 1032 1035 1038 1041 1043 1046 1048 1051 1054 1057 1060 1063 1065 1067 1070 1073 1076 1079 1082 1085 1088 1091 1093 1096 1099 1102 1104 1107 1110 1112 1115 1117 1120 1123 1126 1129 1132 1135 1138 1141 1144 1147 1150 1152 1155 1157 1160 1162 1165 1168 1171 1173 1176 1178 1181 1183 1186 1189 1192 1195 1198 1201 1203 1206 1208 1211 1214 1217 1219 1222 1225 1228 1230 1233 1235 1237 1240 1243 1246 1249 1251 1254 1257 1260 1263 1265 1267 1270 1273 1275 1278 1280 1283 1285 1287 1290 1293 1296 1298 1301 1304 1307 1310 1312 1315 1318 1321 1324 1327 1330 1333 1336 1339 1342 1345 1347 1350 1353 1356 1359 1361 1364 1367 1370 1372 1375 1377 1379 1381 1384 1387 1390 1392 1394 1397 1399 1402 1405 1407 1410 1413 1416 1419 1421 1424 1427 1430 1433 1436 1439 1442 1445 1448 1451 1454 1456 1458 1461 1464 1466 1469 1472 1475 1477 1480 1483 1486 1489 1492 1495 1497 1500 1503 1506 1508 1511 1514 1517 1519 1522 1525 1528 1531 1534 1537 1540 1543 1546 1549 1552 1554 1557 1560 1563 1565 1568 1571 1574 1577 1580 1583 1586 1588 1591 1594 1597 1600 1603 1605 1608 1611 1614 1617 1620 1623 1626 1629 1632 1635 1638 1641 1644 1647 1650 1653 1656 1659 1662 1664 1667 1670 1673 1676 1678 1681 1684 1686 1689 1692 1695 1698 1701 1704 1707 1709 1712 1715 1718 1721 1724 1727 1730 1733 1735 1738 1740 1743 1746 1748 1751 1754 1757 1759 1762 1765 1767 1770 1773 1776 1778 1781 1783 1786 1789 1791 1794 1796 1799 1802 1805 1808 1811 1814 1817 1820 1823 1826 1829 1832 1835 1838 1841 1844 1847 1850 1853 1856 1859 1862 1864 1867 1869 1872 1874 1877 1880 1883 1886 1889 1892 1895 1898 1901 1904 1907 1910 1913 1916 1919 1921 1924 1927 1930 1933 1936 1939 1942 1945 1948 1950 1953 1956 1959 1962 1965 1968 1971 1974 1977 1980 1983 1986 1989 1992 1995 1998 2001 2004 2007 2010 2013 2016 2019 2022 2025 2028 2031 2034 2037 2039 2042 2045 2047 2050 2053 2056 2058 2060 2063 2065 2068 2071 2074 2077 2080 2082 2085 2088 2091 2094 2097 2099 2102 2105 2108 2111 2114 2117 2120 2123 2126 2129 2132 2135 2138 2141 2144 2147 2150 2153 2156 2159 2162 2165 2168 2171 2174 2177 2180 2183 2186 2189 2192 2195 2198 2201 2204 2207 2210 2213 2216 2219 2222 2225 2228 2231 2234 2237 2240 2243 2246 2248 2251 2254 2257 2260 2263 2266 2269 2272 2275 2278 2281 2284 2287 2290 2293 2295 2298 2301 2304 2307 2309 2312 2315 2318 2321 2324 2327 2330 2333 2336 2339 2342 2345 2348 2351 2354 2357 2360 2363 2366 2369 2372 2375 2378 2381 2384 2387 2390 2392 2395 2398 2400 2403 2405 2407 2409 2411 2414 2417 2419 2422 2425 2428 2431 2434 2437 2440 2443 2446 2449 2452 2455 2458 2461 2464 2467 2470 2472 2475 2478 2480 2483 2485 2488 2491 2494 2497 2499 2502 2504 2507 2510 2513 2516 2518 2521 2524 2527 2529 2532 2535 2538 2541 2544 2546 2549 2551 2554 2557 2559 2561 2564 2566 2569 2572 2575 2578 2581 2584 2587 2590 2593 2596 2599 2601 2604 2607 2610 2612 2615 2618 2621 2623 2626 2629 2631 2633 2635 2638 2641 2644 2647 2650 2653 2656 2659 2662 2665 2668 2670 2673 2676 2679 2682 2685 2688 2691 2694 2696 2698 2700 2703 2706 2709 2712 2715 2718 2721 2724 2726 2728 2731 2734 2737 2739 2742 2745 2747 2750 2753 2756 2759 2762 2765 2768 2771 2774 2777 2780 2782 2785 2788 2791 2794 2797 2800 2803 2806 2808 2811 2814 2817 2820 2823 2826 2829 2832 2835 2838 2840 2843 2845 2847 2849 2852 2855 2858 2861 2864 2867 2870 2872 2874 2877 2879 2882 2885 2888 2891 2894 2896 2899 2901 2903 2906 2909 2912 2914 2917 2919 2922 2925 2928 2931 2933 2936 2939 2942 2945 2948 2951 2954 2957 2960 2963 2966 2969 2972 2975 2978 2981 2984 2986 2989 2992 2995 2997 3000 3003 3006 3009 3012 3014 3017 3020 3023 3026 3029 3032 3034 3037 3039 3042 3045 3048 3051 3054 3057 3060 3063 3065 3068 3071 3074 3076 3079 3082 3085 3088 3091 3094 3097 3100 3103 3106 3109 3112 3115 3118 3121 3124 3127 3130 3133 3136 3139 3142 3145 3148 3151 3153 3155 3157 3160 3163 3166 3169 3171 3174 3177 3180 3183 3185 3188 3191 3194 3197 3200 3203 3206 3208 3211 3214 3217 3220 3223 3226 3229 3232 3234 3237 3240 3243 3246 3249 3252 3255 3258 3261 3264 3267 3270 3272 3275 3278 3281 3284 3287 3290 3292 3295 3298 3301 3304 3307 3310 3313 3316 3318 3321 3324 3327 3329 3332 3335 3338 3341 3344 3347 3350 3353 3356 3359 3362 3365 3367 3370 3373 3376 3379 3382 3385 3388 3391 3394 3397 3400 3403 3406 3409 3412 3415 3418 3421 3424 3427 3430 3433 3436 3439 3442 3445 3448 3451 3454 3457 3460 3463 3466 3469 3472 3475 3478 3481 3484 3487 3490 3493 3496 3499 3502 3505 3508 3510 3513 3516 3519 3522 3525 3528 3531 3534 3537 3540 3543 3546 3549 3552 3555 3558 3561 3564 3567 3570 3573 3576 3579 3582 3584 3587 3590 3593 3596 3599 3602 3605 3608 3611 3614 3616 3619 3622 3624 3627 3630 3633 3636 3639 3642 3645 3648 3651 3653 3656 3658 3661 3664 3667 3670 3672 3675 3678 3680 3683 3685 3688 3691 3694 3697 3700 3702 3705 3708 3711 3714 3717 3720 3723 3726 3728 3731 3734 3737 3740 3743 3746 3749 3752 3755 3758 3761 3764 3767 3770 3772 3775 3777 3779 3782 3785 3788 3791 3794 3796 3799 3802 3805 3808 3811 3814 3817 3820 3823 3826 3829 3832 3835 3838 3841 3843 3846 3849 3852 3855 3858 3861 3864 3867 3870 3873 3876 3879 3882 3885 3888 3891 3893 3896 3899 3902 3905 3908 3910 3912 3915 3918 3920 3923 3926 3929 3932 3935 3938 3941 3944 3947 3950 3952 3955 3958 3961 3964 3967 3970 3973 3976 3979 3981 3984 3986 3989 3992 3995 3998 4001 4003 4006 4009 4012 4015 4017 4020 4023 4026 4028 4031 4034 4037 4039 4042 4045 4047 4050 4053 4056 4059 4062 4065 4068 4071 4074 4077 4080 4083 4086 4089 4092 4095 4097 4100 4103 4106 4109 4112 4115 4118 4120 4123 4126 4129 4132 4135 4138 4141 4144 4147 4150 4153 4156 4159 4162 4165 4168 4171 4174 4177 4180 4183 4186 4189 4192 4195 4198 4201 4203 4206 4209 4212 4215 4217 4220 4223 4226 4228 4231 4234 4237 4240 4243 4246 4249 4252 4255 4257 4260 4262 4265 4268 4271 4274 4277 4280 4283 4286 4289 4292 4295 4298 4301 4304 4307 4310 4313 4316 4318 4320 4323 4326 4329 4331 4334 4337 4339 4342 4345 4347 4350 4353 4356 4358 4361 4364 4366 4369 4372 4375 4378 4381 4384 4387 4390 4393 4396 4399 4402 4405 4408 4411 4414 4417 4420 4423 4426 4428 4431 4433 4436 4439 4442 4445 4448 4451 4454 4457 4460 4463 4466 4468 4471 4473 4476 4479 4482 4484 4487 4490 4493 4496 4499 4501 4504 4507 4510 4513 4516 4519 4521 4524 4527 4530 4533 4536 4539 4542 4545 4548 4551 4554 4556 4559 4562 4565 4568 4571 4574 4577 4580 4582 4585 4588 4591 4593 4596 4599 4601 4604 4607 4610 4613 4616 4618 4621 4624 4627 4630 4633 4636 4639 4642 4645 4647 4650 4653 4655 4658 4660 4663 4665 4667 4669 4672 4674 4677 4680 4683 4686 4689 4692 4694 4697 4700 4703 4706 4709 4712 4714 4717 4720 4723 4726 4729 4732 4735 4737 4740 4743 4746 4749 4751 4754 4757 4760 4763 4766 4768 4771 4773 4776 4779 4782 4785 4788 4791 4794 4797 4800 4803 4805 4808 4811 4814 4817 4820 4823 4826 4828 4831 4834 4837 4840 4843 4846 4849 4851 4854 4856 4859 4862 4865 4868 4871 4874 4877 4880 4882 4885 4888 4891 4893 4895 4898 4901 4904 4907 4910 4912 4914 4917 4919 4922 4925 4927 4930 4933 4935 4938 4941 4944 4947 4950 4953 4956 4959 4961 4964 4967 4970 4973 4976 4978 4981 4984 4987 4990 4992 4995 4998 5000 5003 5006 5009 5012 5015 5018 5021 5024 5027 5030 5033 5036 5039 5042 5045 5048 5051 5054 5057 5060 5063 5066 5069 5072 5075 5078 5081 5084 5087 5090 5093 5096 5099 5102 5105 5108 5111 5114 5117 5120 5123 5125 5128 5131 5133 5136 5139 5142 5145 5148 5150 5153 5156 5159 5162 5164 5167 5170 5173 5176 5179 5182 5185 5188 5191 5194 5197 5200 5203 5206 5209 5212 5215 5218 5221 5224 5227 5230 5233 5236 5238 5241 5244 5247 5249 5252 5255 5258 5261 5264 5267 5269 5272 5275 5278 5281 5284 5287 5290 5293 5296 5299 5302 5304 5307 5309 5311 5314 5317 5319 5322 5325 5328 5331 5334 5337 5340 5343 5346 5349 5352 5354 5357 5360 5362 5365 5368 5371 5374 5377 5380 5383 5386 5389 5392 5395 5398 5401 5404 5407 5409 5412 5415 5418 5421 5424 5427 5430 5432 5435 5437 5440 5443 5446 5449 5451 5454 5456 5459 5462 5465 5468 5471 5474 5477 5480 5483 5485 5488 5491 5494 5497 5500 5503 5506 5509 5512 5515 5518 5521 5524 5527 5530 5533 5536 5538 5541 5544 5547 5550 5553 5556 5559 5562 5565 5568 5571 5574 5577 5580 5583 5586 5589 5592 5595 5598 5601 5604 5607 5610 5613 5615 5617 5620 5623 5626 5629 5632 5635 5638 5641 5644 5647 5650 5652 5655 5658 5661 5664 5666 5669 5672 5675 5678 5680 5683 5686 5689 5692 5695 5698 5701 5704 5706 5709 5712 5715 5718 5721 5724 5727 5730 5733 5735 5738 5741 5744 5747 5750 5753 5756 5759 5762 5765 5768 5771 5774 5777 5780 5783 5786 5789 5792 5795 5797 5800 5803 5806 5809 5812 5815 5818 5821 5824 5827 5830 5833 5836 5839 5841 5844 5846 5849 5852 5855 5858 5861 5864 5867 5870 5872 5875 5878 5880 5883 5886 5889 5892 5895 5898 5901 5904 5907 5910 5913 5916 5919 5922 5925 5928 5931 5934 5937 5940 5943 5946 5949 5952 5955 5958 5961 5964 5967 5970 5973 5976 5979 5982 5985 5988 5990 5993 5996 5998 6001 6004 6007 6010 6012 6015 6017 6020 6023 6025 6028 6030 6033 6036 6039 6042 6045 6047 6050 6053 6056 6059 6062 6065 6068 6071 6074 6077 6080 6083 6085 6088 6091 6094 6096 6099 6102 6105 6108 6111 6114 6117 6120 6123 6125 6128 6131 6134 6137 6139 6141 6144 6147 6150 6153 6156 6159 6162 6165 6167 6170 6173 6176 6179 6182 6184 6187 6190 6193 6195 6198 6201 6204 6206 6209 6212 6215 6218 6220 6223 6226 6229 6232 6235 6238 6241 6244 6247 6250 6253 6256 6259 6262 6264 6267 6270 6273 6276 6279 6282 6284 6287 6289 6291 6294 6296 6299 6301 6304 6307 6310 6313 6315 6318 6321 6324 6327 6329 6332 6335 6338 6341 6344 6347 6350 6353 6356 6358 6361 6364 6367 6370 6373 6376 6379 6382 6385 6388 6391 6394 6397 6400 6402 6405 6408 6411 6413 6416 6419 6422 6424 6427 6429 6432 6435 6438 6441 6444 6447 6450 6453 6456 6459 6462 6465 6468 6471 6474 6477 6479 6482 6485 6488 6491 6494 6497 6499 6502 6505 6508 6511 6514 6517 6520 6523 6526 6529 6532 6535 6538 6541 6544 6547 6550 6553 6555 6558 6561 6564 6567 6570 6573 6576 6579 6582 6585 6588 6591 6594 6597 6600 6603 6606 6609 6612 6615 6618 6621 6624 6627 6630 6633 6636 6639 6642 6645 6648 6651 6654 6657 6659 6662 6665 6668 6671 6673 6676 6679 6682 6685 6688 6691 6694 6696 6699 6702 6705 6708 6711 6714 6717 6720 6723 6725 6728 6731 6733 6736 6739 6742 6745 6748 6750 6753 6756 6759 6761 6764 6767 6769 6772 6775 6778 6781 6784 6787 6790 6793 6796 6799 6802 6805 6808 6811 6814 6817 6820 6823 6826 6829 6831 6834 6837 6840 6843 6846 6849 6852 6855 6858 6861 6863 6865 6868 6870 6873 6876 6879 6882 6885 6887 6890 6893 6896 6899 6901 6904 6907 6910 6913 6916 6918 6921 6923 6926 6929 6931 6934 6937 6940 6943 6946 6949 6952 6955 6957 6960 6963 6966 6969 6972 6975 6977 6980 6983 6986 6989 6992 6995 6997 7000 7003 7006 7009 7011 7014 7017 7019 7022 7024 7027 7030 7032 7035 7038 7041 7044 7047 7050 7052 7055 7058 7061 7064 7066 7069 7072 7075 7078 7081 7084 7087 7090 7092 7094 7097 7100 7103 7106 7109 7112 7115 7118 7120 7123 7126 7129 7132 7135 7138 7140 7143 7146 7149 7152 7155 7158 7161 7163 7166 7169 7172 7174 7177 7180 7183 7186 7189 7192 7195 7198 7201 7204 7207 7210 7212 7215 7218 7221 7224 7226 7229 7232 7234 7237 7240 7243 7246 7248 7251 7254 7257 7259 7261 7264 7267 7270 7272 7275 7278 7281 7283 7286 7289 7292 7295 7298 7301 7304 7307 7310 7312 7315 7318 7321 7323 7326 7329 7332 7335 7338 7341 7344 7347 7350 7353 7356 7359 7361 7364 7366 7369 7372 7374 7377 7380 7382 7385 7388 7391 7394 7397 7400 7403 7405 7408 7411 7414 7417 7420 7422 7425 7427 7430 7433 7436 7438 7440 7443 7445 7447 7450 7452 7455 7458 7461 7464 7467 7470 7472 7475 7477 7480 7483 7486 7489 7492 7495 7498 7501 7504 7507 7510 7513 7516 7518 7521 7524 7526 7529 7531 7534 7537 7539 7542 7545 7548 7550 7552 7555 7558 7560 7563 7566 7569 7572 7575 7578 7581 7584 7587 7590 7593 7596 7599 7602 7605 7608 7611 7614 7617 7620 7623 7626 7629 7631 7633 7636 7638 7641 7643 7646 7649 7651 7653 7656 7659 7661 7664 7667 7669 7672 7675 7677 7680 7682 7685 7688 7691 7694 7696 7699 7702 7705 7708 7710 7713 7715 7717 7720 7722 7725 7728 7730 7732 7735 7738 7741 7743 7746 7749 7752 7755 7757 7759 7762 7765 7768 7771 7774 7776 7779 7782 7785 7788 7791 7794 7797 7800 7803 7806 7809 7811 7814 7816 7819 7821 7824 7827 7829 7832 7834 7837 7840 7843 7846 7849 7852 7855 7858 7860 7863 7866 7868 7871 7874 7877 7880 7882 7885 7888 7891 7894 7897 7900 7903 7906 7909 7912 7915 7918 7920 7923 7926 7929 7932 7935 7938 7941 7944 7947 7950 7953 7955 7958 7961 7964 7967 7970 7973 7975 7978 7980 7983 7986 7988 7991 7994 7997 8000 8003 8006 8009 8012 8015 8018 8021 8024 8027 8030 8033 8036 8039 8041 8043 8046 8049 8052 8054 8057 8060 8062 8065 8068 8071 8074 8077 8080 8083 8086 8089 8092 8095 8098 8101 8104 8107 8110 8113 8116 8119 8122 8125 8128 8131 8134 8137 8139 8141 8144 8147 8150 8153 8156 8159 8162 8165 8168 8171 8174 8176 8179 8182 8185 8188 8191 8194 8197 8200 8203 8206 8209 8212 8215 8218 8221 8224 8227 8230 8233 8236 8239 8242 8245 8248 8251 8254 8257 8260 8263 8266 8269 8272 8275 8277 8280 8283 8286 8289 8292 8294 8297 8300 8302 8305 8308 8310 8312 8315 8318 8321 8324 8327 8330 8333 8336 8339 8342 8345 8348 8351 8353 8356 8359 8361 8364 8367 8370 8373 8376 8379 8381 8384 8387 8389 8392 8395 8398 8401 8404 8407 8410 8413 8416 8419 8422 8425 8428 8430 8433 8436 8439 8442 8445 8448 8451 8453 8456 8459 8462 8465 8468 8471 8474 8477 8480 8483 8486 8489 8491 8494 8497 8499 8502 8505 8508 8511 8514 8517 8520 8523 8526 8529 8532 8535 8538 8541 8544 8547 8550 8553 8556 8559 8561 8564 8567 8569 8572 8574 8577 8580 8583 8585 8588 8591 8593 8596 8598 8601 8604 8607 8609 8612 8615 8618 8621 8623 8626 8629 8632 8635 8638 8641 8644 8646 8649 8652 8655 8657 8660 8663 8666 8669 8672 8675 8678 8681 8684 8687 8690 8693 8695 8698 8701 8704 8707 8710 8713 8716 8719 8721 8724 8727 8730 8733 8736 8739 8742 8745 8748 8751 8754 8756 8759 8762 8765 8768 8771 8774 8777 8780 8783 8786 8789 8792 8795 8798 8801 8804 8807 8810 8813 8815 8817 8820 8823 8826 8828 8831 8834 8837 8840 8843 8846 8849 8852 8855 8858 8861 8864 8866 8869 8872 8875 8878 8881 8884 8887 8890 8893 8895 8898 8901 8904 8907 8910 8913 8916 8919 8922 8925 8928 8931 8934 8937 8940 8943 8945 8948 8950 8953 8956 8959 8962 8965 8967 8970 8973 8976 8979 8981 8984 8987 8990 8992 8995 8998 9001 9003 9006 9009 9012 9015 9018 9021 9024 9027 9030 9032 9035 9038 9041 9043 9046 9049 9051 9054 9057 9060 9063 9066 9069 9071 9074 9077 9080 9083 9086 9089 9092 9095 9097 9100 9103 9106 9108 9111 9114 9117 9120 9123 9126 9129 9132 9135 9138 9141 9144 9147 9150 9153 9156 9159 9162 9165 9168 9171 9174 9177 9180 9183 9186 9189 9191 9194 9197 9200 9203 9206 9209 9212 9214 9217 9220 9223 9226 9229 9232 9235 9238 9241 9244 9247 9250 9253 9256 9259 9262 9265 9268 9271 9274 9277 9280 9283 9286 9289 9291 9294 9296 9299 9302 9305 9308 9311 9314 9316 9319 9322 9325 9327 9330 9333 9335 9338 9341 9344 9347 9350 9353 9356 9359 9362 9365 9368 9371 9373 9376 9379 9382 9385 9388 9390 9393 9396 9399 9402 9405 9408 9411 9414 9417 9420 9423 9426 9429 9431 9434 9437 9440 9442 9445 9448 9451 9454 9457 9460 9463 9466 9469 9472 9475 9478 9480 9482 9485 9488 9491 9494 9496 9499 9502 9505 9508 9511 9514 9517 9520 9523 9525 9527 9530 9533 9536 9539 9542 9544 9547 9550 9553 9556 9559 9561 9564 9567 9570 9573 9576 9578 9581 9583 9586 9589 9592 9595 9597 9600 9602 9605 9607 9609 9612 9615 9618 9621 9624 9627 9630 9632 9634 9637 9640 9643 9646 9649 9652 9654 9656 9658 9661 9663 9665 9668 9671 9674 9676 9679 9682 9685 9688 9691 9693 9695 9697 9700 9702 9705 9708 9711 9713 9716 9718 9720 9723 9726 9729 9732 9735 9738 9741 9743 9745 9748 9751 9753 9755 9757 9760 9763 9766 9769 9772 9775 9778 9781 9784 9787 9790 9793 9796 9799 9802 9805 9808 9811 9814 9817 9820 9823 9826 9829 9832 9835 9838 9841 9844 9847 9850 9853 9856 9859 9862 9865 9868 9871 9874 9877 9879 9882 9885 9888 9891 9894 9897 9900 9903 9906 9909 9911 9914 9917 9920 9923 9926 9929 9931 9934 9937 9939 9942 9945 9948 9951 9954 9957 9960 9963 9966 9969 9972 9975 9978 9980 9983 9985 9988 9991 9994 9997 9999 10002 10005 10008 10010 10013 10016 10018 10021 10024 10027 10029 10032 10035 10037 10040 10043 10046 10049 10052 10054 10057 10060 10063 10066 10069 10072 10075 10077 10080 10083 10086 10089 10092 10095 10098 10100 10103 10106 10108 10111 10114 10117 10120 10122 10125 10127 10130 10133 10136 10139 10142 10144 10147 10150 10153 10156 10158 10161 10164 10167 10170 10173 10176 10178 10180 10183 10186 10189 10192 10195 10197 10200 10203 10205 10208 10211 10214 10217 10220 10223 10226 10229 10232 10235 10237 10240 10243 10246 10249 10252 10255 10258 10261 10264 10267 10270 10273 10276 10279 10282 10285 10288 10291 10293 10296 10299 10302 10305 10308 10311 10313 10316 10319 10322 10325 10328 10331 10334 10336 10338 10341 10344 10347 10350 10352 10355 10358 10361 10364 10367 10370 10373 10375 10378 10381 10383 10386 10388 10390 10392 10395 10398 10401 10404 10407 10410 10412 10415 10418 10421 10424 10427 10429 10432 10435 10438 10441 10443 10446 10449 10452 10454 10457 10460 10463 10465 10468 10471 10474 10477 10480 10483 10486 10489 10492 10495 10498 10501 10504 10507 10510 10513 10516 10519 10522 10525 10528 10531 10534 10537 10540 10542 10545 10548 10551 10554 10557 10560 10563 10565 10568 10570 10573 10576 10579 10582 10585 10588 10590 10593 10596 10598 10601 10604 10607 10609 10612 10615 10617 10620 10623 10626 10629 10632 10634 10637 10640 10643 10645 10647 10650 10653 10656 10659 10662 10665 10668 10671 10674 10677 10680 10683 10685 10688 10691 10694 10697 10700 10703 10706 10709 10712 10714 10717 10720 10723 10726 10729 10731 10733 10736 10739 10742 10745 10748 10751 10754 10757 10760 10762 10765 10768 10771 10774 10777 10780 10783 10786 10788 10791 10794 10797 10800 10803 10806 10809 10812 10815 10818 10821 10824 10827 10830 10833 10836 10839 10842 10844 10847 10850 10853 10856 10858 10861 10863 10866 10868 10871 10874 10877 10880 10883 10886 10889 10892 10895 10898 10901 10904 10907 10910 10913 10916 10919 10921 10924 10927 10930 10933 10936 10938 10941 10944 10947 10949 10951 10954 10957 10960 10963 10966 10968 10971 10974 10977 10980 10982 10985 10988 10991 10994 10997 11000 11003 11006 11008 11011 11014 11017 11020 11023 11026 11029 11031 11034 11037 11040 11043 11046 11049 11052 11055 11058 11060 11063 11066 11069 11072 11075 11078 11081 11084 11087 11090 11093 11096 11099 11102 11105 11108 11111 11114 11116 11119 11122 11125 11128 11131 11134 11137 11140 11143 11146 11149 11152 11155 11157 11160 11163 11166 11169 11172 11175 11177 11180 11183 11185 11188 11191 11193 11196 11199 11202 11205 11208 11211 11214 11217 11220 11223 11226 11229 11232 11235 11238 11241 11244 11247 11250 11253 11256 11259 11262 11265 11268 11271 11273 11276 11278 11281 11283 11285 11288 11291 11294 11296 11299 11302 11305 11308 11311 11314 11317 11320 11323 11325 11327 11330 11332 11335 11338 11341 11344 11347 11350 11353 11356 11359 11362 11365 11368 11371 11374 11376 11379 11381 11383 11386 11388 11391 11394 11397 11400 11403 11406 11409 11412 11415 11417 11419 11422 11425 11428 11431 11434 11437 11440 11443 11446 11449 11452 11455 11458 11461 11464 11467 11470 11473 11476 11479 11482 11485 11487 11490 11493 11496 11499 11502 11504 11507 11510 11513 11516 11519 11521 11524 11527 11530 11532 11535 11538 11541 11544 11547 11550 11553 11556 11559 11561 11564 11567 11570 11573 11575 11578 11581 11584 11587 11590 11593 11595 11598 11601 11604 11607 11610 11613 11616 11618 11621 11624 11627 11630 11632 11635 11638 11641 11644 11647 11650 11653 11656 11659 11662 11664 11667 11670 11673 11676 11678 11681 11684 11687 11689 11692 11695 11698 11701 11704 11706 11709 11712 11715 11718 11721 11724 11727 11730 11733 11736 11739 11742 11745 11748 11750 11752 11755 11758 11760 11763 11766 11769 11772 11775 11778 11781 11783 11786 11789 11792 11795 11798 11801 11803 11806 11809 11812 11815 11818 11821 11824 11827 11830 11833 11836 11839 11842 11845 11848 11851 11854 11857 11860 11863 11866 11869 11872 11874 11877 11880 11883 11886 11889 11892 11895 11898 11900 11903 11906 11909 11912 11914 11917 11920 11923 11926 11929 11931 11934 11936 11939 11941 11944 11947 11950 11953 11956 11959 11962 11964 11967 11970 11973 11975 11978 11981 11984 11987 11990 11992 11995 11998 12001 12004 12007 12009 12012 12014 12017 12020 12022 12025 12027 12030 12033 12036 12039 12042 12044 12047 12050 12053 12055 12058 12061 12064 12067 12070 12073 12076 12079 12082 12085 12087 12090 12093 12096 12099 12102 12105 12108 12111 12114 12117 12120 12123 12126 12129 12132 12135 12138 12141 12144 12147 12150 12153 12155 12158 12161 12164 12167 12170 12173 12176 12179 12182 12185 12188 12191 12194 12197 12200 12203 12206 12209 12211 12214 12217 12220 12222 12225 12228 12231 12234 12237 12240 12242 12245 12248 12251 12253 12255 12258 12260 12263 12265 12267 12270 12272 12275 12278 12280 12283 12286 12288 12290 12293 12296 12299 12302 12305 12308 12311 12314 12316 12319 12321 12324 12327 12330 12333 12336 12339 12342 12345 12348 12351 12354 12357 12360 12363 12366 12369 12372 12375 12378 12381 12384 12387 12389 12392 12395 12398 12401 12404 12407 12410 12413 12415 12418 12421 12423 12426 12429 12431 12433 12436 12439 12441 12444 12447 12450 12453 12456 12459 12462 12465 12468 12471 12474 12477 12480 12483 12486 12489 12492 12495 12498 12501 12504 12507 12510 12513 12516 12519 12522 12525 12528 12531 12534 12537 12540 12543 12546 12549 12552 12555 12558 12560 12563 12565 12568 12571 12574 12577 12580 12583 12586 12589 12592 12595 12598 12601 12604 12607 12610 12613 12616 12619 12622 12625 12628 12631 12634 12637 12640 12643 12646 12649 12652 12655 12658 12661 12664 12667 12670 12673 12676 12679 12682 12685 12687 12690 12693 12695 12698 12701 12704 12707 12710 12712 12715 12717 12720 12723 12725 12728 12731 12734 12737 12740 12743 12745 12748 12751 12754 12757 12760 12763 12766 12769 12772 12775 12778 12780 12783 12786 12788 12790 12793 12795 12798 12801 12803 12806 12809 12812 12815 12817 12820 12823 12826 12829 12832 12835 12838 12841 12844 12846 12849 12851 12854 12857 12860 12863 12866 12869 12872 12874 12877 12879 12882 12885 12888 12891 12894 12897 12900 12903 12906 12908 12911 12913 12916 12919 12922 12925 12928 12931 12934 12937 12940 12943 12945 12948 12951 12954 12956 12959 12962 12964 12967 12970 12972 12975 12978 12981 12984 12986 12989 12992 12995 12997 13000 13003 13006 13009 13012 13015 13018 13021 13024 13027 13030 13033 13036 13039 13041 13044 13047 13050 13053 13056 13059 13061 13064 13066 13069 13071 13074 13077 13080 13082 13085 13088 13091 13094 13097 13100 13103 13106 13108 13111 13114 13117 13120 13123 13125 13128 13131 13133 13136 13139 13142 13145 13148 13151 13154 13157 13160 13162 13165 13168 13171 13173 13176 13179 13182 13185 13188 13191 13193 13196 13199 13202 13205 13208 13211 13214 13217 13220 13223 13226 13229 13232 13235 13238 13241 13244 13247 13250 13253 13256 13259 13262 13265 13268 13271 13274 13277 13280 13283 13286 13288 13291 13294 13297 13300 13303 13305 13308 13311 13313 13315 13318 13321 13324 13327 13329 13332 13335 13338 13341 13344 13346 13349 13352 13355 13358 13361 13364 13367 13370 13373 13376 13379 13382 13385 13388 13391 13394 13396 13399 13402 13405 13408 13411 13414 13417 13420 13422 13424 13427 13430 13433 13436 13439 13442 13444 13447 13450 13453 13456 13458 13461 13464 13467 13470 13473 13476 13479 13482 13485 13488 13491 13494 13497 13500 13503 13506 13509 13512 13515 13518 13521 13524 13527 13530 13532 13535 13538 13540 13543 13546 13549 13552 13555 13558 13561 13564 13567 13570 13573 13576 13579 13582 13585 13588 13591 13594 13597 13600 13603 13606 13609 13612 13615 13618 13621 13623 13626 13628 13631 13634 13637 13640 13643 13645 13648 13651 13654 13657 13660 13663 13666 13669 13672 13675 13678 13681 13684 13687 13690 13693 13696 13699 13702 13705 13707 13709 13712 13714 13717 13720 13723 13726 13729 13732 13735 13738 13741 13744 13747 13750 13753 13756 13759 13762 13764 13767 13770 13773 13775 13778 13781 13784 13787 13790 13793 13796 13799 13802 13805 13808 13811 13814 13816 13819 13822 13825 13828 13831 13834 13837 13840 13843 13846 13849 13852 13855 13858 13861 13864 13867 13870 13873 13876 13879 13882 13884 13887 13890 13893 13896 13899 13902 13905 13908 13911 13914 13917 13920 13923 13925 13928 13930 13933 13936 13938 13940 13943 13946 13949 13952 13955 13958 13961 13964 13967 13970 13973 13976 13979 13982 13985 13988 13991 13994 13997 14000 14002 14005 14008 14010 14013 14016 14019 14021 14024 14027 14030 14033 14036 14039 14041 14044 14047 14050 14052 14055 14058 14061 14064 14067 14070 14073 14076 14078 14081 14084 14086 14089 14092 14094 14097 14099 14102 14105 14108 14111 14113 14115 14118 14121 14123 14125 14128 14131 14133 14136 14139 14142 14145 14147 14150 14153 14155 14157 14160 14162 14165 14168 14171 14174 14177 14180 14183 14186 14189 14192 14195 14198 14201 14204 14207 14210 14213 14216 14219 14222 14224 14227 14230 14233 14236 14238 14241 14244 14247 14250 14252 14254 14257 14260 14263 14266 14269 14272 14275 14278 14281 14284 14287 14290 14292 14295 14298 14301 14303 14306 14309 14312 14315 14318 14321 14324 14326 14329 14332 14335 14337 14340 14343 14345 14347 14350 14353 14356 14358 14361 14364 14367 14369 14372 14375 14378 14381 14384 14387 14390 14393 14396 14399 14402 14405 14408 14411 14414 14417 14420 14423 14425 14428 14431 14434 14437 14440 14443 14446 14449 14452 14455 14458 14461 14464 14467 14470 14473 14476 14479 14481 14483 14486 14489 14492 14495 14498 14500 14502 14505 14507 14510 14513 14516 14519 14522 14525 14528 14531 14534 14536 14539 14542 14545 14547 14550 14553 14556 14559 14562 14565 14568 14571 14574 14577 14580 14583 14586 14589 14591 14594 14597 14600 14603 14606 14609 14612 14614 14617 14620 14622 14625 14628 14631 14634 14637 14640 14642 14645 14648 14651 14654 14656 14659 14662 14665 14668 14671 14674 14676 14679 14682 14685 14688 14691 14694 14697 14700 14702 14704 14707 14710 14713 14715 14717 14720 14723 14726 14729 14732 14734 14737 14740 14743 14746 14749 14752 14754 14757 14760 14763 14766 14768 14771 14774 14777 14780 14783 14785 14788 14791 14794 14797 14799 14802 14805 14808 14811 14814 14817 14820 14823 14826 14829 14832 14835 14838 14841 14844 14847 14850 14853 14856 14859 14862 14865 14868 14871 14874 14876 14879 14882 14885 14888 14890 14893 14895 14898 14900 14903 14906 14908 14911 14914 14916 14919 14922 14924 14927 14930 14933 14936 14939 14942 14944 14947 14950 14952 14955 14957 14959 14961 14964 14967 14969 14972 14974 14976 14979 14982 14985 14987 14990 14992 14995 14998 15001 15004 15007 15010 15012 15015 15018 15021 15023 15026 15029 15032 15035 15038 15041 15044 15046 15049 15052 15055 15057 15060 15062 15064 15067 15070 15073 15076 15079 15082 15085 15087 15090 15093 15096 15099 15102 15105 15108 15111 15113 15115 15118 15121 15124 15127 15129 15132 15135 15137 15140 15143 15146 15148 15151 15154 15157 15159 15161 15164 15167 15170 15173 15175 15178 15181 15184 15187 15190 15192 15194 15197 15200 15203 15206 15209 15212 15215 15218 15221 15224 15227 15230 15233 15236 15239 15242 15245 15248 15251 15254 15257 15260 15263 15266 15269 15272 15275 15278 15281 15284 15287 15289 15292 15295 15298 15300 15303 15306 15309 15312 15315 15318 15321 15324 15327 15330 15333 15336 15339 15342 15345 15347 15350 15352 15354 15357 15360 15362 15365 15368 15371 15374 15377 15380 15383 15386 15389 15392 15395 15398 15401 15404 15407 15410 15413 15416 15419 15422 15425 15428 15431 15433 15436 15439 15441 15443 15446 15449 15452 15455 15458 15461 15464 15466 15469 15472 15475 15477 15480 15483 15486 15489 15491 15493 15496 15499 15502 15505 15508 15511 15514 15516 15519 15522 15525 15528 15530 15533 15536 15539 15542 15544 15547 15550 15553 15556 15559 15562 15565 15568 15571 15574 15577 15580 15583 15586 15589 15592 15595 15598 15601 15603 15606 15609 15612 15615 15618 15621 15624 15627 15630 15633 15636 15639 15642 15645 15648 15651 15653 15656 15659 15662 15664 15667 15670 15673 15676 15679 15682 15685 15688 15691 15693 15696 15699 15702 15705 15708 15711 15714 15717 15720 15723 15726 15729 15732 15735 15738 15741 15744 15747 15750 15753 15756 15758 15761 15764 15767 15770 15773 15776 15779 15782 15785 15788 15791 15794 15797 15800 15803 15806 15809 15811 15814 15817 15820 15823 15826 15828 15831 15834 15837 15840 15843 15846 15849 15852 15855 15858 15861 15864 15867 15870 15873 15876 15879 15882 15885 15888 15891 15894 15897 15900 15903 15906 15909 15911 15914 15917 15919 15922 15925 15928 15930 15933 15936 15939 15942 15945 15948 15951 15954 15957 15960 15963 15966 15969 15972 15975 15977 15980 15982 15985 15988 15991 15994 15997 16000 16003 16006 16009 16011 16014 16017 16020 16023 16026 16029 16032 16035 16038 16040 16042 16045 16048 16051 16054 16057 16060 16063 16066 16069 16072 16075 16078 16081 16084 16087 16090 16093 16096 16099 16102 16105 16108 16111 16114 16117 16120 16123 16126 16129 16132 16135 16138 16141 16144 16147 16150 16153 16156 16159 16162 16165 16168 16171 16174 16177 16180 16183 16186 16189 16192 16195 16198 16201 16204 16207 16210 16213 16216 16219 16222 16225 16228 16231 16234 16237 16240 16243 16246 16249 16252 16255 16257 16260 16263 16266 16269 16272 16275 16277 16280 16283 16286 16289 16292 16295 16298 16301 16304 16306 16309 16311 16314 16317 16320 16323 16326 16329 16332 16335 16338 16341 16344 16347 16350 16353 16356 16359 16362 16365 16368 16371 16374 16377 16380 16383 16386 16389 16392 16395 16398 16401 16404 16407 16410 16413 16415 16418 16421 16424 16426 16428 16431 16434 16437 16440 16443 16446 16449 16452 16455 16458 16461 16464 16467 16470 16473 16476 16479 16482 16485 16488 16491 16494 16496 16498 16501 16504 16507 16510 16513 16516 16519 16522 16524 16527 16530 16533 16536 16539 16542 16544 16547 16550 16553 16556 16559 16561 16564 16567 16570 16573 16575 16578 16581 16584 16586 16589 16592 16595 16597 16600 16603 16605 16608 16611 16614 16617 16620 16623 16626 16629 16632 16635 16638 16641 16644 16646 16649 16652 16655 16658 16661 16664 16667 16670 16672 16675 16678 16681 16684 16687 16690 16693 16696 16699 16702 16705 16707 16710 16713 16716 16718 16721 16724 16727 16730 16732 16735 16738 16741 16744 16747 16750 16753 16756 16758 16761 16763 16766 16769 16771 16774 16777 16780 16783 16786 16788 16791 16794 16797 16800 16803 16806 16809 16812 16815 16818 16821 16824 16826 16829 16832 16835 16838 16841 16844 16847 16850 16853 16855 16858 16861 16864 16867 16870 16873 16875 16878 16881 16884 16887 16890 16893 16896 16898 16901 16904 16907 16910 16913 16915 16918 16921 16924 16927 16930 16933 16936 16939 16942 16945 16948 16951 16954 16957 16960 16963 16966 16969 16972 16975 16978 16981 16984 16987 16990 16993 16996 16999 17002 17005 17008 17011 17014 17017 17020 17023 17026 17029 17032 17035 17038 17041 17044 17047 17050 17053 17056 17058 17061 17063 17066 17069 17072 17075 17078 17081 17084 17087 17090 17093 17096 17099 17102 17105 17107 17110 17113 17116 17119 17122 17125 17128 17131 17134 17137 17140 17143 17146 17149 17152 17154 17157 17160 17162 17165 17167 17170 17173 17176 17179 17182 17184 17187 17190 17193 17196 17199 17202 17205 17208 17211 17214 17217 17220 17223 17226 17229 17232 17235 17238 17241 17244 17246 17249 17252 17255 17258 17261 17264 17267 17270 17273 17276 17279 17281 17284 17286 17289 17292 17294 17297 17299 17302 17305 17308 17311 17314 17317 17320 17322 17325 17327 17330 17333 17336 17339 17341 17344 17347 17350 17353 17355 17357 17360 17363 17365 17368 17371 17374 17377 17380 17383 17386 17389 17392 17395 17398 17401 17404 17407 17410 17413 17415 17418 17421 17424 17427 17430 17433 17436 17439 17442 17445 17448 17451 17454 17457 17459 17462 17464 17467 17470 17473 17476 17479 17482 17485 17487 17490 17492 17495 17498 17501 17504 17507 17510 17513 17516 17519 17521 17523 17526 17529 17532 17534 17537 17540 17543 17546 17548 17551 17553 17556 17559 17561 17564 17566 17568 17570 17573 17576 17578 17581 17584 17587 17589 17591 17593 17596 17599 17602 17605 17608 17611 17614 17617 17620 17623 17626 17628 17631 17634 17637 17640 17643 17646 17648 17651 17654 17657 17659 17662 17665 17668 17671 17674 17677 17680 17683 17685 17688 17691 17694 17696 17699 17702 17705 17708 17711 17714 17717 17720 17723 17726 17729 17732 17735 17738 17741 17744 17747 17750 17753 17756 17759 17762 17765 17768 17771 17774 17777 17780 17783 17786 17789 17792 17795 17798 17801 17804 17807 17810 17813 17816 17819 17822 17825 17828 17831 17834 17837 17840 17843 17846 17849 17852 17855 17858 17861 17864 17867 17870 17873 17876 17878 17881 17884 17887 17890 17893 17895 17898 17901 17904 17907 17909 17912 17915 17918 17920 17923 17926 17929 17932 17935 17938 17941 17944 17947 17950 17953 17956 17959 17962 17965 17968 17971 17974 17977 17980 17983 17986 17989 17992 17995 17998 18001 18004 18007 18010 18013 18016 18019 18022 18025 18028 18031 18034 18037 18040 18042 18045 18048 18050 18053 18056 18059 18062 18065 18068 18071 18073 18076 18079 18082 18085 18088 18091 18094 18097 18100 18103 18106 18108 18111 18114 18116 18119 18121 18124 18127 18130 18132 18135 18138 18141 18144 18147 18150 18153 18156 18158 18161 18164 18167 18170 18172 18175 18178 18181 18184 18186 18189 18191 18194 18197 18200 18203 18206 18209 18212 18215 18218 18221 18224 18227 18229 18232 18234 18237 18240 18243 18246 18249 18252 18255 18258 18261 18264 18267 18270 18273 18275 18278 18281 18284 18287 18290 18293 18296 18299 18302 18304 18307 18310 18313 18315 18318 18321 18324 18327 18330 18333 18336 18339 18342 18345 18348 18351 18354 18357 18360 18363 18366 18369 18372 18375 18378 18381 18384 18387 18390 18393 18396 18399 18402 18405 18408 18411 18414 18417 18420 18422 18425 18428 18430 18433 18436 18439 18442 18444 18447 18450 18453 18456 18459 18462 18465 18468 18471 18474 18477 18480 18483 18486 18489 18491 18494 18497 18500 18503 18506 18509 18512 18515 18518 18520 18523 18525 18528 18531 18534 18537 18540 18543 18546 18548 18551 18554 18557 18560 18563 18566 18569 18572 18575 18578 18581 18584 18587 18590 18592 18595 18598 18601 18604 18607 18610 18613 18616 18619 18622 18625 18627 18630 18633 18636 18639 18642 18645 18648 18651 18654 18657 18660 18663 18666 18669 18672 18675 18678 18681 18684 18687 18690 18693 18696 18698 18701 18703 18706 18709 18712 18715 18718 18721 18723 18726 18728 18731 18734 18737 18739 18742 18745 18748 18750 18753 18756 18759 18761 18764 18767 18769 18772 18775 18778 18781 18784 18787 18790 18792 18795 18798 18801 18804 18807 18810 18813 18815 18818 18821 18824 18827 18830 18833 18836 18839 18842 18845 18848 18851 18854 18856 18859 18862 18865 18868 18871 18874 18877 18880 18882 18885 18888 18891 18894 18897 18900 18903 18906 18909 18912 18915 18918 18921 18924 18927 18930 18933 18936 18939 18942 18944 18947 18950 18953 18956 18959 18962 18965 18968 18971 18974 18977 18980 18983 18986 18989 18992 18995 18998 19001 19004 19007 19010 19013 19016 19019 19022 19025 19028 19031 19034 19037 19040 19043 19046 19049 19052 19055 19058 19061 19064 19067 19070 19073 19076 19079 19082 19085 19088 19091 19094 19096 19099 19101 19104 19107 19110 19112 19115 19118 19120 19122 19125 19127 19130 19133 19136 19139 19142 19145 19148 19151 19154 19157 19160 19163 19166 19169 19172 19175 19178 19181 19184 19187 19190 19193 19196 19199 19202 19205 19208 19211 19214 19217 19220 19223 19226 19229 19232 19234 19237 19240 19243 19246 19248 19251 19254 19256 19259 19262 19265 19267 19270 19273 19276 19279 19281 19284 19286 19288 19291 19294 19297 19300 19302 19305 19308 19311 19313 19316 19319 19322 19324 19327 19330 19333 19336 19339 19342 19344 19347 19350 19353 19356 19359 19362 19365 19368 19371 19374 19377 19380 19383 19386 19389 19392 19395 19398 19401 19404 19406 19409 19412 19415 19418 19421 19424 19427 19430 19433 19436 19439 19442 19445 19448 19451 19454 19457 19460 19462 19465 19468 19470 19473 19476 19478 19481 19484 19487 19490 19493 19496 19499 19502 19505 19508 19511 19513 19516 19519 19522 19525 19527 19530 19533 19536 19539 19541 19544 19547 19550 19552 19555 19558 19561 19564 19567 19570 19573 19576 19579 19582 19585 19588 19591 19594 19597 19600 19603 19606 19609 19612 19615 19618 19621 19624 19627 19629 19632 19635 19638 19641 19644 19647 19650 19653 19655 19658 19661 19664 19666 19669 19672 19675 19678 19681 19684 19687 19690 19693 19696 19699 19702 19705 19708 19711 19714 19717 19720 19723 19726 19729 19732 19735 19738 19740 19743 19746 19749 19751 19754 19757 19760 19763 19766 19769 19772 19775 19777 19780 19783 19785 19788 19791 19794 19797 19799 19802 19805 19808 19811 19814 19817 19820 19822 19825 19827 19830 19833 19835 19838 19841 19843 19845 19848 19851 19854 19857 19860 19863 19866 19869 19872 19875 19878 19881 19884 19887 19890 19893 19896 19899 19902 19905 19908 19910 19913 19916 19919 19922 19924 19927 19930 19933 19936 19939 19942 19945 19948 19951 19954 19957 19960 19963 19965 19968 19971 19973 19976 19979 19982 19985 19988 19991 19994 19997 20000 20003 20006 20009 20012 20015 20018 20021 20024 20027 20030 20033 20036 20039 20042 20045 20048 20051 20054 20057 20060 20063 20066 20069 20072 20075 20078 20081 20084 20087 20090 20093 20096 20099 20102 20105 20108 20111 20114 20117 20120 20123 20126 20129 20132 20135 20138 20141 20144 20147 20150 20153 20156 20159 20162 20165 20168 20171 20174 20177 20180 20183 20186 20189 20192 20195 20198 20201 20204 20207 20210 20213 20216 20219 20222 20225 20228 20231 20234 20237 20240 20243 20246 20249 20252 20255 20258 20261 20264 20267 20270 20273 20276 20279 20282 20285 20288 20291 20294 20297 20300 20303 20306 20309 20312 20315 20318 20321 20324 20327 20330 20333 20336 20339 20342 20345 20348 20351 20354 20357 20359 20362 20365 20368 20371 20374 20377 20380 20382 20385 20388 20391 20394 20397 20400 20403 20406 20409 20411 20414 20416 20419 20422 20425 20427 20430 20433 20435 20438 20441 20444 20447 20450 20453 20456 20459 20462 20465 20468 20471 20474 20477 20480 20483 20486 20489 20492 20495 20498 20501 20504 20507 20510 20513 20516 20519 20522 20525 20528 20531 20534 20537 20540 20543 20546 20548 20551 20554 20556 20558 20561 20564 20566 20569 20572 20574 20577 20580 20583 20585 20588 20591 20594 20597 20600 20603 20606 20609 20612 20614 20617 20620 20623 20626 20629 20632 20634 20637 20640 20643 20646 20649 20652 20655 20658 20661 20664 20667 20670 20673 20676 20679 20682 20685 20688 20691 20694 20697 20700 20703 20706 20709 20712 20715 20718 20721 20724 20727 20729 20732 20735 20738 20741 20744 20747 20750 20753 20756 20759 20762 20765 20768 20771 20774 20777 20780 20783 20786 20789 20792 20795 20798 20801 20804 20807 20810 20813 20816 20819 20822 20825 20828 20831 20834 20837 20840 20843 20846 20849 20852 20855 20858 20861 20864 20867 20869 20872 20874 20877 20880 20883 20886 20888 20891 20894 20897 20900 20902 20905 20908 20911 20914 20916 20919 20922 20925 20928 20931 20934 20937 20940 20942 20945 20948 20950 20953 20955 20958 20961 20964 20967 20969 20972 20975 20977 20979 20982 20985 20988 20991 20994 20997 20999 21002 21005 21008 21011 21014 21017 21020 21023 21026 21029 21031 21033 21036 21039 21042 21045 21048 21050 21053 21056 21058 21061 21064 21067 21070 21072 21075 21078 21080 21083 21086 21089 21092 21095 21098 21101 21104 21107 21110 21113 21116 21119 21122 21125 21128 21131 21134 21137 21140 21143 21146 21149 21152 21155 21158 21161 21164 21167 21169 21172 21174 21177 21180 21183 21186 21189 21192 21195 21198 21201 21204 21207 21210 21213 21215 21218 21221 21224 21227 21229 21231 21234 21237 21240 21243 21246 21249 21252 21255 21258 21261 21264 21267 21270 21273 21276 21279 21282 21285 21288 21291 21294 21297 21300 21303 21306 21309 21312 21315 21318 21321 21324 21327 21330 21333 21336 21339 21342 21345 21348 21351 21354 21357 21359 21362 21365 21368 21370 21373 21376 21379 21382 21385 21388 21391 21394 21397 21400 21403 21406 21409 21412 21415 21418 21421 21424 21427 21430 21432 21435 21438 21440 21443 21446 21449 21452 21455 21458 21461 21464 21467 21469 21472 21475 21478 21481 21484 21486 21489 21492 21495 21498 21501 21503 21506 21508 21511 21514 21517 21520 21523 21526 21529 21532 21535 21538 21541 21544 21547 21549 21552 21555 21558 21560 21562 21565 21568 21571 21574 21577 21580 21583 21586 21588 21591 21594 21596 21599 21602 21604 21606 21609 21612 21615 21618 21621 21623 21626 21629 21632 21635 21638 21641 21644 21646 21649 21652 21654 21656 21659 21662 21665 21668 21671 21674 21676 21678 21681 21684 21687 21689 21692 21695 21698 21701 21704 21707 21710 21712 21715 21718 21721 21724 21727 21730 21733 21736 21739 21742 21745 21748 21751 21754 21757 21760 21763 21766 21769 21772 21775 21778 21781 21784 21787 21790 21792 21795 21798 21801 21804 21807 21810 21813 21815 21818 21821 21824 21827 21830 21833 21836 21839 21842 21845 21848 21850 21853 21856 21859 21862 21865 21868 21871 21874 21876 21879 21882 21885 21888 21891 21894 21897 21900 21903 21906 21909 21912 21915 21918 21921 21924 21926 21929 21932 21935 21937 21940 21943 21946 21949 21952 21954 21957 21960 21963 21966 21969 21972 21975 21978 21981 21984 21987 21990 21993 21996 21998 22001 22004 22007 22010 22012 22015 22018 22020 22023 22026 22029 22032 22035 22037 22040 22043 22046 22049 22052 22055 22058 22061 22064 22067 22070 22073 22076 22079 22081 22084 22086 22089 22092 22095 22097 22100 22102 22105 22107 22110 22113 22116 22119 22122 22125 22127 22129 22132 22135 22138 22141 22144 22147 22149 22152 22154 22157 22160 22163 22166 22169 22172 22175 22178 22181 22184 22187 22190 22193 22196 22199 22202 22205 22207 22210 22213 22216 22218 22220 22223 22226 22229 22232 22235 22237 22240 22243 22245 22247 22250 22253 22256 22259 22262 22265 22268 22271 22274 22277 22280 22283 22286 22289 22292 22295 22298 22301 22304 22307 22310 22313 22316 22319 22322 22325 22328 22331 22334 22337 22340 22343 22346 22349 22352 22355 22358 22361 22364 22367 22370 22373 22376 22379 22381 22384 22387 22389 22391 22393 22396 22399 22402 22405 22408 22411 22413 22416 22419 22422 22425 22428 22431 22434 22437 22440 22442 22445 22448 22451 22453 22456 22459 22462 22465 22468 22471 22474 22477 22480 22483 22486 22489 22492 22495 22498 22501 22504 22507 22510 22513 22515 22518 22521 22524 22527 22529 22532 22535 22538 22541 22544 22547 22550 22553 22556 22559 22562 22565 22568 22571 22574 22577 22580 22583 22586 22589 22592 22595 22598 22601 22604 22607 22610 22613 22616 22619 22622 22625 22628 22631 22633 22636 22638 22641 22644 22647 22650 22653 22656 22659 22662 22664 22667 22670 22673 22675 22678 22680 22683 22686 22689 22692 22695 22698 22701 22704 22706 22709 22712 22715 22718 22720 22723 22726 22729 22732 22734 22737 22740 22743 22746 22749 22752 22755 22757 22760 22763 22766 22769 22771 22774 22777 22780 22783 22786 22789 22792 22795 22798 22801 22804 22807 22810 22813 22816 22819 22822 22825 22828 22831 22834 22837 22840 22843 22846 22849 22852 22855 22858 22861 22864 22867 22870 22873 22876 22879 22882 22885 22888 22891 22894 22897 22900 22903 22906 22909 22911 22914 22917 22920 22923 22925 22927 22930 22933 22935 22937 22940 22943 22946 22949 22952 22955 22958 22961 22964 22967 22970 22973 22976 22979 22982 22985 22988 22991 22994 22996 22999 23002 23005 23007 23009 23012 23015 23018 23021 23024 23027 23030 23033 23036 23039 23042 23045 23048 23051 23054 23057 23060 23063 23066 23069 23072 23075 23078 23081 23084 23087 23090 23092 23095 23098 23101 23104 23107 23110 23113 23115 23118 23121 23124 23127 23130 23133 23136 23139 23142 23145 23148 23151 23154 23157 23160 23162 23165 23168 23171 23174 23177 23180 23183 23186 23188 23191 23193 23195 23198 23201 23204 23207 23210 23213 23216 23219 23222 23225 23228 23231 23233 23236 23239 23242 23245 23248 23251 23254 23257 23260 23263 23266 23269 23272 23275 23278 23281 23284 23287 23289 23292 23295 23298 23300 23303 23306 23309 23312 23315 23318 23321 23324 23326 23329 23332 23335 23338 23341 23344 23347 23350 23353 23356 23359 23362 23365 23368 23371 23373 23376 23379 23382 23384 23387 23390 23393 23396 23399 23402 23405 23408 23411 23414 23417 23420 23423 23426 23429 23432 23435 23438 23441 23444 23447 23450 23453 23456 23459 23462 23465 23468 23471 23474 23477 23480 23483 23485 23488 23490 23493 23496 23499 23502 23505 23508 23511 23514 23516 23519 23522 23525 23528 23531 23534 23537 23540 23543 23545 23548 23551 23553 23556 23559 23562 23565 23568 23570 23573 23576 23579 23582 23584 23587 23590 23593 23596 23598 23601 23604 23607 23609 23612 23614 23617 23620 23622 23625 23628 23631 23634 23637 23640 23643 23646 23649 23652 23655 23658 23661 23664 23666 23669 23672 23674 23677 23679 23682 23685 23688 23690 23693 23696 23698 23701 23704 23707 23710 23712 23715 23717 23720 23723 23726 23729 23732 23735 23737 23740 23742 23745 23748 23751 23754 23757 23759 23762 23765 23768 23771 23773 23776 23779 23782 23785 23788 23791 23793 23796 23799 23802 23805 23808 23811 23814 23817 23820 23823 23826 23829 23832 23835 23838 23841 23844 23847 23850 23853 23856 23859 23862 23865 23868 23871 23874 23877 23880 23883 23886 23889 23892 23894 23896 23899 23902 23905 23908 23911 23914 23917 23920 23923 23926 23928 23931 23934 23936 23938 23941 23943 23946 23949 23952 23955 23958 23961 23964 23966 23969 23972 23975 23978 23981 23984 23987 23990 23993 23996 23999 24002 24004 24007 24010 24013 24016 24018 24021 24024 24027 24030 24033 24036 24039 24042 24045 24048 24051 24054 24056 24059 24062 24065 24068 24071 24074 24077 24080 24083 24086 24089 24092 24095 24098 24101 24104 24107 24109 24112 24115 24118 24121 24124 24126 24129 24132 24135 24137 24140 24143 24146 24149 24152 24155 24157 24160 24162 24165 24168 24171 24173 24176 24179 24182 24185 24188 24191 24194 24197 24200 24202 24205 24208 24210 24213 24216 24219 24222 24225 24228 24231 24233 24236 24239 24242 24245 24248 24251 24254 24257 24260 24263 24266 24269 24272 24274 24277 24280 24282 24285 24288 24291 24294 24297 24300 24302 24305 24308 24311 24314 24317 24320 24322 24325 24328 24331 24334 24337 24340 24343 24345 24348 24351 24354 24357 24360 24363 24366 24369 24372 24375 24378 24381 24384 24387 24390 24393 24396 24399 24402 24405 24408 24411 24413 24416 24419 24422 24425 24428 24431 24434 24437 24440 24443 24445 24448 24451 24454 24457 24459 24461 24464 24467 24470 24473 24475 24478 24481 24484 24487 24490 24493 24496 24499 24502 24504 24507 24510 24513 24516 24519 24522 24525 24528 24531 24534 24537 24539 24542 24545 24548 24550 24553 24556 24559 24561 24564 24567 24570 24573 24576 24579 24582 24585 24588 24591 24594 24597 24599 24602 24605 24608 24611 24614 24616 24619 24622 24624 24627 24630 24633 24636 24639 24642 24645 24648 24651 24654 24657 24660 24663 24666 24668 24671 24674 24677 24680 24683 24686 24689 24691 24694 24697 24700 24702 24705 24708 24711 24714 24717 24719 24722 24725 24728 24731 24734 24737 24740 24743 24746 24748 24751 24754 24757 24760 24763 24766 24769 24772 24774 24777 24780 24783 24786 24789 24791 24794 24797 24800 24803 24806 24809 24812 24814 24817 24820 24823 24826 24829 24832 24835 24838 24841 24844 24847 24850 24853 24856 24859 24862 24865 24868 24871 24874 24877 24880 24883 24886 24889 24892 24895 24898 24901 24904 24907 24910 24913 24916 24919 24922 24925 24928 24931 24934 24937 24940 24943 24946 24949 24952 24955 24958 24960 24963 24966 24969 24972 24975 24978 24981 24983 24986 24989 24992 24995 24998 25001 25004 25007 25010 25013 25016 25019 25022 25025 25028 25031 25034 25037 25040 25043 25046 25049 25051 25053 25056 25059 25061 25063 25066 25069 25072 25075 25078 25081 25084 25086 25089 25092 25095 25098 25101 25104 25107 25110 25113 25116 25119 25122 25125 25128 25130 25133 25136 25139 25142 25145 25148 25151 25154 25156 25159 25162 25164 25167 25170 25173 25175 25178 25181 25184 25187 25190 25193 25196 25199 25202 25205 25208 25211 25214 25217 25220 25223 25226 25229 25232 25235 25238 25241 25244 25247 25250 25253 25256 25259 25261 25264 25267 25270 25273 25276 25279 25282 25285 25287 25290 25293 25296 25299 25302 25305 25307 25309 25312 25315 25318 25321 25323 25326 25329 25331 25334 25337 25339 25342 25345 25348 25351 25354 25357 25359 25362 25365 25368 25371 25374 25377 25380 25383 25385 25388 25391 25394 25397 25400 25403 25406 25409 25412 25415 25418 25420 25423 25426 25428 25431 25434 25437 25440 25443 25446 25449 25451 25454 25457 25460 25462 25465 25467 25470 25472 25475 25478 25481 25484 25487 25490 25493 25496 25499 25502 25505 25508 25511 25514 25517 25520 25523 25525 25528 25530 25533 25536 25539 25542 25545 25548 25551 25554 25557 25560 25562 25565 25568 25571 25574 25577 25580 25583 25585 25588 25591 25594 25596 25599 25601 25603 25606 25609 25611 25614 25617 25620 25623 25625 25628 25631 25634 25636 25639 25642 25645 25647 25650 25652 25654 25657 25660 25663 25666 25669 25672 25674 25677 25680 25683 25686 25689 25692 25695 25698 25700 25702 25704 25707 25709 25712 25715 25717 25719 25722 25725 25727 25730 25733 25736 25739 25742 25745 25748 25751 25754 25757 25760 25762 25765 25768 25771 25774 25777 25780 25783 25786 25789 25792 25795 25798 25801 25803 25805 25808 25811 25814 25817 25819 25822 25825 25828 25830 25833 25836 25839 25842 25845 25847 25849 25852 25855 25858 25860 25863 25866 25869 25872 25875 25878 25881 25884 25887 25890 25893 25896 25899 25902 25905 25907 25910 25913 25916 25918 25921 25924 25927 25929 25932 25935 25938 25941 25944 25947 25949 25952 25955 25958 25961 25964 25966 25969 25972 25975 25978 25981 25984 25987 25990 25992 25995 25998 26001 26004 26007 26010 26013 26016 26019 26021 26024 26027 26030 26033 26035 26038 26040 26043 26046 26048 26051 26053 26056 26059 26062 26065 26068 26071 26073 26076 26078 26080 26083 26086 26089 26092 26095 26098 26101 26104 26106 26109 26111 26114 26116 26119 26121 26124 26127 26130 26133 26136 26139 26142 26145 26148 26151 26154 26156 26159 26162 26165 26167 26170 26173 26176 26179 26182 26185 26188 26191 26193 26196 26199 26202 26205 26208 26211 26214 26217 26220 26222 26225 26228 26231 26234 26236 26239 26242 26244 26247 26250 26253 26256 26259 26262 26265 26268 26271 26273 26276 26279 26282 26284 26287 26290 26293 26296 26299 26302 26305 26308 26311 26314 26317 26320 26323 26326 26329 26332 26335 26338 26341 26343 26346 26349 26352 26355 26358 26361 26364 26367 26370 26373 26375 26378 26381 26384 26387 26390 26393 26396 26399 26402 26405 26408 26411 26414 26417 26420 26423 26426 26429 26432 26435 26438 26441 26444 26447 26450 26453 26456 26459 26462 26465 26468 26471 26474 26477 26480 26483 26486 26489 26492 26495 26498 26501 26504 26507 26510 26512 26514 26517 26520 26523 26526 26529 26532 26535 26538 26541 26544 26547 26550 26553 26555 26557 26560 26563 26566 26568 26571 26574 26576 26579 26582 26585 26587 26590 26593 26596 26598 26601 26604 26607 26610 26613 26616 26619 26622 26624 26627 26630 26632 26635 26637 26639 26642 26645 26648 26651 26654 26657 26659 26662 26664 26666 26668 26671 26674 26676 26679 26682 26684 26686 26689 26692 26695 26698 26701 26704 26707 26710 26713 26716 26719 26722 26725 26728 26731 26734 26737 26740 26743 26746 26749 26751 26754 26757 26760 26763 26766 26769 26772 26775 26778 26780 26783 26786 26789 26792 26795 26798 26801 26803 26805 26808 26811 26814 26817 26820 26823 26826 26829 26832 26835 26838 26841 26844 26847 26850 26853 26856 26859 26862 26865 26868 26871 26874 26876 26879 26881 26884 26887 26890 26893 26896 26899 26902 26904 26907 26910 26913 26915 26917 26920 26923 26925 26928 26931 26934 26937 26939 26942 26945 26948 26950 26953 26956 26959 26961 26964 26967 26970 26973 26976 26979 26982 26985 26988 26990 26992 26995 26998 27001 27004 27007 27009 27012 27015 27017 27019 27021 27024 27027 27030 27033 27036 27038 27041 27044 27047 27050 27053 27056 27059 27062 27065 27067 27070 27072 27075 27078 27081 27084 27087 27090 27093 27096 27099 27102 27105 27108 27111 27114 27117 27120 27123 27126 27129 27132 27135 27138 27141 27144 27146 27149 27152 27155 27158 27160 27162 27165 27168 27171 27173 27176 27179 27182 27185 27188 27191 27194 27197 27200 27203 27206 27209 27212 27215 27218 27221 27223 27226 27229 27232 27234 27237 27240 27242 27245 27248 27251 27254 27257 27260 27263 27266 27269 27272 27275 27278 27281 27283 27286 27289 27291 27294 27297 27300 27302 27305 27307 27310 27312 27315 27317 27319 27321 27324 27327 27330 27333 27336 27339 27342 27345 27347 27350 27353 27356 27359 27362 27365 27368 27371 27373 27376 27379 27381 27384 27387 27390 27393 27396 27399 27402 27405 27408 27411 27414 27417 27420 27423 27426 27429 27432 27435 27438 27441 27444 27446 27449 27452 27455 27458 27461 27464 27467 27470 27473 27476 27478 27481 27483 27486 27489 27491 27494 27496 27499 27501 27504 27507 27509 27512 27514 27517 27520 27522 27525 27528 27531 27533 27536 27539 27542 27545 27548 27551 27554 27557 27560 27563 27566 27569 27572 27575 27578 27581 27584 27587 27590 27593 27596 27599 27602 27605 27608 27611 27614 27617 27620 27623 27626 27629 27632 27635 27638 27641 27644 27647 27650 27653 27656 27659 27662 27665 27668 27671 27674 27677 27680 27683 27686 27689 27692 27695 27698 27701 27704 27707 27710 27713 27716 27718 27721 27724 27726 27729 27732 27735 27738 27741 27744 27746 27748 27751 27754 27757 27760 27763 27766 27769 27772 27775 27778 27781 27784 27787 27790 27793 27796 27799 27802 27804 27807 27810 27813 27815 27818 27821 27824 27827 27830 27833 27836 27839 27842 27845 27848 27851 27854 27857 27860 27863 27865 27868 27871 27874 27877 27880 27883 27886 27888 27891 27894 27897 27900 27903 27906 27909 27912 27914 27917 27919 27922 27925 27928 27931 27934 27937 27940 27943 27946 27949 27952 27955 27958 27961 27964 27967 27969 27972 27975 27978 27981 27984 27987 27990 27992 27995 27998 28001 28004 28006 28009 28012 28015 28018 28021 28024 28027 28029 28032 28035 28037 28039 28042 28045 28047 28050 28053 28056 28059 28062 28065 28067 28070 28073 28076 28079 28082 28085 28088 28091 28094 28096 28099 28102 28104 28107 28110 28112 28115 28118 28120 28123 28126 28129 28132 28135 28137 28140 28143 28146 28149 28152 28155 28158 28161 28163 28166 28169 28172 28175 28178 28181 28184 28186 28189 28192 28195 28198 28201 28204 28207 28210 28213 28216 28219 28222 28224 28227 28230 28233 28236 28239 28242 28245 28247 28249 28252 28254 28257 28259 28262 28265 28268 28271 28274 28277 28280 28283 28286 28289 28292 28295 28298 28301 28304 28306 28309 28311 28314 28317 28320 28323 28326 28329 28332 28335 28337 28340 28342 28345 28347 28350 28352 28355 28357 28360 28363 28365 28368 28371 28374 28377 28380 28382 28385 28388 28391 28394 28397 28400 28403 28406 28408 28411 28414 28417 28420 28423 28425 28428 28431 28433 28436 28438 28440 28443 28446 28449 28452 28455 28458 28461 28464 28466 28469 28472 28475 28478 28481 28484 28487 28490 28493 28496 28499 28502 28505 28507 28510 28513 28516 28519 28522 28525 28528 28530 28533 28536 28539 28541 28544 28547 28550 28553 28556 28559 28562 28565 28568 28571 28574 28577 28580 28583 28586 28589 28592 28594 28597 28600 28603 28606 28609 28612 28615 28617 28620 28623 28625 28628 28631 28634 28637 28640 28643 28646 28649 28652 28655 28658 28661 28664 28667 28670 28672 28675 28678 28681 28684 28686 28689 28692 28695 28698 28701 28704 28707 28710 28713 28716 28719 28722 28725 28728 28731 28734 28737 28740 28743 28746 28749 28752 28755 28758 28761 28763 28766 28769 28772 28775 28778 28781 28783 28786 28789 28792 28795 28798 28801 28804 28807 28810 28812 28814 28817 28820 28823 28825 28828 28830 28833 28836 28839 28842 28845 28848 28851 28854 28857 28860 28863 28866 28869 28872 28875 28877 28880 28883 28886 28889 28892 28895 28898 28901 28904 28907 28910 28913 28915 28917 28920 28923 28926 28929 28932 28935 28938 28941 28943 28946 28949 28951 28954 28957 28959 28961 28964 28967 28970 28973 28976 28979 28982 28984 28987 28990 28993 28996 28999 29002 29005 29008 29011 29013 29016 29019 29022 29024 29027 29030 29033 29036 29039 29041 29044 29047 29050 29053 29056 29059 29062 29065 29068 29071 29074 29077 29079 29082 29085 29088 29090 29093 29096 29099 29101 29104 29107 29110 29113 29116 29119 29122 29125 29128 29131 29134 29137 29140 29143 29146 29149 29152 29155 29158 29161 29164 29167 29170 29173 29176 29179 29182 29185 29188 29191 29194 29197 29199 29202 29205 29208 29211 29214 29217 29220 29223 29226 29229 29232 29235 29238 29241 29244 29247 29250 29253 29256 29259 29262 29265 29268 29271 29273 29276 29278 29281 29284 29286 29289 29292 29295 29298 29301 29304 29307 29310 29313 29315 29318 29321 29324 29327 29330 29333 29336 29339 29342 29345 29348 29351 29354 29357 29359 29362 29365 29368 29371 29373 29376 29379 29382 29384 29387 29390 29393 29396 29399 29402 29405 29408 29411 29414 29417 29420 29423 29426 29429 29432 29435 29438 29441 29444 29447 29450 29453 29456 29459 29462 29465 29468 29471 29474 29477 29480 29483 29486 29489 29492 29495 29498 29501 29504 29507 29510 29513 29516 29519 29522 29525 29528 29531 29534 29537 29540 29543 29546 29549 29552 29555 29558 29561 29564 29567 29570 29573 29576 29579 29582 29585 29588 29591 29594 29597 29600 29603 29606 29609 29612 29615 29618 29621 29624 29627 29630 29633 29636 29639 29642 29645 29648 29651 29654 29657 29660 29663 29666 29669 29672 29675 29678 29681 29684 29687 29690 29693 29696 29699 29702 29705 29708 29711 29714 29717 29720 29723 29726 29729 29732 29735 29738 29741 29744 29747 29750 29753 29756 29759 29762 29765 29768 29771 29774 29777 29780 29783 29786 29789 29792 29795 29798 29801 29804 29807 29810 29813 29816 29819 29822 29825 29828 29831 29834 29837 29840 29843 29846 29849 29852 29855 29858 29861 29864 29867 29870 29873 29876 29879 29882 29885 29888 29891 29894 29897 29900 29903 29906 29909 29912 29915 29918 29921 29924 29927 29930 29933 29936 29939 29942 29945 29948 29951 29953 29956 29959 29962 29965 29968 29971 29974 29977 29980 29983 29986 29989 29992 29995 29998 30001 30003 30006 30009 30012 30015 30018 30021 30024 30027 30029 30032 30035 30038 30041 30043 30046 30049 30052 30055 30058 30061 30064 30067 30070 30073 30076 30079 30082 30085 30088 30091 30094 30097 30100 30103 30106 30109 30111 30114 30117 30120 30123 30126 30129 30132 30135 30138 30141 30144 30147 30150 30152 30154 30157 30160 30163 30166 30169 30171 30174 30176 30179 30182 30185 30188 30191 30194 30197 30200 30203 30206 30209 30211 30214 30217 30220 30223 30226 30229 30232 30234 30237 30240 30243 30246 30249 30252 30255 30258 30261 30264 30267 30270 30273 30276 30279 30281 30283 30286 30289 30292 30295 30298 30301 30304 30307 30310 30313 30316 30319 30321 30324 30327 30330 30333 30336 30339 30342 30345 30348 30351 30354 30357 30360 30363 30366 30369 30371 30374 30377 30380 30383 30386 30389 30392 30394 30397 30400 30403 30406 30409 30412 30415 30418 30421 30424 30426 30428 30431 30434 30437 30440 30443 30446 30449 30452 30455 30458 30461 30464 30467 30470 30473 30476 30479 30482 30485 30488 30491 30494 30497 30500 30503 30506 30509 30512 30515 30518 30520 30523 30526 30529 30532 30535 30537 30540 30543 30546 30549 30552 30555 30558 30561 30564 30567 30569 30572 30575 30578 30581 30583 30586 30589 30592 30595 30598 30601 30604 30607 30610 30613 30615 30618 30620 30623 30626 30629 30632 30635 30638 30641 30644 30647 30650 30653 30656 30659 30662 30665 30668 30671 30674 30677 30680 30683 30686 30689 30692 30695 30698 30701 30704 30707 30710 30713 30715 30718 30721 30724 30727 30730 30732 30735 30738 30741 30744 30747 30750 30753 30756 30759 30762 30765 30768 30771 30774 30777 30780 30783 30786 30788 30791 30794 30796 30799 30802 30805 30807 30810 30813 30816 30819 30822 30824 30827 30830 30833 30836 30839 30842 30845 30848 30851 30854 30856 30859 30862 30865 30868 30871 30874 30876 30879 30882 30885 30888 30891 30893 30895 30898 30901 30903 30906 30909 30911 30914 30917 30920 30923 30926 30929 30932 30935 30938 30941 30943 30946 30949 30951 30954 30957 30959 30962 30965 30967 30970 30973 30975 30978 30981 30983 30986 30989 30992 30995 30998 31001 31003 31006 31009 31012 31015 31018 31021 31024 31027 31030 31033 31036 31038 31041 31044 31047 31050 31053 31056 31059 31061 31064 31067 31070 31073 31075 31078 31081 31084 31086 31089 31092 31095 31098 31101 31104 31107 31110 31113 31116 31119 31121 31124 31127 31130 31133 31136 31139 31142 31145 31148 31151 31154 31157 31160 31163 31166 31169 31172 31175 31178 31181 31184 31187 31190 31193 31195 31198 31201 31204 31207 31210 31212 31215 31218 31221 31224 31227 31230 31233 31236 31239 31242 31245 31248 31251 31254 31256 31259 31262 31264 31267 31269 31272 31275 31278 31281 31283 31286 31288 31290 31293 31295 31298 31301 31304 31307 31310 31313 31316 31318 31321 31323 31326 31329 31332 31335 31338 31341 31343 31346 31349 31352 31355 31358 31361 31363 31366 31369 31372 31375 31377 31380 31383 31386 31389 31392 31394 31397 31400 31402 31405 31408 31411 31414 31416 31419 31422 31425 31428 31430 31433 31436 31439 31442 31445 31448 31450 31453 31456 31459 31462 31465 31468 31471 31474 31477 31479 31482 31485 31488 31491 31494 31497 31499 31502 31505 31508 31511 31513 31516 31519 31522 31525 31528 31531 31534 31537 31540 31543 31546 31549 31552 31555 31558 31561 31563 31566 31569 31572 31574 31577 31580 31582 31585 31588 31591 31594 31597 31600 31603 31606 31609 31612 31615 31618 31621 31624 31627 31630 31632 31635 31637 31640 31643 31646 31649 31652 31655 31658 31661 31664 31667 31670 31673 31676 31679 31682 31685 31688 31691 31694 31697 31700 31703 31706 31709 31712 31715 31717 31720 31723 31725 31728 31731 31734 31737 31740 31743 31746 31749 31752 31755 31757 31760 31763 31766 31769 31771 31774 31777 31780 31783 31785 31788 31791 31794 31797 31800 31803 31806 31809 31812 31814 31817 31820 31823 31826 31829 31832 31835 31838 31841 31844 31847 31850 31853 31856 31859 31862 31865 31868 31871 31874 31877 31880 31883 31886 31889 31892 31895 31898 
</DataArray>
<DataArray type="UInt32" Name="types" format="ascii">
5 5 5 5 5 3 5 5 5 5 5 5 5 3 5 5 5 5 3 5 5 3 5 5 5 5 3 5 5 5 5 3 5 5 5 5 5 5 5 5 5 5 5 5 5 3 5 5 3 5 5 5 5 5 3 5 5 5 5 5 5 5 3 5 5 5 5 3 5 5 5 5 5 5 5 5 5 3 5 5 3 5 5 3 5 5 5 5 3 5 5 5 5 5 5 5 3 3 3 5 5 3 5 5 5 5 5 3 5 5 5 5 5 5 5 5 5 5 5 5 5 3 5 5 5 3 5 5 5 5 5 5 3 5 5 5 5 5 5 5 5 5 5 5 5 5 5 5 5 5 5 5 5 5 5 5 5 5 3 5 5 5 3 5 5 3 5 5 5 5 5 5 5 5 5 5 5 3 5 5 5 5 5 5 5 5 3 5 5 5 5 5 5 5 5 3 5 5 5 5 5 5 5 5 5 3 5 5 5 5 5 5 5 5 5 5 5 5 5 5 5 5 5 5 5 5 5 5 5 3 5 5 5 3 5 3 5 3 5 5 3 5 5 5 3 5 3 5 3 5 3 3 5 3 5 5 3 5 3 5 5 5 3 5 3 3 5 5 3 5 5 5 3 5 3 3 3 5 3 5 5 5 3 5 3 3 3 5 5 3 3 5 5 5 5 3 5 3 5 5 3 5 5 5 3 5 3 3 3 5 5 5 3 5 3 3 3 3 5 5 5 3 3 5 5 3 3 3 5 3 5 5 5 5 3 5 5 5 5 5 5 5 3 5 5 5 5 5 5 3 3 5 5 5 3 5 5 5 3 5 3 5 3 3 5 5 5 5 3 5 5 3 5 5 5 5 3 5 3 5 5 5 5 5 3 3 5 5 5 5 5 5 5 5 3 5 5 5 3 5 5 3 5 3 5 5 5 5 5 5 5 5 5 5 5 3 5 3 5 3 5 5 5 3 5 3 5 3 5 5 5 5 5 5 3 5 3 5 5 5 3 5 5 5 3 5 3 3 5 5 5 5 3 5 5 5 5 3 3 5 5 3 5 3 5 3 3 5 5 5 3 5 5 5 5 3 5 5 5 5 5 5 5 5 5 5 5 3 5 5 5 5 3 5 5 5 3 5 3 3 3 5 5 5 3 3 5 3 5 5 3 5 5 5 5 3 5 5 5 5 5 5 5 5 5 5 5 3 3 5 5 3 5 5 5 3 5 5 5 5 5 5 3 5 5 5 3 5 5 5 3 5 5 5 5 5 5 5 5 5 5 5 3 5 5 5 3 5 5 5 5 5 5 5 3 5 5 5 5 5 3 5 5 5 5 5 5 5 5 5 5 5 5 5 5 5 5 5 5 5 3 5 5 5 5 3 5 5 3 5 5 5 5 5 5 5 3 5 5 5 5 5 5 5 5 3 5 3 5 5 3 5 5 5 3 5 5 3 5 5 5 3 5 3 5 5 3 5 3 5 5 5 5 5 5 5 5 5 5 5 5 5 5 5 5 5 5 5 5 5 5 3 5 3 5 3 5 5 5 5 5 5 5 5 5 5 5 5 5 5 5 3 5 5 5 5 5 5 5 5 5 3 5 5 5 5 5 5 5 5 5 5 5 5 5 5 5 5 5 5 5 5 5 5 5 5 5 5 5 5 5 3 5 5 3 5 5 5 3 3 5 3 5 5 5 5 5 3 5 5 5 5 5 3 5 5 5 5 5 5 5 5 5 5 5 5 5 5 5 5 5 5 5 5 5 5 5 5 5 5 5 5 5 5 5 5 5 5 5 5 5 5 5 5 5 5 5 5 5 5 5 5 5 3 5 5 5 5 5 5 5 5 5 5 5 5 5 5 5 3 5 5 5 5 3 5 5 5 5 5 5 5 5 5 5 5 5 5 5 5 5 5 5 5 5 5 5 5 5 5 5 5 3 5 5 3 5 3 3 3 3 5 5 3 5 5 5 5 5 5 5 5 5 5 5 5 5 5 5 5 5 3 5 5 3 5 3 5 5 5 5 3 5 3 5 5 5 5 3 5 5 5 3 5 5 5 5 5 3 5 3 5 5 3 3 5 3 5 5 5 5 5 5 5 5 5 5 5 3 5 5 5 3 5 5 5 3 5 5 3 3 3 5 5 5 5 5 5 5 5 5 5 5 3 5 5 5 5 5 5 5 5 3 3 3 5 5 5 5 5 5 5 5 3 3 5 5 5 3 5 5 3 5 5 5 5 5 5 5 5 5 5 5 3 5 5 5 5 5 5 5 5 3 5 5 5 5 5 5 5 5 5 5 3 5 3 3 3 5 5 5 5 5 5 5 3 3 5 3 5 5 5 5 5 3 5 3 3 5 5 5 3 5 3 5 5 5 5 3 5 5 5 5 5 5 5 5 5 5 5 5 5 5 5 5 5 3 5 5 5 3 5 5 5 5 5 3 5 5 5 5 5 5 3 5 3 5 5 5 5 5 5 5 5 3 5 5 5 3 5 5 5 5 5 5 5 5 5 5 5 5 5 5 5 5 5 5 5 5 5 5 5 5 5 3 3 3 5 5 5 5 3 5 5 5 5 3 5 5 5 5 5 5 5 3 5 5 5 5 5 5 5 5 3 5 5 5 5 5 5 5 5 5 5 5 5 3 5 5 5 5 5 5 3 5 5 5 5 5 5 5 5 3 5 5 5 3 5 5 5 5 5 5 5 5 5 5 5 5 3 5 5 5 5 5 5 5 5 5 5 5 5 5 5 5 5 5 5 5 5 5 5 5 5 5 5 5 5 5 5 5 5 5 5 5 5 5 5 5 5 5 5 5 5 5 5 5 3 5 5 5 5 5 5 5 5 5 5 5 5 5 5 5 5 5 5 5 5 5 5 5 5 3 5 5 5 5 5 5 5 5 5 5 3 5 5 3 5 5 5 5 5 5 5 5 5 3 5 3 5 5 5 5 3 5 5 3 5 3 5 5 5 5 5 3 5 5 5 5 5 5 5 5 3 5 5 5 5 5 5 5 5 5 5 5 5 5 5 3 5 3 3 5 5 5 5 5 3 5 5 5 5 5 5 5 5 5 5 5 5 5 5 5 3 5 5 5 5 5 5 5 5 5 5 5 5 5 5 5 5 3 5 5 5 5 5 3 3 5 5 3 5 5 5 5 5 5 5 5 5 5 3 5 5 5 5 5 5 5 5 5 3 5 3 5 5 5 5 5 3 5 5 5 5 3 5 5 5 3 5 5 5 3 5 5 3 5 5 5 5 5 5 5 5 5 5 5 5 5 5 5 5 3 5 5 5 5 5 5 5 3 5 5 5 5 5 5 5 5 5 5 5 5 5 5 5 5 5 5 5 5 5 5 5 5 5 5 5 3 5 5 5 5 3 5 5 5 3 5 5 5 5 5 5 5 5 5 3 5 3 5 5 5 5 5 5 5 5 5 5 5 5 5 5 5 5 5 5 3 3 5 5 5 3 5 5 3 5 5 3 5 5 5 3 5 5 3 5 5 5 5 5 5 5 5 5 5 5 5 5 5 5 5 5 5 5 5 3 5 3 5 5 5 5 5 5 5 5 5 5 5 3 5 3 5 5 5 3 5 5 5 5 5 3 5 5 5 5 5 5 3 5 5 5 5 5 5 5 5 5 5 5 3 5 5 5 5 5 5 5 5 3 5 5 5 3 5 5 3 5 5 5 5 5 3 5 5 5 5 5 5 5 5 5 3 5 5 3 5 3 5 3 3 3 5 3 5 5 5 5 5 5 3 5 5 5 5 5 5 3 5 5 5 5 5 5 5 3 5 5 5 5 3 5 5 5 5 5 3 5 3 5 5 5 5 5 5 5 5 5 5 3 5 5 5 5 5 5 5 3 5 5 5 5 5 5 5 3 5 3 5 5 5 5 5 5 5 5 3 5 5 5 3 3 5 5 5 5 5 3 3 5 3 5 5 3 5 5 3 5 5 5 5 5 5 5 5 3 5 5 5 5 5 3 5 5 5 5 3 5 5 3 5 5 5 5 5 5 5 5 5 5 5 5 5 5 5 5 5 5 5 5 5 5 5 5 5 5 5 5 5 5 5 5 5 5 5 5 5 5 5 5 5 3 5 5 3 5 5 5 5 5 3 5 5 5 5 3 5 5 5 5 5 5 5 5 5 5 5 5 5 5 5 5 5 5 5 5 5 5 5 5 3 5 5 5 3 5 5 5 5 5 5 3 5 5 5 5 5 5 5 5 5 5 5 3 5 3 3 5 5 3 5 5 5 5 5 5 5 5 5 5 5 3 5 5 3 5 5 5 5 5 5 5 5 5 5 5 5 5 5 5 3 5 5 5 5 5 5 5 3 5 3 5 5 5 5 3 5 3 5 5 5 5 5 5 5 5 5 3 5 5 5 5 5 5 5 5 5 5 5 5 5 5 5 5 5 3 5 5 5 5 5 5 5 5 5 5 5 5 5 5 5 5 5 5 5 5 5 5 5 5 5 3 3 5 5 5 5 5 5 5 5 5 5 5 3 5 5 5 5 3 5 5 5 5 3 5 5 5 5 5 5 5 5 3 5 5 5 5 5 5 5 5 5 3 5 5 5 5 5 5 5 5 5 5 5 5 5 5 5 5 5 5 5 5 3 5 5 5 5 5 5 5 5 5 5 5 5 5 5 3 5 3 5 5 5 5 5 5 5 5 3 5 5 3 5 5 5 5 5 5 5 5 5 5 5 5 5 5 5 5 5 5 5 5 5 5 5 5 5 5 5 5 5 5 5 5 5 5 5 5 3 5 5 3 5 5 5 5 3 5 3 5 5 3 5 3 5 5 5 5 5 3 5 5 5 5 5 5 5 5 5 5 5 5 3 5 5 5 3 5 5 5 5 5 5 5 5 5 3 5 5 5 5 3 3 5 5 5 5 5 5 5 5 3 5 5 5 5 5 3 5 5 5 3 5 5 5 3 5 5 5 5 3 5 5 5 5 5 5 5 5 5 5 5 5 5 5 3 5 5 5 5 5 5 3 5 3 3 5 3 5 3 5 5 5 5 3 5 5 5 5 3 5 5 5 5 5 5 5 5 5 3 5 5 5 5 5 5 5 5 5 5 5 5 5 5 3 5 5 5 3 5 5 5 3 5 3 5 5 5 5 5 5 5 5 5 5 5 5 5 5 5 5 3 5 5 5 5 5 5 3 5 5 5 5 5 5 5 5 5 5 5 5 5 5 5 5 5 5 3 5 5 5 5 5 5 5 5 5 5 5 5 5 5 5 5 5 5 5 5 5 5 5 5 5 5 5 5 5 5 5 5 5 5 3 5 5 5 5 3 5 5 5 5 5 5 5 3 5 5 5 5 5 5 5 5 5 3 5 5 3 5 5 5 5 5 3 5 5 5 3 5 5 3 5 5 5 5 5 5 5 5 5 5 5 5 5 5 5 5 5 5 5 5 3 5 5 5 5 5 5 5 5 5 5 3 3 5 3 5 5 5 5 5 3 5 5 5 5 3 5 5 5 5 5 3 5 3 5 5 3 5 5 5 5 5 5 5 5 3 5 5 5 5 5 5 3 5 5 5 5 5 5 3 5 5 5 5 3 5 5 3 5 3 5 5 3 5 5 5 5 5 5 3 5 5 5 5 3 5 5 5 5 5 5 5 5 3 3 5 5 5 5 5 5 5 5 3 5 5 5 5 5 5 3 5 5 5 5 5 5 5 3 5 5 5 3 5 5 5 5 5 5 5 5 5 5 5 5 3 5 5 5 5 3 5 5 3 5 5 5 5 3 5 5 5 3 3 5 5 5 3 5 5 5 3 5 5 5 5 5 5 5 5 5 3 5 5 5 3 5 5 5 5 5 5 5 5 5 5 5 5 3 5 3 5 5 3 5 5 3 5 5 5 5 5 5 5 3 5 5 5 5 5 3 5 3 5 5 5 3 3 5 3 3 5 3 5 5 5 5 5 5 3 5 3 5 5 5 5 5 5 5 5 5 5 5 5 5 3 5 5 3 5 3 5 5 3 5 5 5 3 3 5 5 3 5 5 5 5 5 5 5 5 5 5 5 5 5 5 5 5 5 5 5 5 5 5 5 3 3 5 3 5 3 5 5 3 3 5 5 3 5 5 3 5 5 3 5 3 5 5 5 5 3 5 5 5 5 3 5 3 3 5 3 5 5 3 3 5 5 5 3 5 5 5 5 3 3 5 5 5 5 5 3 5 5 5 5 5 5 5 5 5 5 5 3 5 3 5 3 5 5 3 5 3 5 5 5 5 5 5 5 5 3 5 5 3 5 5 5 5 3 5 5 5 5 5 5 5 5 5 5 5 5 3 5 5 5 5 5 5 5 5 5 5 5 3 5 5 5 5 5 5 3 5 3 5 5 3 5 5 5 5 5 5 5 5 5 5 5 5 5 5 5 5 5 3 3 5 5 5 3 5 5 3 5 5 5 5 5 5 5 5 5 5 5 5 5 5 5 5 5 5 5 5 5 5 5 5 5 3 3 5 5 5 5 5 5 5 5 5 5 5 3 5 5 5 5 5 5 5 5 5 5 5 5 5 5 5 5 5 5 5 5 5 5 5 5 5 5 5 5 5 5 5 5 5 3 5 5 5 5 5 3 5 5 3 5 5 3 3 5 5 5 5 5 5 5 5 5 5 5 5 5 3 5 5 3 5 5 5 5 5 5 3 5 5 3 5 5 5 5 5 5 5 5 5 5 5 5 5 3 5 5 5 5 5 5 5 3 5 5 5 5 5 5 5 5 5 5 5 5 3 5 5 3 5 5 5 5 5 5 5 5 5 5 5 5 5 5 5 5 5 5 5 5 3 5 5 3 5 3 5 5 5 3 5 5 3 5 3 5 5 5 3 5 5 5 5 3 5 5 5 5 5 5 5 3 5 5 5 3 5 5 5 5 5 5 5 5 5 5 5 5 3 5 5 5 5 5 5 5 5 3 5 5 5 5 5 5 5 5 5 5 5 3 5 5 5 5 5 5 5 5 5 5 5 5 5 5 5 5 5 5 5 3 3 5 5 5 3 5 5 5 5 5 5 5 5 5 5 5 5 3 5 5 5 5 5 5 5 5 5 3 5 5 5 5 5 5 5 5 5 5 5 5 5 5 5 5 3 5 3 5 5 5 5 5 3 5 5 5 5 3 5 5 5 3 5 5 5 3 5 5 5 5 5 5 5 5 5 3 5 5 5 3 5 5 3 5 5 5 5 5 5 3 5 5 5 5 5 5 5 5 3 5 5 5 3 5 5 5 5 5 5 5 5 5 5 5 5 5 5 5 5 5 5 5 5 5 5 5 5 5 5 5 3 5 5 5 5 5 5 5 3 5 5 5 5 5 5 5 5 5 5 5 5 5 5 5 5 5 5 5 5 5 5 5 5 5 3 5 3 5 5 5 5 5 5 3 5 5 5 3 5 5 3 5 5 5 5 5 5 5 5 5 5 5 5 3 5 5 5 5 5 3 5 5 5 5 5 5 5 5 5 5 5 5 5 3 5 5 5 3 5 5 5 5 5 5 5 5 5 5 5 5 3 3 5 5 5 5 3 5 5 5 5 5 5 5 5 5 3 3 5 5 5 5 5 3 5 5 5 5 5 3 5 5 5 5 5 3 5 3 5 5 5 5 3 5 3 5 3 3 5 5 5 5 5 5 5 3 3 5 5 5 5 5 5 3 3 3 5 3 3 5 5 5 3 5 5 5 5 5 3 3 3 5 3 5 5 5 3 5 3 3 5 5 5 5 5 5 5 3 3 5 5 3 3 3 5 5 5 5 5 5 5 5 5 5 5 5 5 5 5 5 5 5 5 5 5 5 5 5 5 5 5 5 5 5 5 5 5 5 5 5 5 5 5 5 3 5 5 5 5 5 5 5 5 5 5 3 5 5 5 5 5 5 3 5 5 3 5 5 5 5 5 5 5 5 5 5 5 5 5 3 5 3 5 5 5 5 3 5 5 5 3 5 5 3 5 5 5 3 5 5 3 5 5 5 5 5 3 5 5 5 5 5 5 5 3 5 5 5 5 5 5 5 3 5 5 3 5 5 5 5 3 5 3 5 5 5 5 5 3 5 5 5 5 3 5 5 5 5 5 5 3 3 5 5 5 5 5 3 5 5 3 5 5 5 5 5 5 5 5 5 5 3 5 5 5 5 5 5 5 5 5 5 5 5 5 5 5 5 5 5 3 5 5 5 5 5 5 3 5 5 5 5 5 5 5 3 3 5 5 5 5 3 5 5 5 5 5 5 5 3 5 5 3 5 3 3 3 5 5 5 5 5 5 3 5 5 5 5 5 3 5 5 5 5 3 5 5 5 3 5 5 5 3 5 5 5 5 5 5 5 5 5 5 5 5 5 5 5 5 5 5 5 5 5 5 5 5 5 3 5 5 5 5 5 5 5 3 5 3 5 5 5 5 5 5 3 5 5 3 5 5 5 3 5 5 3 5 5 5 5 5 3 5 5 5 3 3 5 5 5 5 5 5 5 5 5 5 5 5 3 5 5 5 5 5 5 5 5 5 3 5 5 5 5 5 3 3 5 5 5 5 5 5 5 5 5 3 5 5 5 5 5 5 5 5 3 5 5 5 5 5 5 5 5 5 5 5 5 5 5 5 5 5 5 3 5 5 5 5 3 5 3 5 3 5 5 5 5 5 5 5 5 5 5 5 5 5 5 5 5 5 3 5 5 5 5 5 3 5 5 5 3 3 5 5 5 5 5 3 5 5 5 5 3 5 5 5 5 5 5 5 5 3 5 5 5 5 5 5 5 3 5 5 5 5 5 5 5 5 5 3 5 5 5 5 5 5 5 5 5 5 5 5 5 5 5 5 5 5 3 5 5 5 5 5 5 5 5 5 5 5 5 5 3 5 5 5 5 5 5 3 5 5 3 5 5 3 5 5 5 5 5 5 5 5 5 5 5 5 5 5 5 5 5 5 5 5 5 5 5 5 5 5 3 5 3 5 3 3 5 5 5 3 5 5 5 5 5 5 5 5 5 3 3 5 3 5 5 5 5 5 5 5 5 5 5 5 5 5 5 3 5 3 3 5 3 5 5 5 5 5 5 5 5 5 3 3 5 5 5 5 5 5 5 5 5 5 5 5 5 5 5 5 5 5 5 5 5 5 3 5 5 5 5 5 3 5 5 5 5 5 3 5 5 5 3 5 5 5 5 5 5 5 5 5 3 5 5 5 5 3 5 5 5 5 5 5 3 5 5 5 5 5 5 5 3 5 5 5 5 3 5 5 5 5 5 5 5 5 5 5 3 5 5 5 5 3 5 5 5 3 5 5 5 5 5 3 5 5 5 5 5 5 5 5 5 5 5 5 5 5 3 3 5 5 3 5 5 5 5 5 5 5 3 5 5 5 5 5 5 3 5 5 5 5 5 5 5 5 5 5 5 5 5 5 5 5 5 5 5 5 5 5 5 3 5 5 5 5 5 5 5 5 3 5 5 5 5 3 5 5 5 5 5 3 5 3 5 3 5 5 5 5 5 5 5 3 5 5 5 3 5 5 5 5 5 3 5 5 5 5 5 3 5 3 5 5 3 5 3 5 5 5 5 5 3 5 5 5 3 5 5 5 5 5 5 5 5 5 5 3 5 5 5 5 5 5 5 5 5 5 5 5 5 5 5 5 5 5 5 5 5 5 3 5 5 5 5 5 5 5 5 5 5 5 5 5 5 5 5 5 5 3 5 5 5 3 5 5 5 5 5 5 3 5 5 5 3 3 5 3 5 3 3 5 3 5 5 3 5 5 3 3 5 5 5 5 5 5 5 5 3 5 3 5 5 5 5 5 5 5 5 5 5 5 5 5 5 5 5 5 5 5 5 5 5 3 5 5 5 5 5 5 5 5 3 5 5 3 5 5 3 3 5 5 3 5 5 5 5 5 5 5 5 5 5 5 5 5 5 5 5 5 5 5 5 5 5 5 5 5 5 5 5 5 5 5 5 5 5 5 5 5 5 5 3 5 3 5 5 5 5 5 5 5 5 5 5 5 5 5 5 5 5 5 5 5 5 5 5 5 5 5 5 5 5 5 5 5 5 5 5 5 5 5 5 5 5 3 5 5 3 5 5 5 5 5 3 5 3 5 5 3 5 5 5 5 5 5 3 5 5 5 5 5 5 5 5 5 5 5 3 5 5 3 3 5 3 5 5 3 5 5 5 5 3 5 5 5 5 5 5 5 5 5 3 5 3 5 5 5 5 5 5 5 3 5 3 5 5 5 5 5 5 5 5 5 3 5 3 5 5 5 5 5 5 5 5 5 5 3 5 5 5 3 5 5 3 5 5 3 5 5 5 5 3 5 5 5 3 5 5 5 5 5 5 5 5 5 5 5 5 5 5 3 5 5 5 5 5 5 3 5 3 5 3 5 5 5 3 5 5 5 5 5 5 5 5 3 5 5 5 5 5 3 5 5 3 5 5 5 5 5 5 5 5 5 3 5 5 5 3 5 5 5 5 5 5 3 5 5 5 5 5 5 5 5 5 5 5 5 5 5 5 5 5 5 5 5 5 5 5 5 5 5 5 5 5 5 5 3 5 5 5 5 5 3 5 5 3 3 5 5 5 5 3 5 5 5 5 5 3 5 5 5 5 5 5 5 5 5 5 5 5 5 5 5 5 3 5 5 5 5 5 5 5 5 3 3 5 5 5 5 5 5 3 5 5 5 5 3 5 5 5 5 5 5 5 5 5 5 5 5 5 5 5 5 5 5 5 5 5 5 5 5 3 5 5 3 5 5 5 5 5 5 5 5 5 5 5 5 5 5 5 5 5 5 5 5 5 5 5 5 5 5 5 3 5 3 5 5 5 5 5 3 5 5 5 5 5 5 5 5 5 5 5 5 5 5 5 5 5 5 5 5 3 3 5 3 5 5 5 5 5 5 5 5 5 5 5 5 5 5 5 5 3 5 5 5 3 5 5 5 5 5 5 5 5 5 5 5 5 5 3 5 5 5 5 5 5 5 5 5 5 5 5 5 5 5 5 5 5 5 5 5 5 3 5 5 5 5 5 5 5 5 5 5 5 5 5 3 5 3 5 5 3 3 5 5 5 5 5 5 5 5 5 5 5 5 5 5 5 5 5 5 5 5 3 5 5 3 5 5 5 3 5 5 5 5 5 5 3 5 5 5 3 5 5 5 5 5 5 5 5 3 5 5 3 5 5 3 5 3 5 5 5 5 3 3 5 5 3 3 5 5 3 5 5 5 5 3 5 5 3 3 5 3 5 5 5 5 5 5 5 5 5 5 5 5 5 5 5 5 5 5 5 5 3 5 5 5 5 3 5 5 5 5 3 3 5 5 5 5 5 5 5 5 5 5 5 5 3 5 5 5 3 5 5 5 5 5 5 5 3 5 5 5 3 5 5 3 3 5 5 5 3 5 5 5 3 5 5 5 5 5 5 5 5 5 5 5 5 5 5 5 5 5 5 3 5 5 5 5 5 5 5 5 5 5 5 5 5 5 5 5 5 5 3 3 5 5 5 5 5 3 3 5 3 5 5 5 5 5 5 5 5 5 3 5 5 5 3 5 5 5 5 5 5 5 5 5 5 5 5 5 5 3 5 5 5 5 5 5 5 3 5 5 3 5 5 5 5 5 5 3 5 5 5 5 3 5 5 5 5 5 5 3 5 5 5 5 5 5 5 5 3 3 5 5 5 3 3 5 5 5 5 5 3 5 5 5 5 5 5 3 5 5 5 5 3 5 5 5 5 5 3 5 5 5 5 3 5 5 5 5 5 5 5 5 5 5 5 5 5 5 5 5 5 5 5 5 5 5 5 5 5 3 5 5 5 5 3 5 3 5 3 5 5 3 5 5 3 5 5 3 5 5 5 5 5 5 3 5 5 3 5 3 3 3 5 5 3 5 3 3 5 5 5 3 5 3 5 5 5 5 5 5 3 5 5 5 3 5 5 5 5 5 5 5 3 5 5 5 3 5 3 3 5 5 5 5 5 5 5 3 5 5 5 5 5 5 5 5 3 3 5 5 5 5 3 5 5 3 5 5 5 3 5 5 5 3 3 5 5 5 5 3 5 5 5 5 5 3 3 5 5 5 5 5 5 5 5 5 5 5 5 5 5 5 5 5 5 5 5 5 5 5 5 5 5 5 5 5 5 5 3 5 5 5 3 5 5 5 5 5 5 5 5 5 5 5 5 5 5 5 3 5 3 3 5 5 3 5 5 5 5 5 5 5 5 5 5 5 5 5 5 5 5 5 5 5 5 5 5 5 3 5 5 3 3 5 5 5 5 5 5 5 3 5 5 5 3 5 5 5 5 3 3 5 5 5 5 5 5 5 3 5 5 5 5 3 5 5 5 5 3 5 5 5 5 5 5 5 5 5 5 5 5 5 5 5 5 5 5 5 3 5 5 5 5 5 5 5 5 5 5 5 5 5 5 5 5 3 5 5 5 3 5 5 5 5 5 5 5 5 5 3 5 5 5 5 5 5 5 5 5 5 5 5 5 5 5 5 5 5 5 5 5 3 5 5 5 5 5 5 5 5 5 5 5 5 5 5 5 5 5 3 5 5 5 5 5 3 5 5 5 5 5 5 5 5 5 5 5 5 5 5 5 5 5 5 5 5 5 5 5 5 5 5 5 3 5 5 3 5 5 5 3 5 5 5 5 5 5 5 5 5 5 5 5 5 5 5 3 5 3 5 5 5 5 5 5 5 5 5 3 5 5 5 5 5 5 5 5 5 3 3 5 5 5 5 5 5 5 5 5 5 5 5 5 5 5 5 5 5 5 5 5 5 5 5 5 5 5 5 5 5 5 5 5 5 5 5 5 5 5 5 5 5 5 5 5 5 5 5 5 5 5 5 5 5 5 5 5 5 5 5 5 5 5 5 5 5 5 5 5 5 5 3 5 5 5 5 5 5 3 5 5 5 5 5 5 5 5 5 3 5 3 5 5 5 5 5 5 5 5 5 5 5 5 5 5 5 5 5 5 5 5 5 5 5 5 5 5 5 5 5 5 5 5 5 5 3 5 5 5 3 3 5 5 5 5 5 5 5 5 5 5 5 5 5 5 5 5 5 5 5 5 5 5 3 3 5 5 5 5 5 5 5 5 3 5 5 5 5 5 5 3 5 5 5 5 5 3 5 5 5 5 3 5 5 5 3 5 5 5 3 5 5 3 5 5 5 5 5 5 5 5 5 5 5 5 5 3 5 5 5 5 5 5 5 5 3 5 5 5 5 5 5 5 5 5 5 5 3 5 5 5 3 5 5 5 5 3 5 5 5 5 5 5 5 5 3 5 3 5 5 3 5 5 5 5 5 3 5 5 5 5 5 5 5 5 5 5 5 5 3 5 5 5 5 5 5 5 5 5 3 5 5 5 5 5 5 3 5 5 5 5 5 5 5 3 5 5 5 5 5 3 5 5 5 5 5 5 5 5 5 5 5 5 5 5 5 5 5 5 5 5 5 5 5 5 5 5 5 5 5 5 5 5 5 5 5 5 5 5 5 5 5 5 5 5 5 5 5 3 5 3 5 5 5 5 5 5 5 5 5 5 5 5 5 5 3 5 5 5 5 5 5 5 5 5 5 5 5 5 5 5 3 5 5 3 5 3 5 5 5 5 5 3 5 5 5 5 5 5 5 5 5 5 5 5 5 5 5 5 5 5 5 5 3 5 5 5 5 5 5 5 5 5 5 5 3 5 3 5 5 3 5 3 5 5 5 5 5 5 5 3 5 3 5 5 5 5 3 5 5 5 5 3 3 5 5 3 5 5 5 5 5 5 5 5 5 5 5 5 5 5 5 5 3 5 5 5 5 5 5 5 5 5 5 5 5 5 5 3 5 3 5 5 5 5 5 5 5 3 5 3 5 5 5 5 5 5 5 5 5 3 3 5 5 5 3 5 5 5 5 3 5 3 5 5 3 5 3 3 3 5 5 3 5 5 5 3 3 3 5 5 5 5 5 5 5 5 5 5 5 3 5 5 5 5 5 5 3 5 5 5 3 5 5 5 5 5 5 5 5 3 5 5 5 3 5 5 5 5 5 5 5 5 5 5 5 5 5 5 5 5 5 5 5 5 5 5 5 5 5 5 5 5 5 5 5 5 5 5 5 5 5 5 5 5 5 5 5 5 5 5 5 5 5 5 5 5 5 5 5 5 5 5 5 5 3 5 5 5 5 5 3 5 5 5 5 3 5 5 5 3 5 5 5 5 5 5 5 5 5 5 5 5 5 5 5 5 5 5 5 5 5 5 5 5 5 5 5 5 5 5 5 5 5 5 5 5 5 5 5 5 3 5 5 3 5 5 5 5 5 5 5 3 5 5 5 5 5 5 5 5 5 5 5 3 5 5 3 5 3 5 5 5 3 5 5 5 5 5 5 5 5 3 5 5 5 5 3 5 5 5 5 3 5 3 5 5 5 5 5 5 5 5 5 5 5 5 3 5 3 5 5 5 5 5 5 5 5 5 5 5 5 5 3 5 5 5 5 5 5 5 5 5 3 5 5 5 3 5 5 5 5 5 5 5 5 5 5 5 5 5 5 5 5 5 5 5 5 5 5 5 5 5 5 5 5 5 5 5 5 5 5 5 3 5 5 3 5 5 5 5 3 5 5 5 5 5 5 5 5 5 5 5 5 5 5 5 3 5 5 5 5 5 5 5 5 5 3 5 3 5 5 5 5 5 5 5 3 5 5 5 5 5 5 5 5 5 5 5 5 5 5 3 5 5 5 5 5 5 5 5 5 5 5 3 5 5 5 5 5 5 5 5 5 5 5 5 5 5 5 5 5 5 5 5 5 5 5 3 5 3 5 5 5 5 5 5 3 5 3 5 5 5 3 5 5 5 3 5 5 5 3 5 5 3 5 5 5 5 5 5 5 3 5 5 5 5 5 5 5 3 5 5 5 5 5 5 5 5 5 5 5 5 5 3 5 5 5 5 5 5 5 5 3 5 5 5 5 5 5 5 5 5 5 5 5 5 5 5 5 5 5 5 5 3 5 5 5 5 5 5 5 5 5 5 5 5 5 5 5 5 5 5 5 5 5 5 5 5 5 5 5 5 5 5 5 5 5 5 5 5 5 5 5 5 5 5 5 5 5 5 5 5 5 5 3 5 3 5 5 5 3 5 5 3 3 5 3 5 5 5 5 5 5 5 5 5 5 5 5 5 5 5 5 5 5 5 5 5 5 5 5 5 5 5 5 5 5 5 5 5 5 5 3 5 5 5 5 3 5 5 3 5 5 5 3 5 5 5 5 3 5 3 3 5 5 5 5 3 5 5 5 3 5 5 5 3 5 5 5 5 5 5 3 5 5 5 5 5 5 5 5 5 5 5 5 5 5 5 5 5 5 5 5 3 5 5 5 5 5 5 5 5 5 5 5 5 5 5 5 5 5 5 3 5 5 3 5 5 3 5 5 5 5 5 5 5 5 5 5 5 3 5 5 5 5 3 5 5 5 5 3 5 5 5 3 5 5 5 5 5 5 5 5 5 5 5 5 5 5 5 5 5 5 5 5 5 5 5 5 5 3 5 5 5 5 5 5 5 5 3 5 5 5 3 5 5 5 5 5 5 5 5 5 5 5 5 5 5 5 5 5 5 5 5 5 5 5 5 3 5 5 5 3 5 5 5 5 5 5 5 5 3 5 5 3 5 5 5 5 3 5 5 5 5 5 5 5 3 5 3 5 5 3 5 5 3 3 5 5 5 5 5 5 5 5 5 5 5 5 5 5 5 5 5 5 5 5 5 3 5 5 5 5 3 5 5 5 5 5 5 5 5 5 5 5 5 5 3 5 5 3 5 5 5 5 5 5 5 5 5 5 5 5 5 5 5 5 5 5 5 5 5 5 5 5 5 5 5 5 5 5 5 5 5 5 5 5 5 5 5 5 5 5 5 5 5 5 5 5 5 5 5 5 5 5 5 5 5 5 5 5 5 5 5 5 5 5 5 5 5 5 5 5 5 5 5 5 5 5 5 5 5 5 5 5 5 5 5 5 5 5 5 5 5 5 5 5 5 5 5 5 5 5 5 5 5 5 5 5 5 5 5 5 5 5 5 5 5 5 5 5 5 5 5 5 5 5 5 5 3 5 5 5 5 5 5 5 3 5 5 5 5 5 5 5 5 5 3 5 3 5 5 5 3 5 5 3 5 5 5 5 5 5 5 5 5 5 5 5 5 5 5 5 5 5 5 5 5 5 5 5 5 5 5 5 5 5 5 5 5 5 5 5 5 3 5 5 3 3 5 5 3 5 5 3 5 5 5 3 5 5 5 5 5 5 5 5 5 3 5 5 5 5 5 5 3 5 5 5 5 5 5 5 5 5 5 5 5 5 5 5 5 5 5 5 5 5 5 5 5 5 5 5 5 5 5 5 3 5 5 5 5 5 5 5 5 5 5 5 5 5 5 5 5 5 5 5 5 5 5 5 5 5 5 5 5 5 5 5 5 5 5 5 5 5 5 5 5 5 5 5 5 5 5 3 5 3 5 5 5 5 3 5 5 5 5 3 5 5 5 5 3 5 5 5 5 5 5 5 5 3 5 5 3 5 3 5 5 5 5 3 5 5 3 3 5 5 5 5 5 5 3 5 5 5 5 5 5 5 5 5 5 3 3 5 5 5 5 5 3 5 5 3 5 5 5 5 3 5 5 3 5 5 5 5 5 5 5 5 5 5 5 5 5 5 5 5 5 5 5 5 5 5 5 5 5 5 5 5 5 3 5 3 5 5 5 5 5 5 5 5 5 5 5 5 5 3 5 5 5 5 3 3 5 5 5 5 5 5 5 5 5 5 5 5 5 5 5 5 5 5 5 5 5 5 5 5 5 5 5 5 5 5 5 5 5 5 5 5 5 5 5 5 5 5 3 5 5 5 3 5 5 5 5 5 5 5 5 5 5 5 5 5 5 5 5 5 5 5 5 3 5 5 3 5 5 5 5 5 5 5 5 5 3 5 5 5 5 5 3 5 5 5 5 5 3 5 3 5 5 5 5 5 5 5 5 5 5 5 5 5 3 5 5 5 3 3 5 5 5 5 5 5 5 5 3 5 5 3 5 5 3 3 5 5 5 5 5 3 5 5 5 5 5 5 5 3 5 5 3 3 5 5 5 5 5 5 3 3 5 5 5 3 5 5 5 5 5 5 5 3 5 5 5 5 5 5 5 5 5 5 5 5 5 5 5 5 5 5 5 5 5 5 5 5 5 5 3 5 5 5 5 5 5 5 3 5 5 5 5 5 5 5 5 5 5 5 3 5 5 5 5 5 5 5 5 3 5 5 5 5 5 5 5 5 5 5 5 5 5 5 5 5 3 5 5 5 3 5 5 5 5 5 3 5 5 5 5 5 5 5 5 5 5 5 5 5 5 3 5 5 5 5 3 5 5 3 5 5 5 5 5 3 5 5 5 5 5 5 5 5 5 5 5 5 5 5 3 5 3 5 5 5 3 5 3 5 3 5 5 5 5 5 5 3 3 5 5 5 5 5 5 3 5 3 5 5 5 5 5 5 5 5 5 5 5 5 5 5 5 5 5 3 5 5 5 3 3 5 5 5 5 5 3 5 5 3 3 5 5 5 5 5 5 5 5 5 5 5 5 5 5 5 5 5 5 5 5 5 5 5 5 5 5 5 5 5 5 5 5 5 5 5 5 5 5 5 5 5 5 5 5 3 5 5 3 3 3 5 5 5 5 5 5 3 5 5 5 5 5 5 5 5 5 3 5 5 5 3 5 5 5 5 5 5 5 5 5 5 5 5 5 5 5 5 5 5 5 5 3 5 5 5 5 3 5 5 5 5 5 5 5 5 5 5 5 5 5 5 5 5 5 5 5 5 5 5 5 5 5 5 5 5 5 5 5 5 5 5 3 5 3 5 5 5 5 5 5 5 5 3 5 5 5 3 5 3 5 5 5 5 5 5 5 5 3 5 5 5 5 3 5 5 5 5 3 5 5 5 5 5 5 5 3 5 5 5 5 3 5 5 5 5 5 5 5 5 5 5 5 5 5 5 5 5 5 5 5 5 5 5 5 5 5 5 5 5 5 5 5 5 5 5 5 5 5 5 5 5 5 5 5 5 5 5 3 5 5 5 5 3 3 5 5 3 3 5 5 5 5 5 5 5 5 5 5 5 5 5 5 5 5 5 5 5 3 5 5 5 3 3 5 5 5 5 5 5 5 5 5 5 5 5 5 5 5 5 5 5 5 5 5 5 5 5 5 5 5 3 5 5 5 5 5 5 5 3 5 5 5 5 5 5 5 5 5 5 5 5 5 5 5 3 5 5 5 5 5 5 5 5 3 5 3 3 5 5 5 5 5 5 5 5 5 5 5 5 3 5 5 5 5 5 5 5 5 5 5 5 5 5 5 5 5 5 5 3 5 5 5 3 5 5 5 5 5 5 5 5 3 5 5 5 5 5 5 5 5 5 5 5 5 5 5 5 3 5 5 5 3 5 5 5 5 5 5 5 5 5 5 5 5 5 5 5 5 5 5 5 5 5 5 5 5 5 5 5 5 5 5 5 5 5 3 5 3 5 5 5 5 5 5 5 5 3 5 5 5 5 5 5 5 5 5 3 5 5 3 5 5 5 5 5 3 5 5 5 5 3 5 5 5 5 3 5 5 5 3 5 3 5 5 3 5 5 5 5 5 5 5 5 5 5 5 5 5 5 3 5 5 3 5 3 5 5 5 3 5 5 3 5 5 5 5 3 5 3 5 5 5 5 5 5 3 5 3 5 5 5 5 5 3 5 5 5 5 3 5 5 5 5 5 5 3 5 5 5 5 5 5 5 5 5 5 5 5 5 5 5 5 5 5 5 5 5 5 5 5 5 5 5 5 5 5 5 5 5 3 3 5 5 5 5 5 5 5 5 5 5 3 5 5 3 3 5 3 5 5 5 5 5 5 5 3 5 5 5 5 5 5 5 5 5 5 5 5 3 5 5 5 5 3 5 5 5 5 5 5 5 5 5 5 5 5 3 5 5 5 5 5 5 5 5 5 5 5 5 5 5 5 5 5 3 5 5 5 5 5 3 5 5 5 3 5 5 5 5 5 5 3 5 3 5 5 5 3 5 5 5 5 5 5 5 5 5 3 5 5 3 5 5 5 5 5 5 5 3 5 5 5 5 5 5 5 5 5 5 5 5 5 3 5 5 3 5 5 5 5 5 5 3 5 5 5 5 5 5 3 5 5 5 5 5 5 5 3 5 5 5 5 5 5 5 5 5 5 5 5 5 5 5 5 5 5 5 5 5 5 3 5 5 5 5 5 5 5 5 5 5 3 5 5 5 5 3 3 5 5 5 5 3 5 5 5 5 5 5 5 5 5 3 5 5 5 5 5 5 5 5 5 5 5 3 5 5 5 3 5 5 5 3 5 5 5 5 5 5 5 5 5 5 5 5 3 5 5 5 5 5 3 5 5 3 5 5 5 5 5 5 5 5 5 5 5 5 5 5 3 5 5 5 5 5 5 5 3 5 5 5 3 5 5 5 5 5 3 5 5 5 5 5 5 5 5 5 3 5 5 5 5 5 5 5 5 3 5 5 5 5 5 3 5 5 5 5 5 5 5 3 5 5 5 5 5 5 5 5 5 5 5 5 5 5 5 5 5 5 5 5 5 5 5 5 5 5 5 5 5 5 5 5 5 5 5 5 5 5 5 5 5 5 5 5 5 5 5 5 3 5 5 5 5 5 5 5 3 5 5 5 5 5 5 5 5 5 5 5 5 5 5 5 5 5 5 5 5 5 5 3 3 5 5 3 3 5 5 5 5 5 5 5 3 5 5 5 5 5 5 5 5 5 5 5 5 5 5 3 5 5 5 5 5 5 5 5 3 5 5 3 5 5 5 3 5 5 5 5 5 5 5 5 5 5 5 5 5 5 5 5 5 5 5 5 5 5 5 5 5 5 5 5 3 5 5 5 5 5 5 5 5 3 5 5 5 5 5 5 3 3 5 5 5 5 3 5 5 3 5 5 3 5 5 5 5 5 5 3 5 5 5 5 5 5 5 5 3 5 5 5 5 5 5 5 5 5 5 5 3 5 5 3 5 5 5 5 5 5 5 3 5 5 5 3 5 3 5 3 5 5 5 5 5 5 5 5 5 5 5 5 5 5 5 5 5 3 5 3 5 5 5 5 5 5 5 5 5 5 3 5 5 5 5 5 5 5 3 5 5 5 3 5 3 3 5 5 3 5 5 5 5 3 5 5 5 3 5 5 5 3 5 3 3 5 5 5 5 5 5 3 5 5 5 5 5 5 5 5 3 3 3 5 3 5 5 3 3 5 5 3 5 5 5 5 5 5 5 5 5 5 5 3 5 5 5 5 5 5 5 5 5 5 5 5 5 3 3 5 5 5 5 3 5 5 5 3 5 5 5 5 5 3 3 5 5 5 3 5 5 5 5 5 5 5 5 5 5 5 5 5 5 5 3 5 5 5 3 5 5 5 3 5 5 5 5 5 5 3 5 5 5 5 5 3 5 5 5 5 5 5 5 5 3 5 5 5 5 5 5 5 5 5 3 5 5 5 5 3 5 3 5 5 3 5 3 5 5 5 5 5 5 3 5 3 3 5 5 5 5 5 5 5 5 3 5 3 5 3 5 3 5 5 5 5 5 5 5 5 5 5 5 3 5 5 5 3 5 5 5 5 5 5 5 5 3 5 5 5 5 5 5 5 5 5 3 5 5 5 5 3 5 5 3 5 5 5 5 5 5 5 5 5 3 5 5 5 3 5 5 5 5 5 5 5 5 5 5 5 5 5 5 5 5 5 5 5 3 5 5 5 5 5 5 5 5 5 5 3 5 5 5 5 5 5 5 5 5 5 5 5 5 5 5 5 5 5 5 5 5 5 5 5 5 5 5 5 5 5 5 5 5 5 5 5 5 5 5 5 5 5 5 5 5 3 3 5 5 5 5 5 5 5 5 5 5 5 5 5 3 3 5 5 5 3 5 5 3 5 5 5 3 5 5 5 3 5 5 5 5 5 5 5 5 3 5 5 3 5 3 3 5 5 5 5 5 5 3 5 3 3 3 5 5 3 5 5 3 3 5 5 5 5 5 5 5 5 5 5 5 5 5 5 5 5 5 5 5 5 5 3 5 5 5 5 5 5 5 5 5 3 5 5 5 5 5 5 5 3 3 5 5 5 5 5 5 5 5 5 5 5 5 5 5 5 5 5 5 5 5 5 5 5 3 5 3 5 5 5 5 5 5 5 3 5 5 5 3 3 5 5 3 5 5 5 5 3 5 5 5 3 5 5 5 3 5 5 5 5 5 5 5 5 5 3 3 5 5 5 5 5 3 5 5 3 3 3 5 5 5 5 5 3 5 5 5 5 5 5 5 5 5 3 5 3 5 5 5 5 5 5 5 5 5 5 5 5 5 5 5 5 5 5 5 5 5 5 5 5 3 5 5 5 5 3 3 5 5 5 3 5 5 5 5 5 5 5 5 5 5 5 5 5 5 5 5 3 5 5 5 3 5 5 3 5 5 5 5 5 5 5 5 5 5 5 5 5 3 5 5 3 5 5 5 3 5 3 5 3 5 3 3 3 5 5 5 5 5 5 5 5 3 5 5 5 5 5 5 5 5 3 5 5 3 5 5 5 5 5 5 5 5 5 5 5 5 5 5 5 5 5 5 5 5 5 3 5 5 5 5 5 5 5 5 5 5 3 5 3 5 5 3 5 3 5 3 5 5 3 5 3 5 5 3 5 5 5 3 5 5 5 5 5 5 5 5 5 5 5 5 5 5 5 5 5 5 5 5 5 5 5 5 5 5 5 5 5 5 5 5 5 5 5 5 5 5 5 5 5 5 5 5 5 5 5 5 5 5 5 5 5 5 5 5 5 5 5 5 5 3 5 5 3 5 5 5 5 5 5 3 3 5 5 5 5 5 5 5 5 5 5 5 5 5 5 5 5 5 5 3 5 5 5 3 5 5 5 5 5 5 5 5 5 5 5 5 5 5 5 5 3 5 5 5 5 5 5 5 3 5 5 5 5 5 5 5 5 3 5 3 5 5 5 5 5 5 5 5 5 5 5 5 5 5 5 5 3 5 5 5 5 5 5 5 3 5 5 5 5 3 5 5 5 5 5 5 5 3 5 5 3 3 5 5 3 5 5 5 5 5 5 3 5 5 5 5 5 5 5 5 5 3 5 5 3 5 5 3 5 5 3 5 5 5 5 5 3 5 5 5 5 5 5 5 5 3 5 5 5 5 5 5 5 3 5 5 5 5 5 5 5 5 5 5 5 5 3 5 5 5 5 5 5 5 3 3 5 3 5 3 5 5 5 5 5 5 5 5 5 5 5 5 5 5 5 3 5 3 5 5 5 5 5 5 5 5 3 5 3 5 3 5 3 5 3 5 5 3 5 5 5 5 5 3 5 5 5 5 5 5 5 5 3 5 5 5 5 5 3 5 5 3 5 3 3 5 5 5 5 5 5 5 5 3 5 5 5 5 5 5 5 5 5 5 5 5 5 3 5 5 5 5 5 5 5 3 5 5 5 3 5 5 5 5 5 5 5 5 5 5 5 5 5 5 5 5 5 3 5 5 5 5 5 5 5 3 5 5 3 5 5 5 5 5 5 5 5 5 5 5 5 5 5 5 3 5 5 5 5 3 5 5 5 5 5 5 5 5 5 5 5 5 5 5 5 5 5 5 5 5 5 5 5 5 5 3 5 5 5 5 5 5 3 5 5 5 5 5 5 5 5 5 3 3 5 5 5 3 5 3 5 5 5 5 5 5 5 5 5 5 5 5 5 5 5 3 5 5 5 5 5 5 5 5 5 5 5 5 3 3 5 5 5 5 5 5 5 5 3 5 5 3 5 5 3 3 5 5 5 5 5 5 5 3 5 5 5 5 5 5 5 5 5 3 5 5 5 3 5 5 5 5 5 3 5 5 5 5 5 5 5 5 5 5 5 5 3 5 5 5 3 5 5 5 3 5 5 5 5 5 5 5 5 5 5 5 5 5 5 5 5 5 5 5 5 5 5 5 5 5 5 5 5 5 5 5 5 3 5 5 5 5 5 5 5 5 5 5 5 5 5 5 5 5 5 5 5 5 5 5 5 5 3 5 3 5 5 3 5 5 5 5 5 5 5 5 5 3 5 5 5 5 5 5 5 5 5 5 5 5 5 5 3 5 5 5 5 3 5 5 5 3 5 5 5 5 5 5 5 5 5 5 5 5 5 5 5 5 5 5 5 5 5 5 5 5 5 5 5 5 5 5 5 5 5 5 5 5 5 5 5 5 5 5 5 5 5 5 5 5 5 5 5 5 5 5 5 5 5 5 5 5 5 5 5 5 5 5 5 5 5 5 5 5 5 5 5 5 5 5 5 5 5 5 5 5 5 5 5 5 5 5 5 5 5 5 5 5 5 5 5 5 5 5 5 5 5 5 5 5 5 5 5 5 5 5 5 5 5 5 5 5 5 5 5 5 5 5 5 5 5 5 5 5 5 5 5 5 5 5 5 5 5 5 5 5 5 5 5 5 5 5 5 5 5 5 5 5 5 5 5 5 5 5 5 5 5 5 5 5 5 5 5 5 5 5 5 5 5 5 5 5 5 5 5 5 5 5 5 5 5 3 5 5 5 5 5 5 5 5 5 5 5 5 5 5 5 5 3 5 5 5 5 5 5 5 5 3 5 5 5 5 3 5 5 5 5 5 5 5 5 5 5 5 5 5 5 5 5 5 5 5 5 5 5 3 5 5 5 5 5 5 5 5 5 5 5 5 5 3 3 5 5 5 5 5 3 5 3 5 5 5 5 5 5 5 5 5 5 5 3 5 5 5 5 5 5 5 3 5 5 5 5 5 5 5 5 5 5 5 5 5 5 5 3 3 5 5 5 5 5 5 5 5 5 5 5 5 3 5 5 5 5 5 5 5 5 5 5 5 5 5 5 5 5 3 5 5 5 5 5 5 5 3 5 5 5 5 5 5 5 5 5 5 3 3 5 5 5 5 5 5 5 5 5 5 5 5 5 5 5 5 5 5 5 5 5 5 5 5 5 5 5 5 5 5 3 5 5 5 5 5 3 5 5 5 5 5 5 5 5 5 5 3 5 5 5 5 3 5 5 5 5 5 5 5 5 5 5 3 5 3 5 5 5 5 5 5 5 5 5 5 5 5 5 5 5 5 5 5 5 5 5 5 5 5 5 5 5 5 5 5 5 3 5 5 5 5 5 3 5 5 5 5 5 5 5 5 5 5 5 5 5 5 5 5 5 5 3 5 5 3 5 5 5 3 5 5 5 5 5 3 5 5 5 5 5 5 5 5 5 5 3 5 5 5 5 5 5 3 5 5 5 5 5 3 3 5 5 3 5 5 3 5 5 5 5 5 5 5 5 5 5 3 5 5 3 5 5 3 5 5 3 5 5 3 5 5 3 5 5 5 5 5 5 3 5 5 5 5 5 5 5 5 5 5 5 3 5 5 5 5 5 5 5 3 5 5 5 5 3 5 5 5 3 5 5 5 5 5 5 5 5 5 5 5 3 5 5 5 5 5 5 5 5 5 5 5 5 5 5 5 5 5 5 5 5 5 5 5 5 3 5 5 5 5 5 3 5 5 5 5 5 5 5 5 5 5 5 5 5 5 3 5 5 3 5 3 5 5 5 5 3 5 3 3 5 3 5 5 5 5 5 5 5 3 5 3 5 5 5 5 5 5 3 5 5 5 5 5 5 3 5 5 5 5 3 5 5 5 5 5 3 5 5 3 5 5 5 5 3 5 5 5 5 3 5 5 5 5 5 5 3 5 5 5 5 5 5 5 5 5 3 5 5 5 5 5 5 3 5 5 5 5 3 5 5 5 5 5 5 5 5 5 5 5 5 5 5 5 5 3 5 5 5 3 5 5 3 5 5 5 5 5 5 5 5 5 5 5 5 5 5 5 5 3 5 3 5 5 5 5 5 5 5 5 5 5 5 5 5 5 5 5 5 5 5 5 5 5 5 5 5 5 3 5 5 3 5 5 5 5 5 5 5 5 5 5 3 5 5 5 5 3 5 5 5 5 3 5 5 5 5 5 5 5 5 5 3 5 5 5 5 5 5 5 5 5 5 5 5 5 5 5 5 5 5 5 5 5 5 5 5 5 5 5 5 
</DataArray>
</Cells>
<PointData Scalars="" Vectors="displacement," Tensors="">
<DataArray type="Float64" Name="displacement" NumberOfComponents="3" format="ascii">
-0.064994652049552154 -4.9719793316576286e-07 0 -0.063355548176095469 -0.00033005068864317241 0 -0.064995647779042612 -1.3768196202679473e-06 0 -0.064994652049552154 -4.9719793316576286e-07 0 -0.062155268727024884 -0.00021874842803702604 0 -0.063355548176095469 -0.00033005068864317241 0 -0.064994652049552154 -4.9719793316576286e-07 0 -0.062155268727024884 -0.00021874842803702604 0 -0.058322105334448295 -4.8209549184683946e-07 0 -0.062155268727024884 -0.00021874842803702604 0 -0.058322105334448295 -4.8209549184683946e-07 0 -0.06099674359949047 0.00015281658858997844 0 -0.058322105334448295 -4.8209549184683946e-07 0 -0.06099674359949047 0.00015281658858997844 0 -0.057959196680770264 -0.00012518691624754176 0 -0.061609657958403632 0.00040686122555353246 0 -0.061930642707894785 0.00040823400686556134 0 -0.06099674359949047 0.00015281658858997844 0 -0.059872118536373767 0.00064774658532198905 0 -0.059769579649257665 0.00020831267759897597 0 -0.06099674359949047 0.00015281658858997844 0 -0.059769579649257665 0.00020831267759897597 0 -0.059870617473450967 2.0085873781293399e-05 0 -0.062155268727024884 -0.00021874842803702604 0 -0.06099674359949047 0.00015281658858997844 0 -0.063355548176095469 -0.00033005068864317241 0 -0.06099674359949047 0.00015281658858997844 0 -0.063355548176095469 -0.00033005068864317241 0 -0.063966293348683784 0.00050344748965373452 0 -0.063355548176095469 -0.00033005068864317241 0 -0.064785925279020357 -5.3075954467447497e-05 0 -0.063966293348683784 0.00050344748965373452 0 -0.063355548176095469 -0.00033005068864317241 0 -0.064995647779042612 -1.3768196202679473e-06 0 -0.064785925279020357 -5.3075954467447497e-05 0 -0.064999997788016656 1.8548707790363703e-10 0 -0.064997253130651564 -7.8208234617734785e-07 0 -0.064999996640743449 -1.0032629101009827e-09 0 -0.064997999244862159 7.8733992095893736e-07 0 -0.064010329274941269 0.0002512804538384024 0 -0.064999996640743449 -1.0032629101009827e-09 0 -0.064996756975035874 -1.4259781753268261e-06 0 -0.064998624966076099 -2.3274167208683422e-06 0 -0.064999996640743449 -1.0032629101009827e-09 0 -0.064999994461885771 -3.5214763026681478e-09 0 -0.064998624966076099 -2.3274167208683422e-06 0 -0.064997253130651564 -7.8208234617734785e-07 0 -0.064999996640743449 -1.0032629101009827e-09 0 -0.064996756975035874 -1.4259781753268261e-06 0 -0.064997253130651564 -7.8208234617734785e-07 0 -0.064996756975035874 -1.4259781753268261e-06 0 -0.064993219225009446 -1.1201565433362197e-06 0 -0.064010329274941269 0.0002512804538384024 0 -0.062485508711864146 0.00029843591677460924 0 -0.064996756975035874 -1.4259781753268261e-06 0 -0.064995983973134108 -1.5382682411309696e-06 0 -0.064993219225009446 -1.1201565433362197e-06 0 -0.064996756975035874 -1.4259781753268261e-06 0 -0.064995983973134108 -1.5382682411309696e-06 0 -0.064998624966076099 -2.3274167208683422e-06 0 -0.063466182160529599 0.00012440535088343506 0 -0.062485508711864146 0.00029843591677460924 0 -0.062187767926621257 0.00027154578810590464 0 -0.061847513727872463 0.0006730067943012556 0 -0.061363373813440231 0.0004763942403433213 0 -0.062187767926621257 0.00027154578810590464 0 -0.061847513727872463 0.0006730067943012556 0 -0.062280810787078242 0.00077004848623190485 0 -0.061847513727872463 0.0006730067943012556 0 -0.061363373813440231 0.0004763942403433213 0 -0.061758111095260949 0.0011682334810316857 0 -0.059287221045047432 0.00075943430347446834 0 -0.05906316964590342 0.00039035907528808106 0 -0.059504028367212872 0.00045801147813406308 0 -0.062485508711864146 0.00029843591677460924 0 -0.060879476303844014 0.00070350599365621015 0 -0.05906316964590342 0.00039035907528808106 0 -0.059504028367212872 0.00045801147813406308 0 -0.059378870352518209 0.00023134633871662113 0 -0.061758111095260949 0.0011682334810316857 0 -0.062280810787078242 0.00077004848623190485 0 -0.062412143353705783 0.0011998886069088837 0 -0.061847513727872463 0.0006730067943012556 0 -0.061758111095260949 0.0011682334810316857 0 -0.062280810787078242 0.00077004848623190485 0 -0.059287221045047432 0.00075943430347446834 0 -0.059872118536373767 0.00064774658532198905 0 -0.059504028367212872 0.00045801147813406308 0 -0.062485508711864146 0.00029843591677460924 0 -0.061930642707894785 0.00040823400686556134 0 -0.064785925279020357 -5.3075954467447497e-05 0 -0.065013562323765012 0.00044887046631006232 0 -0.063966293348683784 0.00050344748965373452 0 -0.059504028367212872 0.00045801147813406308 0 -0.059769579649257665 0.00020831267759897597 0 -0.059594012172504242 0.00025115724920672845 0 -0.059504028367212872 0.00045801147813406308 0 -0.059594012172504242 0.00025115724920672845 0 -0.059378870352518209 0.00023134633871662113 0 -0.059872118536373767 0.00064774658532198905 0 -0.059504028367212872 0.00045801147813406308 0 -0.059769579649257665 0.00020831267759897597 0 -0.059769579649257665 0.00020831267759897597 0 -0.059768262381479746 0.00012543876140203524 0 -0.059870617473450967 2.0085873781293399e-05 0 -0.059768262381479746 0.00012543876140203524 0 -0.059779252881001436 0.00020746688561339459 0 -0.059870617473450967 2.0085873781293399e-05 0 -0.059768262381479746 0.00012543876140203524 0 -0.059720689855738009 0.00013445025904566785 0 -0.059738615540870607 0.00015684373901156626 0 -0.059768262381479746 0.00012543876140203524 0 -0.059695110142108737 0.00016095392671416702 0 -0.059720689855738009 0.00013445025904566785 0 -0.059769579649257665 0.00020831267759897597 0 -0.059768262381479746 0.00012543876140203524 0 -0.059695110142108737 0.00016095392671416702 0 -0.059769579649257665 0.00020831267759897597 0 -0.059594012172504242 0.00025115724920672845 0 -0.059695110142108737 0.00016095392671416702 0 -0.059594012172504242 0.00025115724920672845 0 -0.059695110142108737 0.00016095392671416702 0 -0.059605046019423479 0.00013695741432197055 0 -0.059594012172504242 0.00025115724920672845 0 -0.059605046019423479 0.00013695741432197055 0 -0.059378870352518209 0.00023134633871662113 0 -0.059605046019423479 0.00013695741432197055 0 -0.059378870352518209 0.00023134633871662113 0 -0.059377309402506372 1.8147149135174581e-05 0 -0.053663361321229092 0.0015166180599360253 0 -0.053468796116252437 0.001622356280850622 0 -0.059605046019423479 0.00013695741432197055 0 -0.059676984346348425 0.00011170823109999447 0 -0.059617909780925446 1.0069180160795592e-05 0 -0.059605046019423479 0.00013695741432197055 0 -0.059555711744624672 -8.6786703474262924e-05 0 -0.059377309402506372 1.8147149135174581e-05 0 -0.053654234202419493 0.0016844062524401374 0 -0.053468796116252437 0.001622356280850622 0 -0.059676984346348425 0.00011170823109999447 0 -0.059738615540870607 0.00015684373901156626 0 -0.059753849393567926 0.00016556699733632493 0 -0.059695110142108737 0.00016095392671416702 0 -0.059720689855738009 0.00013445025904566785 0 -0.059676984346348425 0.00011170823109999447 0 -0.059695110142108737 0.00016095392671416702 0 -0.059605046019423479 0.00013695741432197055 0 -0.059676984346348425 0.00011170823109999447 0 -0.059720689855738009 0.00013445025904566785 0 -0.059676984346348425 0.00011170823109999447 0 -0.059738615540870607 0.00015684373901156626 0 -0.059738615540870607 0.00015684373901156626 0 -0.059753849393567926 0.00016556699733632493 0 -0.059752608182718749 0.00021766288677656394 0 -0.053468796116252437 0.001622356280850622 0 -0.052035908336352556 0.0012749793720895847 0 -0.059753849393567926 0.00016556699733632493 0 -0.059752608182718749 0.00021766288677656394 0 -0.059776465527972604 0.00027649465524504666 0 -0.059752608182718749 0.00021766288677656394 0 -0.059779252881001436 0.00020746688561339459 0 -0.05972816570493019 0.00029344605785263381 0 -0.059779252881001436 0.00020746688561339459 0 -0.05972816570493019 0.00029344605785263381 0 -0.059738840118912263 0.00033458655274706708 0 -0.059738615540870607 0.00015684373901156626 0 -0.059752608182718749 0.00021766288677656394 0 -0.059779252881001436 0.00020746688561339459 0 -0.059768262381479746 0.00012543876140203524 0 -0.059738615540870607 0.00015684373901156626 0 -0.059779252881001436 0.00020746688561339459 0 -0.05906316964590342 0.00039035907528808106 0 -0.058783215512339448 -1.4602074667413311e-05 0 -0.059139479567229848 4.4996379536329496e-05 0 -0.061758111095260949 0.0011682334810316857 0 -0.062148572745395467 0.0018339218518217961 0 -0.062412143353705783 0.0011998886069088837 0 -0.060879476303844014 0.00070350599365621015 0 -0.059631842055286273 0.0013583479605823749 0 -0.058783215512339448 -1.4602074667413311e-05 0 -0.059139479567229848 4.4996379536329496e-05 0 -0.058993746593567001 -0.00016051827648880761 0 -0.05906316964590342 0.00039035907528808106 0 -0.059139479567229848 4.4996379536329496e-05 0 -0.059378870352518209 0.00023134633871662113 0 -0.059139479567229848 4.4996379536329496e-05 0 -0.059378870352518209 0.00023134633871662113 0 -0.059377309402506372 1.8147149135174581e-05 0 -0.059555711744624672 -8.6786703474262924e-05 0 -0.059230747504145455 -0.00023749355275175019 0 -0.059247458235227708 -0.00059814971254000667 0 -0.053468796116252437 0.001622356280850622 0 -0.052256784435323743 0.0018027829033262913 0 -0.059139479567229848 4.4996379536329496e-05 0 -0.059377309402506372 1.8147149135174581e-05 0 -0.059230747504145455 -0.00023749355275175019 0 -0.059555711744624672 -8.6786703474262924e-05 0 -0.059377309402506372 1.8147149135174581e-05 0 -0.059230747504145455 -0.00023749355275175019 0 -0.059139479567229848 4.4996379536329496e-05 0 -0.059230747504145455 -0.00023749355275175019 0 -0.058993746593567001 -0.00016051827648880761 0 -0.059230747504145455 -0.00023749355275175019 0 -0.058993746593567001 -0.00016051827648880761 0 -0.058822678104719812 -0.00043769980277849488 0 -0.058783215512339448 -1.4602074667413311e-05 0 -0.058822678104719812 -0.00043769980277849488 0 -0.058520588867088504 -0.0004418566035549646 0 -0.058783215512339448 -1.4602074667413311e-05 0 -0.058993746593567001 -0.00016051827648880761 0 -0.058822678104719812 -0.00043769980277849488 0 -0.058822678104719812 -0.00043769980277849488 0 -0.05890507523066188 -0.00074688664205049664 0 -0.059247458235227708 -0.00059814971254000667 0 -0.058822678104719812 -0.00043769980277849488 0 -0.05890507523066188 -0.00074688664205049664 0 -0.058626014711520971 -0.00078517457875243359 0 -0.059230747504145455 -0.00023749355275175019 0 -0.058822678104719812 -0.00043769980277849488 0 -0.059247458235227708 -0.00059814971254000667 0 -0.052256784435323743 0.0018027829033262913 0 -0.049019613456376801 0.0020787125666728058 0 -0.050999295916657437 0.0016025678829040468 0 -0.051169200234002926 0.00096821697311582874 0 -0.05063640985321545 0.00097667162231946324 0 -0.050999295916657437 0.0016025678829040468 0 -0.051169200234002926 0.00096821697311582874 0 -0.051266097303091923 0.0015984036808825133 0 -0.049029157388369916 0.00079388057726670032 0 -0.049019613456376801 0.0020787125666728058 0 -0.058919560859883646 -0.0011715525552363827 0 -0.058626014711520971 -0.00078517457875243359 0 -0.058467114410378114 -0.0011733608895435482 0 -0.05890507523066188 -0.00074688664205049664 0 -0.058919560859883646 -0.0011715525552363827 0 -0.058626014711520971 -0.00078517457875243359 0 -0.049019613456376801 0.0020787125666728058 0 -0.051921484383581212 0.0019154492357039987 0 -0.05890507523066188 -0.00074688664205049664 0 -0.059247458235227708 -0.00059814971254000667 0 -0.058919560859883646 -0.0011715525552363827 0 -0.051365538640530929 0.0022275177128852673 0 -0.050999295916657437 0.0016025678829040468 0 -0.051266097303091923 0.0015984036808825133 0 -0.059752608182718749 0.00021766288677656394 0 -0.05972816570493019 0.00029344605785263381 0 -0.059776465527972604 0.00027649465524504666 0 -0.059758774130213251 0.00033723267734952166 0 -0.05972816570493019 0.00029344605785263381 0 -0.059776465527972604 0.00027649465524504666 0 -0.049029157388369916 0.00079388057726670032 0 -0.052035908336352556 0.0012749793720895847 0 -0.059758774130213251 0.00033723267734952166 0 -0.05972816570493019 0.00029344605785263381 0 -0.059704303093263071 0.00034141944390357967 0 -0.05972816570493019 0.00029344605785263381 0 -0.059704051600078883 0.00031625437248856031 0 -0.059704303093263071 0.00034141944390357967 0 -0.059704051600078883 0.00031625437248856031 0 -0.059647606084544419 0.00035224113494856224 0 -0.059704303093263071 0.00034141944390357967 0 -0.05972816570493019 0.00029344605785263381 0 -0.059704051600078883 0.00031625437248856031 0 -0.059738840118912263 0.00033458655274706708 0 -0.059704051600078883 0.00031625437248856031 0 -0.059695048414323833 0.0003162337227617411 0 -0.059738840118912263 0.00033458655274706708 0 -0.058842302132868798 0.0011521265851321808 0 -0.055162218171570361 0.0013642194253145725 0 -0.057695188981643601 0.00039617987133093641 0 -0.044139909707886262 0.0030774939685141202 0 -0.044532860535624781 0.0015836047092397819 0 -0.046288105755768132 0.001948122082567979 0 -0.052565785611635954 -0.001043897153556786 0 -0.050890215581384304 -8.0789659814840977e-05 0 -0.052565785611635954 -0.001043897153556786 0 -0.05258311980744667 -0.0010375296504674626 0 -0.052565785611635954 -0.001043897153556786 0 -0.051146638976412986 0.0003270893588983535 0 -0.059704051600078883 0.00031625437248856031 0 -0.059695048414323833 0.0003162337227617411 0 -0.059669046903141412 0.00032551610557885884 0 -0.059704051600078883 0.00031625437248856031 0 -0.059669046903141412 0.00032551610557885884 0 -0.059647606084544419 0.00035224113494856224 0 -0.051146638976412986 0.0003270893588983535 0 -0.049603415394750779 0.0013461111916909471 0 -0.044532860535624781 0.0015836047092397819 0 -0.045549204984291596 0.0010341185758157695 0 -0.04493043924713469 5.1329507704448215e-05 0 -0.045549204984291596 0.0010341185758157695 0 -0.046288105755768132 0.001948122082567979 0 -0.046131345155246015 1.4224774166814649e-05 0 -0.046288105755768132 0.001948122082567979 0 -0.047414864704182241 -0.00023540763039771941 0 -0.046131345155246015 1.4224774166814649e-05 0 -0.045549204984291596 0.0010341185758157695 0 -0.046131345155246015 1.4224774166814649e-05 0 -0.04493043924713469 5.1329507704448215e-05 0 -0.044532860535624781 0.0015836047092397819 0 -0.045549204984291596 0.0010341185758157695 0 -0.046288105755768132 0.001948122082567979 0 -0.049525473424579677 3.5569550612612796e-07 0 -0.050890215581384304 -8.0789659814840977e-05 0 -0.049517644071026233 3.3286058199833716e-06 0 -0.046288105755768132 0.001948122082567979 0 -0.047414864704182241 -0.00023540763039771941 0 -0.049529511457601462 5.2536422369358396e-06 0 -0.055162218171570361 0.0013642194253145725 0 -0.053297656266409137 -9.3946884119222419e-07 0 -0.055162218171570361 0.0013642194253145725 0 -0.057695188981643601 0.00039617987133093641 0 -0.053297656266409137 -9.3946884119222419e-07 0 -0.057695188981643601 0.00039617987133093641 0 -0.053297656266409137 -9.3946884119222419e-07 0 -0.057959196680770264 -0.00012518691624754176 0 -0.058322105334448295 -4.8209549184683946e-07 0 -0.053297656266409137 -9.3946884119222419e-07 0 -0.057959196680770264 -0.00012518691624754176 0 -0.057695188981643601 0.00039617987133093641 0 -0.057959196680770264 -0.00012518691624754176 0 -0.059308229194689345 4.6862389731179247e-05 0 -0.06099674359949047 0.00015281658858997844 0 -0.057959196680770264 -0.00012518691624754176 0 -0.059308229194689345 4.6862389731179247e-05 0 -0.06099674359949047 0.00015281658858997844 0 -0.059308229194689345 4.6862389731179247e-05 0 -0.059870617473450967 2.0085873781293399e-05 0 -0.059308229194689345 4.6862389731179247e-05 0 -0.059870617473450967 2.0085873781293399e-05 0 -0.059320172833181015 0.00026338298986086444 0 -0.059870617473450967 2.0085873781293399e-05 0 -0.059738840118912263 0.00033458655274706708 0 -0.059320172833181015 0.00026338298986086444 0 -0.059779252881001436 0.00020746688561339459 0 -0.059870617473450967 2.0085873781293399e-05 0 -0.059738840118912263 0.00033458655274706708 0 -0.058917866621318121 0.0010968594310604961 0 -0.059738840118912263 0.00033458655274706708 0 -0.058954352975188674 0.00090673017373669648 0 -0.059738840118912263 0.00033458655274706708 0 -0.058954352975188674 0.00090673017373669648 0 -0.059320172833181015 0.00026338298986086444 0 -0.052565785611635954 -0.001043897153556786 0 -0.054300361442165164 -0.0014709843281498652 0 -0.057695188981643601 0.00039617987133093641 0 -0.058954352975188674 0.00090673017373669648 0 -0.059320172833181015 0.00026338298986086444 0 -0.058842302132868798 0.0011521265851321808 0 -0.057695188981643601 0.00039617987133093641 0 -0.058954352975188674 0.00090673017373669648 0 -0.057695188981643601 0.00039617987133093641 0 -0.059308229194689345 4.6862389731179247e-05 0 -0.059320172833181015 0.00026338298986086444 0 -0.059959674160207838 0.00069172809846896829 0 -0.057176405657560221 0.0024400507952531359 0 -0.064582585612758758 -0.0006285372431213814 0 -0.064671939938488521 -0.0027293814985637679 0 -0.063549894493285783 -0.0010312181140402408 0 -0.064878984205903822 0.00019287821474169188 0 -0.064918178043563257 0.00014805415910374114 0 -0.06492752678728736 0.00025078960056124598 0 -0.064878984205903822 0.00019287821474169188 0 -0.064867781465155663 0.00027916537561234879 0 -0.06492752678728736 0.00025078960056124598 0 -0.064878984205903822 0.00019287821474169188 0 -0.064822811445897605 0.00027362097754395521 0 -0.064867781465155663 0.00027916537561234879 0 -0.064878984205903822 0.00019287821474169188 0 -0.064886743220706131 0.00010652911271928261 0 -0.064896733458380249 9.9135784352561543e-05 0 -0.064878984205903822 0.00019287821474169188 0 -0.064886743220706131 0.00010652911271928261 0 -0.064918178043563257 0.00014805415910374114 0 -0.059959674160207838 0.00069172809846896829 0 -0.060797091348302162 0.00050141015586138726 0 -0.064886743220706131 0.00010652911271928261 0 -0.064918178043563257 0.00014805415910374114 0 -0.064799670406000917 0.0001045906982227773 0 -0.064582585612758758 -0.0006285372431213814 0 -0.064799670406000917 0.0001045906982227773 0 -0.063677160414472633 9.0463480791009047e-05 0 -0.064799670406000917 0.0001045906982227773 0 -0.06499981266283128 2.111741300083446e-07 0 -0.064923239329975943 6.6167383278019151e-05 0 -0.064799670406000917 0.0001045906982227773 0 -0.06499981266283128 2.111741300083446e-07 0 -0.064489275570902241 0.00012704066954974885 0 -0.06499981266283128 2.111741300083446e-07 0 -0.064923239329975943 6.6167383278019151e-05 0 -0.064999872158728225 -7.144749729672216e-09 0 -0.064886743220706131 0.00010652911271928261 0 -0.064799670406000917 0.0001045906982227773 0 -0.064923239329975943 6.6167383278019151e-05 0 -0.064886743220706131 0.00010652911271928261 0 -0.064923239329975943 6.6167383278019151e-05 0 -0.064896733458380249 9.9135784352561543e-05 0 -0.064896733458380249 9.9135784352561543e-05 0 -0.064933126416055351 1.9175557755994008e-05 0 -0.064871691737136195 7.4710792379879953e-05 0 -0.064923239329975943 6.6167383278019151e-05 0 -0.064896733458380249 9.9135784352561543e-05 0 -0.064933126416055351 1.9175557755994008e-05 0 -0.064999872158728225 -7.144749729672216e-09 0 -0.064933126416055351 1.9175557755994008e-05 0 -0.064999864623135825 1.7895182665244593e-08 0 -0.064923239329975943 6.6167383278019151e-05 0 -0.064999872158728225 -7.144749729672216e-09 0 -0.064933126416055351 1.9175557755994008e-05 0 -0.064933126416055351 1.9175557755994008e-05 0 -0.064999864623135825 1.7895182665244593e-08 0 -0.064902387502970851 -1.7354853437695277e-05 0 -0.064902387502970851 -1.7354853437695277e-05 0 -0.064871691737136195 7.4710792379879953e-05 0 -0.0647145701186468 6.2645363239750501e-05 0 -0.064933126416055351 1.9175557755994008e-05 0 -0.064902387502970851 -1.7354853437695277e-05 0 -0.064871691737136195 7.4710792379879953e-05 0 -0.064871691737136195 7.4710792379879953e-05 0 -0.064760766424596536 0.00017222526508412671 0 -0.0647145701186468 6.2645363239750501e-05 0 -0.064760766424596536 0.00017222526508412671 0 -0.064751619063097343 0.0002640739682857409 0 -0.064662946332374904 0.00025739457918075331 0 -0.064760766424596536 0.00017222526508412671 0 -0.064844334345147206 0.0001783777281088616 0 -0.064751619063097343 0.0002640739682857409 0 -0.064871691737136195 7.4710792379879953e-05 0 -0.064760766424596536 0.00017222526508412671 0 -0.064844334345147206 0.0001783777281088616 0 -0.064878984205903822 0.00019287821474169188 0 -0.064896733458380249 9.9135784352561543e-05 0 -0.064844334345147206 0.0001783777281088616 0 -0.064896733458380249 9.9135784352561543e-05 0 -0.064871691737136195 7.4710792379879953e-05 0 -0.064844334345147206 0.0001783777281088616 0 -0.064878984205903822 0.00019287821474169188 0 -0.064844334345147206 0.0001783777281088616 0 -0.064822811445897605 0.00027362097754395521 0 -0.064844334345147206 0.0001783777281088616 0 -0.064822811445897605 0.00027362097754395521 0 -0.064751619063097343 0.0002640739682857409 0 -0.064822811445897605 0.00027362097754395521 0 -0.064751619063097343 0.0002640739682857409 0 -0.064731038855307718 0.00035384684358466913 0 -0.064751619063097343 0.0002640739682857409 0 -0.064624279907921633 0.00033947183539317027 0 -0.064731038855307718 0.00035384684358466913 0 -0.064751619063097343 0.0002640739682857409 0 -0.064662946332374904 0.00025739457918075331 0 -0.064624279907921633 0.00033947183539317027 0 -0.060855350834802265 0.0021054998731930385 0 -0.061276865987097487 0.0018568415953344863 0 -0.064546106149406812 0.00040285650378460598 0 -0.064425826203942313 0.00041109313730271045 0 -0.064500725179066451 0.00025733517337937572 0 -0.064662946332374904 0.00025739457918075331 0 -0.064624279907921633 0.00033947183539317027 0 -0.064500725179066451 0.00025733517337937572 0 -0.06410414602978852 0.001623174543516626 0 -0.063962224103946211 0.0011034483154417527 0 -0.064441844907823592 0.00015081689183701482 0 -0.06080764861233403 0.0019115799457470176 0 -0.061765340432072789 0.0018806231799173721 0 -0.06410414602978852 0.001623174543516626 0 -0.063962224103946211 0.0011034483154417527 0 -0.063431159581298038 0.0010480321325542202 0 -0.063962224103946211 0.0011034483154417527 0 -0.064441844907823592 0.00015081689183701482 0 -0.06409207015897013 0.00039023773847372703 0 -0.06080764861233403 0.0019115799457470176 0 -0.062074617797616097 0.00050606353770741566 0 -0.064425826203942313 0.00041109313730271045 0 -0.064441844907823592 0.00015081689183701482 0 -0.064500725179066451 0.00025733517337937572 0 -0.063962224103946211 0.0011034483154417527 0 -0.063878507993943123 0.00065336077897591455 0 -0.063614148161762529 0.00073378434081812884 0 -0.063962224103946211 0.0011034483154417527 0 -0.063878507993943123 0.00065336077897591455 0 -0.06409207015897013 0.00039023773847372703 0 -0.063878507993943123 0.00065336077897591455 0 -0.063775482924271612 0.00036321009154531803 0 -0.063614148161762529 0.00073378434081812884 0 -0.063878507993943123 0.00065336077897591455 0 -0.063775482924271612 0.00036321009154531803 0 -0.06409207015897013 0.00039023773847372703 0 -0.064441844907823592 0.00015081689183701482 0 -0.064626027985390466 0.00018835549162322907 0 -0.0647145701186468 6.2645363239750501e-05 0 -0.064441844907823592 0.00015081689183701482 0 -0.064500725179066451 0.00025733517337937572 0 -0.064626027985390466 0.00018835549162322907 0 -0.064760766424596536 0.00017222526508412671 0 -0.064662946332374904 0.00025739457918075331 0 -0.064626027985390466 0.00018835549162322907 0 -0.064662946332374904 0.00025739457918075331 0 -0.064500725179066451 0.00025733517337937572 0 -0.064626027985390466 0.00018835549162322907 0 -0.064760766424596536 0.00017222526508412671 0 -0.064626027985390466 0.00018835549162322907 0 -0.0647145701186468 6.2645363239750501e-05 0 -0.064902387502970851 -1.7354853437695277e-05 0 -0.0647145701186468 6.2645363239750501e-05 0 -0.064414019792070121 -0.00016412304516765666 0 -0.064641596904589024 -6.7318967725690687e-05 0 -0.06448618716080759 -4.989646762717621e-05 0 -0.064902387502970851 -1.7354853437695277e-05 0 -0.064975416177154577 -3.9030237198380755e-06 0 -0.065000842873842363 -2.0700694779794611e-05 0 -0.064441844907823592 0.00015081689183701482 0 -0.0647145701186468 6.2645363239750501e-05 0 -0.064414019792070121 -0.00016412304516765666 0 -0.064999864623135825 1.7895182665244593e-08 0 -0.065000024052052005 -6.8089105707078524e-09 0 -0.064993906752847219 -2.2716213554991731e-06 0 -0.064999864623135825 1.7895182665244593e-08 0 -0.064975416177154577 -3.9030237198380755e-06 0 -0.064993906752847219 -2.2716213554991731e-06 0 -0.064999864623135825 1.7895182665244593e-08 0 -0.064902387502970851 -1.7354853437695277e-05 0 -0.064975416177154577 -3.9030237198380755e-06 0 -0.064975416177154577 -3.9030237198380755e-06 0 -0.064993906752847219 -2.2716213554991731e-06 0 -0.065000842873842363 -2.0700694779794611e-05 0 -0.064993906752847219 -2.2716213554991731e-06 0 -0.065000842873842363 -2.0700694779794611e-05 0 -0.065001362016885778 -4.9999535327507871e-06 0 -0.065000024052052005 -6.8089105707078524e-09 0 -0.064993906752847219 -2.2716213554991731e-06 0 -0.065001362016885778 -4.9999535327507871e-06 0 -0.06448618716080759 -4.989646762717621e-05 0 -0.06405652565003904 1.9159394901953783e-05 0 -0.065000842873842363 -2.0700694779794611e-05 0 -0.064999816349763748 -4.9311312521953457e-06 0 -0.065001362016885778 -4.9999535327507871e-06 0 -0.063775482924271612 0.00036321009154531803 0 -0.064414019792070121 -0.00016412304516765666 0 -0.063228808127555977 -7.8034022462212319e-06 0 -0.064441844907823592 0.00015081689183701482 0 -0.06409207015897013 0.00039023773847372703 0 -0.064414019792070121 -0.00016412304516765666 0 -0.063775482924271612 0.00036321009154531803 0 -0.06409207015897013 0.00039023773847372703 0 -0.064414019792070121 -0.00016412304516765666 0 -0.064999816349763748 -4.9311312521953457e-06 0 -0.065001362016885778 -4.9999535327507871e-06 0 -0.064998624966076099 -2.3274167208683422e-06 0 -0.065000024052052005 -6.8089105707078524e-09 0 -0.065001362016885778 -4.9999535327507871e-06 0 -0.064999994461885771 -3.5214763026681478e-09 0 -0.065001362016885778 -4.9999535327507871e-06 0 -0.064999994461885771 -3.5214763026681478e-09 0 -0.064998624966076099 -2.3274167208683422e-06 0 -0.064995983973134108 -1.5382682411309696e-06 0 -0.064999816349763748 -4.9311312521953457e-06 0 -0.064998624966076099 -2.3274167208683422e-06 0 -0.063466182160529599 0.00012440535088343506 0 -0.06405652565003904 1.9159394901953783e-05 0 -0.062187767926621257 0.00027154578810590464 0 -0.062280810787078242 0.00077004848623190485 0 -0.062764742845235283 0.00047367044474149763 0 -0.062187767926621257 0.00027154578810590464 0 -0.063228808127555977 -7.8034022462212319e-06 0 -0.062764742845235283 0.00047367044474149763 0 -0.062280810787078242 0.00077004848623190485 0 -0.062764742845235283 0.00047367044474149763 0 -0.062696734644055549 0.0008556588115251983 0 -0.063228808127555977 -7.8034022462212319e-06 0 -0.062764742845235283 0.00047367044474149763 0 -0.063332994591495578 0.00052873045873411541 0 -0.063775482924271612 0.00036321009154531803 0 -0.063228808127555977 -7.8034022462212319e-06 0 -0.063332994591495578 0.00052873045873411541 0 -0.063775482924271612 0.00036321009154531803 0 -0.063332994591495578 0.00052873045873411541 0 -0.063614148161762529 0.00073378434081812884 0 -0.063332994591495578 0.00052873045873411541 0 -0.063614148161762529 0.00073378434081812884 0 -0.063431159581298038 0.0010480321325542202 0 -0.062764742845235283 0.00047367044474149763 0 -0.0631522209305201 0.00090080467066454707 0 -0.062696734644055549 0.0008556588115251983 0 -0.062764742845235283 0.00047367044474149763 0 -0.063332994591495578 0.00052873045873411541 0 -0.063431159581298038 0.0010480321325542202 0 -0.061914499069038308 0.0017466232072979766 0 -0.061765340432072789 0.0018806231799173721 0 -0.0631522209305201 0.00090080467066454707 0 -0.06286932161186673 0.0010838639786548182 0 -0.062696734644055549 0.0008556588115251983 0 -0.063962224103946211 0.0011034483154417527 0 -0.063614148161762529 0.00073378434081812884 0 -0.063431159581298038 0.0010480321325542202 0 -0.0631522209305201 0.00090080467066454707 0 -0.063197514465546514 0.001116158020891647 0 -0.06286932161186673 0.0010838639786548182 0 -0.063551686709442917 0.0012666570725261212 0 -0.0631522209305201 0.00090080467066454707 0 -0.063197514465546514 0.001116158020891647 0 -0.063197514465546514 0.001116158020891647 0 -0.062984020953812656 0.0013105241758019129 0 -0.063083886184968088 0.0015576435026871682 0 -0.063197514465546514 0.001116158020891647 0 -0.062984020953812656 0.0013105241758019129 0 -0.06286932161186673 0.0010838639786548182 0 -0.062984020953812656 0.0013105241758019129 0 -0.06286932161186673 0.0010838639786548182 0 -0.062685556308241894 0.0015103944596810506 0 -0.06286932161186673 0.0010838639786548182 0 -0.062412143353705783 0.0011998886069088837 0 -0.062685556308241894 0.0015103944596810506 0 -0.062280810787078242 0.00077004848623190485 0 -0.062412143353705783 0.0011998886069088837 0 -0.062696734644055549 0.0008556588115251983 0 -0.06286932161186673 0.0010838639786548182 0 -0.062412143353705783 0.0011998886069088837 0 -0.062696734644055549 0.0008556588115251983 0 -0.062148572745395467 0.0018339218518217961 0 -0.062412143353705783 0.0011998886069088837 0 -0.062685556308241894 0.0015103944596810506 0 -0.062148572745395467 0.0018339218518217961 0 -0.062685556308241894 0.0015103944596810506 0 -0.062629087659431523 0.0019780823137364196 0 -0.062685556308241894 0.0015103944596810506 0 -0.062937322779592755 0.0018621354927749933 0 -0.062629087659431523 0.0019780823137364196 0 -0.063197514465546514 0.001116158020891647 0 -0.063083886184968088 0.0015576435026871682 0 -0.063463430363893431 0.0017834041927402178 0 -0.062984020953812656 0.0013105241758019129 0 -0.062685556308241894 0.0015103944596810506 0 -0.063083886184968088 0.0015576435026871682 0 -0.063083886184968088 0.0015576435026871682 0 -0.06321133758337813 0.0018427334811116224 0 -0.062937322779592755 0.0018621354927749933 0 -0.063083886184968088 0.0015576435026871682 0 -0.06321133758337813 0.0018427334811116224 0 -0.063463430363893431 0.0017834041927402178 0 -0.062685556308241894 0.0015103944596810506 0 -0.063083886184968088 0.0015576435026871682 0 -0.062937322779592755 0.0018621354927749933 0 -0.062937322779592755 0.0018621354927749933 0 -0.062883132781160464 0.0021839433290068932 0 -0.062629087659431523 0.0019780823137364196 0 -0.062883132781160464 0.0021839433290068932 0 -0.062511003172205093 0.0024740078197589255 0 -0.063277946668151674 0.0024901478432253392 0 -0.062937322779592755 0.0018621354927749933 0 -0.063159549641130602 0.0020296705046180929 0 -0.062883132781160464 0.0021839433290068932 0 -0.06321133758337813 0.0018427334811116224 0 -0.062937322779592755 0.0018621354927749933 0 -0.063159549641130602 0.0020296705046180929 0 -0.06321133758337813 0.0018427334811116224 0 -0.063159549641130602 0.0020296705046180929 0 -0.063415680567128624 0.0019825388230190898 0 -0.059354684416808114 0.0026629327813562503 0 -0.058983285396400388 0.0027302677159892963 0 -0.063159549641130602 0.0020296705046180929 0 -0.062883132781160464 0.0021839433290068932 0 -0.063277946668151674 0.0024901478432253392 0 -0.063159549641130602 0.0020296705046180929 0 -0.063277946668151674 0.0024901478432253392 0 -0.063395904084522142 0.0019861250953723121 0 -0.062148572745395467 0.0018339218518217961 0 -0.062629087659431523 0.0019780823137364196 0 -0.062511003172205093 0.0024740078197589255 0 -0.059631842055286273 0.0013583479605823749 0 -0.058032178755271509 0.0022109979201571013 0 -0.062883132781160464 0.0021839433290068932 0 -0.062629087659431523 0.0019780823137364196 0 -0.062511003172205093 0.0024740078197589255 0 -0.058191315659095535 0.0020185834984703236 0 -0.058032178755271509 0.0022109979201571013 0 -0.058822678104719812 -0.00043769980277849488 0 -0.058433707943951259 -0.00043339038221597433 0 -0.058626014711520971 -0.00078517457875243359 0 -0.058032178755271509 0.0022109979201571013 0 -0.055607958748706145 0.0019650560137921547 0 -0.058433707943951259 -0.00043339038221597433 0 -0.058626014711520971 -0.00078517457875243359 0 -0.058216923364924254 -0.0007981723877149323 0 -0.058626014711520971 -0.00078517457875243359 0 -0.058216923364924254 -0.0007981723877149323 0 -0.058467114410378114 -0.0011733608895435482 0 -0.051921484383581212 0.0019154492357039987 0 -0.053058018972239204 0.0022359864365101593 0 -0.058216923364924254 -0.0007981723877149323 0 -0.058467114410378114 -0.0011733608895435482 0 -0.057998973634711543 -0.0011661517149064633 0 -0.055619827193987829 0.0023119962384555433 0 -0.055502127340892098 0.0021442010614811835 0 -0.055432085743304549 0.002472143909141241 0 -0.054471711180829351 0.0032631449301775174 0 -0.054576039044782844 0.0028378374610284586 0 -0.054673750515698394 0.0030676293417915721 0 -0.053029115054816119 0.0023687107878587656 0 -0.057197484427724245 0.0025027236424750837 0 -0.052928772687492583 0.0023647935667281952 0 -0.052384549939821244 0.002372315333641547 0 -0.052959983821930817 0.0022311528951031649 0 -0.053029115054816119 0.0023687107878587656 0 -0.05237896320546731 0.0031495058561529237 0 -0.05274753379860464 0.0022136001137515963 0 -0.052517200970789553 0.0022169523933534556 0 -0.052679226734245924 0.0025066744056259286 0 -0.053029115054816119 0.0023687107878587656 0 -0.053058018972239204 0.0022359864365101593 0 -0.055619827193987829 0.0023119962384555433 0 -0.055502127340892098 0.0021442010614811835 0 -0.055521675714158544 0.0021439105414254567 0 -0.055607958748706145 0.0019650560137921547 0 -0.053058018972239204 0.0022359864365101593 0 -0.058032178755271509 0.0022109979201571013 0 -0.057197484427724245 0.0025027236424750837 0 -0.055717463181413872 0.0024802460735852973 0 -0.055619827193987829 0.0023119962384555433 0 -0.055432085743304549 0.002472143909141241 0 -0.057197484427724245 0.0025027236424750837 0 -0.056372544742037504 0.0032321610025631826 0 -0.054799575232645503 0.0028448464006396272 0 -0.054673750515698394 0.0030676293417915721 0 -0.054918254899584913 0.0031311745964697868 0 -0.054576039044782844 0.0028378374610284586 0 -0.054799575232645503 0.0028448464006396272 0 -0.054673750515698394 0.0030676293417915721 0 -0.05237896320546731 0.0031495058561529237 0 -0.052324212675432927 0.0050649719233901193 0 -0.054673750515698394 0.0030676293417915721 0 -0.054602506992983336 0.0032615490883479139 0 -0.054918254899584913 0.0031311745964697868 0 -0.05237896320546731 0.0031495058561529237 0 -0.053541085240574944 0.0042653352501304635 0 -0.054471711180829351 0.0032631449301775174 0 -0.054673750515698394 0.0030676293417915721 0 -0.054602506992983336 0.0032615490883479139 0 -0.052815548778922167 0.0043619882553735858 0 -0.05265006692221149 0.0043663985786111205 0 -0.052674562983567666 0.0044226663624905849 0 -0.05331219764838855 0.005747065934705935 0 -0.053396325591127072 0.0059418586290337881 0 -0.052895160272239318 0.0059378902240166615 0 -0.052324212675432927 0.0050649719233901193 0 -0.053541085240574944 0.0042653352501304635 0 -0.055193593277336868 0.0038831113288371149 0 -0.055165805645760319 0.0038236270780563613 0 -0.05509870592255698 0.0038816302446912981 0 -0.056372544742037504 0.0032321610025631826 0 -0.053541085240574944 0.0042653352501304635 0 -0.056372544742037504 0.0032321610025631826 0 -0.056075897710482256 0.0042912841983858722 0 -0.057645478271209992 0.0033706447241568607 0 -0.057558457068941256 0.0034459024357109142 0 -0.057424561818424584 0.0033659607884363573 0 -0.057558457068941256 0.0034459024357109142 0 -0.05770191524915206 0.0034974337207802639 0 -0.057545268109923407 0.0035267747635951852 0 -0.058788657137394139 0.0028318739203552139 0 -0.059377674674447295 0.0029447968197226825 0 -0.057558457068941256 0.0034459024357109142 0 -0.057545268109923407 0.0035267747635951852 0 -0.057474988943957514 0.0034689161551398856 0 -0.05755467795822386 0.0031089907194728262 0 -0.057776167011832025 0.0026155042865626992 0 -0.05766620032937711 0.0026359014427609884 0 -0.05755467795822386 0.0031089907194728262 0 -0.057989944711023096 0.003121019727157389 0 -0.057776167011832025 0.0026155042865626992 0 -0.056372544742037504 0.0032321610025631826 0 -0.058788657137394139 0.0028318739203552139 0 -0.057645478271209992 0.0033706447241568607 0 -0.057558457068941256 0.0034459024357109142 0 -0.05770191524915206 0.0034974337207802639 0 -0.057197484427724245 0.0025027236424750837 0 -0.058983285396400388 0.0027302677159892963 0 -0.058983285396400388 0.0027302677159892963 0 -0.059381754121592308 0.0026367154714656759 0 -0.058788657137394139 0.0028318739203552139 0 -0.059381754121592308 0.0026367154714656759 0 -0.059554910333734126 0.0031035580813469806 0 -0.059237396007509414 0.003162655121430844 0 -0.059358395634254393 0.0026434499294248149 0 -0.058788657137394139 0.0028318739203552139 0 -0.058983285396400388 0.0027302677159892963 0 -0.063551686709442917 0.0012666570725261212 0 -0.063197514465546514 0.001116158020891647 0 -0.063436934773042991 0.0017221436854679632 0 -0.060032552406302217 0.0026260338259634862 0 -0.060102320428244864 0.0023213737755133474 0 -0.059635399624518463 0.0022923501316596943 0 -0.060055913338728444 0.0022141204668758687 0 -0.060102320428244864 0.0023213737755133474 0 -0.059635399624518463 0.0022923501316596943 0 -0.060059638579142594 0.0025236605517608068 0 -0.059381754121592308 0.0026367154714656759 0 -0.06321133758337813 0.0018427334811116224 0 -0.063415680567128624 0.0019825388230190898 0 -0.063463430363893431 0.0017834041927402178 0 -0.06080764861233403 0.0019115799457470176 0 -0.059381754121592308 0.0026367154714656759 0 -0.06080764861233403 0.0019115799457470176 0 -0.059377674674447295 0.0029447968197226825 0 -0.060855350834802265 0.0021054998731930385 0 -0.059438488824420641 0.0028444310505866079 0 -0.064546106149406812 0.00040285650378460598 0 -0.064425826203942313 0.00041109313730271045 0 -0.064553151050050495 0.00052958443670534717 0 -0.064546106149406812 0.00040285650378460598 0 -0.064553151050050495 0.00052958443670534717 0 -0.0645862898313629 0.00052368043707191946 0 -0.059377674674447295 0.0029447968197226825 0 -0.059438488824420641 0.0028444310505866079 0 -0.059438488824420641 0.0028444310505866079 0 -0.059040818969643249 0.0026121048044171077 0 -0.064624279907921633 0.00033947183539317027 0 -0.064674627204168736 0.00044512110778501408 0 -0.064731038855307718 0.00035384684358466913 0 -0.057840469308806756 0.0031434299445830625 0 -0.057898564551339231 0.0031320562578148947 0 -0.057853023628026648 0.0031736463280942978 0 -0.064674627204168736 0.00044512110778501408 0 -0.064731038855307718 0.00035384684358466913 0 -0.064809969566857584 0.00042073015771462231 0 -0.064822811445897605 0.00027362097754395521 0 -0.064731038855307718 0.00035384684358466913 0 -0.064809969566857584 0.00042073015771462231 0 -0.059040818969643249 0.0026121048044171077 0 -0.059060885279517542 0.0024076412717905023 0 -0.056179171901998975 0.0046776903260339186 0 -0.055897166502272812 0.0044117197175132178 0 -0.055658095281408068 0.0047734070602709821 0 -0.05954279427759384 0.0018898828977191259 0 -0.059040818969643249 0.0026121048044171077 0 -0.064822811445897605 0.00027362097754395521 0 -0.064811880517968851 0.00030641083070033314 0 -0.064867781465155663 0.00027916537561234879 0 -0.056179171901998975 0.0046776903260339186 0 -0.055897166502272812 0.0044117197175132178 0 -0.05622836888258137 0.0041339732823106592 0 -0.059040818969643249 0.0026121048044171077 0 -0.056767574352556867 0.003796938433797623 0 -0.055897166502272812 0.0044117197175132178 0 -0.055925734899070219 0.0041534596221447393 0 -0.05622836888258137 0.0041339732823106592 0 -0.057097030103842566 0.0040589802408067741 0 -0.056787556697732243 0.0034033985468274442 0 -0.056565053831155371 0.0036130711293979809 0 -0.057898564551339231 0.0031320562578148947 0 -0.057853023628026648 0.0031736463280942978 0 -0.057888936462196214 0.00320652220865169 0 -0.058115494553440068 0.0033356199215864037 0 -0.056767574352556867 0.003796938433797623 0 -0.057558457068941256 0.0034459024357109142 0 -0.057474988943957514 0.0034689161551398856 0 -0.057424561818424584 0.0033659607884363573 0 -0.058115494553440068 0.0033356199215864037 0 -0.056075897710482256 0.0042912841983858722 0 -0.059377674674447295 0.0029447968197226825 0 -0.058115494553440068 0.0033356199215864037 0 -0.059438488824420641 0.0028444310505866079 0 -0.058115494553440068 0.0033356199215864037 0 -0.058777260216328245 0.003552337930368733 0 -0.058635544201725599 0.0035785837984906505 0 -0.058522192374612148 0.0033375859788607972 0 -0.055165805645760319 0.0038236270780563613 0 -0.05509870592255698 0.0038816302446912981 0 -0.055086781618882474 0.003857557697681624 0 -0.056787556697732243 0.0034033985468274442 0 -0.056584986984108465 0.0033980261059895177 0 -0.056565053831155371 0.0036130711293979809 0 -0.056075897710482256 0.0042912841983858722 0 -0.055912208602631339 0.0045186238533129024 0 -0.055423580537685938 0.0044239032571422622 0 -0.05543361441379225 0.0044472214647424315 0 -0.055436280661727434 0.004424320376894387 0 -0.056075897710482256 0.0042912841983858722 0 -0.055149546306644884 0.0048553221462169106 0 -0.055149546306644884 0.0048553221462169106 0 -0.055912208602631339 0.0045186238533129024 0 -0.052324212675432927 0.0050649719233901193 0 -0.052465804740421132 0.0077318952967420102 0 -0.053541085240574944 0.0042653352501304635 0 -0.055149546306644884 0.0048553221462169106 0 -0.053396325591127072 0.0059418586290337881 0 -0.052803955519885024 0.0061871929480479954 0 -0.052895160272239318 0.0059378902240166615 0 -0.05331219764838855 0.005747065934705935 0 -0.052895160272239318 0.0059378902240166615 0 -0.052843258600431216 0.0057563505635387256 0 -0.052803955519885024 0.0061871929480479954 0 -0.052895160272239318 0.0059378902240166615 0 -0.052836214467612296 0.0058193542045295336 0 -0.055149546306644884 0.0048553221462169106 0 -0.052641777117315748 0.0076125452070359432 0 -0.052623120771430859 0.0075479800890527957 0 -0.052641777117315748 0.0076125452070359432 0 -0.052895160272239318 0.0059378902240166615 0 -0.05283737352779095 0.0058192574479607522 0 -0.052843258600431216 0.0057563505635387256 0 -0.0524141300843744 0.0083961108836421161 0 -0.052479634164594634 0.0077104717177973155 0 -0.052086196281970608 0.0077162193176162804 0 -0.052641777117315748 0.0076125452070359432 0 -0.052461651017494705 0.0079458112670833126 0 -0.052641777117315748 0.0076125452070359432 0 -0.052465804740421132 0.0077318952967420102 0 -0.052465804740421132 0.0077318952967420102 0 -0.052461651017494705 0.0079458112670833126 0 -0.053092713068101954 0.0072215569968354151 0 -0.052816116707632588 0.007475733113566781 0 -0.052642879310878986 0.0074440120726854114 0 -0.052461651017494705 0.0079458112670833126 0 -0.050910826107850624 0.010749344644521278 0 -0.053092713068101954 0.0072215569968354151 0 -0.052642879310878986 0.0074440120726854114 0 -0.052481684980488143 0.0072347484547528873 0 -0.053126594035223254 0.0072910452902770076 0 -0.053092713068101954 0.0072215569968354151 0 -0.052963960349881198 0.0074362427406496059 0 -0.053092713068101954 0.0072215569968354151 0 -0.052963960349881198 0.0074362427406496059 0 -0.052816116707632588 0.007475733113566781 0 -0.05309253644517313 0.0076974025805063113 0 -0.053126594035223254 0.0072910452902770076 0 -0.052963960349881198 0.0074362427406496059 0 -0.055149546306644884 0.0048553221462169106 0 -0.055129303823422411 0.0051427376926559774 0 -0.05308574671727679 0.0076986726649431979 0 -0.052963960349881198 0.0074362427406496059 0 -0.052878392968976992 0.0076388441994101851 0 -0.052963960349881198 0.0074362427406496059 0 -0.052816116707632588 0.007475733113566781 0 -0.052878392968976992 0.0076388441994101851 0 -0.052816116707632588 0.007475733113566781 0 -0.052722449974307257 0.0075960838691697318 0 -0.052878392968976992 0.0076388441994101851 0 -0.052722449974307257 0.0075960838691697318 0 -0.052569119649315335 0.0076993747218469027 0 -0.052642879310878986 0.0074440120726854114 0 -0.052816116707632588 0.007475733113566781 0 -0.052722449974307257 0.0075960838691697318 0 -0.052642879310878986 0.0074440120726854114 0 -0.052759343130762901 0.007741158527668596 0 -0.053066820797951608 0.0078927850076450107 0 -0.052561752821707504 0.0078783690560307804 0 -0.052722449974307257 0.0075960838691697318 0 -0.052759343130762901 0.007741158527668596 0 -0.052569119649315335 0.0076993747218469027 0 -0.055912208602631339 0.0045186238533129024 0 -0.053856589796984641 0.0059738945790689989 0 -0.056240091869644612 0.0040185323546166251 0 -0.056136217349336319 0.0040574307150958696 0 -0.055747083691183384 0.00400657291205313 0 -0.052722449974307257 0.0075960838691697318 0 -0.052759343130762901 0.007741158527668596 0 -0.052878392968976992 0.0076388441994101851 0 -0.052759343130762901 0.007741158527668596 0 -0.052878392968976992 0.0076388441994101851 0 -0.053066820797951608 0.0078927850076450107 0 -0.05308574671727679 0.0076986726649431979 0 -0.052878392968976992 0.0076388441994101851 0 -0.053066820797951608 0.0078927850076450107 0 -0.055925734899070219 0.0041534596221447393 0 -0.056136217349336319 0.0040574307150958696 0 -0.05622836888258137 0.0041339732823106592 0 -0.056240091869644612 0.0040185323546166251 0 -0.056136217349336319 0.0040574307150958696 0 -0.056229901032745791 0.0041362131511673682 0 -0.055912208602631339 0.0045186238533129024 0 -0.056767574352556867 0.003796938433797623 0 -0.056757448317339088 0.0037950198606359928 0 -0.056767574352556867 0.003796938433797623 0 -0.055925734899070219 0.0041534596221447393 0 -0.056136217349336319 0.0040574307150958696 0 -0.055747083691183384 0.00400657291205313 0 -0.052569119649315335 0.0076993747218469027 0 -0.0523796261169737 0.0072833561177317995 0 -0.052091728929068257 0.0078610885446957109 0 -0.052561752821707504 0.0078783690560307804 0 -0.052569119649315335 0.0076993747218469027 0 -0.052091728929068257 0.0078610885446957109 0 -0.053856589796984641 0.0059738945790689989 0 -0.051389604011531247 0.0074295821668994904 0 -0.055747083691183384 0.00400657291205313 0 -0.055254884609832036 0.0039956941038797869 0 -0.055553570245208857 0.0043233371841511995 0 -0.052759343130762901 0.007741158527668596 0 -0.052561752821707504 0.0078783690560307804 0 -0.052569119649315335 0.0076993747218469027 0 -0.052569119649315335 0.0076993747218469027 0 -0.0523796261169737 0.0072833561177317995 0 -0.052484144646669312 0.0072827187290687642 0 -0.050962583964142195 0.0096753929244059109 0 -0.050910826107850624 0.010749344644521278 0 -0.052569119649315335 0.0076993747218469027 0 -0.052642879310878986 0.0074440120726854114 0 -0.052481684980488143 0.0072347484547528873 0 -0.050586294011652592 0.011154099925915794 0 -0.050910826107850624 0.010749344644521278 0 -0.041801909308160162 0.014875680838731526 0 -0.044415841882130221 0.013188583189123856 0 -0.044137513331080486 0.010094196305566306 0 -0.050586294011652592 0.011154099925915794 0 -0.049284069745274828 0.013072601040710903 0 -0.050586294011652592 0.011154099925915794 0 -0.051389604011531247 0.0074295821668994904 0 -0.041801909308160162 0.014875680838731526 0 -0.044415841882130221 0.013188583189123856 0 -0.047120490703278152 0.014830855514722201 0 -0.044415841882130221 0.013188583189123856 0 -0.045969587018154436 0.011483727654933447 0 -0.047120490703278152 0.014830855514722201 0 -0.044415841882130221 0.013188583189123856 0 -0.045969587018154436 0.011483727654933447 0 -0.044137513331080486 0.010094196305566306 0 -0.043665557248510962 0.0097669962012890878 0 -0.045572366666297069 0.009201310019270912 0 -0.048553967268805356 0.0098133171542920238 0 -0.051389604011531247 0.0074295821668994904 0 -0.049831821968123996 0.0081558858208835953 0 -0.045969587018154436 0.011483727654933447 0 -0.044137513331080486 0.010094196305566306 0 -0.047861673686727856 0.010086301258720313 0 -0.043665557248510962 0.0097669962012890878 0 -0.045572366666297069 0.009201310019270912 0 -0.045353457221648838 0.0063049357822119283 0 -0.051389604011531247 0.0074295821668994904 0 -0.052623397696489431 0.0053928171859806712 0 -0.055254884609832036 0.0039956941038797869 0 -0.055090059252752656 0.0043353569736698109 0 -0.055553570245208857 0.0043233371841511995 0 -0.055090059252752656 0.0043353569736698109 0 -0.055553570245208857 0.0043233371841511995 0 -0.055359962838110795 0.0045747392923520093 0 -0.045146486808309787 0.0064356791398457016 0 -0.045536395736279663 0.0055897136343482524 0 -0.044480061002422459 0.00049865707991980884 0 -0.045572366666297069 0.009201310019270912 0 -0.0452125639656763 0.0063733535157202174 0 -0.046687672758208482 0.0077232404032874262 0 -0.052306088929327484 0.0057991270936274411 0 -0.052623397696489431 0.0053928171859806712 0 -0.0452125639656763 0.0063733535157202174 0 -0.045536395736279663 0.0055897136343482524 0 -0.04698900787978718 0.0057367068798347444 0 -0.052623397696489431 0.0053928171859806712 0 -0.052573267795873048 0.005434576632143512 0 -0.055897166502272812 0.0044117197175132178 0 -0.055553570245208857 0.0043233371841511995 0 -0.055658095281408068 0.0047734070602709821 0 -0.055925734899070219 0.0041534596221447393 0 -0.055747083691183384 0.00400657291205313 0 -0.055553570245208857 0.0043233371841511995 0 -0.055897166502272812 0.0044117197175132178 0 -0.055925734899070219 0.0041534596221447393 0 -0.055553570245208857 0.0043233371841511995 0 -0.055553570245208857 0.0043233371841511995 0 -0.055658095281408068 0.0047734070602709821 0 -0.055359962838110795 0.0045747392923520093 0 -0.055658095281408068 0.0047734070602709821 0 -0.055359962838110795 0.0045747392923520093 0 -0.055138902561992054 0.0048665495133056102 0 -0.052623397696489431 0.0053928171859806712 0 -0.057176405657560221 0.0024400507952531359 0 -0.059060885279517542 0.0024076412717905023 0 -0.057176405657560221 0.0024400507952531359 0 -0.055090059252752656 0.0043353569736698109 0 -0.055359962838110795 0.0045747392923520093 0 -0.055138902561992054 0.0048665495133056102 0 -0.045536395736279663 0.0055897136343482524 0 -0.044480061002422459 0.00049865707991980884 0 -0.046241538558220836 0.0037145858472084491 0 -0.05000933215756305 0.016824299332386987 0 -0.049560494649496752 0.017417060773990408 0 -0.050605946336689855 0.016171811468812577 0 -0.05000933215756305 0.016824299332386987 0 -0.049611196012929022 0.017240197984160557 0 -0.049616546316108311 0.016740077778717041 0 -0.05000933215756305 0.016824299332386987 0 -0.050059379913521433 0.016461562526897646 0 -0.049616546316108311 0.016740077778717041 0 -0.050059379913521433 0.016461562526897646 0 -0.049975990754759961 0.015937168867488808 0 -0.049616546316108311 0.016740077778717041 0 -0.05000933215756305 0.016824299332386987 0 -0.050059379913521433 0.016461562526897646 0 -0.050605946336689855 0.016171811468812577 0 -0.052124862690983903 0.018514856512290765 0 -0.05297989638431147 0.017207652971321381 0 -0.052106314351197933 0.016395430292401255 0 -0.050829154806945949 0.016184291698608202 0 -0.050717164492213467 0.016260758476709995 0 -0.051100633055937879 0.01709398973096651 0 -0.050605946336689855 0.016171811468812577 0 -0.050739140624019366 0.015817314119715323 0 -0.052124862690983903 0.018514856512290765 0 -0.052106314351197933 0.016395430292401255 0 -0.050739140624019366 0.015817314119715323 0 -0.051023358167134235 0.017096661382757578 0 -0.051100633055937879 0.01709398973096651 0 -0.050605946336689855 0.016171811468812577 0 -0.052251075694072141 0.012590751034354518 0 -0.052457023656537823 0.014771152094262194 0 -0.051023358167134235 0.017096661382757578 0 -0.050814918700150383 0.017432357960371521 0 -0.050605946336689855 0.016171811468812577 0 -0.051089610128856218 0.017086766815617629 0 -0.050814918700150383 0.017432357960371521 0 -0.051306578153362023 0.017660817257533028 0 -0.052251075694072141 0.012590751034354518 0 -0.051973292794314278 0.012034393522317246 0 -0.051023358167134235 0.017096661382757578 0 -0.051089610128856218 0.017086766815617629 0 -0.050814918700150383 0.017432357960371521 0 -0.052240031538995382 0.012599569071695432 0 -0.052251075694072141 0.012590751034354518 0 -0.049560494649496752 0.017417060773990408 0 -0.049665774568137727 0.017247962299562904 0 -0.049531793277212854 0.017326788210475067 0 -0.05000933215756305 0.016824299332386987 0 -0.049560494649496752 0.017417060773990408 0 -0.049665774568137727 0.017247962299562904 0 -0.05000933215756305 0.016824299332386987 0 -0.049665774568137727 0.017247962299562904 0 -0.049611196012929022 0.017240197984160557 0 -0.049665774568137727 0.017247962299562904 0 -0.049611196012929022 0.017240197984160557 0 -0.049531793277212854 0.017326788210475067 0 -0.049611196012929022 0.017240197984160557 0 -0.049531793277212854 0.017326788210475067 0 -0.049481427878780716 0.017472364967922312 0 -0.049560494649496752 0.017417060773990408 0 -0.049531793277212854 0.017326788210475067 0 -0.049320785595923698 0.017032951143483601 0 -0.049531793277212854 0.017326788210475067 0 -0.049423828578393864 0.017035159825956811 0 -0.049481427878780716 0.017472364967922312 0 -0.049531793277212854 0.017326788210475067 0 -0.049320785595923698 0.017032951143483601 0 -0.049423828578393864 0.017035159825956811 0 -0.048982922445914658 0.016524817883156066 0 -0.049209348023612418 0.016686603681618395 0 -0.049441018862729683 0.016149421043299042 0 -0.049423828578393864 0.017035159825956811 0 -0.049209348023612418 0.016686603681618395 0 -0.049441018862729683 0.016149421043299042 0 -0.049320785595923698 0.017032951143483601 0 -0.049423828578393864 0.017035159825956811 0 -0.049209348023612418 0.016686603681618395 0 -0.05085135372567768 0.012103332902391958 0 -0.051973292794314278 0.012034393522317246 0 -0.051029250033478996 0.011107803656561988 0 -0.051645213691155135 0.011098958286436172 0 -0.051477806343122906 0.010193572757305052 0 -0.050910826107850624 0.010749344644521278 0 -0.05085135372567768 0.012103332902391958 0 -0.048982922445914658 0.016524817883156066 0 -0.049209348023612418 0.016686603681618395 0 -0.048911575030735288 0.016671695437683553 0 -0.050586294011652592 0.011154099925915794 0 -0.05085135372567768 0.012103332902391958 0 -0.049320785595923698 0.017032951143483601 0 -0.049209348023612418 0.016686603681618395 0 -0.048911575030735288 0.016671695437683553 0 -0.049560494649496752 0.017417060773990408 0 -0.049320785595923698 0.017032951143483601 0 -0.048911575030735288 0.016671695437683553 0 -0.050814918700150383 0.017432357960371521 0 -0.050996159322398399 0.018260662681069673 0 -0.051306578153362023 0.017660817257533028 0 -0.050829154806945949 0.016184291698608202 0 -0.05085135372567768 0.012103332902391958 0 -0.051730293507959393 0.010191820987640453 0 -0.05122533589079499 0.0099209536071203034 0 -0.051587161342480835 0.01048245247501893 0 -0.051973292794314278 0.012034393522317246 0 -0.052025751378828845 0.011827308210624788 0 -0.051900409426610374 0.010085913058534693 0 -0.052249587399987925 0.010179652054022079 0 -0.052097019040687711 0.01049947309410481 0 -0.052461651017494705 0.0079458112670833126 0 -0.051973292794314278 0.012034393522317246 0 -0.051900409426610374 0.010085913058534693 0 -0.052231792454728088 0.010085271378281725 0 -0.052249587399987925 0.010179652054022079 0 -0.051326535828013997 0.0093442513893284927 0 -0.051730293507959393 0.010191820987640453 0 -0.05122533589079499 0.0099209536071203034 0 -0.051280513362571903 0.0093447419389013787 0 -0.051326535828013997 0.0093442513893284927 0 -0.05122533589079499 0.0099209536071203034 0 -0.05158303272372302 0.0066679175715511872 0 -0.052076790613791862 0.0066632092217513341 0 -0.051903988605718904 0.0068860882539135224 0 -0.05158303272372302 0.0066679175715511872 0 -0.051903988605718904 0.0068860882539135224 0 -0.051783252809497769 0.0071418490400455975 0 -0.052076790613791862 0.0066632092217513341 0 -0.051903988605718904 0.0068860882539135224 0 -0.052031098869337329 0.0071391696423240064 0 -0.052465804740421132 0.0077318952967420102 0 -0.051527872882986672 0.008293278888241943 0 -0.051903988605718904 0.0068860882539135224 0 -0.051783252809497769 0.0071418490400455975 0 -0.052031098869337329 0.0071391696423240064 0 -0.05108724367620774 0.0062802199241098746 0 -0.050583591190194538 0.0085464530723805728 0 -0.048359373289909358 0.0045989837728793136 0 -0.048774253411410826 0.0055537690500361359 0 -0.048237143224172649 0.0052647201570688914 0 -0.05122533589079499 0.0099209536071203034 0 -0.051174031032960914 0.010492445747061395 0 -0.051587161342480835 0.01048245247501893 0 -0.051783252809497769 0.0071418490400455975 0 -0.052031098869337329 0.0071391696423240064 0 -0.051984707484609226 0.0076191811610107915 0 -0.051527872882986672 0.008293278888241943 0 -0.050583591190194538 0.0085464530723805728 0 -0.04831193984269188 0.0057036001199008762 0 -0.048774253411410826 0.0055537690500361359 0 -0.048237143224172649 0.0052647201570688914 0 -0.04831193984269188 0.0057036001199008762 0 -0.048774253411410826 0.0055537690500361359 0 -0.048712403692280165 0.0062172368445771019 0 -0.04831193984269188 0.0057036001199008762 0 -0.048404547708458472 0.0062750689002085951 0 -0.048712403692280165 0.0062172368445771019 0 -0.050583591190194538 0.0085464530723805728 0 -0.04966502750738825 0.0092196818670028154 0 -0.049338994162280915 0.0087457447577957374 0 -0.049884572790089461 0.010020242635744588 0 -0.050018785180190539 0.0086179339085551247 0 -0.050605177415425522 0.010282659554325647 0 -0.050583591190194538 0.0085464530723805728 0 -0.052251075694072141 0.012590751034354518 0 -0.050605177415425522 0.010282659554325647 0 -0.051973618166401454 0.010719099741278205 0 -0.051325939211650656 0.010839705049406225 0 -0.051587161342480835 0.01048245247501893 0 -0.051973618166401454 0.010719099741278205 0 -0.051723668023269991 0.010205583588668753 0 -0.051587161342480835 0.01048245247501893 0 -0.051325939211650656 0.010839705049406225 0 -0.051174031032960914 0.010492445747061395 0 -0.051587161342480835 0.01048245247501893 0 -0.054354067432700492 0.018074184934303367 0 -0.05297989638431147 0.017207652971321381 0 -0.053698307124611204 0.016538262596496017 0 -0.050605177415425522 0.010282659554325647 0 -0.051671489274495101 0.012323958398671113 0 -0.052124862690983903 0.018514856512290765 0 -0.054354067432700492 0.018074184934303367 0 -0.05297989638431147 0.017207652971321381 0 -0.05297989638431147 0.017207652971321381 0 -0.053698307124611204 0.016538262596496017 0 -0.052861937261221535 0.016129428225944997 0 -0.05297989638431147 0.017207652971321381 0 -0.052861937261221535 0.016129428225944997 0 -0.052106314351197933 0.016395430292401255 0 -0.041439883313060234 0.0069347577515328773 0 -0.041404414760613392 0.0068915385078975582 0 -0.041332707895737654 0.006978956974952359 0 -0.049386361806897289 0.0094807528698734825 0 -0.048040007048013256 0.0084266369193659457 0 -0.048040007048013256 0.0084266369193659457 0 -0.04966502750738825 0.0092196818670028154 0 -0.049239064876296208 0.0072887674431148328 0 -0.051711685974797215 0.010171896368867187 0 -0.048913118772051144 0.010697549164855252 0 -0.051017976465373892 0.010220005944792833 0 -0.051379995974738565 0.011057708810735511 0 -0.050636764491562195 0.01068415448994614 0 -0.050605177415425522 0.010282659554325647 0 -0.04966502750738825 0.0092196818670028154 0 -0.051017976465373892 0.010220005944792833 0 -0.050636764491562195 0.01068415448994614 0 -0.050674809411754757 0.010284294457673595 0 -0.049386361806897289 0.0094807528698734825 0 -0.04966502750738825 0.0092196818670028154 0 -0.041404414760613392 0.0068915385078975582 0 -0.041332707895737654 0.006978956974952359 0 -0.04123680385459344 0.0069151197443281676 0 -0.048040007048013256 0.0084266369193659457 0 -0.043239366651967273 0.006780555520309023 0 -0.043239366651967273 0.006780555520309023 0 -0.036290196341631005 0.0055092890776612512 0 -0.047261049224406611 0.0064005005655043655 0 -0.046560509032564139 0.0052619636163130541 0 -0.046157711087810589 0.0066028146882941736 0 -0.047261049224406611 0.0064005005655043655 0 -0.047503876384877269 0.0052037841878182604 0 -0.046560509032564139 0.0052619636163130541 0 -0.04831193984269188 0.0057036001199008762 0 -0.048404547708458472 0.0062750689002085951 0 -0.047503876384877269 0.0052037841878182604 0 -0.048040007048013256 0.0084266369193659457 0 -0.047360200057127273 0.0070179234288839766 0 -0.048341212780249554 0.0061995787068804464 0 -0.047261049224406611 0.0064005005655043655 0 -0.047503876384877269 0.0052037841878182604 0 -0.04831193984269188 0.0057036001199008762 0 -0.048237143224172649 0.0052647201570688914 0 -0.047503876384877269 0.0052037841878182604 0 -0.048359373289909358 0.0045989837728793136 0 -0.048237143224172649 0.0052647201570688914 0 -0.047503876384877269 0.0052037841878182604 0 -0.048359373289909358 0.0045989837728793136 0 -0.047503876384877269 0.0052037841878182604 0 -0.04720131388493333 0.0046999823477399246 0 -0.052324212675432927 0.0050649719233901193 0 -0.05108724367620774 0.0062802199241098746 0 -0.047961518332670802 0.0036686381319493955 0 -0.048359373289909358 0.0045989837728793136 0 -0.047368885784932847 0.0041336203036485423 0 -0.048359373289909358 0.0045989837728793136 0 -0.047368885784932847 0.0041336203036485423 0 -0.04720131388493333 0.0046999823477399246 0 -0.046775048479742377 0.0036878030813576983 0 -0.047961518332670802 0.0036686381319493955 0 -0.047368885784932847 0.0041336203036485423 0 -0.046775048479742377 0.0036878030813576983 0 -0.046716027117170537 0.0040487617371714911 0 -0.047368885784932847 0.0041336203036485423 0 -0.047368885784932847 0.0041336203036485423 0 -0.046682759784717698 0.0044349871349657847 0 -0.04720131388493333 0.0046999823477399246 0 -0.046716027117170537 0.0040487617371714911 0 -0.047368885784932847 0.0041336203036485423 0 -0.046682759784717698 0.0044349871349657847 0 -0.047503876384877269 0.0052037841878182604 0 -0.04720131388493333 0.0046999823477399246 0 -0.046560509032564139 0.0052619636163130541 0 -0.046682759784717698 0.0044349871349657847 0 -0.04720131388493333 0.0046999823477399246 0 -0.046560509032564139 0.0052619636163130541 0 -0.046682759784717698 0.0044349871349657847 0 -0.046560509032564139 0.0052619636163130541 0 -0.046292460353013216 0.004531155570521527 0 -0.046560509032564139 0.0052619636163130541 0 -0.045892692566836923 0.0047541322734676291 0 -0.045550737371109117 0.0055264058353860276 0 -0.046560509032564139 0.0052619636163130541 0 -0.045892692566836923 0.0047541322734676291 0 -0.046292460353013216 0.004531155570521527 0 -0.05164554588553797 0.0024406282707289477 0 -0.05220234495620079 0.0025799666020790363 0 -0.046682759784717698 0.0044349871349657847 0 -0.046292460353013216 0.004531155570521527 0 -0.046279263816307988 0.0039959365273073292 0 -0.048450265967944169 0.0012665272923063342 0 -0.050039093809860519 0.0012407111539775553 0 -0.050107123993053622 0.0015777877749477342 0 -0.045892692566836923 0.0047541322734676291 0 -0.046292460353013216 0.004531155570521527 0 -0.046279263816307988 0.0039959365273073292 0 -0.046775048479742377 0.0036878030813576983 0 -0.046716027117170537 0.0040487617371714911 0 -0.046321089505406449 0.0038788437022343474 0 -0.05237896320546731 0.0031495058561529237 0 -0.05220234495620079 0.0025799666020790363 0 -0.052384549939821244 0.002372315333641547 0 -0.052959983821930817 0.0022311528951031649 0 -0.052985121388224136 0.0021234351656925772 0 -0.050039093809860519 0.0012407111539775553 0 -0.050142678212609169 0.0014264513886039496 0 -0.050107123993053622 0.0015777877749477342 0 -0.046716027117170537 0.0040487617371714911 0 -0.046682759784717698 0.0044349871349657847 0 -0.046321089505406449 0.0038788437022343474 0 -0.053058018972239204 0.0022359864365101593 0 -0.052729023441572022 0.0023297059458602404 0 -0.046682759784717698 0.0044349871349657847 0 -0.046279263816307988 0.0039959365273073292 0 -0.046308934482101556 0.0038743313210851892 0 -0.053029115054816119 0.0023687107878587656 0 -0.052729023441572022 0.0023297059458602404 0 -0.052729023441572022 0.0023297059458602404 0 -0.05220234495620079 0.0025799666020790363 0 -0.052183641130170731 0.0026021395800202652 0 -0.05220234495620079 0.0025799666020790363 0 -0.048450265967944169 0.0012665272923063342 0 -0.050107123993053622 0.0015777877749477342 0 -0.047614450529054962 0.0026127017093342821 0 -0.045892692566836923 0.0047541322734676291 0 -0.046279263816307988 0.0039959365273073292 0 -0.044934428607868691 0.0044412999937236157 0 -0.046279263816307988 0.0039959365273073292 0 -0.046308686318554983 0.0038752377634524073 0 -0.044934428607868691 0.0044412999937236157 0 -0.05220234495620079 0.0025799666020790363 0 -0.043378068190535357 0.0022495018112892212 0 -0.038878404045460606 0.0039832559148870357 0 -0.043378068190535357 0.0022495018112892212 0 -0.045892692566836923 0.0047541322734676291 0 -0.045550737371109117 0.0055264058353860276 0 -0.044934428607868691 0.0044412999937236157 0 -0.038878404045460606 0.0039832559148870357 0 -0.036290196341631005 0.0055092890776612512 0 -0.026275756532557672 0.005218099494625387 0 -0.025738606365553279 0.0042362155996319368 0 -0.026649808583558317 0.0046985579757892462 0 -0.046560509032564139 0.0052619636163130541 0 -0.045550737371109117 0.0055264058353860276 0 -0.046157711087810589 0.0066028146882941736 0 -0.036290196341631005 0.0055092890776612512 0 -0.029606574104891242 0.0052789770198578218 0 -0.025738606365553279 0.0042362155996319368 0 -0.026645944023925561 0.0040517088434062661 0 -0.026649808583558317 0.0046985579757892462 0 -0.026267195754343962 0.0036696300785713483 0 -0.025738310369720796 0.0029981093092541202 0 -0.026579428868855247 0.002718303952148299 0 -0.025431699919469378 0.003786654902297279 0 -0.026267195754343962 0.0036696300785713483 0 -0.025738310369720796 0.0029981093092541202 0 -0.025431699919469378 0.003786654902297279 0 -0.025738310369720796 0.0029981093092541202 0 -0.024892129816815396 0.0027410947193545971 0 -0.036290196341631005 0.0055092890776612512 0 -0.034814918022719667 0.0043667483789301452 0 -0.025738310369720796 0.0029981093092541202 0 -0.025931314814408496 0.0020680848469297546 0 -0.024892129816815396 0.0027410947193545971 0 -0.025738310369720796 0.0029981093092541202 0 -0.025931314814408496 0.0020680848469297546 0 -0.026579428868855247 0.002718303952148299 0 -0.025931314814408496 0.0020680848469297546 0 -0.025850832914770333 0.0013253815226352875 0 -0.02527062043503563 0.001653594545137865 0 -0.025931314814408496 0.0020680848469297546 0 -0.025850832914770333 0.0013253815226352875 0 -0.026210553452769774 0.0013142880478836281 0 -0.025850832914770333 0.0013253815226352875 0 -0.026090121414888118 0.0010011436081235193 0 -0.025917299189013945 0.0009284935592448521 0 -0.025850832914770333 0.0013253815226352875 0 -0.026210553452769774 0.0013142880478836281 0 -0.026090121414888118 0.0010011436081235193 0 -0.025850832914770333 0.0013253815226352875 0 -0.02527062043503563 0.001653594545137865 0 -0.025654396903574898 0.00095180499782894891 0 -0.02527062043503563 0.001653594545137865 0 -0.025654396903574898 0.00095180499782894891 0 -0.024904581807384252 0.0010332267446080815 0 -0.025931314814408496 0.0020680848469297546 0 -0.02527062043503563 0.001653594545137865 0 -0.024892129816815396 0.0027410947193545971 0 -0.041275999447956825 0.0072739045897480771 0 -0.041316067841858116 0.0072257484759830201 0 -0.041175329487236539 0.0071140138624364363 0 -0.02527062043503563 0.001653594545137865 0 -0.024385679155161273 0.0017581189597520701 0 -0.024892129816815396 0.0027410947193545971 0 -0.035395557190870064 0.0041092039489647562 0 -0.034814918022719667 0.0043667483789301452 0 -0.035395557190870064 0.0041092039489647562 0 -0.030186857510078775 0.0040452880354566135 0 -0.02527062043503563 0.001653594545137865 0 -0.024385679155161273 0.0017581189597520701 0 -0.024904581807384252 0.0010332267446080815 0 -0.03312256464560686 0.003533996469051517 0 -0.032496056692943982 0.004422673767924077 0 -0.033184178675245299 0.0046436089974781422 0 -0.035395557190870064 0.0041092039489647562 0 -0.041367646799961987 0.0075194471725942395 0 -0.041288720805385523 0.0072667676194497193 0 -0.041384458422440859 0.0072610974830801507 0 -0.041375917932052607 0.0073985580744147838 0 -0.03312256464560686 0.003533996469051517 0 -0.033184178675245299 0.0046436089974781422 0 -0.033750850852905724 0.0046267420353400977 0 -0.041288720805385523 0.0072667676194497193 0 -0.041316067841858116 0.0072257484759830201 0 -0.041384458422440859 0.0072610974830801507 0 -0.035395557190870064 0.0041092039489647562 0 -0.035630057139590471 0.0041528689262480059 0 -0.041316067841858116 0.0072257484759830201 0 -0.041309109824365753 0.007107427471937152 0 -0.04141108915543501 0.0071060557354861789 0 -0.041316067841858116 0.0072257484759830201 0 -0.041309109824365753 0.007107427471937152 0 -0.041175329487236539 0.0071140138624364363 0 -0.041332707895737654 0.006978956974952359 0 -0.04123680385459344 0.0069151197443281676 0 -0.041175329487236539 0.0071140138624364363 0 -0.04123680385459344 0.0069151197443281676 0 -0.041065767227688676 0.0069410285110345126 0 -0.041175329487236539 0.0071140138624364363 0 -0.041332707895737654 0.006978956974952359 0 -0.041309109824365753 0.007107427471937152 0 -0.041175329487236539 0.0071140138624364363 0 -0.041332707895737654 0.006978956974952359 0 -0.041309109824365753 0.007107427471937152 0 -0.04141108915543501 0.0071060557354861789 0 -0.049386361806897289 0.0094807528698734825 0 -0.047643376001752724 0.010001712190416281 0 -0.041439883313060234 0.0069347577515328773 0 -0.041332707895737654 0.006978956974952359 0 -0.04141108915543501 0.0071060557354861789 0 -0.055635676335190822 0.016849439339930151 0 -0.05489786644587577 0.015459300995027247 0 -0.05592736155249612 0.014161946968417804 0 -0.05489786644587577 0.015459300995027247 0 -0.05464609630092529 0.014523435625290373 0 -0.05592736155249612 0.014161946968417804 0 -0.049386361806897289 0.0094807528698734825 0 -0.052045521186483264 0.012866971295185702 0 -0.055635676335190822 0.016849439339930151 0 -0.05489786644587577 0.015459300995027247 0 -0.053539127352468192 0.01456781884119788 0 -0.051379995974738565 0.011057708810735511 0 -0.050636764491562195 0.01068415448994614 0 -0.051742101783215241 0.011896611126439895 0 -0.053698307124611204 0.016538262596496017 0 -0.052861937261221535 0.016129428225944997 0 -0.053039499836723472 0.014999320937519826 0 -0.051671489274495101 0.012323958398671113 0 -0.052045521186483264 0.012866971295185702 0 -0.052861937261221535 0.016129428225944997 0 -0.053039499836723472 0.014999320937519826 0 -0.052477915810620501 0.015515232073308873 0 -0.05489786644587577 0.015459300995027247 0 -0.054328447837590423 0.014674027574143971 0 -0.05464609630092529 0.014523435625290373 0 -0.05489786644587577 0.015459300995027247 0 -0.053539127352468192 0.01456781884119788 0 -0.054328447837590423 0.014674027574143971 0 -0.054328447837590423 0.014674027574143971 0 -0.05464609630092529 0.014523435625290373 0 -0.054148900111520154 0.01418580615049094 0 -0.053539127352468192 0.01456781884119788 0 -0.054328447837590423 0.014674027574143971 0 -0.054148900111520154 0.01418580615049094 0 -0.054148900111520154 0.01418580615049094 0 -0.054574913585303336 0.013800398357280223 0 -0.05359623024556015 0.013188364614501534 0 -0.05464609630092529 0.014523435625290373 0 -0.054148900111520154 0.01418580615049094 0 -0.054574913585303336 0.013800398357280223 0 -0.053539127352468192 0.01456781884119788 0 -0.054148900111520154 0.01418580615049094 0 -0.05359623024556015 0.013188364614501534 0 -0.054574913585303336 0.013800398357280223 0 -0.05359623024556015 0.013188364614501534 0 -0.054642614647717712 0.012513673156901751 0 -0.054574913585303336 0.013800398357280223 0 -0.05592736155249612 0.014161946968417804 0 -0.054642614647717712 0.012513673156901751 0 -0.05592736155249612 0.014161946968417804 0 -0.056278748547319485 0.011363557101476239 0 -0.054642614647717712 0.012513673156901751 0 -0.047643376001752724 0.010001712190416281 0 -0.045445636376704644 0.0089153091027092297 0 -0.05464609630092529 0.014523435625290373 0 -0.054574913585303336 0.013800398357280223 0 -0.05592736155249612 0.014161946968417804 0 -0.041316067841858116 0.0072257484759830201 0 -0.04141108915543501 0.0071060557354861789 0 -0.041384458422440859 0.0072610974830801507 0 -0.056278748547319485 0.011363557101476239 0 -0.054480361724325445 0.010329852207481387 0 -0.054642614647717712 0.012513673156901751 0 -0.045445636376704644 0.0089153091027092297 0 -0.041367646799961987 0.0075194471725942395 0 -0.056278748547319485 0.011363557101476239 0 -0.054480361724325445 0.010329852207481387 0 -0.056627520236623194 0.0084416253220035552 0 -0.054480361724325445 0.010329852207481387 0 -0.053318560297643737 0.011539631899811402 0 -0.052390071927696118 0.0094917124425160596 0 -0.054480361724325445 0.010329852207481387 0 -0.052390071927696118 0.0094917124425160596 0 -0.054679432261442208 0.0083245999892480969 0 -0.054480361724325445 0.010329852207481387 0 -0.053318560297643737 0.011539631899811402 0 -0.054642614647717712 0.012513673156901751 0 -0.05359623024556015 0.013188364614501534 0 -0.053318560297643737 0.011539631899811402 0 -0.054642614647717712 0.012513673156901751 0 -0.053318560297643737 0.011539631899811402 0 -0.051474687539720412 0.012143670627043 0 -0.052390071927696118 0.0094917124425160596 0 -0.05359623024556015 0.013188364614501534 0 -0.053318560297643737 0.011539631899811402 0 -0.051474687539720412 0.012143670627043 0 -0.051340704292368554 0.012167459300255371 0 -0.050362572288454484 0.011051287847858469 0 -0.051474687539720412 0.012143670627043 0 -0.052390071927696118 0.0094917124425160596 0 -0.049261447942020781 0.0098099610151758717 0 -0.051377185572452785 0.012653392306036824 0 -0.048618309008378761 0.012246127975875692 0 -0.049261447942020781 0.0098099610151758717 0 -0.051377185572452785 0.012653392306036824 0 -0.049780754656391112 0.014215020236985348 0 -0.048618309008378761 0.012246127975875692 0 -0.051377185572452785 0.012653392306036824 0 -0.049780754656391112 0.014215020236985348 0 -0.05081156563387703 0.014623999734273817 0 -0.053539127352468192 0.01456781884119788 0 -0.05359623024556015 0.013188364614501534 0 -0.051474687539720412 0.012143670627043 0 -0.052045521186483264 0.012866971295185702 0 -0.051340704292368554 0.012167459300255371 0 -0.051377185572452785 0.012653392306036824 0 -0.05081156563387703 0.014623999734273817 0 -0.051850252678008663 0.015102109055739653 0 -0.053039499836723472 0.014999320937519826 0 -0.051377185572452785 0.012653392306036824 0 -0.051850252678008663 0.015102109055739653 0 -0.05081156563387703 0.014623999734273817 0 -0.051850252678008663 0.015102109055739653 0 -0.051229984674881206 0.015320363932046535 0 -0.051229984674881206 0.015320363932046535 0 -0.051953289115385153 0.015573651143226029 0 -0.051518650393519452 0.015769416585267225 0 -0.051850252678008663 0.015102109055739653 0 -0.051229984674881206 0.015320363932046535 0 -0.051953289115385153 0.015573651143226029 0 -0.051229984674881206 0.015320363932046535 0 -0.051518650393519452 0.015769416585267225 0 -0.050739140624019366 0.015817314119715323 0 -0.053039499836723472 0.014999320937519826 0 -0.051850252678008663 0.015102109055739653 0 -0.052477915810620501 0.015515232073308873 0 -0.051850252678008663 0.015102109055739653 0 -0.051953289115385153 0.015573651143226029 0 -0.052477915810620501 0.015515232073308873 0 -0.052861937261221535 0.016129428225944997 0 -0.052477915810620501 0.015515232073308873 0 -0.052106314351197933 0.016395430292401255 0 -0.051953289115385153 0.015573651143226029 0 -0.052477915810620501 0.015515232073308873 0 -0.052106314351197933 0.016395430292401255 0 -0.051953289115385153 0.015573651143226029 0 -0.052106314351197933 0.016395430292401255 0 -0.051518650393519452 0.015769416585267225 0 -0.052106314351197933 0.016395430292401255 0 -0.051518650393519452 0.015769416585267225 0 -0.050739140624019366 0.015817314119715323 0 -0.050059379913521433 0.016461562526897646 0 -0.050605946336689855 0.016171811468812577 0 -0.049975990754759961 0.015937168867488808 0 -0.049780754656391112 0.014215020236985348 0 -0.05081156563387703 0.014623999734273817 0 -0.049975990754759961 0.015937168867488808 0 -0.050605946336689855 0.016171811468812577 0 -0.050739140624019366 0.015817314119715323 0 -0.049975990754759961 0.015937168867488808 0 -0.05081156563387703 0.014623999734273817 0 -0.051229984674881206 0.015320363932046535 0 -0.050739140624019366 0.015817314119715323 0 -0.05081156563387703 0.014623999734273817 0 -0.050739140624019366 0.015817314119715323 0 -0.049975990754759961 0.015937168867488808 0 -0.045066593646364346 -0.0003202209838619501 0 -0.045578660160006584 -8.2332432621383877e-05 0 -0.045663776122765773 -0.00085435634839403282 0 -0.045066593646364346 -0.0003202209838619501 0 -0.045578660160006584 -8.2332432621383877e-05 0 -0.044658307276223164 0.00051450363510546673 0 -0.038731600066002486 0.0022295013896636733 0 -0.039010627004788141 0.0026322857970226235 0 -0.045578660160006584 -8.2332432621383877e-05 0 -0.045663776122765773 -0.00085435634839403282 0 -0.046368070374966375 -0.00044435428827590575 0 -0.031084997943203532 0.0051169862401986843 0 -0.030890968209399985 0.0040735128667001366 0 -0.029520093498075495 0.0042244925678381071 0 -0.031084997943203532 0.0051169862401986843 0 -0.030890968209399985 0.0040735128667001366 0 -0.032025320264966774 0.0034334463481679118 0 -0.030890968209399985 0.0040735128667001366 0 -0.032025320264966774 0.0034334463481679118 0 -0.031269024224875902 0.0025460796091813535 0 -0.038731600066002486 0.0022295013896636733 0 -0.039463062138741206 0.001329888501647173 0 -0.031084997943203532 0.0051169862401986843 0 -0.032025320264966774 0.0034334463481679118 0 -0.034536421171565884 0.0039148905229927861 0 -0.044658307276223164 0.00051450363510546673 0 -0.043474354846851672 -7.7888280622606733e-05 0 -0.044497477086928423 -5.3484515491560508e-05 0 -0.039463062138741206 0.001329888501647173 0 -0.040344290387758781 2.1217285436578835e-06 0 -0.043474354846851672 -7.7888280622606733e-05 0 -0.043403451262364411 -9.3846435473663022e-07 0 -0.040349829873613866 2.4862770039477066e-06 0 -0.044658307276223164 0.00051450363510546673 0 -0.043474354846851672 -7.7888280622606733e-05 0 -0.040349829873613866 2.4862770039477066e-06 0 -0.043474354846851672 -7.7888280622606733e-05 0 -0.044880740636095817 -0.00035368134661519266 0 -0.043403451262364411 -9.3846435473663022e-07 0 -0.045066593646364346 -0.0003202209838619501 0 -0.044497477086928423 -5.3484515491560508e-05 0 -0.044838834413752193 -0.00083119343337861114 0 -0.044880740636095817 -0.00035368134661519266 0 -0.044497477086928423 -5.3484515491560508e-05 0 -0.045615739174041124 -0.00049064823724265206 0 -0.043474354846851672 -7.7888280622606733e-05 0 -0.044880740636095817 -0.00035368134661519266 0 -0.044497477086928423 -5.3484515491560508e-05 0 -0.045066593646364346 -0.0003202209838619501 0 -0.044658307276223164 0.00051450363510546673 0 -0.044497477086928423 -5.3484515491560508e-05 0 -0.047288648188785559 0.00016418386604147902 0 -0.047880166211351501 0.00027806266695177249 0 -0.044880740636095817 -0.00035368134661519266 0 -0.045615739174041124 -0.00049064823724265206 0 -0.046153485408347121 -0.00034697019647745789 0 -0.044880740636095817 -0.00035368134661519266 0 -0.046464473353524278 -1.9489357996458614e-06 0 -0.046153485408347121 -0.00034697019647745789 0 -0.044880740636095817 -0.00035368134661519266 0 -0.043403451262364411 -9.3846435473663022e-07 0 -0.046464473353524278 -1.9489357996458614e-06 0 -0.049517644071026233 3.3286058199833716e-06 0 -0.046464473353524278 -1.9489357996458614e-06 0 -0.047414864704182241 -0.00023540763039771941 0 -0.046464473353524278 -1.9489357996458614e-06 0 -0.046153485408347121 -0.00034697019647745789 0 -0.047414864704182241 -0.00023540763039771941 0 -0.045615739174041124 -0.00049064823724265206 0 -0.046153485408347121 -0.00034697019647745789 0 -0.046131345155246015 1.4224774166814649e-05 0 -0.045615739174041124 -0.00049064823724265206 0 -0.046131345155246015 1.4224774166814649e-05 0 -0.045779537500251592 3.0355229287761907e-05 0 -0.046153485408347121 -0.00034697019647745789 0 -0.047414864704182241 -0.00023540763039771941 0 -0.046131345155246015 1.4224774166814649e-05 0 -0.048887450973191547 0.0012829873412333484 0 -0.049603415394750779 0.0013461111916909471 0 -0.044838834413752193 -0.00083119343337861114 0 -0.045069508498022132 -0.001568539639355639 0 -0.045663776122765773 -0.00085435634839403282 0 -0.047880166211351501 0.00027806266695177249 0 -0.049603415394750779 0.0013461111916909471 0 -0.045066593646364346 -0.0003202209838619501 0 -0.044838834413752193 -0.00083119343337861114 0 -0.045663776122765773 -0.00085435634839403282 0 -0.045069508498022132 -0.001568539639355639 0 -0.045663776122765773 -0.00085435634839403282 0 -0.046081150442714505 -0.0015654195305582058 0 -0.049603415394750779 0.0013461111916909471 0 -0.051959695696075663 0.00055545199171351783 0 -0.045663776122765773 -0.00085435634839403282 0 -0.046081150442714505 -0.0015654195305582058 0 -0.046576064411011801 -0.0011003125120259453 0 -0.047063944645022553 -0.0015671329234290114 0 -0.046081150442714505 -0.0015654195305582058 0 -0.046576064411011801 -0.0011003125120259453 0 -0.047063944645022553 -0.0015671329234290114 0 -0.046576064411011801 -0.0011003125120259453 0 -0.047167462975206513 -0.00078208156740469485 0 -0.049029157388369916 0.00079388057726670032 0 -0.051959695696075663 0.00055545199171351783 0 -0.046576064411011801 -0.0011003125120259453 0 -0.047167462975206513 -0.00078208156740469485 0 -0.046368070374966375 -0.00044435428827590575 0 -0.027868991506182411 0.0056791230086093245 0 -0.027893570500828621 0.0058271611315618777 0 -0.029182813204364617 0.0055086099931943976 0 -0.042731576996767724 0.0019751377256157065 0 -0.039010627004788141 0.0026322857970226235 0 -0.045663776122765773 -0.00085435634839403282 0 -0.046576064411011801 -0.0011003125120259453 0 -0.046368070374966375 -0.00044435428827590575 0 -0.046363259563937838 0.0014385501726501429 0 -0.046472754068171286 0.0016385889723672345 0 -0.046142692989443804 0.001775109273257145 0 -0.046865121361252947 0.0012940392720345846 0 -0.048450265967944169 0.0012665272923063342 0 -0.047614450529054962 0.0026127017093342821 0 -0.049019613456376801 0.0020787125666728058 0 -0.043378068190535357 0.0022495018112892212 0 -0.046101941062628715 0.0014420685333145378 0 -0.046363259563937838 0.0014385501726501429 0 -0.046142692989443804 0.001775109273257145 0 -0.049029157388369916 0.00079388057726670032 0 -0.042731576996767724 0.0019751377256157065 0 -0.027896474365011401 0.0058034041300037793 0 -0.027145424280823217 0.0055576863461202089 0 -0.02752176863959465 0.0054198284870754232 0 -0.027868991506182411 0.0056791230086093245 0 -0.027896474365011401 0.0058034041300037793 0 -0.02752176863959465 0.0054198284870754232 0 -0.042679345485583026 0.0020063760596275076 0 -0.042731576996767724 0.0019751377256157065 0 -0.026275756532557672 0.005218099494625387 0 -0.026846377896904052 0.0062016530384978574 0 -0.027145424280823217 0.0055576863461202089 0 -0.043378068190535357 0.0022495018112892212 0 -0.042731576996767724 0.0019751377256157065 0 -0.026846377896904052 0.0062016530384978574 0 -0.027896474365011401 0.0058034041300037793 0 -0.027145424280823217 0.0055576863461202089 0 -0.026275756532557672 0.005218099494625387 0 -0.026649808583558317 0.0046985579757892462 0 -0.027145424280823217 0.0055576863461202089 0 -0.026649808583558317 0.0046985579757892462 0 -0.027145424280823217 0.0055576863461202089 0 -0.02727245332766658 0.004754844720518207 0 -0.027145424280823217 0.0055576863461202089 0 -0.02727245332766658 0.004754844720518207 0 -0.02752176863959465 0.0054198284870754232 0 -0.027868991506182411 0.0056791230086093245 0 -0.02773758455621993 0.005027904559451693 0 -0.028350616674667751 0.0047763457084197573 0 -0.02727245332766658 0.004754844720518207 0 -0.02752176863959465 0.0054198284870754232 0 -0.02773758455621993 0.005027904559451693 0 -0.02727245332766658 0.004754844720518207 0 -0.02773758455621993 0.005027904559451693 0 -0.027742628739161976 0.0044732870662040668 0 -0.027868991506182411 0.0056791230086093245 0 -0.02752176863959465 0.0054198284870754232 0 -0.02773758455621993 0.005027904559451693 0 -0.02773758455621993 0.005027904559451693 0 -0.027742628739161976 0.0044732870662040668 0 -0.028350616674667751 0.0047763457084197573 0 -0.02727245332766658 0.004754844720518207 0 -0.027742628739161976 0.0044732870662040668 0 -0.027555451499684372 0.0038190601506974888 0 -0.027742628739161976 0.0044732870662040668 0 -0.028462501852068257 0.0034734908149143245 0 -0.027555451499684372 0.0038190601506974888 0 -0.026645944023925561 0.0040517088434062661 0 -0.02727245332766658 0.004754844720518207 0 -0.027555451499684372 0.0038190601506974888 0 -0.026645944023925561 0.0040517088434062661 0 -0.026649808583558317 0.0046985579757892462 0 -0.02727245332766658 0.004754844720518207 0 -0.029182813204364617 0.0055086099931943976 0 -0.028350616674667751 0.0047763457084197573 0 -0.029520093498075495 0.0042244925678381071 0 -0.031084997943203532 0.0051169862401986843 0 -0.029182813204364617 0.0055086099931943976 0 -0.029520093498075495 0.0042244925678381071 0 -0.027868991506182411 0.0056791230086093245 0 -0.029182813204364617 0.0055086099931943976 0 -0.028350616674667751 0.0047763457084197573 0 -0.028350616674667751 0.0047763457084197573 0 -0.029520093498075495 0.0042244925678381071 0 -0.028462501852068257 0.0034734908149143245 0 -0.027742628739161976 0.0044732870662040668 0 -0.028350616674667751 0.0047763457084197573 0 -0.028462501852068257 0.0034734908149143245 0 -0.029520093498075495 0.0042244925678381071 0 -0.028462501852068257 0.0034734908149143245 0 -0.029664006837160983 0.002831627135669602 0 -0.028462501852068257 0.0034734908149143245 0 -0.028205499532677397 0.0024594175445764926 0 -0.027484242251616667 0.0028717063408974872 0 -0.028462501852068257 0.0034734908149143245 0 -0.028205499532677397 0.0024594175445764926 0 -0.029664006837160983 0.002831627135669602 0 -0.028205499532677397 0.0024594175445764926 0 -0.029664006837160983 0.002831627135669602 0 -0.028723422018490839 0.001736085392487713 0 -0.029762976484658182 0.0024172058595165807 0 -0.029061811379576901 0.0012861040017922163 0 -0.030084954563847261 0.0015513994493036466 0 -0.02927601017128164 0.00061998411736748982 0 -0.030677845412068746 0.00061622029064951802 0 -0.029606574104891242 0.0052789770198578218 0 -0.02832601704326046 0.0048108925448390105 0 -0.026267195754343962 0.0036696300785713483 0 -0.027196733128399268 0.0036019365989785092 0 -0.026579428868855247 0.002718303952148299 0 -0.028332211798281371 0.0045990984114139058 0 -0.02832601704326046 0.0048108925448390105 0 -0.028462501852068257 0.0034734908149143245 0 -0.027196733128399268 0.0036019365989785092 0 -0.027484242251616667 0.0028717063408974872 0 -0.027196733128399268 0.0036019365989785092 0 -0.027484242251616667 0.0028717063408974872 0 -0.026579428868855247 0.002718303952148299 0 -0.028205499532677397 0.0024594175445764926 0 -0.027484242251616667 0.0028717063408974872 0 -0.027173275583504113 0.0022054312279107509 0 -0.027484242251616667 0.0028717063408974872 0 -0.026579428868855247 0.002718303952148299 0 -0.027173275583504113 0.0022054312279107509 0 -0.025931314814408496 0.0020680848469297546 0 -0.026579428868855247 0.002718303952148299 0 -0.026525845629953599 0.0017344180559697943 0 -0.026579428868855247 0.002718303952148299 0 -0.026525845629953599 0.0017344180559697943 0 -0.027173275583504113 0.0022054312279107509 0 -0.025931314814408496 0.0020680848469297546 0 -0.026525845629953599 0.0017344180559697943 0 -0.026210553452769774 0.0013142880478836281 0 -0.028205499532677397 0.0024594175445764926 0 -0.027173275583504113 0.0022054312279107509 0 -0.027314316761184745 0.0014466027856177258 0 -0.026525845629953599 0.0017344180559697943 0 -0.027173275583504113 0.0022054312279107509 0 -0.027314316761184745 0.0014466027856177258 0 -0.027314316761184745 0.0014466027856177258 0 -0.026413191121653218 0.0010115660406297422 0 -0.026792111993272021 0.00072836341132781609 0 -0.027314316761184745 0.0014466027856177258 0 -0.027916687633183234 0.00060605444670504575 0 -0.026792111993272021 0.00072836341132781609 0 -0.026525845629953599 0.0017344180559697943 0 -0.027314316761184745 0.0014466027856177258 0 -0.026413191121653218 0.0010115660406297422 0 -0.026525845629953599 0.0017344180559697943 0 -0.026413191121653218 0.0010115660406297422 0 -0.026210553452769774 0.0013142880478836281 0 -0.026413191121653218 0.0010115660406297422 0 -0.026210553452769774 0.0013142880478836281 0 -0.026090121414888118 0.0010011436081235193 0 -0.028205499532677397 0.0024594175445764926 0 -0.027314316761184745 0.0014466027856177258 0 -0.028723422018490839 0.001736085392487713 0 -0.029061811379576901 0.0012861040017922163 0 -0.028680382099820288 0.00074577845414609475 0 -0.027314316761184745 0.0014466027856177258 0 -0.028723422018490839 0.001736085392487713 0 -0.027916687633183234 0.00060605444670504575 0 -0.02927601017128164 0.00061998411736748982 0 -0.030158367756552305 2.4551939872533234e-05 0 -0.027916687633183234 0.00060605444670504575 0 -0.030158367756552305 2.4551939872533234e-05 0 -0.032372841803366588 8.8930378565266514e-05 0 -0.031664234077133674 -0.00031876904964614917 0 -0.030158367756552305 2.4551939872533234e-05 0 -0.032372841803366588 8.8930378565266514e-05 0 -0.030677845412068746 0.00061622029064951802 0 -0.02927601017128164 0.00061998411736748982 0 -0.030158367756552305 2.4551939872533234e-05 0 -0.030677845412068746 0.00061622029064951802 0 -0.030084954563847261 0.0015513994493036466 0 -0.030677845412068746 0.00061622029064951802 0 -0.032426466548218832 0.0015739409093121863 0 -0.032372841803366588 8.8930378565266514e-05 0 -0.030677845412068746 0.00061622029064951802 0 -0.032426466548218832 0.0015739409093121863 0 -0.032025320264966774 0.0034334463481679118 0 -0.032426466548218832 0.0015739409093121863 0 -0.031269024224875902 0.0025460796091813535 0 -0.032025320264966774 0.0034334463481679118 0 -0.034536421171565884 0.0039148905229927861 0 -0.032426466548218832 0.0015739409093121863 0 -0.03022609160507345 0.0032662652314699569 0 -0.029762976484658182 0.0024172058595165807 0 -0.030890968209399985 0.0040735128667001366 0 -0.029520093498075495 0.0042244925678381071 0 -0.029664006837160983 0.002831627135669602 0 -0.030890968209399985 0.0040735128667001366 0 -0.030084954563847261 0.0015513994493036466 0 -0.031269024224875902 0.0025460796091813535 0 -0.030084954563847261 0.0015513994493036466 0 -0.032426466548218832 0.0015739409093121863 0 -0.031269024224875902 0.0025460796091813535 0 -0.034536421171565884 0.0039148905229927861 0 -0.040336689684751716 8.8880117638945327e-06 0 -0.035359781123816075 0.0003144656737022756 0 -0.034536421171565884 0.0039148905229927861 0 -0.032426466548218832 0.0015739409093121863 0 -0.035359781123816075 0.0003144656737022756 0 -0.032372841803366588 8.8930378565266514e-05 0 -0.032426466548218832 0.0015739409093121863 0 -0.035359781123816075 0.0003144656737022756 0 -0.035359781123816075 0.0003144656737022756 0 -0.036722652912427503 -2.4395277295952048e-06 0 -0.033781427353858036 -0.00018202423507319748 0 -0.040336689684751716 8.8880117638945327e-06 0 -0.035359781123816075 0.0003144656737022756 0 -0.036722652912427503 -2.4395277295952048e-06 0 -0.036722652912427503 -2.4395277295952048e-06 0 -0.033781427353858036 -0.00018202423507319748 0 -0.033099597860113378 -3.5889350162809235e-07 0 -0.032372841803366588 8.8930378565266514e-05 0 -0.035359781123816075 0.0003144656737022756 0 -0.033781427353858036 -0.00018202423507319748 0 -0.032372841803366588 8.8930378565266514e-05 0 -0.033781427353858036 -0.00018202423507319748 0 -0.031664234077133674 -0.00031876904964614917 0 -0.033781427353858036 -0.00018202423507319748 0 -0.031664234077133674 -0.00031876904964614917 0 -0.033099597860113378 -3.5889350162809235e-07 0 -0.033099597860113378 -3.5889350162809235e-07 0 -0.030136440140559002 -0.00047087219789702158 0 -0.029479195868353389 -8.3763144843062973e-07 0 -0.031664234077133674 -0.00031876904964614917 0 -0.033099597860113378 -3.5889350162809235e-07 0 -0.030136440140559002 -0.00047087219789702158 0 -0.031664234077133674 -0.00031876904964614917 0 -0.030136440140559002 -0.00047087219789702158 0 -0.030068680555156744 -0.00055581369503023535 0 -0.030136440140559002 -0.00047087219789702158 0 -0.030068680555156744 -0.00055581369503023535 0 -0.028509668908881333 -0.00069404986896682869 0 -0.030136440140559002 -0.00047087219789702158 0 -0.029479195868353389 -8.3763144843062973e-07 0 -0.028509668908881333 -0.00069404986896682869 0 -0.030158367756552305 2.4551939872533234e-05 0 -0.030068680555156744 -0.00055581369503023535 0 -0.029068484386725001 -0.00021502374747729987 0 -0.030158367756552305 2.4551939872533234e-05 0 -0.031664234077133674 -0.00031876904964614917 0 -0.030068680555156744 -0.00055581369503023535 0 -0.030068680555156744 -0.00055581369503023535 0 -0.029356503252008618 -0.00073399443080235751 0 -0.028509668908881333 -0.00069404986896682869 0 -0.030068680555156744 -0.00055581369503023535 0 -0.029356503252008618 -0.00073399443080235751 0 -0.029068484386725001 -0.00021502374747729987 0 -0.029356503252008618 -0.00073399443080235751 0 -0.029186327696214719 -0.00051336158496896914 0 -0.02852858451270851 -0.0010465836821979058 0 -0.029356503252008618 -0.00073399443080235751 0 -0.029186327696214719 -0.00051336158496896914 0 -0.028509668908881333 -0.00069404986896682869 0 -0.029186327696214719 -0.00051336158496896914 0 -0.028509668908881333 -0.00069404986896682869 0 -0.027866144863411976 0.00038733239820847964 0 -0.029479195868353389 -8.3763144843062973e-07 0 -0.028509668908881333 -0.00069404986896682869 0 -0.025857588166263466 -2.2638950209069205e-06 0 -0.028509668908881333 -0.00069404986896682869 0 -0.025730479342446516 4.4999775551137566e-05 0 -0.027866144863411976 0.00038733239820847964 0 -0.028509668908881333 -0.00069404986896682869 0 -0.025857588166263466 -2.2638950209069205e-06 0 -0.025730479342446516 4.4999775551137566e-05 0 -0.025857588166263466 -2.2638950209069205e-06 0 -0.025730479342446516 4.4999775551137566e-05 0 -0.022240954349546541 5.0058660193193758e-06 0 -0.025730479342446516 4.4999775551137566e-05 0 -0.022240954349546541 5.0058660193193758e-06 0 -0.024464854098830074 0.0016899579555878532 0 -0.022234500022225278 5.8197717953630697e-07 0 -0.022061017826637642 8.6704707309185711e-05 0 -0.022231655618767051 3.9077136067488787e-10 0 -0.021443758485539362 -6.7645082529255229e-07 0 -0.02068010601741475 -2.2664778238521909e-09 0 -0.018524038190942733 0.0014039001498997849 0 -0.020671185945892751 2.6861012337746418e-06 0 -0.018347134908195003 0.00024948566282102889 0 -0.022061017826637642 8.6704707309185711e-05 0 -0.020680887088956934 1.9070826727172814e-06 0 -0.02717108958327584 0.0013541421488812663 0 -0.026525251711056009 0.0013661041155433253 0 -0.026421127313405054 0.001833470744172019 0 -0.02717108958327584 0.0013541421488812663 0 -0.026525251711056009 0.0013661041155433253 0 -0.026532185289120488 0.00086691816662666488 0 -0.018524038190942733 0.0014039001498997849 0 -0.018347134908195003 0.00024948566282102889 0 -0.016492912308588095 6.438596244714401e-05 0 -0.022061017826637642 8.6704707309185711e-05 0 -0.021584436905176724 0.00045636457827901946 0 -0.022061017826637642 8.6704707309185711e-05 0 -0.025527242688966102 -5.6943244187502399e-05 0 -0.025730479342446516 4.4999775551137566e-05 0 -0.024464854098830074 0.0016899579555878532 0 -0.027866144863411976 0.00038733239820847964 0 -0.026494901647135229 0.00015371915694983488 0 -0.025527242688966102 -5.6943244187502399e-05 0 -0.025456748110635422 0.0022322125929013855 0 -0.026421127313405054 0.001833470744172019 0 -0.025974702389915789 0.0014032702347050812 0 -0.025456748110635422 0.0022322125929013855 0 -0.025974702389915789 0.0014032702347050812 0 -0.025253327834296926 0.0018011890588239909 0 -0.025974702389915789 0.0014032702347050812 0 -0.025427731292480434 0.0011697696851317534 0 -0.025253327834296926 0.0018011890588239909 0 -0.026525251711056009 0.0013661041155433253 0 -0.025974702389915789 0.0014032702347050812 0 -0.026532185289120488 0.00086691816662666488 0 -0.026525251711056009 0.0013661041155433253 0 -0.026421127313405054 0.001833470744172019 0 -0.025974702389915789 0.0014032702347050812 0 -0.020723650232674636 0.00055034715836606058 0 -0.021584436905176724 0.00045636457827901946 0 -0.016746554359194189 -1.9300102997788634e-05 0 -0.016392991405579684 -0.00010327141849487334 0 -0.016492912308588095 6.438596244714401e-05 0 -0.025974702389915789 0.0014032702347050812 0 -0.026031711403775158 0.00030694111453753568 0 -0.026532185289120488 0.00086691816662666488 0 -0.026031711403775158 0.00030694111453753568 0 -0.025425851735133623 0.00026078979686934155 0 -0.025427731292480434 0.0011697696851317534 0 -0.025974702389915789 0.0014032702347050812 0 -0.026031711403775158 0.00030694111453753568 0 -0.025427731292480434 0.0011697696851317534 0 -0.026031711403775158 0.00030694111453753568 0 -0.025425851735133623 0.00026078979686934155 0 -0.025449075563736403 -0.00068226337897248632 0 -0.020723650232674636 0.00055034715836606058 0 -0.01903359823566235 0.00053954835422981632 0 -0.016746554359194189 -1.9300102997788634e-05 0 -0.016392991405579684 -0.00010327141849487334 0 -0.016654080699688975 0.00030562220621426059 0 -0.016392991405579684 -0.00010327141849487334 0 -0.015436884116295808 0.00024640714175230637 0 -0.017447798753217305 -0.00011486268031080232 0 -0.016392991405579684 -0.00010327141849487334 0 -0.015436884116295808 0.00024640714175230637 0 -0.016654080699688975 0.00030562220621426059 0 -0.016839673378751245 -4.3330255519498058e-07 0 -0.015436884116295808 0.00024640714175230637 0 -0.017447798753217305 -0.00011486268031080232 0 -0.020671185945892751 2.6861012337746418e-06 0 -0.016839673378751245 -4.3330255519498058e-07 0 -0.017447798753217305 -0.00011486268031080232 0 -0.020671185945892751 2.6861012337746418e-06 0 -0.017447798753217305 -0.00011486268031080232 0 -0.018347134908195003 0.00024948566282102889 0 -0.017447798753217305 -0.00011486268031080232 0 -0.018347134908195003 0.00024948566282102889 0 -0.016492912308588095 6.438596244714401e-05 0 -0.016392991405579684 -0.00010327141849487334 0 -0.017447798753217305 -0.00011486268031080232 0 -0.016492912308588095 6.438596244714401e-05 0 -0.024210476705226493 0.0012826238356472169 0 -0.023241740073474421 0.0013849109301194318 0 -0.023726693439105388 0.00032608322527079406 0 -0.023241740073474421 0.0013849109301194318 0 -0.022752805153842665 2.691733539395915e-05 0 -0.023726693439105388 0.00032608322527079406 0 -0.024210476705226493 0.0012826238356472169 0 -0.023726693439105388 0.00032608322527079406 0 -0.024417532458211225 0.00031624846516207746 0 -0.023241740073474421 0.0013849109301194318 0 -0.022752805153842665 2.691733539395915e-05 0 -0.021043737712783776 0.00034769283625236741 0 -0.023241740073474421 0.0013849109301194318 0 -0.02241385910627244 0.0023564432919611377 0 -0.021043737712783776 0.00034769283625236741 0 -0.022752805153842665 2.691733539395915e-05 0 -0.022038992189926377 -0.00111241298504993 0 -0.021043737712783776 0.00034769283625236741 0 -0.022752805153842665 2.691733539395915e-05 0 -0.022038992189926377 -0.00111241298504993 0 -0.023353841220193527 -0.00080076099865676153 0 -0.022752805153842665 2.691733539395915e-05 0 -0.023353841220193527 -0.00080076099865676153 0 -0.023726693439105388 0.00032608322527079406 0 -0.023726693439105388 0.00032608322527079406 0 -0.024008461181269061 -0.00050735176257593292 0 -0.024417532458211225 0.00031624846516207746 0 -0.023353841220193527 -0.00080076099865676153 0 -0.023726693439105388 0.00032608322527079406 0 -0.024008461181269061 -0.00050735176257593292 0 -0.023353841220193527 -0.00080076099865676153 0 -0.024008461181269061 -0.00050735176257593292 0 -0.023933977285179604 -0.0011504788817621174 0 -0.024008461181269061 -0.00050735176257593292 0 -0.024586435153051794 -0.00041443178572916672 0 -0.024322581938696929 -0.0010113047702273732 0 -0.024586435153051794 -0.00041443178572916672 0 -0.024763541385518419 -0.00085868425863628054 0 -0.024322581938696929 -0.0010113047702273732 0 -0.024586435153051794 -0.00041443178572916672 0 -0.024907560177818328 0.00015116163548182035 0 -0.025031293888489632 -0.0003629456588610962 0 -0.024586435153051794 -0.00041443178572916672 0 -0.025031293888489632 -0.0003629456588610962 0 -0.024763541385518419 -0.00085868425863628054 0 -0.024586435153051794 -0.00041443178572916672 0 -0.024907560177818328 0.00015116163548182035 0 -0.024417532458211225 0.00031624846516207746 0 -0.024008461181269061 -0.00050735176257593292 0 -0.024586435153051794 -0.00041443178572916672 0 -0.024417532458211225 0.00031624846516207746 0 -0.025031293888489632 -0.0003629456588610962 0 -0.025425851735133623 0.00026078979686934155 0 -0.025449075563736403 -0.00068226337897248632 0 -0.024907560177818328 0.00015116163548182035 0 -0.025031293888489632 -0.0003629456588610962 0 -0.025425851735133623 0.00026078979686934155 0 -0.025425851735133623 0.00026078979686934155 0 -0.024881696356127584 0.00088215022872276734 0 -0.025427731292480434 0.0011697696851317534 0 -0.024907560177818328 0.00015116163548182035 0 -0.025425851735133623 0.00026078979686934155 0 -0.024881696356127584 0.00088215022872276734 0 -0.024210476705226493 0.0012826238356472169 0 -0.024417532458211225 0.00031624846516207746 0 -0.024881696356127584 0.00088215022872276734 0 -0.024907560177818328 0.00015116163548182035 0 -0.024417532458211225 0.00031624846516207746 0 -0.024881696356127584 0.00088215022872276734 0 -0.024210476705226493 0.0012826238356472169 0 -0.024881696356127584 0.00088215022872276734 0 -0.024732271531693807 0.0018848367013926451 0 -0.024881696356127584 0.00088215022872276734 0 -0.024732271531693807 0.0018848367013926451 0 -0.025427731292480434 0.0011697696851317534 0 -0.024732271531693807 0.0018848367013926451 0 -0.025427731292480434 0.0011697696851317534 0 -0.025253327834296926 0.0018011890588239909 0 -0.025456748110635422 0.0022322125929013855 0 -0.025253327834296926 0.0018011890588239909 0 -0.024861996337909604 0.002127446551168641 0 -0.024732271531693807 0.0018848367013926451 0 -0.025253327834296926 0.0018011890588239909 0 -0.024861996337909604 0.002127446551168641 0 -0.024732271531693807 0.0018848367013926451 0 -0.024561663416723414 0.0023536489164415783 0 -0.024861996337909604 0.002127446551168641 0 -0.024561663416723414 0.0023536489164415783 0 -0.023871790098098717 0.0022764825361640938 0 -0.024143794539991457 0.0026213045749635161 0 -0.024732271531693807 0.0018848367013926451 0 -0.024561663416723414 0.0023536489164415783 0 -0.023871790098098717 0.0022764825361640938 0 -0.024561663416723414 0.0023536489164415783 0 -0.024143794539991457 0.0026213045749635161 0 -0.024698486903248492 0.002287072147619724 0 -0.024210476705226493 0.0012826238356472169 0 -0.024732271531693807 0.0018848367013926451 0 -0.023871790098098717 0.0022764825361640938 0 -0.024210476705226493 0.0012826238356472169 0 -0.023241740073474421 0.0013849109301194318 0 -0.023871790098098717 0.0022764825361640938 0 -0.02241385910627244 0.0023564432919611377 0 -0.023391659394342179 0.0028038033929497072 0 -0.021754110055742345 0.0033511292169022999 0 -0.023871790098098717 0.0022764825361640938 0 -0.02241385910627244 0.0023564432919611377 0 -0.023391659394342179 0.0028038033929497072 0 -0.023241740073474421 0.0013849109301194318 0 -0.023871790098098717 0.0022764825361640938 0 -0.02241385910627244 0.0023564432919611377 0 -0.023391659394342179 0.0028038033929497072 0 -0.021754110055742345 0.0033511292169022999 0 -0.023507065108651765 0.0027228263045308738 0 -0.023871790098098717 0.0022764825361640938 0 -0.023391659394342179 0.0028038033929497072 0 -0.024143794539991457 0.0026213045749635161 0 -0.023391659394342179 0.0028038033929497072 0 -0.024143794539991457 0.0026213045749635161 0 -0.024314396975696578 0.0027919776739878319 0 -0.023391659394342179 0.0028038033929497072 0 -0.024314396975696578 0.0027919776739878319 0 -0.023507065108651765 0.0027228263045308738 0 -0.024316033959567537 0.0036087509918258272 0 -0.02410059978194996 0.0039803967174489785 0 -0.024314396975696578 0.0027919776739878319 0 -0.023255566060685177 0.0043179477236971213 0 -0.023507065108651765 0.0027228263045308738 0 -0.024314396975696578 0.0027919776739878319 0 -0.025036690486556309 0.0020110537122750732 0 -0.025936925776298143 0.0017637843869377694 0 -0.025036690486556309 0.0020110537122750732 0 -0.025488352503142506 0.0014634739990685122 0 -0.025936925776298143 0.0017637843869377694 0 -0.025036690486556309 0.0020110537122750732 0 -0.024698486903248492 0.002287072147619724 0 -0.025339712231866422 0.0015698151850665823 0 -0.024314396975696578 0.0027919776739878319 0 -0.025036690486556309 0.0020110537122750732 0 -0.024698486903248492 0.002287072147619724 0 -0.024143794539991457 0.0026213045749635161 0 -0.024314396975696578 0.0027919776739878319 0 -0.024698486903248492 0.002287072147619724 0 -0.024561663416723414 0.0023536489164415783 0 -0.024698486903248492 0.002287072147619724 0 -0.025076934515389296 0.0019318275711883773 0 -0.024698486903248492 0.002287072147619724 0 -0.025339712231866422 0.0015698151850665823 0 -0.025076934515389296 0.0019318275711883773 0 -0.025339712231866422 0.0015698151850665823 0 -0.025720247460864806 0.0010568427042945186 0 -0.026245311719205373 0.00034375200132162571 0 -0.025339712231866422 0.0015698151850665823 0 -0.025076934515389296 0.0019318275711883773 0 -0.026245311719205373 0.00034375200132162571 0 -0.025720247460864806 0.0010568427042945186 0 -0.025488352503142506 0.0014634739990685122 0 -0.025876019472467232 0.0011102297522926163 0 -0.025720247460864806 0.0010568427042945186 0 -0.025951650638826557 0.00078830652406060861 0 -0.025876019472467232 0.0011102297522926163 0 -0.025488352503142506 0.0014634739990685122 0 -0.025936925776298143 0.0017637843869377694 0 -0.025876019472467232 0.0011102297522926163 0 -0.025339712231866422 0.0015698151850665823 0 -0.025720247460864806 0.0010568427042945186 0 -0.025488352503142506 0.0014634739990685122 0 -0.025036690486556309 0.0020110537122750732 0 -0.025339712231866422 0.0015698151850665823 0 -0.025488352503142506 0.0014634739990685122 0 -0.026494901647135229 0.00015371915694983488 0 -0.026551104221152165 0.00028087782123579303 0 -0.025456748110635422 0.0022322125929013855 0 -0.024861996337909604 0.002127446551168641 0 -0.024712181913115944 0.0018816875102215197 0 -0.024861996337909604 0.002127446551168641 0 -0.025076934515389296 0.0019318275711883773 0 -0.024712181913115944 0.0018816875102215197 0 -0.024561663416723414 0.0023536489164415783 0 -0.024861996337909604 0.002127446551168641 0 -0.025076934515389296 0.0019318275711883773 0 -0.025076934515389296 0.0019318275711883773 0 -0.024712181913115944 0.0018816875102215197 0 -0.026245311719205373 0.00034375200132162571 0 -0.026551104221152165 0.00028087782123579303 0 -0.026480014499043591 0.00032063263432456754 0 -0.029356503252008618 -0.00073399443080235751 0 -0.02852858451270851 -0.0010465836821979058 0 -0.029068484386725001 -0.00021502374747729987 0 -0.02852858451270851 -0.0010465836821979058 0 -0.029068484386725001 -0.00021502374747729987 0 -0.026245311719205373 0.00034375200132162571 0 -0.029068484386725001 -0.00021502374747729987 0 -0.027916687633183234 0.00060605444670504575 0 -0.026245311719205373 0.00034375200132162571 0 -0.030158367756552305 2.4551939872533234e-05 0 -0.029068484386725001 -0.00021502374747729987 0 -0.027916687633183234 0.00060605444670504575 0 -0.025951650638826557 0.00078830652406060861 0 -0.026221710903221184 0.00068461630352333806 0 -0.026009719367656253 0.00077997935793624898 0 -0.025951650638826557 0.00078830652406060861 0 -0.026013604377866841 0.00088769679991555219 0 -0.025876019472467232 0.0011102297522926163 0 -0.025951650638826557 0.00078830652406060861 0 -0.026009719367656253 0.00077997935793624898 0 -0.026013604377866841 0.00088769679991555219 0 -0.026245311719205373 0.00034375200132162571 0 -0.026792111993272021 0.00072836341132781609 0 -0.026221710903221184 0.00068461630352333806 0 -0.025720247460864806 0.0010568427042945186 0 -0.025951650638826557 0.00078830652406060861 0 -0.026245311719205373 0.00034375200132162571 0 -0.025951650638826557 0.00078830652406060861 0 -0.026245311719205373 0.00034375200132162571 0 -0.026221710903221184 0.00068461630352333806 0 -0.027916687633183234 0.00060605444670504575 0 -0.026245311719205373 0.00034375200132162571 0 -0.026792111993272021 0.00072836341132781609 0 -0.026413191121653218 0.0010115660406297422 0 -0.026792111993272021 0.00072836341132781609 0 -0.026221710903221184 0.00068461630352333806 0 -0.026413191121653218 0.0010115660406297422 0 -0.026221710903221184 0.00068461630352333806 0 -0.026136400626837947 0.00081444668510031852 0 -0.026221710903221184 0.00068461630352333806 0 -0.026136400626837947 0.00081444668510031852 0 -0.026009719367656253 0.00077997935793624898 0 -0.026413191121653218 0.0010115660406297422 0 -0.026136400626837947 0.00081444668510031852 0 -0.026090121414888118 0.0010011436081235193 0 -0.026090121414888118 0.0010011436081235193 0 -0.025917299189013945 0.0009284935592448521 0 -0.026007728096740353 0.00080657424469144365 0 -0.026136400626837947 0.00081444668510031852 0 -0.026090121414888118 0.0010011436081235193 0 -0.026007728096740353 0.00080657424469144365 0 -0.025850832914770333 0.0013253815226352875 0 -0.025917299189013945 0.0009284935592448521 0 -0.025654396903574898 0.00095180499782894891 0 -0.025917299189013945 0.0009284935592448521 0 -0.025858210966809823 0.00085813148453754294 0 -0.025654396903574898 0.00095180499782894891 0 -0.025917299189013945 0.0009284935592448521 0 -0.025858210966809823 0.00085813148453754294 0 -0.025936778593513687 0.00081211611146888316 0 -0.025858210966809823 0.00085813148453754294 0 -0.025936778593513687 0.00081211611146888316 0 -0.0259165276006307 0.00075528911674822559 0 -0.025917299189013945 0.0009284935592448521 0 -0.025936778593513687 0.00081211611146888316 0 -0.026007728096740353 0.00080657424469144365 0 -0.025936778593513687 0.00081211611146888316 0 -0.026007728096740353 0.00080657424469144365 0 -0.025967509964810856 0.00078206748445448023 0 -0.025936778593513687 0.00081211611146888316 0 -0.025967509964810856 0.00078206748445448023 0 -0.0259165276006307 0.00075528911674822559 0 -0.026136400626837947 0.00081444668510031852 0 -0.026007728096740353 0.00080657424469144365 0 -0.026009719367656253 0.00077997935793624898 0 -0.025967509964810856 0.00078206748445448023 0 -0.026013604377866841 0.00088769679991555219 0 -0.026213293172827754 0.0010469954549090531 0 -0.026009719367656253 0.00077997935793624898 0 -0.025967509964810856 0.00078206748445448023 0 -0.026013604377866841 0.00088769679991555219 0 -0.02448109380521974 0.0036771233748854044 0 -0.024019951702811612 0.0043747170156823775 0 -0.026007728096740353 0.00080657424469144365 0 -0.026009719367656253 0.00077997935793624898 0 -0.025967509964810856 0.00078206748445448023 0 -0.025967509964810856 0.00078206748445448023 0 -0.0259165276006307 0.00075528911674822559 0 -0.026213293172827754 0.0010469954549090531 0 -0.025214856529690816 0.005070482968017917 0 -0.022509273873007881 0.0058557244425829214 0 -0.024032245236778632 0.0047538200387842637 0 -0.024299347165537038 0.0050736119481306673 0 -0.024454546826724519 0.0041450640689431007 0 -0.025214856529690816 0.005070482968017917 0 -0.025960805382190928 0.0057319783112787081 0 -0.025214856529690816 0.005070482968017917 0 -0.024019951702811612 0.0043747170156823775 0 -0.025214856529690816 0.005070482968017917 0 -0.02448109380521974 0.0036771233748854044 0 -0.025214856529690816 0.005070482968017917 0 -0.030186857510078775 0.0040452880354566135 0 -0.0254551907183704 0.00026402192073942603 0 -0.025716084279058093 0.00057502275464675861 0 -0.025654396903574898 0.00095180499782894891 0 -0.0254551907183704 0.00026402192073942603 0 -0.025654396903574898 0.00095180499782894891 0 -0.024904581807384252 0.0010332267446080815 0 -0.02448109380521974 0.0036771233748854044 0 -0.024571047231123477 0.0033014231988202115 0 -0.025858210966809823 0.00085813148453754294 0 -0.0259165276006307 0.00075528911674822559 0 -0.025654396903574898 0.00095180499782894891 0 -0.031839460361460431 0.0053453572283629451 0 -0.032496056692943982 0.004422673767924077 0 -0.032672662617437002 0.0051843577126748095 0 -0.032496056692943982 0.004422673767924077 0 -0.033184178675245299 0.0046436089974781422 0 -0.032672662617437002 0.0051843577126748095 0 -0.03341541778794492 0.005016420103906339 0 -0.033672110295982313 0.0054002460821753178 0 -0.033750850852905724 0.0046267420353400977 0 -0.033184178675245299 0.0046436089974781422 0 -0.033108115168181712 0.0050704707836813651 0 -0.03341541778794492 0.005016420103906339 0 -0.033184178675245299 0.0046436089974781422 0 -0.033108115168181712 0.0050704707836813651 0 -0.032672662617437002 0.0051843577126748095 0 -0.033184178675245299 0.0046436089974781422 0 -0.03341541778794492 0.005016420103906339 0 -0.033750850852905724 0.0046267420353400977 0 -0.033672110295982313 0.0054002460821753178 0 -0.033371868578188857 0.0058030753009514864 0 -0.033811964227745968 0.0061788963982693044 0 -0.03341541778794492 0.005016420103906339 0 -0.033672110295982313 0.0054002460821753178 0 -0.033222298692619508 0.0053832854794998086 0 -0.033108115168181712 0.0050704707836813651 0 -0.033222298692619508 0.0053832854794998086 0 -0.032672662617437002 0.0051843577126748095 0 -0.033108115168181712 0.0050704707836813651 0 -0.03341541778794492 0.005016420103906339 0 -0.033222298692619508 0.0053832854794998086 0 -0.033222298692619508 0.0053832854794998086 0 -0.033371868578188857 0.0058030753009514864 0 -0.032937594679704682 0.0056752660763621388 0 -0.033672110295982313 0.0054002460821753178 0 -0.033222298692619508 0.0053832854794998086 0 -0.033371868578188857 0.0058030753009514864 0 -0.031839460361460431 0.0053453572283629451 0 -0.032672662617437002 0.0051843577126748095 0 -0.032427621556614009 0.0057753111004487986 0 -0.025169868262430277 0.0057791220268399168 0 -0.024457520214196386 0.0052480902607384538 0 -0.024241865321656078 0.0046554562293851772 0 -0.033222298692619508 0.0053832854794998086 0 -0.032672662617437002 0.0051843577126748095 0 -0.032937594679704682 0.0056752660763621388 0 -0.032672662617437002 0.0051843577126748095 0 -0.032937594679704682 0.0056752660763621388 0 -0.032427621556614009 0.0057753111004487986 0 -0.025960805382190928 0.0057319783112787081 0 -0.025307482742370619 0.0057838752344180457 0 -0.032937594679704682 0.0056752660763621388 0 -0.032427621556614009 0.0057753111004487986 0 -0.03299469105661864 0.0062312813325913485 0 -0.024457520214196386 0.0052480902607384538 0 -0.024241865321656078 0.0046554562293851772 0 -0.023768429407082146 0.0046837209216068825 0 -0.022509273873007881 0.0058557244425829214 0 -0.025307482742370619 0.0057838752344180457 0 -0.030468453766261672 0.0069940561612088104 0 -0.029382157454182364 0.0070576455858601455 0 -0.029073650582872423 0.0058334168833591854 0 -0.025307482742370619 0.0057838752344180457 0 -0.032341042461959901 0.0057222054679421418 0 -0.016283495650477826 0.011149328771409976 0 -0.014891548677294498 0.011239857883922792 0 -0.013594448618588493 0.0082828314026775658 0 -0.033371868578188857 0.0058030753009514864 0 -0.03299469105661864 0.0062312813325913485 0 -0.033811964227745968 0.0061788963982693044 0 -0.033371868578188857 0.0058030753009514864 0 -0.032937594679704682 0.0056752660763621388 0 -0.03299469105661864 0.0062312813325913485 0 -0.020415110946490855 0.006091801503434662 0 -0.019580380730983091 0.005152529410469826 0 -0.019387745684540936 0.0050426104623913287 0 -0.025307482742370619 0.0057838752344180457 0 -0.021909783514593054 0.005182969081555429 0 -0.014891548677294498 0.011239857883922792 0 -0.013594448618588493 0.0082828314026775658 0 -0.011236274611529432 0.0083069135948572841 0 -0.022509273873007881 0.0058557244425829214 0 -0.017917823050011793 0.0052595259883901286 0 -0.019552514619620327 0.005142149926162437 0 -0.020015185303936648 0.0047228882399732476 0 -0.01950536787089488 0.0045673356259892314 0 -0.019580380730983091 0.005152529410469826 0 -0.019387745684540936 0.0050426104623913287 0 -0.018761868699526566 0.0042141068541028106 0 -0.02032212424835135 0.006049404497194346 0 -0.020462276919986932 0.0051573209173848469 0 -0.021233047169499936 0.0052150183018606884 0 -0.02032212424835135 0.006049404497194346 0 -0.019552514619620327 0.005142149926162437 0 -0.020462276919986932 0.0051573209173848469 0 -0.022509273873007881 0.0058557244425829214 0 -0.020928851637575761 0.0048840221744980176 0 -0.019552514619620327 0.005142149926162437 0 -0.020462276919986932 0.0051573209173848469 0 -0.020015185303936648 0.0047228882399732476 0 -0.020462276919986932 0.0051573209173848469 0 -0.020933619415989316 0.004387079823029728 0 -0.020015185303936648 0.0047228882399732476 0 -0.020462276919986932 0.0051573209173848469 0 -0.021233047169499936 0.0052150183018606884 0 -0.020933619415989316 0.004387079823029728 0 -0.023511065856642151 0.0046254831019502942 0 -0.021653030901693411 0.0046917205969556515 0 -0.021233047169499936 0.0052150183018606884 0 -0.021949369961726146 0.0059426979041635975 0 -0.022173241772333558 0.0045755597089333043 0 -0.023255566060685177 0.0043179477236971213 0 -0.022837179725322156 0.0026226205033586824 0 -0.023507065108651765 0.0027228263045308738 0 -0.023255566060685177 0.0043179477236971213 0 -0.022457078287502034 0.0049895231858433512 0 -0.022837179725322156 0.0026226205033586824 0 -0.023255566060685177 0.0043179477236971213 0 -0.022457078287502034 0.0049895231858433512 0 -0.022789364525055106 0.00499250694643403 0 -0.023742903750517391 0.0049510354236358203 0 -0.02351028806123617 0.0049486733927847169 0 -0.02381667790363225 0.0045052223965829988 0 -0.023511065856642151 0.0046254831019502942 0 -0.023794829821839159 0.0044812558645604492 0 -0.025936925776298143 0.0017637843869377694 0 -0.026146821411485756 0.0013530452612721502 0 -0.025876019472467232 0.0011102297522926163 0 -0.02410059978194996 0.0039803967174489785 0 -0.023794829821839159 0.0044812558645604492 0 -0.026146821411485756 0.0013530452612721502 0 -0.025876019472467232 0.0011102297522926163 0 -0.026213293172827754 0.0010469954549090531 0 -0.026013604377866841 0.00088769679991555219 0 -0.025876019472467232 0.0011102297522926163 0 -0.026213293172827754 0.0010469954549090531 0 -0.023511065856642151 0.0046254831019502942 0 -0.024019951702811612 0.0043747170156823775 0 -0.023794829821839159 0.0044812558645604492 0 -0.024019951702811612 0.0043747170156823775 0 -0.02032212424835135 0.006049404497194346 0 -0.021233047169499936 0.0052150183018606884 0 -0.021949369961726146 0.0059426979041635975 0 -0.022509273873007881 0.0058557244425829214 0 -0.023511065856642151 0.0046254831019502942 0 -0.023875367817064976 0.0051244752924603405 0 -0.024043959992914848 0.005112893593744075 0 -0.024037999755457413 0.0051507350344205992 0 -0.023976405200125912 0.0052409289588247329 0 -0.023875367817064976 0.0051244752924603405 0 -0.024037999755457413 0.0051507350344205992 0 -0.050693175284753977 0.0071288898133688577 0 -0.050191420250746958 0.0046462897269100882 0 -0.047707125810557166 0.0064481753120803238 0 -0.050693175284753977 0.0071288898133688577 0 -0.052414019475674249 0.0046512939756478602 0 -0.050191420250746958 0.0046462897269100882 0 -0.052390071927696118 0.0094917124425160596 0 -0.050693175284753977 0.0071288898133688577 0 -0.049261447942020781 0.0098099610151758717 0 -0.052390071927696118 0.0094917124425160596 0 -0.050693175284753977 0.0071288898133688577 0 -0.053355567119013694 0.0068061712733829679 0 -0.050693175284753977 0.0071288898133688577 0 -0.053355567119013694 0.0068061712733829679 0 -0.052414019475674249 0.0046512939756478602 0 -0.053355567119013694 0.0068061712733829679 0 -0.054543783716602137 0.0045712649249948284 0 -0.052414019475674249 0.0046512939756478602 0 -0.053355567119013694 0.0068061712733829679 0 -0.054679432261442208 0.0083245999892480969 0 -0.055602455785340905 0.0065234486856024553 0 -0.053355567119013694 0.0068061712733829679 0 -0.055602455785340905 0.0065234486856024553 0 -0.054543783716602137 0.0045712649249948284 0 -0.052390071927696118 0.0094917124425160596 0 -0.053355567119013694 0.0068061712733829679 0 -0.054679432261442208 0.0083245999892480969 0 -0.041367646799961987 0.0075194471725942395 0 -0.04152679067051944 0.0067678215740781958 0 -0.054679432261442208 0.0083245999892480969 0 -0.056627520236623194 0.0084416253220035552 0 -0.055602455785340905 0.0065234486856024553 0 -0.054480361724325445 0.010329852207481387 0 -0.054679432261442208 0.0083245999892480969 0 -0.056627520236623194 0.0084416253220035552 0 -0.033672110295982313 0.0054002460821753178 0 -0.033750850852905724 0.0046267420353400977 0 -0.03419046547433479 0.0053729673576810837 0 -0.04152679067051944 0.0067678215740781958 0 -0.040240000493074503 0.0054003216459495252 0 -0.033672110295982313 0.0054002460821753178 0 -0.03419046547433479 0.0053729673576810837 0 -0.033811964227745968 0.0061788963982693044 0 -0.03419046547433479 0.0053729673576810837 0 -0.033811964227745968 0.0061788963982693044 0 -0.034632744932755581 0.0061256995307474174 0 -0.029382157454182364 0.0070576455858601455 0 -0.029073650582872423 0.0058334168833591854 0 -0.028282620429818075 0.0071310052899916931 0 -0.032341042461959901 0.0057222054679421418 0 -0.040240000493074503 0.0054003216459495252 0 -0.029073650582872423 0.0058334168833591854 0 -0.027582773002143023 0.0059196882810204901 0 -0.028282620429818075 0.0071310052899916931 0 -0.053800751283290996 0.0016840617701054459 0 -0.055236826264169134 0.0042767688328469835 0 -0.05271899633392773 0.0044439587117021638 0 -0.03696749344205582 0.0051439133828800445 0 -0.040240000493074503 0.0054003216459495252 0 -0.040240000493074503 0.0054003216459495252 0 -0.047694845984673773 0.004903829568113186 0 -0.047694845984673773 0.004903829568113186 0 -0.048956793301130952 0.0048139397994277824 0 -0.053800751283290996 0.0016840617701054459 0 -0.05271899633392773 0.0044439587117021638 0 -0.050844552483047423 0.0020237018469328417 0 -0.053800751283290996 0.0016840617701054459 0 -0.050844552483047423 0.0020237018469328417 0 -0.052328548147102041 -0.00096683835529846071 0 -0.050844552483047423 0.0020237018469328417 0 -0.048272091772576256 0.0033260089243948555 0 -0.048763760590688814 0.00086697383869282086 0 -0.050844552483047423 0.0020237018469328417 0 -0.050028652831901776 0.0001179499507690489 0 -0.048763760590688814 0.00086697383869282086 0 -0.050844552483047423 0.0020237018469328417 0 -0.050191420250746958 0.0046462897269100882 0 -0.048272091772576256 0.0033260089243948555 0 -0.05271899633392773 0.0044439587117021638 0 -0.050844552483047423 0.0020237018469328417 0 -0.050191420250746958 0.0046462897269100882 0 -0.050793186945235075 -0.0036495590989421836 0 -0.050396037083893126 -0.0027818858245234625 0 -0.052328548147102041 -0.00096683835529846071 0 -0.0494474599635914 -0.0033888861771937335 0 -0.050396037083893126 -0.0027818858245234625 0 -0.050081517892040371 -0.004257309774337234 0 -0.0494474599635914 -0.0033888861771937335 0 -0.050396037083893126 -0.0027818858245234625 0 -0.049338045348253048 -0.0022648719003421289 0 -0.0494474599635914 -0.0033888861771937335 0 -0.049338045348253048 -0.0022648719003421289 0 -0.048402357339124069 -0.0032844070717074742 0 -0.050793186945235075 -0.0036495590989421836 0 -0.050396037083893126 -0.0027818858245234625 0 -0.050033003086875708 -0.0042382163818998663 0 -0.023230656760215695 0.0024606111180217436 0 -0.022083413592062201 0.0027065430040263414 0 -0.050396037083893126 -0.0027818858245234625 0 -0.050503295671188622 -0.0012761643378922075 0 -0.052328548147102041 -0.00096683835529846071 0 -0.050396037083893126 -0.0027818858245234625 0 -0.049338045348253048 -0.0022648719003421289 0 -0.050503295671188622 -0.0012761643378922075 0 -0.049338045348253048 -0.0022648719003421289 0 -0.049163995297554636 -0.00085316643725445263 0 -0.050503295671188622 -0.0012761643378922075 0 -0.050844552483047423 0.0020237018469328417 0 -0.050028652831901776 0.0001179499507690489 0 -0.052328548147102041 -0.00096683835529846071 0 -0.049163995297554636 -0.00085316643725445263 0 -0.050028652831901776 0.0001179499507690489 0 -0.050503295671188622 -0.0012761643378922075 0 -0.050028652831901776 0.0001179499507690489 0 -0.050503295671188622 -0.0012761643378922075 0 -0.052328548147102041 -0.00096683835529846071 0 -0.049163995297554636 -0.00085316643725445263 0 -0.050028652831901776 0.0001179499507690489 0 -0.048763760590688814 0.00086697383869282086 0 -0.027582773002143023 0.0059196882810204901 0 -0.026864418009693483 0.0046770699649431495 0 -0.02763498365103487 0.0046333317899590184 0 -0.03696749344205582 0.0051439133828800445 0 -0.031809169897758491 0.0045546313214925574 0 -0.022608727446820017 0.003054472060899302 0 -0.020179072171619218 0.0036221601806211653 0 -0.022608727446820017 0.003054472060899302 0 -0.031809169897758491 0.0045546313214925574 0 -0.026148091543571953 0.0034009638687842233 0 -0.026864418009693483 0.0046770699649431495 0 -0.02763498365103487 0.0046333317899590184 0 -0.0053209208060566648 0.0031508620050617439 0 -0.0071426973052764039 0.0034686606358681625 0 -0.007844384396828552 0.0054604129038958657 0 -0.0071426973052764039 0.0034686606358681625 0 -0.0090398585187892889 0.0037661833258834398 0 -0.0073279565160781343 0.0022693376803983602 0 -0.0084036017169585309 0.0038798394008788891 0 -0.009925054307055977 0.0035975725017253521 0 -0.0084599534645171028 0.002499209285514988 0 -0.0090398585187892889 0.0037661833258834398 0 -0.007844384396828552 0.0054604129038958657 0 -0.0094713354453858575 0.0053269551063204971 0 -0.0071426973052764039 0.0034686606358681625 0 -0.0090398585187892889 0.0037661833258834398 0 -0.007844384396828552 0.0054604129038958657 0 -0.029073650582872423 0.0058334168833591854 0 -0.027582773002143023 0.0059196882810204901 0 -0.02763498365103487 0.0046333317899590184 0 -0.011236274611529432 0.0083069135948572841 0 -0.007844384396828552 0.0054604129038958657 0 -0.0094713354453858575 0.0053269551063204971 0 -0.021909783514593054 0.005182969081555429 0 -0.020179072171619218 0.0036221601806211653 0 -0.013433630117281058 0.0038752852623908703 0 -0.013924255494009084 0.003874964245103142 0 -0.013594448618588493 0.0082828314026775658 0 -0.011236274611529432 0.0083069135948572841 0 -0.010982821776767269 0.0055291873138767792 0 -0.011236274611529432 0.0083069135948572841 0 -0.0094713354453858575 0.0053269551063204971 0 -0.010982821776767269 0.0055291873138767792 0 -0.019387745684540936 0.0050426104623913287 0 -0.018396972225775108 0.0039907811621668881 0 -0.018761868699526566 0.0042141068541028106 0 -0.017917823050011793 0.0052595259883901286 0 -0.013924255494009084 0.003874964245103142 0 -0.0098059089803909909 0.0057522090140875188 0 -0.009925054307055977 0.0035975725017253521 0 -0.011496061753680243 0.0044754142478943687 0 -0.0084036017169585309 0.0038798394008788891 0 -0.0098059089803909909 0.0057522090140875188 0 -0.009925054307055977 0.0035975725017253521 0 -0.01166803243576456 0.0029221760406150012 0 -0.013924255494009084 0.003874964245103142 0 -0.0090398585187892889 0.0037661833258834398 0 -0.0094713354453858575 0.0053269551063204971 0 -0.010791506342945774 0.0055145025482793934 0 -0.0095513933694428531 0.0017383114017955927 0 -0.011488141823643145 0.0026599762995548259 0 -0.010914267665977348 0.00031896611656028319 0 -0.009925054307055977 0.0035975725017253521 0 -0.0095513933694428531 0.0017383114017955927 0 -0.011488141823643145 0.0026599762995548259 0 -0.009925054307055977 0.0035975725017253521 0 -0.0095513933694428531 0.0017383114017955927 0 -0.0084599534645171028 0.002499209285514988 0 -0.0095513933694428531 0.0017383114017955927 0 -0.0091878048346902899 0.00025726077859733676 0 -0.010914267665977348 0.00031896611656028319 0 -0.0091878048346902899 0.00025726077859733676 0 -0.010914267665977348 0.00031896611656028319 0 -0.0097437709865370679 -0.0010109976709624293 0 -0.0091878048346902899 0.00025726077859733676 0 -0.0077973823909399526 0.00092177082676064609 0 -0.0081627466765912711 -0.0008322320531426252 0 -0.0095513933694428531 0.0017383114017955927 0 -0.0091878048346902899 0.00025726077859733676 0 -0.0077973823909399526 0.00092177082676064609 0 -0.0077973823909399526 0.00092177082676064609 0 -0.0084599534645171028 0.002499209285514988 0 -0.0073279565160781343 0.0022693376803983602 0 -0.0095513933694428531 0.0017383114017955927 0 -0.0077973823909399526 0.00092177082676064609 0 -0.0084599534645171028 0.002499209285514988 0 -0.0084036017169585309 0.0038798394008788891 0 -0.0084599534645171028 0.002499209285514988 0 -0.0073279565160781343 0.0022693376803983602 0 -0.01166803243576456 0.0029221760406150012 0 -0.010810988201214023 0.0024476596393086265 0 -0.0053209208060566648 0.0031508620050617439 0 -0.0071426973052764039 0.0034686606358681625 0 -0.0063897563949540355 0.0023746989649116256 0 -0.0071426973052764039 0.0034686606358681625 0 -0.0073279565160781343 0.0022693376803983602 0 -0.0063897563949540355 0.0023746989649116256 0 -0.0053209208060566648 0.0031508620050617439 0 -0.0063897563949540355 0.0023746989649116256 0 -0.005532156916687017 0.0020151387517804639 0 -0.0063897563949540355 0.0023746989649116256 0 -0.0060518849738094441 0.001256850771434145 0 -0.005532156916687017 0.0020151387517804639 0 -0.0063897563949540355 0.0023746989649116256 0 -0.006843555536612876 0.0014319255895663607 0 -0.0060518849738094441 0.001256850771434145 0 -0.0073279565160781343 0.0022693376803983602 0 -0.0063897563949540355 0.0023746989649116256 0 -0.006843555536612876 0.0014319255895663607 0 -0.0077973823909399526 0.00092177082676064609 0 -0.0073279565160781343 0.0022693376803983602 0 -0.006843555536612876 0.0014319255895663607 0 -0.0077973823909399526 0.00092177082676064609 0 -0.006843555536612876 0.0014319255895663607 0 -0.0063123563633824325 0.00052075759984038955 0 -0.0063559907252904498 0.00046599471901795424 0 -0.005704633519206026 -5.5860419382318583e-05 0 -0.0077973823909399526 0.00092177082676064609 0 -0.0063123563633824325 0.00052075759984038955 0 -0.0063640274531986457 -0.00084187851290357107 0 -0.0063123563633824325 0.00052075759984038955 0 -0.0056030813574319801 0.0006372039646557583 0 -0.0055397717428918728 -4.8805405860640137e-05 0 -0.0063123563633824325 0.00052075759984038955 0 -0.0055397717428918728 -4.8805405860640137e-05 0 -0.0063640274531986457 -0.00084187851290357107 0 -0.0063123563633824325 0.00052075759984038955 0 -0.0060518849738094441 0.001256850771434145 0 -0.0056030813574319801 0.0006372039646557583 0 -0.006843555536612876 0.0014319255895663607 0 -0.0063123563633824325 0.00052075759984038955 0 -0.0060518849738094441 0.001256850771434145 0 -0.0060518849738094441 0.001256850771434145 0 -0.0052012702836046892 0.0011085699707099066 0 -0.0056030813574319801 0.0006372039646557583 0 -0.0052012702836046892 0.0011085699707099066 0 -0.0056030813574319801 0.0006372039646557583 0 -0.0049262042495832672 0.00037816056477197051 0 -0.0055397717428918728 -4.8805405860640137e-05 0 -0.0049262042495832672 0.00037816056477197051 0 -0.0051107158976378122 -0.00069110764341351013 0 -0.0056030813574319801 0.0006372039646557583 0 -0.0055397717428918728 -4.8805405860640137e-05 0 -0.0049262042495832672 0.00037816056477197051 0 -0.0049262042495832672 0.00037816056477197051 0 -0.0046022200755930038 0.00050583148592451351 0 -0.0051107158976378122 -0.00069110764341351013 0 -0.013548540421636902 0.0027351596835499732 0 -0.013740470921997861 0.0026977228327867979 0 -0.016468261964533583 0.0017671780847028223 0 -0.016614413373811619 0.0024248038267829339 0 -0.016276279810626355 0.0018419470038333751 0 -0.013740470921997861 0.0026977228327867979 0 -0.018576914924745141 0.0023935455675174275 0 -0.013740470921997861 0.0026977228327867979 0 -0.013884738938201732 0.0026028636904165312 0 -0.018576914924745141 0.0023935455675174275 0 -0.013884738938201732 0.0026028636904165312 0 -0.0052012702836046892 0.0011085699707099066 0 -0.0045425701884900744 0.00052400946415239846 0 -0.0047544275404182391 0.0018981079529584561 0 -0.0052012702836046892 0.0011085699707099066 0 -0.0049262042495832672 0.00037816056477197051 0 -0.0045425701884900744 0.00052400946415239846 0 -0.019475510681835687 0.0013602953680147553 0 -0.019783072169162794 0.0027999972193192375 0 -0.016130892294163948 -0.00017281357351377292 0 -0.0060518849738094441 0.001256850771434145 0 -0.0052012702836046892 0.0011085699707099066 0 -0.005532156916687017 0.0020151387517804639 0 -0.0052012702836046892 0.0011085699707099066 0 -0.0047544275404182391 0.0018981079529584561 0 -0.005532156916687017 0.0020151387517804639 0 -0.020555114234214893 0.0035330490085500165 0 -0.020125046609591739 0.0027841841619271716 0 -0.020231176599950461 0.0032718345661363127 0 -0.0053209208060566648 0.0031508620050617439 0 -0.0047544275404182391 0.0018981079529584561 0 -0.005532156916687017 0.0020151387517804639 0 -0.022608727446820017 0.003054472060899302 0 -0.018576914924745141 0.0023935455675174275 0 -0.022608727446820017 0.003054472060899302 0 -0.022083413592062201 0.0027065430040263414 0 -0.0494474599635914 -0.0033888861771937335 0 -0.050081517892040371 -0.004257309774337234 0 -0.048573450728763658 -0.0043449671229961002 0 -0.018576914924745141 0.0023935455675174275 0 -0.022083413592062201 0.0027065430040263414 0 -0.018908471129778281 0.004988332235778133 0 -0.01658715339420749 0.0030695132737733341 0 -0.019680661614303079 0.0022078221851788327 0 -0.018908471129778281 0.004988332235778133 0 -0.01658715339420749 0.0030695132737733341 0 -0.016416974669440993 0.0070639219409899976 0 -0.018908471129778281 0.004988332235778133 0 -0.021754110055742345 0.0033511292169022999 0 -0.019680661614303079 0.0022078221851788327 0 -0.02241385910627244 0.0023564432919611377 0 -0.021754110055742345 0.0033511292169022999 0 -0.019680661614303079 0.0022078221851788327 0 -0.018908471129778281 0.004988332235778133 0 -0.021754110055742345 0.0033511292169022999 0 -0.020903928818879272 0.007956762256034448 0 -0.021751208172252109 0.0041953698099767255 0 -0.021653030901693411 0.0046917205969556515 0 -0.021754110055742345 0.0033511292169022999 0 -0.023409594793324374 0.0027752225276745719 0 -0.023507065108651765 0.0027228263045308738 0 -0.021653030901693411 0.0046917205969556515 0 -0.021749785980430692 0.0046668802234555518 0 -0.021653030901693411 0.0046917205969556515 0 -0.018980106061245713 0.004771799190769547 0 -0.021233047169499936 0.0052150183018606884 0 -0.022173241772333558 0.0045755597089333043 0 -0.020933619415989316 0.004387079823029728 0 -0.018908471129778281 0.004988332235778133 0 -0.020903928818879272 0.007956762256034448 0 -0.016416974669440993 0.0070639219409899976 0 -0.016416974669440993 0.0070639219409899976 0 -0.012818382610255677 0.0064553764462453632 0 -0.013656993719915207 0.0040241976676674597 0 -0.018980106061245713 0.004771799190769547 0 -0.016446598553322686 0.0044855235670213994 0 -0.020933619415989316 0.004387079823029728 0 -0.020015185303936648 0.0047228882399732476 0 -0.019684927659862107 0.0041886489666600512 0 -0.013924255494009084 0.003874964245103142 0 -0.016446598553322686 0.0044855235670213994 0 -0.018396972225775108 0.0039907811621668881 0 -0.018761868699526566 0.0042141068541028106 0 -0.019684927659862107 0.0041886489666600512 0 -0.0098059089803909909 0.0057522090140875188 0 -0.012818382610255677 0.0064553764462453632 0 -0.011496061753680243 0.0044754142478943687 0 -0.019552514619620327 0.005142149926162437 0 -0.018761868699526566 0.0042141068541028106 0 -0.01950536787089488 0.0045673356259892314 0 -0.018761868699526566 0.0042141068541028106 0 -0.01950536787089488 0.0045673356259892314 0 -0.019684927659862107 0.0041886489666600512 0 -0.020928851637575761 0.0048840221744980176 0 -0.020362983110349304 0.0044842871938295635 0 -0.020015185303936648 0.0047228882399732476 0 -0.01950536787089488 0.0045673356259892314 0 -0.019684927659862107 0.0041886489666600512 0 -0.012818382610255677 0.0064553764462453632 0 -0.011496061753680243 0.0044754142478943687 0 -0.013656993719915207 0.0040241976676674597 0 -0.011496061753680243 0.0044754142478943687 0 -0.013656993719915207 0.0040241976676674597 0 -0.011488141823643145 0.0026599762995548259 0 -0.009925054307055977 0.0035975725017253521 0 -0.011496061753680243 0.0044754142478943687 0 -0.011488141823643145 0.0026599762995548259 0 -0.01658715339420749 0.0030695132737733341 0 -0.016416974669440993 0.0070639219409899976 0 -0.013656993719915207 0.0040241976676674597 0 -0.01658715339420749 0.0030695132737733341 0 -0.013656993719915207 0.0040241976676674597 0 -0.013793284854182079 0.0016043179831153793 0 -0.013793284854182079 0.0016043179831153793 0 -0.011488141823643145 0.0026599762995548259 0 -0.010914267665977348 0.00031896611656028319 0 -0.013656993719915207 0.0040241976676674597 0 -0.013793284854182079 0.0016043179831153793 0 -0.011488141823643145 0.0026599762995548259 0 -0.013793284854182079 0.0016043179831153793 0 -0.010914267665977348 0.00031896611656028319 0 -0.013759003567225994 -0.00081132404055864519 0 -0.013793284854182079 0.0016043179831153793 0 -0.013759003567225994 -0.00081132404055864519 0 -0.017338666238187708 0.00070482037333166592 0 -0.013759003567225994 -0.00081132404055864519 0 -0.017338666238187708 0.00070482037333166592 0 -0.018785104430037163 -0.0023592555646941458 0 -0.01658715339420749 0.0030695132737733341 0 -0.017338666238187708 0.00070482037333166592 0 -0.019680661614303079 0.0022078221851788327 0 -0.01658715339420749 0.0030695132737733341 0 -0.013793284854182079 0.0016043179831153793 0 -0.017338666238187708 0.00070482037333166592 0 -0.017338666238187708 0.00070482037333166592 0 -0.019680661614303079 0.0022078221851788327 0 -0.021043737712783776 0.00034769283625236741 0 -0.02241385910627244 0.0023564432919611377 0 -0.019680661614303079 0.0022078221851788327 0 -0.021043737712783776 0.00034769283625236741 0 -0.022038992189926377 -0.00111241298504993 0 -0.021043737712783776 0.00034769283625236741 0 -0.018785104430037163 -0.0023592555646941458 0 -0.017338666238187708 0.00070482037333166592 0 -0.021043737712783776 0.00034769283625236741 0 -0.018785104430037163 -0.0023592555646941458 0 -0.016403687061208781 -0.0016077432666470194 0 -0.017032102739546313 -0.0018006305477441965 0 -0.014676666741546017 -0.0011690240694429766 0 -0.015028244973185848 -0.0019312392715882649 0 -0.0161496139118095 -0.0015970995618141345 0 -0.022038992189926377 -0.00111241298504993 0 -0.018785104430037163 -0.0023592555646941458 0 -0.022036060477305115 -0.0024298273371716121 0 -0.015028244973185848 -0.0019312392715882649 0 -0.014487794560067702 -0.0028084636517847136 0 -0.016022917580365784 -0.0023410210062274643 0 -0.010073695080271733 -0.0022515018611028977 0 -0.010950232317748316 -0.0018292038650176853 0 -0.0053600966913967584 -0.001996012767413033 0 -0.0048177042905869719 -0.0017350296061229844 0 -0.0049218948953359881 -0.0012300197094276424 0 -0.014487794560067702 -0.0028084636517847136 0 -0.013762561734839798 -0.0017517813073059717 0 -0.012090554813667167 -0.0033530672183075391 0 -0.015028244973185848 -0.0019312392715882649 0 -0.014487794560067702 -0.0028084636517847136 0 -0.013762561734839798 -0.0017517813073059717 0 -0.014676666741546017 -0.0011690240694429766 0 -0.015028244973185848 -0.0019312392715882649 0 -0.013762561734839798 -0.0017517813073059717 0 -0.013759003567225994 -0.00081132404055864519 0 -0.014676666741546017 -0.0011690240694429766 0 -0.013762561734839798 -0.0017517813073059717 0 -0.015483153874748232 -0.0013435025394657461 0 -0.016403687061208781 -0.0016077432666470194 0 -0.013759003567225994 -0.00081132404055864519 0 -0.013762561734839798 -0.0017517813073059717 0 -0.011829853073918203 -0.0015415054612244576 0 -0.010914267665977348 0.00031896611656028319 0 -0.013759003567225994 -0.00081132404055864519 0 -0.011829853073918203 -0.0015415054612244576 0 -0.010914267665977348 0.00031896611656028319 0 -0.011829853073918203 -0.0015415054612244576 0 -0.0097437709865370679 -0.0010109976709624293 0 -0.011829853073918203 -0.0015415054612244576 0 -0.0099213817529564333 -0.0020558561713000904 0 -0.0097437709865370679 -0.0010109976709624293 0 -0.011829853073918203 -0.0015415054612244576 0 -0.0099213817529564333 -0.0020558561713000904 0 -0.012090554813667167 -0.0033530672183075391 0 -0.013762561734839798 -0.0017517813073059717 0 -0.011829853073918203 -0.0015415054612244576 0 -0.012090554813667167 -0.0033530672183075391 0 -0.010073695080271733 -0.0022515018611028977 0 -0.0094845225213447681 -0.0025286945912817633 0 -0.0053600966913967584 -0.001996012767413033 0 -0.0062400710802212513 -0.0026075422202733929 0 -0.0058658873707770872 -0.0018566816456450817 0 -0.0094845225213447681 -0.0025286945912817633 0 -0.0091369938417640833 -0.0026209962587081716 0 -0.0062400710802212513 -0.0026075422202733929 0 -0.0058658873707770872 -0.0018566816456450817 0 -0.0080700888839634281 -0.0027519740360887547 0 -0.0099213817529564333 -0.0020558561713000904 0 -0.012090554813667167 -0.0033530672183075391 0 -0.0080700888839634281 -0.0027519740360887547 0 -0.0058658873707770872 -0.0018566816456450817 0 -0.0080700888839634281 -0.0027519740360887547 0 -0.0064527723303082095 -0.001672556488203048 0 -0.0058658873707770872 -0.0018566816456450817 0 -0.005218955768324535 -0.0014892670398112665 0 -0.0052654945751298846 -0.0013575064902064192 0 -0.005218955768324535 -0.0014892670398112665 0 -0.0052654945751298846 -0.0013575064902064192 0 -0.0050038476779290181 -0.0011097674899107261 0 -0.005218955768324535 -0.0014892670398112665 0 -0.0050038476779290181 -0.0011097674899107261 0 -0.0049218948953359881 -0.0012300197094276424 0 -0.0053600966913967584 -0.001996012767413033 0 -0.005218955768324535 -0.0014892670398112665 0 -0.0049218948953359881 -0.0012300197094276424 0 -0.0053600966913967584 -0.001996012767413033 0 -0.0058658873707770872 -0.0018566816456450817 0 -0.005218955768324535 -0.0014892670398112665 0 -0.0044625768479100141 -0.00037692796816987158 0 -0.005704633519206026 -5.5860419382318583e-05 0 -0.005121702232390884 -0.0024943886746770128 0 -0.0051107158976378122 -0.00069110764341351013 0 -0.0042465894851538635 -0.0014584602976434435 0 -0.0046022200755930038 0.00050583148592451351 0 -0.0051107158976378122 -0.00069110764341351013 0 -0.0042465894851538635 -0.0014584602976434435 0 -0.005121702232390884 -0.0024943886746770128 0 -0.0051107158976378122 -0.00069110764341351013 0 -0.0063640274531986457 -0.00084187851290357107 0 -0.013740470921997861 0.0026977228327867979 0 -0.0076689994541749512 0.00065763336411644687 0 -0.0055397717428918728 -4.8805405860640137e-05 0 -0.0051107158976378122 -0.00069110764341351013 0 -0.0063640274531986457 -0.00084187851290357107 0 -0.0064563302398812153 -0.0016974476059318123 0 -0.0068659719056762686 -0.00084210291164122893 0 -0.0068863833052335618 -0.0019600675088910116 0 -0.0068659719056762686 -0.00084210291164122893 0 -0.0075037816195094352 -0.0019165663220635973 0 -0.0068863833052335618 -0.0019600675088910116 0 -0.0075037816195094352 -0.0019165663220635973 0 -0.0085139553395660404 -0.0017776861666005603 0 -0.0080700888839634281 -0.0027519740360887547 0 -0.0075037816195094352 -0.0019165663220635973 0 -0.0081627466765912711 -0.0008322320531426252 0 -0.0085139553395660404 -0.0017776861666005603 0 -0.0077973823909399526 0.00092177082676064609 0 -0.0068659719056762686 -0.00084210291164122893 0 -0.0081627466765912711 -0.0008322320531426252 0 -0.0068659719056762686 -0.00084210291164122893 0 -0.0075037816195094352 -0.0019165663220635973 0 -0.0081627466765912711 -0.0008322320531426252 0 -0.0081627466765912711 -0.0008322320531426252 0 -0.0097437709865370679 -0.0010109976709624293 0 -0.0085139553395660404 -0.0017776861666005603 0 -0.0091878048346902899 0.00025726077859733676 0 -0.0081627466765912711 -0.0008322320531426252 0 -0.0097437709865370679 -0.0010109976709624293 0 -0.0099213817529564333 -0.0020558561713000904 0 -0.0085139553395660404 -0.0017776861666005603 0 -0.0080700888839634281 -0.0027519740360887547 0 -0.0099213817529564333 -0.0020558561713000904 0 -0.0097437709865370679 -0.0010109976709624293 0 -0.0085139553395660404 -0.0017776861666005603 0 -0.0080700888839634281 -0.0027519740360887547 0 -0.0073743496400900978 -0.0020982959066669958 0 -0.0073882164700982368 -0.002277318861096922 0 -0.0080700888839634281 -0.0027519740360887547 0 -0.0073743496400900978 -0.0020982959066669958 0 -0.0064527723303082095 -0.001672556488203048 0 -0.0073743496400900978 -0.0020982959066669958 0 -0.0073882164700982368 -0.002277318861096922 0 -0.0070182637354118723 -0.001968567584599993 0 -0.0073882164700982368 -0.002277318861096922 0 -0.0068176142197959927 -0.0021328479125059491 0 -0.0070182637354118723 -0.001968567584599993 0 -0.0075037816195094352 -0.0019165663220635973 0 -0.0080700888839634281 -0.0027519740360887547 0 -0.0073882164700982368 -0.002277318861096922 0 -0.0075037816195094352 -0.0019165663220635973 0 -0.0073882164700982368 -0.002277318861096922 0 -0.0068863833052335618 -0.0019600675088910116 0 -0.0073882164700982368 -0.002277318861096922 0 -0.0068863833052335618 -0.0019600675088910116 0 -0.0068176142197959927 -0.0021328479125059491 0 -0.0068863833052335618 -0.0019600675088910116 0 -0.0068176142197959927 -0.0021328479125059491 0 -0.006552084785148544 -0.0020239393750723401 0 -0.0068176142197959927 -0.0021328479125059491 0 -0.006406167677367138 -0.0021250300201219332 0 -0.0063878257752470269 -0.0020500130801456616 0 -0.0068176142197959927 -0.0021328479125059491 0 -0.006406167677367138 -0.0021250300201219332 0 -0.006552084785148544 -0.0020239393750723401 0 -0.006406167677367138 -0.0021250300201219332 0 -0.006552084785148544 -0.0020239393750723401 0 -0.0062781716134733415 -0.0020491731680545963 0 -0.006406167677367138 -0.0021250300201219332 0 -0.0062556437694448741 -0.0021687199354378942 0 -0.0062781716134733415 -0.0020491731680545963 0 -0.0064563302398812153 -0.0016974476059318123 0 -0.006552084785148544 -0.0020239393750723401 0 -0.0062781716134733415 -0.0020491731680545963 0 -0.0064563302398812153 -0.0016974476059318123 0 -0.0068863833052335618 -0.0019600675088910116 0 -0.006552084785148544 -0.0020239393750723401 0 -0.0044625768479100141 -0.00037692796816987158 0 -0.0032204431583316043 0.0011048088581702526 0 -0.00037088602709415251 0.0047555306685940282 0 -0.0014672642091784253 0.0033865873219539487 0 -0.0018176067541227081 0.0025001062899652855 0 -0.0020251099648076277 0.002622230195144193 0 0.0019586920679048984 0.0077098633279558395 0 0.0025509480559888203 0.0084910383328422948 0 0.0028861820469055477 0.010156262625730803 0 -0.001256420123980892 0.0039883595001842138 0 -0.0010201277434382439 0.0051025925763969488 0 -0.0015023935219001944 0.0033578222584354648 0 -0.005675350217541739 -0.0019851816450896015 0 -0.0059725903754521623 -0.0021280720449920075 0 -0.0062556437694448741 -0.0021687199354378942 0 0.0019586920679048984 0.0077098633279558395 0 0.0025509480559888203 0.0084910383328422948 0 0.0022300979229233123 0.0067194250960043549 0 -0.00089810133090004792 0.0045517445408122291 0 -0.00037088602709415251 0.0047555306685940282 0 -0.005675350217541739 -0.0019851816450896015 0 -0.0054350729927275989 -0.0022066147204009949 0 -0.0042043724629949562 -0.0010944576954413114 0 -0.0054350729927275989 -0.0022066147204009949 0 -0.0059725903754521623 -0.0021280720449920075 0 -0.0060375446491872002 -0.0020586679379272018 0 -0.005675350217541739 -0.0019851816450896015 0 -0.0054350729927275989 -0.0022066147204009949 0 -0.0059725903754521623 -0.0021280720449920075 0 -0.0062265969840618104 -0.0021123535283074459 0 -0.0059725903754521623 -0.0021280720449920075 0 -0.0062556437694448741 -0.0021687199354378942 0 -0.00089810133090004792 0.0045517445408122291 0 -0.0020251099648076277 0.002622230195144193 0 -0.006406167677367138 -0.0021250300201219332 0 -0.0062265969840618104 -0.0021123535283074459 0 -0.0062556437694448741 -0.0021687199354378942 0 -0.006406167677367138 -0.0021250300201219332 0 -0.0062265969840618104 -0.0021123535283074459 0 -0.0063878257752470269 -0.0020500130801456616 0 -0.0062265969840618104 -0.0021123535283074459 0 -0.0059725903754521623 -0.0021280720449920075 0 -0.0063878257752470269 -0.0020500130801456616 0 -0.0059725903754521623 -0.0021280720449920075 0 -0.0063878257752470269 -0.0020500130801456616 0 -0.0060375446491872002 -0.0020586679379272018 0 -0.0063878257752470269 -0.0020500130801456616 0 -0.0064214367179343777 -0.0019766532071134055 0 -0.0060375446491872002 -0.0020586679379272018 0 -0.0063878257752470269 -0.0020500130801456616 0 -0.0064214367179343777 -0.0019766532071134055 0 -0.0070182637354118723 -0.001968567584599993 0 -0.0068176142197959927 -0.0021328479125059491 0 -0.0063878257752470269 -0.0020500130801456616 0 -0.0070182637354118723 -0.001968567584599993 0 -0.0051514929962090793 -0.0015013571526989273 0 -0.0048760623799662898 -0.0013099108837492347 0 -0.0054350729927275989 -0.0022066147204009949 0 -0.0022659550975967996 -0.00113890594211017 0 -0.0042043724629949562 -0.0010944576954413114 0 -0.0054350729927275989 -0.0022066147204009949 0 -0.0064214367179343777 -0.0019766532071134055 0 -0.0070534402062311695 -0.0019334989546126332 0 -0.0054350729927275989 -0.0022066147204009949 0 -0.0064214367179343777 -0.0019766532071134055 0 -0.0060375446491872002 -0.0020586679379272018 0 -0.0064214367179343777 -0.0019766532071134055 0 -0.0070534402062311695 -0.0019334989546126332 0 -0.0070182637354118723 -0.001968567584599993 0 -0.0070534402062311695 -0.0019334989546126332 0 -0.0070182637354118723 -0.001968567584599993 0 -0.00702285894285609 -0.0016990468673983756 0 -0.0073743496400900978 -0.0020982959066669958 0 -0.00702285894285609 -0.0016990468673983756 0 -0.0064527723303082095 -0.001672556488203048 0 -0.0073743496400900978 -0.0020982959066669958 0 -0.0070182637354118723 -0.001968567584599993 0 -0.00702285894285609 -0.0016990468673983756 0 -0.0070534402062311695 -0.0019334989546126332 0 -0.00702285894285609 -0.0016990468673983756 0 -0.006557319742531458 -0.00097146291855011648 0 -0.0048760623799662898 -0.0013099108837492347 0 -0.0046822987293533699 -0.00099927623919262134 0 -0.0022659550975967996 -0.00113890594211017 0 -0.0022829809762787675 -0.00060059371315191444 0 -0.0028490346287015226 -0.00019506309039448217 0 -0.0022829809762787675 -0.00060059371315191444 0 -0.0026083554905406573 -0.00067077399068307924 0 -0.0028490346287015226 -0.00019506309039448217 0 -0.0022829809762787675 -0.00060059371315191444 0 -0.0026083554905406573 -0.00067077399068307924 0 -0.0021570850085634876 -0.00035070119798772553 0 -0.0026083554905406573 -0.00067077399068307924 0 -0.0021570850085634876 -0.00035070119798772553 0 -0.0022160959952960582 -0.00061162740339096939 0 -0.0022829809762787675 -0.00060059371315191444 0 -0.0021570850085634876 -0.00035070119798772553 0 -0.0026944347609647265 -0.00045026749162867594 0 -0.0021570850085634876 -0.00035070119798772553 0 -0.0020826974905155367 -1.2890999894303969e-05 0 -0.0016460995369165384 -0.00022244335571218872 0 -0.0021570850085634876 -0.00035070119798772553 0 -0.0026944347609647265 -0.00045026749162867594 0 -0.0020826974905155367 -1.2890999894303969e-05 0 -0.0022659550975967996 -0.00113890594211017 0 -0.0022829809762787675 -0.00060059371315191444 0 -0.0026944347609647265 -0.00045026749162867594 0 -0.0022659550975967996 -0.00113890594211017 0 -0.0042043724629949562 -0.0010944576954413114 0 -0.0026944347609647265 -0.00045026749162867594 0 -0.0042043724629949562 -0.0010944576954413114 0 -0.003296678447834123 -0.0004390938856059628 0 -0.0035903295433109199 -8.487022710762324e-05 0 -0.0042043724629949562 -0.0010944576954413114 0 -0.003296678447834123 -0.0004390938856059628 0 -0.0026944347609647265 -0.00045026749162867594 0 -0.0026944347609647265 -0.00045026749162867594 0 -0.0028973151557979216 -0.00024778591961041721 0 -0.0020826974905155367 -1.2890999894303969e-05 0 -0.0017702135288108416 0.0017898436645218427 0 -0.0018068948926986083 0.001157716212140017 0 -0.0020826974905155367 -1.2890999894303969e-05 0 -0.0035903295433109199 -8.487022710762324e-05 0 -0.00088084557790201357 0.00033239011384722901 0 -0.003296678447834123 -0.0004390938856059628 0 -0.0026944347609647265 -0.00045026749162867594 0 -0.0028973151557979216 -0.00024778591961041721 0 -0.0028973151557979216 -0.00024778591961041721 0 -0.0020826974905155367 -1.2890999894303969e-05 0 -0.0035903295433109199 -8.487022710762324e-05 0 -0.003296678447834123 -0.0004390938856059628 0 -0.0028973151557979216 -0.00024778591961041721 0 -0.0035903295433109199 -8.487022710762324e-05 0 0.0019477516503745543 0.0057183641252088677 0 0.002294771245466128 0.00416609934476547 0 0.0012250189118505081 0.0017979037091583113 0 0.00071913623723421577 0.0049278993608979256 0 0.001835578951530667 0.0050777749457213443 0 0.0012250189118505081 0.0017979037091583113 0 0.00049584355895177629 0.0050785314821791723 0 0.00049424332826949178 0.0043214255983184766 0 0.0026915662764585633 0.0033713218208759636 0 0.002294771245466128 0.00416609934476547 0 0.0012250189118505081 0.0017979037091583113 0 0.0030315529892625324 0.0046288453622148253 0 0.0037395715867431902 0.0053543865291783886 0 0.0038056573455289753 0.0038703717256162113 0 0.0026915662764585633 0.0033713218208759636 0 0.0030315529892625324 0.0046288453622148253 0 0.0038056573455289753 0.0038703717256162113 0 0.0026915662764585633 0.0033713218208759636 0 0.002294771245466128 0.00416609934476547 0 0.0030315529892625324 0.0046288453622148253 0 0.002294771245466128 0.00416609934476547 0 0.0030315529892625324 0.0046288453622148253 0 0.0026949012187321882 0.0050605632457317922 0 0.0030315529892625324 0.0046288453622148253 0 0.0026949012187321882 0.0050605632457317922 0 0.0037395715867431902 0.0053543865291783886 0 0.0019477516503745543 0.0057183641252088677 0 0.0026949012187321882 0.0050605632457317922 0 0.0037395715867431902 0.0053543865291783886 0 0.0019477516503745543 0.0057183641252088677 0 0.002294771245466128 0.00416609934476547 0 0.0026949012187321882 0.0050605632457317922 0 0.00049584355895177629 0.0050785314821791723 0 -0.00037088602709415251 0.0047555306685940282 0 0.0019586920679048984 0.0077098633279558395 0 0.00071913623723421577 0.0049278993608979256 0 0.0022300979229233123 0.0067194250960043549 0 -0.00092174824690341472 0.0045108468390638997 0 -0.0010087079570323995 0.0041827275933162093 0 -0.0014123704484381603 0.0042333198186003318 0 -0.005675350217541739 -0.0019851816450896015 0 -0.0042043724629949562 -0.0010944576954413114 0 -0.0035903295433109199 -8.487022710762324e-05 0 -0.0018176067541227081 0.0025001062899652855 0 -0.0017702135288108416 0.0017898436645218427 0 0.00071913623723421577 0.0049278993608979256 0 0.001835578951530667 0.0050777749457213443 0 0.0022300979229233123 0.0067194250960043549 0 -0.0049661885758615259 -0.00099936627313768327 0 -0.0055111297628996254 -0.0012646245229717692 0 -0.0047437389779960348 -0.00055747283507728818 0 -0.0049661885758615259 -0.00099936627313768327 0 -0.0047437389779960348 -0.00055747283507728818 0 -0.0048343925685108494 -0.00091477701950826986 0 -0.0049661885758615259 -0.00099936627313768327 0 -0.0048343925685108494 -0.00091477701950826986 0 -0.0049953058828120355 -0.00097619977991812398 0 -0.0050038476779290181 -0.0011097674899107261 0 -0.0049661885758615259 -0.00099936627313768327 0 -0.0049953058828120355 -0.00097619977991812398 0 -0.0052654945751298846 -0.0013575064902064192 0 -0.0050038476779290181 -0.0011097674899107261 0 -0.0049661885758615259 -0.00099936627313768327 0 -0.0052654945751298846 -0.0013575064902064192 0 -0.0049661885758615259 -0.00099936627313768327 0 -0.0055111297628996254 -0.0012646245229717692 0 -0.0058658873707770872 -0.0018566816456450817 0 -0.0052654945751298846 -0.0013575064902064192 0 -0.0055111297628996254 -0.0012646245229717692 0 -0.0058658873707770872 -0.0018566816456450817 0 -0.0055111297628996254 -0.0012646245229717692 0 -0.0064527723303082095 -0.001672556488203048 0 -0.0055111297628996254 -0.0012646245229717692 0 -0.0064527723303082095 -0.001672556488203048 0 -0.006557319742531458 -0.00097146291855011648 0 -0.00702285894285609 -0.0016990468673983756 0 -0.0064527723303082095 -0.001672556488203048 0 -0.006557319742531458 -0.00097146291855011648 0 -0.0055111297628996254 -0.0012646245229717692 0 -0.006557319742531458 -0.00097146291855011648 0 -0.0047437389779960348 -0.00055747283507728818 0 -0.0046822987293533699 -0.00099927623919262134 0 -0.0046363464309361778 -0.0008832870625630491 0 -0.0028490346287015226 -0.00019506309039448217 0 -0.0037267535582166601 -0.0011177448642989661 0 -0.0047437389779960348 -0.00055747283507728818 0 -0.0026083554905406573 -0.00067077399068307924 0 -0.0028490346287015226 -0.00019506309039448217 0 -0.0037267535582166601 -0.0011177448642989661 0 -0.0026083554905406573 -0.00067077399068307924 0 -0.0037267535582166601 -0.0011177448642989661 0 -0.0026232457205225971 -0.0011422782842820437 0 -0.0037267535582166601 -0.0011177448642989661 0 -0.0044985775571835503 -0.0012267347715686921 0 -0.0047437389779960348 -0.00055747283507728818 0 -0.0044985775571835503 -0.0012267347715686921 0 -0.0047437389779960348 -0.00055747283507728818 0 -0.0048343925685108494 -0.00091477701950826986 0 -0.0044985775571835503 -0.0012267347715686921 0 -0.0048343925685108494 -0.00091477701950826986 0 -0.0048094226680401647 -0.0012572772035557764 0 -0.0048094226680401647 -0.0012572772035557764 0 -0.0053160172579865246 -0.0011782778313260479 0 -0.0051248012386554921 -0.001021725076024803 0 -0.0048094226680401647 -0.0012572772035557764 0 -0.0053160172579865246 -0.0011782778313260479 0 -0.0048130176371619987 -0.0015967579626038745 0 -0.0053160172579865246 -0.0011782778313260479 0 -0.0051248012386554921 -0.001021725076024803 0 -0.0055062437540039314 -0.0010294170731597002 0 -0.0048343925685108494 -0.00091477701950826986 0 -0.0048094226680401647 -0.0012572772035557764 0 -0.0051248012386554921 -0.001021725076024803 0 -0.0051248012386554921 -0.001021725076024803 0 -0.0052502704745466221 -0.00095383763251311873 0 -0.0049953058828120355 -0.00097619977991812398 0 -0.0048343925685108494 -0.00091477701950826986 0 -0.0051248012386554921 -0.001021725076024803 0 -0.0049953058828120355 -0.00097619977991812398 0 -0.0051248012386554921 -0.001021725076024803 0 -0.0052502704745466221 -0.00095383763251311873 0 -0.0055062437540039314 -0.0010294170731597002 0 -0.0052502704745466221 -0.00095383763251311873 0 -0.0051263710182368645 -0.0009414834509787794 0 -0.0054234445918846094 -0.00079751854206149518 0 -0.0052502704745466221 -0.00095383763251311873 0 -0.0049953058828120355 -0.00097619977991812398 0 -0.0051263710182368645 -0.0009414834509787794 0 -0.0050038476779290181 -0.0011097674899107261 0 -0.0049953058828120355 -0.00097619977991812398 0 -0.0051263710182368645 -0.0009414834509787794 0 -0.0059857385965551074 -0.00088687275310943303 0 -0.0059798809145661398 -0.0010006382458961911 0 -0.0065006968060259589 -0.00085024097217373078 0 -0.0059857385965551074 -0.00088687275310943303 0 -0.0056619728338603171 -0.00093217111569407431 0 -0.0058107896782438537 -0.0006858633493575946 0 -0.0059857385965551074 -0.00088687275310943303 0 -0.0065006968060259589 -0.00085024097217373078 0 -0.006347551845949503 -0.00034040647321994963 0 -0.0056619728338603171 -0.00093217111569407431 0 -0.0054234445918846094 -0.00079751854206149518 0 -0.0058107896782438537 -0.0006858633493575946 0 -0.0052502704745466221 -0.00095383763251311873 0 -0.0056619728338603171 -0.00093217111569407431 0 -0.0054234445918846094 -0.00079751854206149518 0 -0.0052502704745466221 -0.00095383763251311873 0 -0.0056619728338603171 -0.00093217111569407431 0 -0.0055062437540039314 -0.0010294170731597002 0 -0.0056619728338603171 -0.00093217111569407431 0 -0.0059798809145661398 -0.0010006382458961911 0 -0.0055062437540039314 -0.0010294170731597002 0 -0.0059857385965551074 -0.00088687275310943303 0 -0.0056619728338603171 -0.00093217111569407431 0 -0.0059798809145661398 -0.0010006382458961911 0 -0.0059798809145661398 -0.0010006382458961911 0 -0.0057185906652788016 -0.0010716609904039001 0 -0.0058821229392886356 -0.00099650772042043641 0 -0.0059798809145661398 -0.0010006382458961911 0 -0.0057185906652788016 -0.0010716609904039001 0 -0.0055062437540039314 -0.0010294170731597002 0 -0.0053160172579865246 -0.0011782778313260479 0 -0.0057185906652788016 -0.0010716609904039001 0 -0.0055062437540039314 -0.0010294170731597002 0 -0.0053160172579865246 -0.0011782778313260479 0 -0.0057185906652788016 -0.0010716609904039001 0 -0.0056598055308889426 -0.001254776979777655 0 -0.0057185906652788016 -0.0010716609904039001 0 -0.0057626553054273945 -0.00097802969831434368 0 -0.0056598055308889426 -0.001254776979777655 0 -0.0057626553054273945 -0.00097802969831434368 0 -0.0051896089800902139 -0.00085242872713755722 0 -0.0056447337637317175 -0.00082345000648686843 0 -0.0051896089800902139 -0.00085242872713755722 0 -0.0056447337637317175 -0.00082345000648686843 0 -0.0053138374220014269 -0.00064779397953480312 0 -0.0057626553054273945 -0.00097802969831434368 0 -0.0056447337637317175 -0.00082345000648686843 0 -0.0060763851707324274 -0.00092132807893022793 0 -0.0056447337637317175 -0.00082345000648686843 0 -0.0061094998757456956 -0.00075976888209373765 0 -0.0057661555614875477 -0.00054969163104909432 0 -0.0056447337637317175 -0.00082345000648686843 0 -0.0061094998757456956 -0.00075976888209373765 0 -0.0060763851707324274 -0.00092132807893022793 0 -0.0059798809145661398 -0.0010006382458961911 0 -0.0060763851707324274 -0.00092132807893022793 0 -0.0058821229392886356 -0.00099650772042043641 0 -0.0057185906652788016 -0.0010716609904039001 0 -0.0057626553054273945 -0.00097802969831434368 0 -0.0058821229392886356 -0.00099650772042043641 0 -0.0057626553054273945 -0.00097802969831434368 0 -0.0060763851707324274 -0.00092132807893022793 0 -0.0058821229392886356 -0.00099650772042043641 0 -0.0014933377628302477 9.8551199746482387e-07 0 -0.00090792430860774955 2.6906551172684943e-05 0 0.0020795388879586174 -0.00011684711066889249 0 -0.0053162557244764092 -0.00059001274178213583 0 -0.0048493605217000109 -0.00071625209712919717 0 -0.0053138374220014269 -0.00064779397953480312 0 -0.0053162557244764092 -0.00059001274178213583 0 -0.0053138374220014269 -0.00064779397953480312 0 -0.0054499819193923717 -0.00037308917304297156 0 -0.0051896089800902139 -0.00085242872713755722 0 -0.0048493605217000109 -0.00071625209712919717 0 -0.0053138374220014269 -0.00064779397953480312 0 -0.0056447337637317175 -0.00082345000648686843 0 -0.0053138374220014269 -0.00064779397953480312 0 -0.0057661555614875477 -0.00054969163104909432 0 -0.0057661555614875477 -0.00054969163104909432 0 -0.0054499819193923717 -0.00037308917304297156 0 -0.0057809691921600357 -0.00038851491952861142 0 -0.0053138374220014269 -0.00064779397953480312 0 -0.0057661555614875477 -0.00054969163104909432 0 -0.0054499819193923717 -0.00037308917304297156 0 -0.0014933377628302477 9.8551199746482387e-07 0 -0.00090792430860774955 2.6906551172684943e-05 0 -0.0048417228053728462 -5.6865302594686197e-05 0 -0.0053162557244764092 -0.00059001274178213583 0 -0.0054499819193923717 -0.00037308917304297156 0 -0.0048417228053728462 -5.6865302594686197e-05 0 -0.0014933377628302477 9.8551199746482387e-07 0 -0.0053316589568049022 -1.2545646338654296e-06 0 -0.0048417228053728462 -5.6865302594686197e-05 0 -0.0013709650488533533 -0.00074464078996691651 0 -0.0018738044407889069 -0.00086939340340155943 0 -0.0054499819193923717 -0.00037308917304297156 0 -0.0048417228053728462 -5.6865302594686197e-05 0 -0.0057809691921600357 -0.00038851491952861142 0 -0.0053316589568049022 -1.2545646338654296e-06 0 -0.0060157504774005907 -0.00033254868143233081 0 -0.0074479624586520961 -0.00037511771639035107 0 -0.0053316589568049022 -1.2545646338654296e-06 0 -0.0048417228053728462 -5.6865302594686197e-05 0 -0.0060157504774005907 -0.00033254868143233081 0 -0.0048417228053728462 -5.6865302594686197e-05 0 -0.0060157504774005907 -0.00033254868143233081 0 -0.0057809691921600357 -0.00038851491952861142 0 -0.0060157504774005907 -0.00033254868143233081 0 -0.0064405597777723476 -0.00061256715033263637 0 -0.0074479624586520961 -0.00037511771639035107 0 -0.0060157504774005907 -0.00033254868143233081 0 -0.0064405597777723476 -0.00061256715033263637 0 -0.0057809691921600357 -0.00038851491952861142 0 -0.0057661555614875477 -0.00054969163104909432 0 -0.0064405597777723476 -0.00061256715033263637 0 -0.0057809691921600357 -0.00038851491952861142 0 -0.0061094998757456956 -0.00075976888209373765 0 -0.0057661555614875477 -0.00054969163104909432 0 -0.0064405597777723476 -0.00061256715033263637 0 -0.0064405597777723476 -0.00061256715033263637 0 -0.0073928437730405713 -0.00069093433972930755 0 -0.006554758385878069 -0.00082529693494266777 0 -0.0064405597777723476 -0.00061256715033263637 0 -0.0073928437730405713 -0.00069093433972930755 0 -0.0074479624586520961 -0.00037511771639035107 0 -0.0073928437730405713 -0.00069093433972930755 0 -0.0074479624586520961 -0.00037511771639035107 0 -0.0085219813874333646 -0.00039330338781315514 0 -0.0053316589568049022 -1.2545646338654296e-06 0 -0.0074479624586520961 -0.00037511771639035107 0 -0.0091670816530342487 -9.6180897532657492e-07 0 -0.0059798809145661398 -0.0010006382458961911 0 -0.0060763851707324274 -0.00092132807893022793 0 -0.0063571167462288499 -0.00091086314200923752 0 -0.0059798809145661398 -0.0010006382458961911 0 -0.0063571167462288499 -0.00091086314200923752 0 -0.0065006968060259589 -0.00085024097217373078 0 -0.0060763851707324274 -0.00092132807893022793 0 -0.0063571167462288499 -0.00091086314200923752 0 -0.006554758385878069 -0.00082529693494266777 0 -0.0061094998757456956 -0.00075976888209373765 0 -0.0060763851707324274 -0.00092132807893022793 0 -0.006554758385878069 -0.00082529693494266777 0 -0.0061094998757456956 -0.00075976888209373765 0 -0.0064405597777723476 -0.00061256715033263637 0 -0.006554758385878069 -0.00082529693494266777 0 -0.0063571167462288499 -0.00091086314200923752 0 -0.006554758385878069 -0.00082529693494266777 0 -0.0069112687146324348 -0.00079138168555713858 0 -0.0073928437730405713 -0.00069093433972930755 0 -0.0069112687146324348 -0.00079138168555713858 0 -0.0075323967125185878 -0.00059998077486276451 0 -0.0073928437730405713 -0.00069093433972930755 0 -0.006554758385878069 -0.00082529693494266777 0 -0.0069112687146324348 -0.00079138168555713858 0 -0.0069112687146324348 -0.00079138168555713858 0 -0.0065006968060259589 -0.00085024097217373078 0 -0.0075323967125185878 -0.00059998077486276451 0 -0.0063571167462288499 -0.00091086314200923752 0 -0.0069112687146324348 -0.00079138168555713858 0 -0.0065006968060259589 -0.00085024097217373078 0 -0.0065006968060259589 -0.00085024097217373078 0 -0.0075323967125185878 -0.00059998077486276451 0 -0.006347551845949503 -0.00034040647321994963 0 -0.0075323967125185878 -0.00059998077486276451 0 -0.010220569951973495 -1.8120708715907205e-05 0 -0.0073237515065109398 0.00064119769026215454 0 -0.0098296550320775573 3.0676724503577468e-05 0 -0.0096145405471324413 7.496840963208184e-05 0 -0.0075323967125185878 -0.00059998077486276451 0 -0.0073237515065109398 0.00064119769026215454 0 -0.006347551845949503 -0.00034040647321994963 0 -0.0073237515065109398 0.00064119769026215454 0 -0.0061903454281482858 0.0004178550640414345 0 -0.006347551845949503 -0.00034040647321994963 0 -0.0074479624586520961 -0.00037511771639035107 0 -0.0091670816530342487 -9.6180897532657492e-07 0 -0.0085219813874333646 -0.00039330338781315514 0 -0.0073928437730405713 -0.00069093433972930755 0 -0.0075323967125185878 -0.00059998077486276451 0 -0.0085219813874333646 -0.00039330338781315514 0 -0.0075323967125185878 -0.00059998077486276451 0 -0.0085219813874333646 -0.00039330338781315514 0 -0.010220569951973495 -1.8120708715907205e-05 0 -0.0091670816530342487 -9.6180897532657492e-07 0 -0.0085219813874333646 -0.00039330338781315514 0 -0.010220569951973495 -1.8120708715907205e-05 0 -0.0091670816530342487 -9.6180897532657492e-07 0 -0.010220569951973495 -1.8120708715907205e-05 0 -0.013002251114369411 9.0724616175337508e-09 0 -0.010220569951973495 -1.8120708715907205e-05 0 -0.013002251114369411 9.0724616175337508e-09 0 -0.012548904965857626 -0.00012778542627545021 0 -0.010220569951973495 -1.8120708715907205e-05 0 -0.012548904965857626 -0.00012778542627545021 0 -0.011345800930148463 -0.00019313331274690892 0 -0.015436884116295808 0.00024640714175230637 0 -0.012548904965857626 -0.00012778542627545021 0 -0.011429255164496943 0.00057822045904613211 0 -0.014490175914381681 0.00016737232774265601 0 -0.014204168339917013 9.1654119470708527e-05 0 -0.015436884116295808 0.00024640714175230637 0 -0.013002251114369411 9.0724616175337508e-09 0 -0.012548904965857626 -0.00012778542627545021 0 -0.016839673378751245 -4.3330255519498058e-07 0 -0.015436884116295808 0.00024640714175230637 0 -0.013002251114369411 9.0724616175337508e-09 0 -0.0096145405471324413 7.496840963208184e-05 0 -0.0098378387403528569 -3.1380948558613039e-05 0 -0.011170243325166753 5.4693283167500806e-05 0 -0.010900359805443439 0.00021886215695486711 0 -0.010808068923652756 -4.093555928402394e-05 0 -0.011170243325166753 5.4693283167500806e-05 0 -0.0113306326045194 -0.00010078479928486319 0 -0.010808068923652756 -4.093555928402394e-05 0 -0.010220569951973495 -1.8120708715907205e-05 0 -0.0113306326045194 -0.00010078479928486319 0 -0.011345800930148463 -0.00019313331274690892 0 -0.011170243325166753 5.4693283167500806e-05 0 -0.0113306326045194 -0.00010078479928486319 0 -0.011345800930148463 -0.00019313331274690892 0 -0.012548904965857626 -0.00012778542627545021 0 -0.011345800930148463 -0.00019313331274690892 0 -0.011429255164496943 0.00057822045904613211 0 -0.011170243325166753 5.4693283167500806e-05 0 -0.011345800930148463 -0.00019313331274690892 0 -0.011429255164496943 0.00057822045904613211 0 -0.016746554359194189 -1.9300102997788634e-05 0 -0.016654080699688975 0.00030562220621426059 0 -0.016994235667773062 0.00033893703409861405 0 -0.011170243325166753 5.4693283167500806e-05 0 -0.011429255164496943 0.00057822045904613211 0 -0.010900359805443439 0.00021886215695486711 0 -0.016746554359194189 -1.9300102997788634e-05 0 -0.017074427997246504 0.00021307458694792586 0 -0.016994235667773062 0.00033893703409861405 0 -0.014204168339917013 9.1654119470708527e-05 0 -0.014053930326560857 -0.00012505047566228235 0 -0.017074427997246504 0.00021307458694792586 0 -0.016994235667773062 0.00033893703409861405 0 -0.017343509689083058 0.00039542536515760747 0 -0.014053930326560857 -0.00012505047566228235 0 -0.013881682654550987 -0.00062297692470118001 0 -0.025031293888489632 -0.0003629456588610962 0 -0.025449075563736403 -0.00068226337897248632 0 -0.024763541385518419 -0.00085868425863628054 0 -0.010900359805443439 0.00021886215695486711 0 -0.010808068923652756 -4.093555928402394e-05 0 -0.010481050010378896 9.1318697838902233e-05 0 -0.0061903454281482858 0.0004178550640414345 0 -0.0057492330328768161 -7.5952952227753017e-06 0 -0.0055148214694442496 0.00025865274389264963 0 -0.010808068923652756 -4.093555928402394e-05 0 -0.010439387769099025 6.1287819550984732e-05 0 -0.010481050010378896 9.1318697838902233e-05 0 -0.0098378387403528569 -3.1380948558613039e-05 0 -0.012864821292602958 -0.00087419299155300863 0 -0.0057492330328768161 -7.5952952227753017e-06 0 -0.0055148214694442496 0.00025865274389264963 0 -0.0054572717578113905 -0.00018028363216562835 0 -0.024341169504805908 -0.0021260392584547517 0 -0.024124080408848943 -0.0020052363618830761 0 -0.024012292214931466 -0.0022560125560921436 0 -0.013881682654550987 -0.00062297692470118001 0 -0.013454722419390625 -0.0009674776203924927 0 -0.012731699101325978 -0.001158560239278651 0 -0.012672556578944066 -0.001197767964380954 0 -0.012785593472215796 -0.0011753147388774039 0 -0.012864821292602958 -0.00087419299155300863 0 -0.013881682654550987 -0.00062297692470118001 0 -0.025449075563736403 -0.00068226337897248632 0 -0.0245416394226779 -0.0014487088821844207 0 -0.024763541385518419 -0.00085868425863628054 0 -0.024341169504805908 -0.0021260392584547517 0 -0.024264717250562815 -0.0018174800734467372 0 -0.0245416394226779 -0.0014487088821844207 0 -0.024264717250562815 -0.0018174800734467372 0 -0.024124080408848943 -0.0020052363618830761 0 -0.024051422467889483 -0.0016972549462300375 0 -0.025449075563736403 -0.00068226337897248632 0 -0.024341169504805908 -0.0021260392584547517 0 -0.0245416394226779 -0.0014487088821844207 0 -0.024341169504805908 -0.0021260392584547517 0 -0.024264717250562815 -0.0018174800734467372 0 -0.024124080408848943 -0.0020052363618830761 0 -0.01903359823566235 0.00053954835422981632 0 -0.013881682654550987 -0.00062297692470118001 0 -0.024264717250562815 -0.0018174800734467372 0 -0.0245416394226779 -0.0014487088821844207 0 -0.024051422467889483 -0.0016972549462300375 0 -0.024322581938696929 -0.0010113047702273732 0 -0.023933977285179604 -0.0011504788817621174 0 -0.024051422467889483 -0.0016972549462300375 0 -0.0245416394226779 -0.0014487088821844207 0 -0.024322581938696929 -0.0010113047702273732 0 -0.024051422467889483 -0.0016972549462300375 0 -0.0245416394226779 -0.0014487088821844207 0 -0.024763541385518419 -0.00085868425863628054 0 -0.024322581938696929 -0.0010113047702273732 0 -0.023353841220193527 -0.00080076099865676153 0 -0.023933977285179604 -0.0011504788817621174 0 -0.0235765354867081 -0.0014776095671478349 0 -0.023518894010683876 -0.0019806633664690046 0 -0.022036060477305115 -0.0024298273371716121 0 -0.024012292214931466 -0.0022560125560921436 0 -0.024008461181269061 -0.00050735176257593292 0 -0.024322581938696929 -0.0010113047702273732 0 -0.023933977285179604 -0.0011504788817621174 0 -0.022986435600992922 -0.0017123758218345146 0 -0.023518894010683876 -0.0019806633664690046 0 -0.022036060477305115 -0.0024298273371716121 0 -0.017032102739546313 -0.0018006305477441965 0 -0.013454722419390625 -0.0009674776203924927 0 -0.023933977285179604 -0.0011504788817621174 0 -0.0235765354867081 -0.0014776095671478349 0 -0.024051422467889483 -0.0016972549462300375 0 -0.023353841220193527 -0.00080076099865676153 0 -0.0235765354867081 -0.0014776095671478349 0 -0.022986435600992922 -0.0017123758218345146 0 -0.0235765354867081 -0.0014776095671478349 0 -0.022986435600992922 -0.0017123758218345146 0 -0.023518894010683876 -0.0019806633664690046 0 -0.024124080408848943 -0.0020052363618830761 0 -0.023927615627481375 -0.0019888550948468607 0 -0.024012292214931466 -0.0022560125560921436 0 -0.024124080408848943 -0.0020052363618830761 0 -0.023927615627481375 -0.0019888550948468607 0 -0.024051422467889483 -0.0016972549462300375 0 -0.023518894010683876 -0.0019806633664690046 0 -0.023927615627481375 -0.0019888550948468607 0 -0.024051422467889483 -0.0016972549462300375 0 -0.023518894010683876 -0.0019806633664690046 0 -0.023927615627481375 -0.0019888550948468607 0 -0.024012292214931466 -0.0022560125560921436 0 -0.0235765354867081 -0.0014776095671478349 0 -0.023518894010683876 -0.0019806633664690046 0 -0.024051422467889483 -0.0016972549462300375 0 -0.022038992189926377 -0.00111241298504993 0 -0.022986435600992922 -0.0017123758218345146 0 -0.022036060477305115 -0.0024298273371716121 0 -0.022038992189926377 -0.00111241298504993 0 -0.023353841220193527 -0.00080076099865676153 0 -0.022986435600992922 -0.0017123758218345146 0 -0.0161496139118095 -0.0015970995618141345 0 -0.016022917580365784 -0.0023410210062274643 0 -0.017494813277039705 -0.0019775315634742822 0 -0.0048177042905869719 -0.0017350296061229844 0 -0.004554691245895884 -0.0015810570448751644 0 -0.0049218948953359881 -0.0012300197094276424 0 -0.015028244973185848 -0.0019312392715882649 0 -0.0161496139118095 -0.0015970995618141345 0 -0.016022917580365784 -0.0023410210062274643 0 -0.0048177042905869719 -0.0017350296061229844 0 -0.0042933728373945402 -0.0018094512015557963 0 -0.004554691245895884 -0.0015810570448751644 0 -0.010950232317748316 -0.0018292038650176853 0 -0.013454722419390625 -0.0009674776203924927 0 -0.0042486295515383379 -0.0017957214880662139 0 -0.0042933728373945402 -0.0018094512015557963 0 -0.004554691245895884 -0.0015810570448751644 0 -0.012864821292602958 -0.00087419299155300863 0 -0.013454722419390625 -0.0009674776203924927 0 -0.012864821292602958 -0.00087419299155300863 0 -0.0086863707396765827 -0.0021537457585693257 0 -0.0055148214694442496 0.00025865274389264963 0 -0.0051360462843553058 -0.00030216127047620595 0 -0.0054572717578113905 -0.00018028363216562835 0 -0.0054572717578113905 -0.00018028363216562835 0 -0.0052241629086410297 -0.00067835386118665555 0 -0.0056157170357231424 -0.00040602960983378115 0 -0.0051360462843553058 -0.00030216127047620595 0 -0.0054572717578113905 -0.00018028363216562835 0 -0.0052241629086410297 -0.00067835386118665555 0 -0.0051360462843553058 -0.00030216127047620595 0 -0.0052241629086410297 -0.00067835386118665555 0 -0.0049218948953359881 -0.0012300197094276424 0 -0.0052241629086410297 -0.00067835386118665555 0 -0.0049218948953359881 -0.0012300197094276424 0 -0.0050360406688004893 -0.0010007094634755366 0 -0.0086863707396765827 -0.0021537457585693257 0 -0.0076889079124113262 -0.0023726006979616996 0 -0.0052241629086410297 -0.00067835386118665555 0 -0.0051263710182368645 -0.0009414834509787794 0 -0.0050360406688004893 -0.0010007094634755366 0 -0.0050038476779290181 -0.0011097674899107261 0 -0.0049218948953359881 -0.0012300197094276424 0 -0.0050360406688004893 -0.0010007094634755366 0 -0.0050038476779290181 -0.0011097674899107261 0 -0.0051263710182368645 -0.0009414834509787794 0 -0.0050360406688004893 -0.0010007094634755366 0 -0.0052241629086410297 -0.00067835386118665555 0 -0.0054234445918846094 -0.00079751854206149518 0 -0.0056157170357231424 -0.00040602960983378115 0 -0.0052241629086410297 -0.00067835386118665555 0 -0.0051263710182368645 -0.0009414834509787794 0 -0.0054234445918846094 -0.00079751854206149518 0 -0.0058107896782438537 -0.0006858633493575946 0 -0.0059549806172143416 -0.00020510557820367431 0 -0.0056157170357231424 -0.00040602960983378115 0 -0.0054234445918846094 -0.00079751854206149518 0 -0.0058107896782438537 -0.0006858633493575946 0 -0.0056157170357231424 -0.00040602960983378115 0 -0.0058107896782438537 -0.0006858633493575946 0 -0.006347551845949503 -0.00034040647321994963 0 -0.0059549806172143416 -0.00020510557820367431 0 -0.0059857385965551074 -0.00088687275310943303 0 -0.0058107896782438537 -0.0006858633493575946 0 -0.006347551845949503 -0.00034040647321994963 0 -0.0061903454281482858 0.0004178550640414345 0 -0.006347551845949503 -0.00034040647321994963 0 -0.0059549806172143416 -0.00020510557820367431 0 -0.0061903454281482858 0.0004178550640414345 0 -0.0057492330328768161 -7.5952952227753017e-06 0 -0.0059549806172143416 -0.00020510557820367431 0 -0.0057492330328768161 -7.5952952227753017e-06 0 -0.0059549806172143416 -0.00020510557820367431 0 -0.0056157170357231424 -0.00040602960983378115 0 -0.0057492330328768161 -7.5952952227753017e-06 0 -0.0054572717578113905 -0.00018028363216562835 0 -0.0056157170357231424 -0.00040602960983378115 0 -0.0070437488549450217 0.004467392637218977 0 -0.0063451155091911017 0.0024997495190236165 0 -0.0087934496999854568 0.0020194305033327561 0 -0.0070437488549450217 0.004467392637218977 0 -0.0043701210234398545 0.0030090472417177686 0 -0.0063451155091911017 0.0024997495190236165 0 -0.014254124276818015 0.0033020094287078854 0 -0.015199284256768676 0.0039651562023458146 0 -0.0070437488549450217 0.004467392637218977 0 -0.010004627786337561 0.0047491014605560607 0 -0.0087934496999854568 0.0020194305033327561 0 -0.010004627786337561 0.0047491014605560607 0 -0.0087934496999854568 0.0020194305033327561 0 -0.012216897724592954 0.0042455545810654175 0 -0.0070437488549450217 0.004467392637218977 0 -0.0086567887816936962 0.0057645509985939846 0 -0.010004627786337561 0.0047491014605560607 0 -0.0086567887816936962 0.0057645509985939846 0 -0.010004627786337561 0.0047491014605560607 0 -0.009848644591092923 0.0067369225428175264 0 -0.010004627786337561 0.0047491014605560607 0 -0.009848644591092923 0.0067369225428175264 0 -0.012224501539060342 0.0059336034212246124 0 -0.010004627786337561 0.0047491014605560607 0 -0.012216897724592954 0.0042455545810654175 0 -0.012224501539060342 0.0059336034212246124 0 -0.009848644591092923 0.0067369225428175264 0 -0.012224501539060342 0.0059336034212246124 0 -0.011253740127219579 0.0079630747422721401 0 -0.0086567887816936962 0.0057645509985939846 0 -0.009848644591092923 0.0067369225428175264 0 -0.0077899054384376488 0.0074542443538186069 0 -0.009848644591092923 0.0067369225428175264 0 -0.0077899054384376488 0.0074542443538186069 0 -0.0093272650476095287 0.0085866424181174628 0 -0.0070437488549450217 0.004467392637218977 0 -0.0077899054384376488 0.0074542443538186069 0 -0.0044130949859142437 0.0069484677337661423 0 -0.0070437488549450217 0.004467392637218977 0 -0.0086567887816936962 0.0057645509985939846 0 -0.0077899054384376488 0.0074542443538186069 0 -0.0053602055034163276 0.0079759514544730098 0 -0.0031304073714172771 0.0073261330794479598 0 -0.0043701210234398545 0.0030090472417177686 0 -0.0053602055034163276 0.0079759514544730098 0 -0.0031304073714172771 0.0073261330794479598 0 -0.0034609078938439264 0.0099484036777153437 0 -0.0016470306994060158 0.0059944069226328242 0 -0.0031304073714172771 0.0073261330794479598 0 -0.0008243034122821267 0.0087622258234762631 0 -0.0016470306994060158 0.0059944069226328242 0 -0.0018896354051687865 0.0035613553609478163 0 -0.0043701210234398545 0.0030090472417177686 0 -0.0016470306994060158 0.0059944069226328242 0 -0.0031304073714172771 0.0073261330794479598 0 -0.0043701210234398545 0.0030090472417177686 0 -0.0045635758106453471 0.0080929445531050491 0 -0.0042873119693934833 0.0057131660225581884 0 -0.0070437488549450217 0.004467392637218977 0 -0.0044130949859142437 0.0069484677337661423 0 -0.0043701210234398545 0.0030090472417177686 0 -0.0043701210234398545 0.0030090472417177686 0 -0.0017600847972440549 0.0016904758467804792 0 -0.0052807612152812565 0.00066550148090502488 0 -0.0043701210234398545 0.0030090472417177686 0 -0.0052807612152812565 0.00066550148090502488 0 -0.0063451155091911017 0.0024997495190236165 0 -0.0018896354051687865 0.0035613553609478163 0 -0.0043701210234398545 0.0030090472417177686 0 -0.0017600847972440549 0.0016904758467804792 0 -0.0017600847972440549 0.0016904758467804792 0 -0.0052807612152812565 0.00066550148090502488 0 -0.0021954096220499967 -0.0012891839378846312 0 -0.012742431428649031 0.0023634394096551589 0 -0.011012410062872109 0.001216085426927023 0 -0.021239352423209928 0.0040818721572493362 0 -0.021789096801358331 0.0040812209851864532 0 -0.020194816441963089 0.0042806518348363362 0 -0.019621267737016612 0.0042942108348124931 0 -0.020160603181802933 0.004453893070524277 0 -0.020194816441963089 0.0042806518348363362 0 -0.019020665491068373 0.0033594530520027911 0 -0.019621267737016612 0.0042942108348124931 0 -0.012742431428649031 0.0023634394096551589 0 -0.014254124276818015 0.0033020094287078854 0 -0.0052807612152812565 0.00066550148090502488 0 -0.0063451155091911017 0.0024997495190236165 0 -0.0087934496999854568 0.0020194305033327561 0 -0.019020665491068373 0.0033594530520027911 0 -0.01810529248346426 0.0039508982293068621 0 -0.019621267737016612 0.0042942108348124931 0 -0.019020665491068373 0.0033594530520027911 0 -0.01810529248346426 0.0039508982293068621 0 -0.017004578768585448 0.0036563440793916766 0 -0.01810529248346426 0.0039508982293068621 0 -0.019621267737016612 0.0042942108348124931 0 -0.017963903295705571 0.0047791319257401883 0 -0.019621267737016612 0.0042942108348124931 0 -0.017963903295705571 0.0047791319257401883 0 -0.021207544002256402 0.0053952512468550757 0 -0.019764162701736643 0.0043350430210916287 0 -0.018662871039511125 0.0044162933171183862 0 -0.018252978836157386 0.0040040668035625938 0 -0.019764162701736643 0.0043350430210916287 0 -0.018662871039511125 0.0044162933171183862 0 -0.018978413066781122 0.005137820930934847 0 -0.01772867792285357 0.0045427889166689845 0 -0.017691954954449873 0.0050984076015988047 0 -0.018444281477412727 0.0052497370067241464 0 -0.017721777309985864 0.0042339811328794405 0 -0.018662871039511125 0.0044162933171183862 0 -0.018978413066781122 0.005137820930934847 0 -0.017721777309985864 0.0042339811328794405 0 -0.01772867792285357 0.0045427889166689845 0 -0.018444281477412727 0.0052497370067241464 0 -0.018760484899175429 0.0044873429254585319 0 -0.01926077746464034 0.0048868232082299751 0 -0.01772867792285357 0.0045427889166689845 0 -0.017096797191714037 0.0049040805686094355 0 -0.017691954954449873 0.0050984076015988047 0 -0.017721777309985864 0.0042339811328794405 0 -0.018662871039511125 0.0044162933171183862 0 -0.018252978836157386 0.0040040668035625938 0 -0.017721777309985864 0.0042339811328794405 0 -0.01772867792285357 0.0045427889166689845 0 -0.017547416952129344 0.0036402626679340961 0 -0.017721777309985864 0.0042339811328794405 0 -0.018252978836157386 0.0040040668035625938 0 -0.017547416952129344 0.0036402626679340961 0 -0.018252978836157386 0.0040040668035625938 0 -0.018103991740729013 0.0035149632799872156 0 -0.017547416952129344 0.0036402626679340961 0 -0.019764162701736643 0.0043350430210916287 0 -0.018252978836157386 0.0040040668035625938 0 -0.018103991740729013 0.0035149632799872156 0 -0.01810529248346426 0.0039508982293068621 0 -0.017963903295705571 0.0047791319257401883 0 -0.017076774543613282 0.0038786998737024856 0 -0.017963903295705571 0.0047791319257401883 0 -0.016077618381107561 0.003695514267588408 0 -0.017076774543613282 0.0038786998737024856 0 -0.016077618381107561 0.003695514267588408 0 -0.017076774543613282 0.0038786998737024856 0 -0.016291711712791455 0.0036583409865894555 0 -0.018711097187529935 0.0044548630715565626 0 -0.0178642529961392 0.0039380092589451849 0 -0.01810529248346426 0.0039508982293068621 0 -0.017076774543613282 0.0038786998737024856 0 -0.017004578768585448 0.0036563440793916766 0 0.004482683186750055 0.0081821401144899567 0 0.004859852311919142 0.0089649377703283524 0 -0.016273728037656077 0.0049882121424422443 0 -0.016729912924423294 0.0041782497406308329 0 -0.015913882636871553 0.003654127801886049 0 -0.016273728037656077 0.0049882121424422443 0 -0.015913882636871553 0.003654127801886049 0 -0.015096727108424007 0.0052169424187904594 0 -0.016273728037656077 0.0049882121424422443 0 -0.016729912924423294 0.0041782497406308329 0 -0.017096797191714037 0.0049040805686094355 0 -0.01772867792285357 0.0045427889166689845 0 -0.017096797191714037 0.0049040805686094355 0 -0.01718049632510776 0.0042290065530631877 0 -0.016729912924423294 0.0041782497406308329 0 -0.017096797191714037 0.0049040805686094355 0 -0.01718049632510776 0.0042290065530631877 0 -0.0056923227314781303 0.0076173253852005428 0 -0.0034947102891480768 0.0077015556834869716 0 -0.016729912924423294 0.0041782497406308329 0 -0.017152652599098313 0.0032891948926142161 0 -0.015913882636871553 0.003654127801886049 0 -0.01772867792285357 0.0045427889166689845 0 -0.01718049632510776 0.0042290065530631877 0 -0.017152652599098313 0.0032891948926142161 0 -0.016729912924423294 0.0041782497406308329 0 -0.01718049632510776 0.0042290065530631877 0 -0.017152652599098313 0.0032891948926142161 0 0.026887840535291269 0.011444824875912869 0 0.026884605374194275 0.011102042773606336 0 0.026416667523524544 0.010933472608985261 0 0.004482683186750055 0.0081821401144899567 0 0.0037023471154315896 0.0083524259446114742 0 0.026887840535291269 0.011444824875912869 0 0.026884605374194275 0.011102042773606336 0 0.027224317220932038 0.011233441894448923 0 0.026884605374194275 0.011102042773606336 0 0.026774167381116404 0.010808062254236356 0 0.027061148198492702 0.010944114236671368 0 0.026884605374194275 0.011102042773606336 0 0.026416667523524544 0.010933472608985261 0 0.026774167381116404 0.010808062254236356 0 -0.0034947102891480768 0.0077015556834869716 0 0.0037023471154315896 0.0083524259446114742 0 -0.017547416952129344 0.0036402626679340961 0 -0.017243640210336732 0.0038291253446397083 0 -0.017116356201233879 0.0038773295944032702 0 -0.017152652599098313 0.0032891948926142161 0 -0.015913882636871553 0.003654127801886049 0 -0.016680849664910052 0.0021060438018132713 0 0.024822844778281259 0.013671384660671856 0 0.023596337440348898 0.011224186468726511 0 0.025635609738622528 0.011543734960790192 0 0.0037023471154315896 0.0083524259446114742 0 0.0025236493204780306 0.013181151049479171 0 -0.017116356201233879 0.0038773295944032702 0 -0.01662546221410665 0.0041240166092835406 0 -0.016629436427713407 0.0054346784877397532 0 -0.017243640210336732 0.0038291253446397083 0 -0.017116356201233879 0.0038773295944032702 0 -0.016629436427713407 0.0054346784877397532 0 0.0037023471154315896 0.0083524259446114742 0 0.012366326301873778 0.0074074458260217704 0 0.026416667523524544 0.010933472608985261 0 0.026774167381116404 0.010808062254236356 0 0.026454331374320187 0.010341848039339551 0 0.026774167381116404 0.010808062254236356 0 0.026454331374320187 0.010341848039339551 0 0.027114735405083239 0.010660135955723097 0 0.026774167381116404 0.010808062254236356 0 0.027061148198492702 0.010944114236671368 0 0.027114735405083239 0.010660135955723097 0 -0.019020665491068373 0.0033594530520027911 0 -0.017004578768585448 0.0036563440793916766 0 -0.015184276100310567 0.0038809555091246549 0 -0.0087934496999854568 0.0020194305033327561 0 -0.012216897724592954 0.0042455545810654175 0 -0.015184276100310567 0.0038809555091246549 0 -0.01612304905162442 0.0037204832701440288 0 -0.017004578768585448 0.0036563440793916766 0 -0.015184276100310567 0.0038809555091246549 0 -0.01612304905162442 0.0037204832701440288 0 -0.015746071909939867 0.0037873838306659718 0 -0.015959923002385388 0.0037644637943226524 0 -0.015746071909939867 0.0037873838306659718 0 -0.015668126306653415 0.0038953413484917481 0 -0.015959923002385388 0.0037644637943226524 0 -0.015746071909939867 0.0037873838306659718 0 -0.015668126306653415 0.0038953413484917481 0 -0.015184276100310567 0.0038809555091246549 0 -0.01612304905162442 0.0037204832701440288 0 -0.015746071909939867 0.0037873838306659718 0 -0.015184276100310567 0.0038809555091246549 0 -0.01612304905162442 0.0037204832701440288 0 -0.016291711712791455 0.0036583409865894555 0 -0.015959923002385388 0.0037644637943226524 0 -0.01612304905162442 0.0037204832701440288 0 -0.017004578768585448 0.0036563440793916766 0 -0.016291711712791455 0.0036583409865894555 0 -0.017076774543613282 0.0038786998737024856 0 -0.017004578768585448 0.0036563440793916766 0 -0.016291711712791455 0.0036583409865894555 0 -0.016077618381107561 0.003695514267588408 0 -0.016159342216668052 0.0037022925913127443 0 -0.016416587457889036 0.0038242800102179656 0 -0.018103991740729013 0.0035149632799872156 0 -0.017547416952129344 0.0036402626679340961 0 -0.017116356201233879 0.0038773295944032702 0 -0.016077618381107561 0.003695514267588408 0 -0.017116356201233879 0.0038773295944032702 0 -0.016416587457889036 0.0038242800102179656 0 -0.0178642529961392 0.0039380092589451849 0 -0.01767897018175435 0.0038935706941001713 0 -0.016291711712791455 0.0036583409865894555 0 -0.016159342216668052 0.0037022925913127443 0 -0.015959923002385388 0.0037644637943226524 0 -0.016077618381107561 0.003695514267588408 0 -0.016291711712791455 0.0036583409865894555 0 -0.016159342216668052 0.0037022925913127443 0 -0.017116356201233879 0.0038773295944032702 0 -0.016416587457889036 0.0038242800102179656 0 -0.01662546221410665 0.0041240166092835406 0 -0.016416587457889036 0.0038242800102179656 0 -0.015959923002385388 0.0037644637943226524 0 -0.016175817951602053 0.0042077902936605996 0 -0.016159342216668052 0.0037022925913127443 0 -0.016416587457889036 0.0038242800102179656 0 -0.015959923002385388 0.0037644637943226524 0 -0.015959923002385388 0.0037644637943226524 0 -0.015848366171860421 0.0040151444948246604 0 -0.016175817951602053 0.0042077902936605996 0 -0.015668126306653415 0.0038953413484917481 0 -0.015959923002385388 0.0037644637943226524 0 -0.015848366171860421 0.0040151444948246604 0 -0.0027813000927352947 0.012855925124953876 0 0.0025236493204780306 0.013181151049479171 0 -0.015848366171860421 0.0040151444948246604 0 -0.016175817951602053 0.0042077902936605996 0 -0.015525136148260104 0.0042841687350038899 0 -0.016175817951602053 0.0042077902936605996 0 -0.01662546221410665 0.0041240166092835406 0 -0.016629436427713407 0.0054346784877397532 0 -0.015525136148260104 0.0042841687350038899 0 -0.015481755411435736 0.0077043152090064604 0 -0.018191974122056434 0.0091384153971090752 0 -0.016175817951602053 0.0042077902936605996 0 -0.015525136148260104 0.0042841687350038899 0 -0.016629436427713407 0.0054346784877397532 0 -0.016416587457889036 0.0038242800102179656 0 -0.016175817951602053 0.0042077902936605996 0 -0.01662546221410665 0.0041240166092835406 0 -0.014274098906844267 0.0067828269677479474 0 -0.015525136148260104 0.0042841687350038899 0 -0.015481755411435736 0.0077043152090064604 0 -0.014274098906844267 0.0067828269677479474 0 -0.014526554625797999 0.0051194557756215351 0 -0.013649692337414284 0.0058946407615202692 0 -0.014274098906844267 0.0067828269677479474 0 -0.014526554625797999 0.0051194557756215351 0 -0.015525136148260104 0.0042841687350038899 0 -0.014526554625797999 0.0051194557756215351 0 -0.013566019511537762 0.0050345841071608608 0 -0.013649692337414284 0.0058946407615202692 0 -0.014526554625797999 0.0051194557756215351 0 -0.015184276100310567 0.0038809555091246549 0 -0.013566019511537762 0.0050345841071608608 0 -0.015668126306653415 0.0038953413484917481 0 -0.015184276100310567 0.0038809555091246549 0 -0.015525136148260104 0.0042841687350038899 0 -0.014526554625797999 0.0051194557756215351 0 -0.015184276100310567 0.0038809555091246549 0 -0.015525136148260104 0.0042841687350038899 0 -0.015668126306653415 0.0038953413484917481 0 -0.015848366171860421 0.0040151444948246604 0 -0.015525136148260104 0.0042841687350038899 0 -0.012216897724592954 0.0042455545810654175 0 -0.013566019511537762 0.0050345841071608608 0 -0.012224501539060342 0.0059336034212246124 0 -0.012216897724592954 0.0042455545810654175 0 -0.015184276100310567 0.0038809555091246549 0 -0.013566019511537762 0.0050345841071608608 0 -0.013566019511537762 0.0050345841071608608 0 -0.012224501539060342 0.0059336034212246124 0 -0.013649692337414284 0.0058946407615202692 0 -0.012224501539060342 0.0059336034212246124 0 -0.012938838299391518 0.0071389691369971794 0 -0.011253740127219579 0.0079630747422721401 0 -0.012224501539060342 0.0059336034212246124 0 -0.013649692337414284 0.0058946407615202692 0 -0.012938838299391518 0.0071389691369971794 0 -0.014274098906844267 0.0067828269677479474 0 -0.013649692337414284 0.0058946407615202692 0 -0.012938838299391518 0.0071389691369971794 0 -0.012938838299391518 0.0071389691369971794 0 -0.013081019788858039 0.0089335957684716725 0 -0.011253740127219579 0.0079630747422721401 0 -0.014274098906844267 0.0067828269677479474 0 -0.012938838299391518 0.0071389691369971794 0 -0.013081019788858039 0.0089335957684716725 0 -0.013081019788858039 0.0089335957684716725 0 -0.012461741902979682 0.012005987417056918 0 -0.01037983862279588 0.010307324384168868 0 -0.013081019788858039 0.0089335957684716725 0 -0.014755017487637015 0.010237169624977059 0 -0.012461741902979682 0.012005987417056918 0 -0.013081019788858039 0.0089335957684716725 0 -0.014755017487637015 0.010237169624977059 0 -0.015481755411435736 0.0077043152090064604 0 -0.014274098906844267 0.0067828269677479474 0 -0.013081019788858039 0.0089335957684716725 0 -0.015481755411435736 0.0077043152090064604 0 -0.014755017487637015 0.010237169624977059 0 -0.015481755411435736 0.0077043152090064604 0 -0.018191974122056434 0.0091384153971090752 0 -0.014755017487637015 0.010237169624977059 0 -0.018191974122056434 0.0091384153971090752 0 -0.01541102094734929 0.013956578849347662 0 0.0025236493204780306 0.013181151049479171 0 0.00090357347334378004 0.018320940022393442 0 0.011992744949650275 0.033043795419840837 0 0.0098769941563854532 0.029002099583453737 0 0.012379051256631128 0.028808784220572557 0 -0.014755017487637015 0.010237169624977059 0 -0.01541102094734929 0.013956578849347662 0 -0.012461741902979682 0.012005987417056918 0 -0.01541102094734929 0.013956578849347662 0 -0.012461741902979682 0.012005987417056918 0 -0.011775343323414232 0.015134493417065704 0 0.026454331374320187 0.010341848039339551 0 0.027263638361229529 0.010312260370527421 0 0.027201416523318814 0.0097588948295799557 0 0.012366326301873778 0.0074074458260217704 0 0.014931773091025263 0.0070661547892486099 0 0.026454331374320187 0.010341848039339551 0 0.027114735405083239 0.010660135955723097 0 0.027263638361229529 0.010312260370527421 0 0.023596337440348898 0.011224186468726511 0 0.025635609738622528 0.011543734960790192 0 0.025209169072343694 0.0092524984953290326 0 0.011992744949650275 0.033043795419840837 0 0.014601449458517367 0.029712885177423657 0 0.012379051256631128 0.028808784220572557 0 0.0025236493204780306 0.013181151049479171 0 0.012916333908932065 0.014825222083915976 0 0.025635609738622528 0.011543734960790192 0 0.025209169072343694 0.0092524984953290326 0 0.026449236073289573 0.0094125341270266619 0 0.026454331374320187 0.010341848039339551 0 0.026449236073289573 0.0094125341270266619 0 0.027201416523318814 0.0097588948295799557 0 0.025209169072343694 0.0092524984953290326 0 0.026449236073289573 0.0094125341270266619 0 0.026343899648948212 0.0086744189241553336 0 0.026449236073289573 0.0094125341270266619 0 0.026832168209362538 0.0087231208619941384 0 0.026343899648948212 0.0086744189241553336 0 0.026449236073289573 0.0094125341270266619 0 0.026832168209362538 0.0087231208619941384 0 0.026990613161332451 0.0092378533829243891 0 0.026449236073289573 0.0094125341270266619 0 0.026990613161332451 0.0092378533829243891 0 0.027201416523318814 0.0097588948295799557 0 0.014601449458517367 0.029712885177423657 0 0.017337096884816831 0.026388275263481531 0 0.017045957504419462 0.026535203439505592 0 0.025209169072343694 0.0092524984953290326 0 0.026495115537747541 0.0076964435519314501 0 0.026343899648948212 0.0086744189241553336 0 0.014601449458517367 0.029712885177423657 0 0.017045957504419462 0.026535203439505592 0 0.014170640270461934 0.026741451923396064 0 0.012916333908932065 0.014825222083915976 0 0.019324316709288709 0.014983579505349124 0 0.017357397262662347 0.026398640473564848 0 0.017045957504419462 0.026535203439505592 0 0.017145154810837122 0.025690572387365218 0 0.019324316709288709 0.014983579505349124 0 0.019297613726919103 0.015010938706873362 0 0.026495115537747541 0.0076964435519314501 0 0.026656433248441858 0.0082968804735532916 0 0.027101292234335633 0.008010503577774393 0 0.026656433248441858 0.0082968804735532916 0 0.026832168209362538 0.0087231208619941384 0 0.027101292234335633 0.008010503577774393 0 0.026495115537747541 0.0076964435519314501 0 0.026656433248441858 0.0082968804735532916 0 0.026343899648948212 0.0086744189241553336 0 0.026656433248441858 0.0082968804735532916 0 0.026832168209362538 0.0087231208619941384 0 0.026343899648948212 0.0086744189241553336 0 0.017045957504419462 0.026535203439505592 0 0.014170640270461934 0.026741451923396064 0 0.016228087598693555 0.025202063882237023 0 0.014601449458517367 0.029712885177423657 0 0.014170640270461934 0.026741451923396064 0 0.012379051256631128 0.028808784220572557 0 0.014170640270461934 0.026741451923396064 0 0.012379051256631128 0.028808784220572557 0 0.011414956044712647 0.026059885994584187 0 0.013911793889527518 0.024546649721576035 0 0.01570092510488574 0.02332568016203761 0 0.011951759022559209 0.022834769911954284 0 0.013911793889527518 0.024546649721576035 0 0.011414956044712647 0.026059885994584187 0 0.011951759022559209 0.022834769911954284 0 0.014170640270461934 0.026741451923396064 0 0.013911793889527518 0.024546649721576035 0 0.011414956044712647 0.026059885994584187 0 0.014170640270461934 0.026741451923396064 0 0.013911793889527518 0.024546649721576035 0 0.016228087598693555 0.025202063882237023 0 0.016228087598693555 0.025202063882237023 0 0.01570092510488574 0.02332568016203761 0 0.017602229723826704 0.024518175783126966 0 0.013911793889527518 0.024546649721576035 0 0.016228087598693555 0.025202063882237023 0 0.01570092510488574 0.02332568016203761 0 0.01570092510488574 0.02332568016203761 0 0.017602229723826704 0.024518175783126966 0 0.01822056852258247 0.022875932704666702 0 0.017602229723826704 0.024518175783126966 0 0.017145154810837122 0.025690572387365218 0 0.017965809957213998 0.025755539773740812 0 0.016228087598693555 0.025202063882237023 0 0.017602229723826704 0.024518175783126966 0 0.017145154810837122 0.025690572387365218 0 0.017045957504419462 0.026535203439505592 0 0.016228087598693555 0.025202063882237023 0 0.017145154810837122 0.025690572387365218 0 0.017357397262662347 0.026398640473564848 0 0.017145154810837122 0.025690572387365218 0 0.017965809957213998 0.025755539773740812 0 0.019324316709288709 0.014983579505349124 0 0.019161346258899255 0.015277310958344741 0 0.00090357347334378004 0.018320940022393442 0 8.093736608305596e-05 0.019081786423417433 0 -0.01541102094734929 0.013956578849347662 0 -0.011775343323414232 0.015134493417065704 0 -0.012581488015202419 0.01917083052600347 0 0.0098769941563854532 0.029002099583453737 0 0.012379051256631128 0.028808784220572557 0 0.011414956044712647 0.026059885994584187 0 0.0098769941563854532 0.029002099583453737 0 0.011414956044712647 0.026059885994584187 0 0.0077066299576903823 0.024870393233827153 0 8.093736608305596e-05 0.019081786423417433 0 0.0079560109306810334 0.019533399228264421 0 0.011414956044712647 0.026059885994584187 0 0.0077066299576903823 0.024870393233827153 0 0.011951759022559209 0.022834769911954284 0 0.0035716592092228544 0.026958215861692288 0 0.010193630934318302 0.023721752067611519 0 0.0051117717315660605 0.022082005529602274 0 8.093736608305596e-05 0.019081786423417433 0 -0.00032015656051718452 0.018765621752099514 0 -0.0035809777009923379 0.015858689454356849 0 -0.0033738144424961978 0.015906211281652718 0 -0.0031860492292058707 0.016179752208585047 0 -0.0033738144424961978 0.015906211281652718 0 -0.0039939764712808388 0.015849717605008206 0 -0.0037694832082994919 0.015742152580488871 0 8.093736608305596e-05 0.019081786423417433 0 -0.002586154210657434 0.01899216922203719 0 -0.0035809777009923379 0.015858689454356849 0 -0.0033738144424961978 0.015906211281652718 0 -0.0037694832082994919 0.015742152580488871 0 -0.0039939764712808388 0.015849717605008206 0 -0.0034128055896997288 0.015716495982659263 0 -0.0028944434962372362 0.016144671982073405 0 -0.0033738144424961978 0.015906211281652718 0 -0.0039939764712808388 0.015849717605008206 0 -0.0028944434962372362 0.016144671982073405 0 -0.0049362638121589119 0.013868932062517358 0 -0.0048838890370666464 0.012024111325072371 0 -0.0039939764712808388 0.015849717605008206 0 -0.004956565248704004 0.015045690621850188 0 -0.0037694832082994919 0.015742152580488871 0 -0.0039939764712808388 0.015849717605008206 0 -0.004956565248704004 0.015045690621850188 0 -0.0046645888366010167 0.01311608823378527 0 -0.0029995615269472085 0.018735289636324547 0 -0.002586154210657434 0.01899216922203719 0 -0.004956565248704004 0.015045690621850188 0 -0.0090990671323442924 0.017486633783857945 0 -0.0092238802760852938 0.013211100459584482 0 -0.011775343323414232 0.015134493417065704 0 -0.0090990671323442924 0.017486633783857945 0 -0.0092238802760852938 0.013211100459584482 0 -0.011775343323414232 0.015134493417065704 0 -0.012581488015202419 0.01917083052600347 0 -0.0090990671323442924 0.017486633783857945 0 -0.012461741902979682 0.012005987417056918 0 -0.011775343323414232 0.015134493417065704 0 -0.0092238802760852938 0.013211100459584482 0 -0.012461741902979682 0.012005987417056918 0 -0.0092238802760852938 0.013211100459584482 0 -0.01037983862279588 0.010307324384168868 0 -0.0092238802760852938 0.013211100459584482 0 -0.0073933048080122724 0.010528111234340352 0 -0.01037983862279588 0.010307324384168868 0 -0.004956565248704004 0.015045690621850188 0 -0.0092238802760852938 0.013211100459584482 0 -0.0064744261231077056 0.013032839753188438 0 -0.004956565248704004 0.015045690621850188 0 -0.0064744261231077056 0.013032839753188438 0 -0.0046645888366010167 0.01311608823378527 0 -0.0064744261231077056 0.013032839753188438 0 -0.0073933048080122724 0.010528111234340352 0 -0.0046645888366010167 0.01311608823378527 0 -0.0092238802760852938 0.013211100459584482 0 -0.0064744261231077056 0.013032839753188438 0 -0.0073933048080122724 0.010528111234340352 0 -0.0077899054384376488 0.0074542443538186069 0 -0.0044130949859142437 0.0069484677337661423 0 -0.0073933048080122724 0.010528111234340352 0 -0.0044130949859142437 0.0069484677337661423 0 -0.0073933048080122724 0.010528111234340352 0 -0.0046645888366010167 0.01311608823378527 0 -0.0077899054384376488 0.0074542443538186069 0 -0.0073933048080122724 0.010528111234340352 0 -0.0093272650476095287 0.0085866424181174628 0 -0.013081019788858039 0.0089335957684716725 0 -0.011253740127219579 0.0079630747422721401 0 -0.01037983862279588 0.010307324384168868 0 -0.0093272650476095287 0.0085866424181174628 0 -0.011253740127219579 0.0079630747422721401 0 -0.01037983862279588 0.010307324384168868 0 -0.009848644591092923 0.0067369225428175264 0 -0.0093272650476095287 0.0085866424181174628 0 -0.011253740127219579 0.0079630747422721401 0 -0.0073933048080122724 0.010528111234340352 0 -0.0093272650476095287 0.0085866424181174628 0 -0.01037983862279588 0.010307324384168868 0 -0.0031304073714172771 0.0073261330794479598 0 -0.0034609078938439264 0.0099484036777153437 0 -0.0008243034122821267 0.0087622258234762631 0 -0.0034609078938439264 0.0099484036777153437 0 -0.0008243034122821267 0.0087622258234762631 0 -0.0009582662810412823 0.012075408891670247 0 -0.0053602055034163276 0.0079759514544730098 0 -0.0034609078938439264 0.0099484036777153437 0 -0.005316518656324108 0.012916937572679987 0 -0.0045635758106453471 0.0080929445531050491 0 -0.0048838890370666464 0.012024111325072371 0 -0.0034609078938439264 0.0099484036777153437 0 -0.005316518656324108 0.012916937572679987 0 -0.003521705393221373 0.013048306381285393 0 -0.0018114760053454424 0.010385117381447685 0 -0.00045764530605753214 0.011306717484955927 0 -0.0034609078938439264 0.0099484036777153437 0 -0.003521705393221373 0.013048306381285393 0 -0.0021522053074404485 0.013818321686887581 0 -0.0033198467548271123 0.014888655555786822 0 -0.0028053057105705973 0.01495369685557477 0 -0.0021522053074404485 0.013818321686887581 0 -0.003521705393221373 0.013048306381285393 0 -0.0033198467548271123 0.014888655555786822 0 -0.0021522053074404485 0.013818321686887581 0 -0.0039939764712808388 0.015849717605008206 0 -0.005316518656324108 0.012916937572679987 0 -0.0033198467548271123 0.014888655555786822 0 -0.005316518656324108 0.012916937572679987 0 -0.003521705393221373 0.013048306381285393 0 -0.0033198467548271123 0.014888655555786822 0 -0.0033198467548271123 0.014888655555786822 0 -0.0034128055896997288 0.015716495982659263 0 -0.0031909914732424285 0.015484182834262455 0 -0.0039939764712808388 0.015849717605008206 0 -0.0033198467548271123 0.014888655555786822 0 -0.0034128055896997288 0.015716495982659263 0 -0.0033198467548271123 0.014888655555786822 0 -0.0028053057105705973 0.01495369685557477 0 -0.0031909914732424285 0.015484182834262455 0 -0.0028053057105705973 0.01495369685557477 0 -0.0030165558183180611 0.01520365779401218 0 -0.0031909914732424285 0.015484182834262455 0 0.0014583068661030011 0.014732616097791649 0 0.0034999561995729352 0.011851421478970557 0 -0.0009582662810412823 0.012075408891670247 0 -0.0028053057105705973 0.01495369685557477 0 -0.0029115171409047152 0.015150501814254284 0 -0.0030165558183180611 0.01520365779401218 0 0.0023242359904167569 0.011727246157572039 0 -0.00045764530605753214 0.011306717484955927 0 -0.0028053057105705973 0.01495369685557477 0 -0.0029115171409047152 0.015150501814254284 0 -0.0021522053074404485 0.013818321686887581 0 0.0023242359904167569 0.011727246157572039 0 0.0071997241572814693 0.009741901731264789 0 0.0014583068661030011 0.014732616097791649 0 0.005258227213961901 0.015101456009150124 0 0.0038953770789152626 0.017475462258846986 0 0.015771617542283189 0.0056199250895426368 0 0.013381279838280405 0.0047556874201703844 0 0.013962349849041671 0.0084796318617705382 0 0.015771617542283189 0.0056199250895426368 0 0.013381279838280405 0.0047556874201703844 0 0.015984984510107558 0.003799143995040511 0 0.007968262171506816 0.0091412103375601364 0 0.0074874252078522274 0.0085063920627363055 0 0.005258227213961901 0.015101456009150124 0 0.0034999561995729352 0.011851421478970557 0 0.0066633342076871695 0.012690007631128901 0 0.0014583068661030011 0.014732616097791649 0 0.005258227213961901 0.015101456009150124 0 0.0034999561995729352 0.011851421478970557 0 0.0034999561995729352 0.011851421478970557 0 0.0056995963772246278 0.01075252435636311 0 0.0066633342076871695 0.012690007631128901 0 0.0034999561995729352 0.011851421478970557 0 0.0056995963772246278 0.01075252435636311 0 0.0045269506748681293 0.008221148976102528 0 0.0056995963772246278 0.01075252435636311 0 0.0045269506748681293 0.008221148976102528 0 0.0081114436132494142 0.010209515151125106 0 0.0062428124396469104 0.0073532348348587075 0 0.0061846174696995474 0.0065798829331628061 0 0.0034999561995729352 0.011851421478970557 0 0.0045269506748681293 0.008221148976102528 0 0.0015543861176160849 0.0095429720827536393 0 0.0045269506748681293 0.008221148976102528 0 0.0015543861176160849 0.0095429720827536393 0 0.0016185259204684736 0.0066986488221137553 0 0.0015543861176160849 0.0095429720827536393 0 -0.0008243034122821267 0.0087622258234762631 0 0.0016185259204684736 0.0066986488221137553 0 0.0034999561995729352 0.011851421478970557 0 0.0015543861176160849 0.0095429720827536393 0 -0.0009582662810412823 0.012075408891670247 0 0.0015543861176160849 0.0095429720827536393 0 -0.0008243034122821267 0.0087622258234762631 0 -0.0009582662810412823 0.012075408891670247 0 -0.0010087079570323995 0.0041827275933162093 0 -0.0014123704484381603 0.0042333198186003318 0 -0.0012976250706089106 0.0039309661203066667 0 0.00049584355895177629 0.0050785314821791723 0 0.0022078250865095015 0.0057083422464464682 0 0.0019477516503745543 0.0057183641252088677 0 0.0055321237594220737 0.0077150187011993743 0 0.0037395715867431902 0.0053543865291783886 0 0.0055321237594220737 0.0077150187011993743 0 0.005274203459542456 0.0046865145242128477 0 0.0069476741678764524 0.005195269224870726 0 0.0055321237594220737 0.0077150187011993743 0 0.0037395715867431902 0.0053543865291783886 0 0.005274203459542456 0.0046865145242128477 0 0.0037395715867431902 0.0053543865291783886 0 0.0038056573455289753 0.0038703717256162113 0 0.005274203459542456 0.0046865145242128477 0 0.0038056573455289753 0.0038703717256162113 0 0.005274203459542456 0.0046865145242128477 0 0.0047457239588717635 0.0029661248876253722 0 0.005274203459542456 0.0046865145242128477 0 0.0047457239588717635 0.0029661248876253722 0 0.0062994569200946569 0.003282678649613797 0 0.005274203459542456 0.0046865145242128477 0 0.0069476741678764524 0.005195269224870726 0 0.0062994569200946569 0.003282678649613797 0 0.0069476741678764524 0.005195269224870726 0 0.0086053347813214148 0.0039173135440820185 0 0.0087165716844582221 0.0068958611071406276 0 0.0069476741678764524 0.005195269224870726 0 0.0086053347813214148 0.0039173135440820185 0 0.0062994569200946569 0.003282678649613797 0 0.0055321237594220737 0.0077150187011993743 0 0.0069476741678764524 0.005195269224870726 0 0.0087165716844582221 0.0068958611071406276 0 0.0055321237594220737 0.0077150187011993743 0 0.0087165716844582221 0.0068958611071406276 0 0.0088927690880861374 0.0096514260852378821 0 0.0022078250865095015 0.0057083422464464682 0 0.0039882568652505378 0.0062185990085433683 0 0.0087165716844582221 0.0068958611071406276 0 0.011164135083447796 0.0084262567892872103 0 0.0088927690880861374 0.0096514260852378821 0 0.0087165716844582221 0.0068958611071406276 0 0.011164135083447796 0.0084262567892872103 0 0.011004096066514153 0.0057614610648012415 0 0.0086053347813214148 0.0039173135440820185 0 0.0087165716844582221 0.0068958611071406276 0 0.011004096066514153 0.0057614610648012415 0 0.0086053347813214148 0.0039173135440820185 0 0.011004096066514153 0.0057614610648012415 0 0.010322684362346001 0.0022466177033556131 0 0.011004096066514153 0.0057614610648012415 0 0.013381279838280405 0.0047556874201703844 0 0.010322684362346001 0.0022466177033556131 0 0.011004096066514153 0.0057614610648012415 0 0.013381279838280405 0.0047556874201703844 0 0.013962349849041671 0.0084796318617705382 0 0.011164135083447796 0.0084262567892872103 0 0.011004096066514153 0.0057614610648012415 0 0.013962349849041671 0.0084796318617705382 0 0.0056995963772246278 0.01075252435636311 0 0.0066633342076871695 0.012690007631128901 0 0.0081114436132494142 0.010209515151125106 0 0.0074874252078522274 0.0085063920627363055 0 0.0061846174696995474 0.0065798829331628061 0 0.011164135083447796 0.0084262567892872103 0 0.013962349849041671 0.0084796318617705382 0 0.012207038112398169 0.011487119316468704 0 0.0076472868537033291 0.0097917859465326395 0 0.0091394012986397849 0.0071269636731947656 0 0.0071620746255691313 0.0077738686344434047 0 0.0045269506748681293 0.008221148976102528 0 0.0076472868537033291 0.0097917859465326395 0 0.0071620746255691313 0.0077738686344434047 0 0.0061846174696995474 0.0065798829331628061 0 0.0036920702726108692 0.0049288889463392407 0 -0.0023172271850882562 0.0036991831390679165 0 -0.0018450835956763973 0.0034887947321666514 0 -0.0020410695479952837 0.0031943830988261901 0 -0.0023172271850882562 0.0036991831390679165 0 -0.0018772204412711992 0.0039571631354392177 0 -0.0018450835956763973 0.0034887947321666514 0 0.0061846174696995474 0.0065798829331628061 0 0.0039882568652505378 0.0062185990085433683 0 0.011164135083447796 0.0084262567892872103 0 0.012207038112398169 0.011487119316468704 0 0.0088927690880861374 0.0096514260852378821 0 -0.0018772204412711992 0.0039571631354392177 0 -0.0015628153810421164 0.0037360852782955651 0 -0.0018450835956763973 0.0034887947321666514 0 -0.0014123704484381603 0.0042333198186003318 0 -0.0018772204412711992 0.0039571631354392177 0 -0.0015628153810421164 0.0037360852782955651 0 -0.0015628153810421164 0.0037360852782955651 0 -0.0018450835956763973 0.0034887947321666514 0 -0.0015723660271452448 0.003327184390511973 0 -0.0015723660271452448 0.003327184390511973 0 -0.0011788569815065677 0.0035934560680063129 0 -0.0013260268627023305 0.0030701496474035096 0 -0.0014672642091784253 0.0033865873219539487 0 -0.0025198768243890326 0.0019703298813566199 0 -0.0014914950042805544 0.0028737788751947838 0 -0.0015023935219001944 0.0033578222584354648 0 -0.0019195449326748415 0.0018226314024114459 0 -0.0015628153810421164 0.0037360852782955651 0 -0.0015723660271452448 0.003327184390511973 0 -0.0011788569815065677 0.0035934560680063129 0 -0.001256420123980892 0.0039883595001842138 0 -0.0014914950042805544 0.0028737788751947838 0 -0.0015023935219001944 0.0033578222584354648 0 -0.0015628153810421164 0.0037360852782955651 0 -0.0011788569815065677 0.0035934560680063129 0 -0.0012976250706089106 0.0039309661203066667 0 -0.0014123704484381603 0.0042333198186003318 0 -0.0015628153810421164 0.0037360852782955651 0 -0.0012976250706089106 0.0039309661203066667 0 -0.0010087079570323995 0.0041827275933162093 0 -0.0011788569815065677 0.0035934560680063129 0 -0.0012976250706089106 0.0039309661203066667 0 -0.005121702232390884 -0.0024943886746770128 0 -0.0038193968071557603 -0.0033195379344911481 0 -0.0039742413668171842 -0.0040931536791889841 0 -0.0014917257059941329 0.0027778521849271182 0 -0.0015386367532359776 0.0027741234566992586 0 -0.0015624292489116801 0.002587554151681454 0 -0.0015386367532359776 0.0027741234566992586 0 -0.0014284113038533538 0.0030409075619662429 0 -0.0017022406943820224 0.0030561851852425846 0 -0.0026199927753249594 0.0019637561641432026 0 -0.0027847169872570305 0.0016013644018521929 0 -0.0015386367532359776 0.0027741234566992586 0 -0.0014780274964902166 0.0028728605961676969 0 -0.0015024366352979063 0.0029064068956716114 0 -0.0014917257059941329 0.0027778521849271182 0 -0.0015386367532359776 0.0027741234566992586 0 -0.0014780274964902166 0.0028728605961676969 0 -0.0040739379897037631 0.00055586792751544838 0 -0.0032204431583316043 0.0011048088581702526 0 -0.0026089691416924035 0.0024552339191751737 0 -0.002787399696590052 0.001574911947656258 0 -0.0028546242052070502 0.0018414163592680095 0 -0.0020251099648076277 0.002622230195144193 0 -0.0032204431583316043 0.0011048088581702526 0 -0.002787399696590052 0.001574911947656258 0 -0.0028546242052070502 0.0018414163592680095 0 -0.0028872210490118173 0.0017181292855689573 0 -0.0032204431583316043 0.0011048088581702526 0 -0.0027847169872570305 0.0016013644018521929 0 -0.0025198768243890326 0.0019703298813566199 0 -0.0027847169872570305 0.0016013644018521929 0 -0.0020251099648076277 0.002622230195144193 0 -0.0025198768243890326 0.0019703298813566199 0 -0.0015723660271452448 0.003327184390511973 0 -0.0013260268627023305 0.0030701496474035096 0 -0.0013459756424933145 0.0029967338813137131 0 -0.0027416809840908598 0.0018771306543048268 0 -0.0027847169872570305 0.0016013644018521929 0 -0.0017022406943820224 0.0030561851852425846 0 -0.0017760492766916826 0.0027404256024177909 0 -0.0020410695479952837 0.0031943830988261901 0 -0.0018450835956763973 0.0034887947321666514 0 -0.0015723660271452448 0.003327184390511973 0 -0.0017022406943820224 0.0030561851852425846 0 -0.0018450835956763973 0.0034887947321666514 0 -0.0017022406943820224 0.0030561851852425846 0 -0.0020410695479952837 0.0031943830988261901 0 -0.0015723660271452448 0.003327184390511973 0 -0.0014284113038533538 0.0030409075619662429 0 -0.0017022406943820224 0.0030561851852425846 0 -0.0015386367532359776 0.0027741234566992586 0 -0.0017022406943820224 0.0030561851852425846 0 -0.0017760492766916826 0.0027404256024177909 0 -0.0015386367532359776 0.0027741234566992586 0 -0.0017760492766916826 0.0027404256024177909 0 -0.0015624292489116801 0.002587554151681454 0 0.0016487570317491077 0.0025056921057459887 0 0.0036920702726108692 0.0049288889463392407 0 0.010595978497739631 0.0043749757369527711 0 0.0086542697945134767 0.0050944489487011703 0 0.0078493373194866 0.0032125209155905009 0 0.010595978497739631 0.0043749757369527711 0 0.0086542697945134767 0.0050944489487011703 0 0.0091394012986397849 0.0071269636731947656 0 0.0086542697945134767 0.0050944489487011703 0 0.0091394012986397849 0.0071269636731947656 0 0.0070482605786181991 0.0056575433047371627 0 0.0091394012986397849 0.0071269636731947656 0 0.0071620746255691313 0.0077738686344434047 0 0.0070482605786181991 0.0056575433047371627 0 0.0070482605786181991 0.0056575433047371627 0 0.0078493373194866 0.0032125209155905009 0 0.0046205163808382011 0.0043866481469420583 0 0.0086542697945134767 0.0050944489487011703 0 0.0070482605786181991 0.0056575433047371627 0 0.0078493373194866 0.0032125209155905009 0 0.0049929757914383838 0.0029347724839096133 0 0.0034168223593227394 0.0021636705790019661 0 0.0082392161639123305 0.00043339154300716526 0 0.0051368279333360717 0.0011724854897829575 0 0.0059953553058988505 -0.0014093082075344392 0 0.0078493373194866 0.0032125209155905009 0 0.0082392161639123305 0.00043339154300716526 0 0.0051368279333360717 0.0011724854897829575 0 0.0082392161639123305 0.00043339154300716526 0 0.0098504799725395321 0.0021481802428695847 0 0.010255794442250131 0.000580319251540265 0 0.0082392161639123305 0.00043339154300716526 0 0.010255794442250131 0.000580319251540265 0 0.0097288965764445786 -0.00082683534829526388 0 0.010595978497739631 0.0043749757369527711 0 0.0078493373194866 0.0032125209155905009 0 0.0098504799725395321 0.0021481802428695847 0 0.0078493373194866 0.0032125209155905009 0 0.0082392161639123305 0.00043339154300716526 0 0.0098504799725395321 0.0021481802428695847 0 -0.0017760492766916826 0.0027404256024177909 0 -0.0016119954720666462 0.0024654124604132793 0 -0.0015624292489116801 0.002587554151681454 0 0.0016487570317491077 0.0025056921057459887 0 -0.0024632503428949556 0.00039629860999545796 0 0.010595978497739631 0.0043749757369527711 0 0.0098504799725395321 0.0021481802428695847 0 0.012079330515048734 0.001604155338495539 0 0.010255794442250131 0.000580319251540265 0 0.012079330515048734 0.001604155338495539 0 0.01128223387928172 -0.00042332711458823238 0 0.0098504799725395321 0.0021481802428695847 0 0.010255794442250131 0.000580319251540265 0 0.012079330515048734 0.001604155338495539 0 -0.0015344418005261967 0.0023267232208792738 0 -0.0015557759637675214 0.0024003818505815636 0 -0.0015178881146265784 0.0024924406076098733 0 -0.0024632503428949556 0.00039629860999545796 0 -0.013884738938201732 0.0026028636904165312 0 -0.0016119954720666462 0.0024654124604132793 0 -0.0015557759637675214 0.0024003818505815636 0 -0.0015591038115804366 0.00231889202490304 0 0.012079330515048734 0.001604155338495539 0 0.013570641830072255 -0.0011553206086335225 0 0.01128223387928172 -0.00042332711458823238 0 -0.0016119954720666462 0.0024654124604132793 0 -0.0015557759637675214 0.0024003818505815636 0 -0.0015178881146265784 0.0024924406076098733 0 -0.005121702232390884 -0.0024943886746770128 0 -0.0038193968071557603 -0.0033195379344911481 0 -0.0042465894851538635 -0.0014584602976434435 0 -0.0015344614469840023 0.0026997694071732026 0 -0.0015178881146265784 0.0024924406076098733 0 -0.0015624292489116801 0.002587554151681454 0 -0.0040739379897037631 0.00055586792751544838 0 -0.0076689994541749512 0.00065763336411644687 0 -0.0016119954720666462 0.0024654124604132793 0 -0.0015178881146265784 0.0024924406076098733 0 -0.0015624292489116801 0.002587554151681454 0 -0.0040739379897037631 0.00055586792751544838 0 -0.0038148139536059414 0.0011282055197101848 0 0.0016185259204684736 0.0066986488221137553 0 0.0046205163808382011 0.0043866481469420583 0 0.00070704206538889163 0.0033677294866717123 0 -0.0016470306994060158 0.0059944069226328242 0 -0.0018896354051687865 0.0035613553609478163 0 0.00070704206538889163 0.0033677294866717123 0 -0.0016470306994060158 0.0059944069226328242 0 0.0016185259204684736 0.0066986488221137553 0 0.00070704206538889163 0.0033677294866717123 0 -0.0016470306994060158 0.0059944069226328242 0 -0.0008243034122821267 0.0087622258234762631 0 0.0016185259204684736 0.0066986488221137553 0 0.0045269506748681293 0.008221148976102528 0 0.0016185259204684736 0.0066986488221137553 0 0.0046205163808382011 0.0043866481469420583 0 0.0045269506748681293 0.008221148976102528 0 0.0070482605786181991 0.0056575433047371627 0 0.0046205163808382011 0.0043866481469420583 0 0.0045269506748681293 0.008221148976102528 0 0.0071620746255691313 0.0077738686344434047 0 0.0070482605786181991 0.0056575433047371627 0 0.0046205163808382011 0.0043866481469420583 0 0.0030166383787082213 0.0015132334546196027 0 0.00070704206538889163 0.0033677294866717123 0 0.0078493373194866 0.0032125209155905009 0 0.0046205163808382011 0.0043866481469420583 0 0.0057133709689914077 0.001000269599126467 0 0.0046205163808382011 0.0043866481469420583 0 0.0057133709689914077 0.001000269599126467 0 0.0030166383787082213 0.0015132334546196027 0 0.0034168223593227394 0.0021636705790019661 0 -0.00045706769692377376 0.00093125495443398731 0 0.0057133709689914077 0.001000269599126467 0 0.0030166383787082213 0.0015132334546196027 0 0.0033173901595282651 -0.0013242998391682801 0 0.0030166383787082213 0.0015132334546196027 0 0.00067899836250555378 7.9539514706312766e-05 0 0.0033173901595282651 -0.0013242998391682801 0 0.0030166383787082213 0.0015132334546196027 0 0.00067899836250555378 7.9539514706312766e-05 0 0.00070704206538889163 0.0033677294866717123 0 -0.0017600847972440549 0.0016904758467804792 0 0.00067899836250555378 7.9539514706312766e-05 0 0.00070704206538889163 0.0033677294866717123 0 -0.0018896354051687865 0.0035613553609478163 0 -0.0017600847972440549 0.0016904758467804792 0 0.00070704206538889163 0.0033677294866717123 0 -0.0017600847972440549 0.0016904758467804792 0 0.00067899836250555378 7.9539514706312766e-05 0 -0.0021954096220499967 -0.0012891839378846312 0 0.00067899836250555378 7.9539514706312766e-05 0 0.00084783377847826046 -0.0035155229708970326 0 -0.0021954096220499967 -0.0012891839378846312 0 -0.0081895539896667396 -0.00093968042735734464 0 -0.011012410062872109 0.001216085426927023 0 -0.019792211069022982 0.0042643457705838737 0 -0.019765115220951628 0.0042845025313787569 0 -0.020072532087868997 0.0044314443995762077 0 -0.019950708647590014 0.0042263224840669031 0 -0.019792211069022982 0.0042643457705838737 0 -0.020072532087868997 0.0044314443995762077 0 -0.019950708647590014 0.0042263224840669031 0 -0.019792211069022982 0.0042643457705838737 0 -0.019825178337636216 0.0041935740141803126 0 -0.019749910208799612 0.0042180526722481789 0 -0.019756543986319496 0.0042932925814288979 0 -0.019663608645744107 0.0041609527094761799 0 -0.019781387423981694 0.0042075934396406424 0 -0.019792211069022982 0.0042643457705838737 0 -0.019825178337636216 0.0041935740141803126 0 -0.019749910208799612 0.0042180526722481789 0 -0.019781387423981694 0.0042075934396406424 0 -0.019792211069022982 0.0042643457705838737 0 -0.019749910208799612 0.0042180526722481789 0 -0.019792211069022982 0.0042643457705838737 0 -0.019756543986319496 0.0042932925814288979 0 -0.0082686808288857695 -0.00095706695081450581 0 -0.0081895539896667396 -0.00093968042735734464 0 0.00067899836250555378 7.9539514706312766e-05 0 0.00084783377847826046 -0.0035155229708970326 0 0.0033173901595282651 -0.0013242998391682801 0 -0.0081895539896667396 -0.00093968042735734464 0 -0.00045706769692377376 0.00093125495443398731 0 0.0024853184359640464 -0.00099246923555737694 0 0.0042358388457469053 -0.003102604879712543 0 0.0059953553058988505 -0.0014093082075344392 0 0.0051368279333360717 0.0011724854897829575 0 0.0024853184359640464 -0.00099246923555737694 0 0.0059953553058988505 -0.0014093082075344392 0 0.0042358388457469053 -0.003102604879712543 0 0.0029289911067377789 -0.0055656217669891464 0 0.0066572460047470911 -0.004075599276333915 0 0.0042358388457469053 -0.003102604879712543 0 0.0059953553058988505 -0.0014093082075344392 0 0.0066572460047470911 -0.004075599276333915 0 0.0042358388457469053 -0.003102604879712543 0 0.0024561685916568636 -0.0032487497117876748 0 0.0029289911067377789 -0.0055656217669891464 0 -0.00014660077949147369 -0.0032279111652814929 0 0.0024853184359640464 -0.00099246923555737694 0 0.0024561685916568636 -0.0032487497117876748 0 -0.00014660077949147369 -0.0032279111652814929 0 0.0024561685916568636 -0.0032487497117876748 0 0.0029289911067377789 -0.0055656217669891464 0 0.0024853184359640464 -0.00099246923555737694 0 0.0042358388457469053 -0.003102604879712543 0 0.0024561685916568636 -0.0032487497117876748 0 -0.01870514602657938 0.0006802665479796506 0 -0.023514730753805637 0.00067211568110915783 0 -0.019459499242190061 0.0040782696732243042 0 -0.019663608645744107 0.0041609527094761799 0 -0.019674783579467749 0.0039965792903500401 0 -0.036958968238984286 -0.0026363073416585964 0 -0.038897428535278222 -0.0012018012808686712 0 -0.040694783143226679 -0.0021262705544229819 0 -0.036958968238984286 -0.0026363073416585964 0 -0.040920675740764287 -0.0041361924581461325 0 -0.040694783143226679 -0.0021262705544229819 0 -0.01870514602657938 0.0006802665479796506 0 -0.018362389903405357 -0.00095772248691363565 0 -0.01870514602657938 0.0006802665479796506 0 -0.023342640410395812 0.0024588903631551128 0 -0.038897428535278222 -0.0012018012808686712 0 -0.036727022264072567 -0.00029594504876955755 0 -0.039559934290480207 0.00094424494355987065 0 -0.037041484803141164 -0.0026419573524393263 0 -0.038897428535278222 -0.0012018012808686712 0 -0.036727022264072567 -0.00029594504876955755 0 -0.037041484803141164 -0.0026419573524393263 0 -0.036727022264072567 -0.00029594504876955755 0 -0.034854009493605793 -0.0018143539540123367 0 -0.036727022264072567 -0.00029594504876955755 0 -0.034854009493605793 -0.0018143539540123367 0 -0.034172699740831453 0.00059585761243952681 0 -0.03270225759312443 -0.000990961884340884 0 -0.034854009493605793 -0.0018143539540123367 0 -0.034172699740831453 0.00059585761243952681 0 -0.024888475923304443 0.0015635563600662154 0 -0.023514730753805637 0.00067211568110915783 0 -0.024888475923304443 0.0015635563600662154 0 -0.026423247036501236 0.0021967839028974134 0 -0.032431437808767845 -0.0013225029791306556 0 -0.031916637616529346 0.0019233026503694517 0 -0.02910283552940263 -1.2826138886185622e-05 0 -0.024888475923304443 0.0015635563600662154 0 -0.025361132689425542 0.00147291345720713 0 -0.019950708647590014 0.0042263224840669031 0 -0.019841068269340411 0.0041015584798025136 0 -0.02009368364726484 0.0042259764054275077 0 -0.019881877382506127 0.0039262663975332835 0 -0.019841068269340411 0.0041015584798025136 0 -0.02009368364726484 0.0042259764054275077 0 -0.024888475923304443 0.0015635563600662154 0 -0.022605676356272742 0.0032107269110843691 0 -0.019950708647590014 0.0042263224840669031 0 -0.019841068269340411 0.0041015584798025136 0 -0.019825178337636216 0.0041935740141803126 0 -0.019841068269340411 0.0041015584798025136 0 -0.019825178337636216 0.0041935740141803126 0 -0.019758637204399934 0.0041530646411031226 0 -0.0081895539896667396 -0.00093968042735734464 0 -0.01870514602657938 0.0006802665479796506 0 -0.019756543986319496 0.0042932925814288979 0 -0.019459499242190061 0.0040782696732243042 0 -0.019663608645744107 0.0041609527094761799 0 -0.019781387423981694 0.0042075934396406424 0 -0.019825178337636216 0.0041935740141803126 0 -0.019758637204399934 0.0041530646411031226 0 -0.019749910208799612 0.0042180526722481789 0 -0.019781387423981694 0.0042075934396406424 0 -0.019758637204399934 0.0041530646411031226 0 -0.019749910208799612 0.0042180526722481789 0 -0.019758637204399934 0.0041530646411031226 0 -0.019663608645744107 0.0041609527094761799 0 -0.019758637204399934 0.0041530646411031226 0 -0.019663608645744107 0.0041609527094761799 0 -0.019674783579467749 0.0039965792903500401 0 -0.019881877382506127 0.0039262663975332835 0 -0.019841068269340411 0.0041015584798025136 0 -0.019674783579467749 0.0039965792903500401 0 -0.019841068269340411 0.0041015584798025136 0 -0.019758637204399934 0.0041530646411031226 0 -0.019674783579467749 0.0039965792903500401 0 -0.050081517892040371 -0.004257309774337234 0 -0.048573450728763658 -0.0043449671229961002 0 -0.047277240189359519 -0.0065267404234086637 0 -0.022083413592062201 0.0027065430040263414 0 -0.019775207367964953 0.001673473549956268 0 -0.047463109137926868 -0.0042695483147462809 0 -0.047277240189359519 -0.0065267404234086637 0 -0.04584175357818545 -0.0041693475397625544 0 -0.048573450728763658 -0.0043449671229961002 0 -0.047463109137926868 -0.0042695483147462809 0 -0.048402357339124069 -0.0032844070717074742 0 -0.048573450728763658 -0.0043449671229961002 0 -0.047463109137926868 -0.0042695483147462809 0 -0.047277240189359519 -0.0065267404234086637 0 -0.019475510681835687 0.0013602953680147553 0 -0.01815188390371468 -0.00096000432378110249 0 -0.016130892294163948 -0.00017281357351377292 0 0.013570641830072255 -0.0011553206086335225 0 0.012273175519833257 -0.0016806989533100427 0 0.01128223387928172 -0.00042332711458823238 0 -0.013884738938201732 0.0026028636904165312 0 -0.019775207367964953 0.001673473549956268 0 -0.0015344418005261967 0.0023267232208792738 0 -0.0015557759637675214 0.0024003818505815636 0 -0.0015591038115804366 0.00231889202490304 0 0.01128223387928172 -0.00042332711458823238 0 0.010223089305127412 -0.0025632711118386202 0 0.0097288965764445786 -0.00082683534829526388 0 0.012273175519833257 -0.0016806989533100427 0 0.01128223387928172 -0.00042332711458823238 0 0.010223089305127412 -0.0025632711118386202 0 0.010255794442250131 0.000580319251540265 0 0.01128223387928172 -0.00042332711458823238 0 0.0097288965764445786 -0.00082683534829526388 0 -0.019775207367964953 0.001673473549956268 0 -0.0189039953182615 -0.00015453717155032053 0 -0.044885069576192024 -0.0056108769419089448 0 -0.04584175357818545 -0.0041693475397625544 0 -0.043962475425370781 -0.002784446535894262 0 -0.047277240189359519 -0.0065267404234086637 0 -0.044885069576192024 -0.0056108769419089448 0 -0.04584175357818545 -0.0041693475397625544 0 -0.0189039953182615 -0.00015453717155032053 0 -0.018362389903405357 -0.00095772248691363565 0 0.010223089305127412 -0.0025632711118386202 0 0.0081892890204243538 -0.0016939393618703874 0 0.0066572460047470911 -0.004075599276333915 0 -0.044885069576192024 -0.0056108769419089448 0 -0.040920675740764287 -0.0041361924581461325 0 -0.043962475425370781 -0.002784446535894262 0 0.010223089305127412 -0.0025632711118386202 0 0.0081892890204243538 -0.0016939393618703874 0 0.0097288965764445786 -0.00082683534829526388 0 0.0082392161639123305 0.00043339154300716526 0 0.0081892890204243538 -0.0016939393618703874 0 0.0097288965764445786 -0.00082683534829526388 0 0.0082392161639123305 0.00043339154300716526 0 0.0081892890204243538 -0.0016939393618703874 0 0.0059953553058988505 -0.0014093082075344392 0 0.0081892890204243538 -0.0016939393618703874 0 0.0059953553058988505 -0.0014093082075344392 0 0.0066572460047470911 -0.004075599276333915 0 -0.040694783143226679 -0.0021262705544229819 0 -0.041985537574425663 -0.00053360252233304736 0 -0.043962475425370781 -0.002784446535894262 0 -0.040920675740764287 -0.0041361924581461325 0 -0.040694783143226679 -0.0021262705544229819 0 -0.043962475425370781 -0.002784446535894262 0 -0.038897428535278222 -0.0012018012808686712 0 -0.040694783143226679 -0.0021262705544229819 0 -0.041985537574425663 -0.00053360252233304736 0 -0.038897428535278222 -0.0012018012808686712 0 -0.041985537574425663 -0.00053360252233304736 0 -0.039559934290480207 0.00094424494355987065 0 -0.041985537574425663 -0.00053360252233304736 0 -0.044283740120829945 -0.00071396614765772244 0 -0.043962475425370781 -0.002784446535894262 0 -0.041985537574425663 -0.00053360252233304736 0 -0.04307699339953102 0.00080116023731822701 0 -0.041669124441797101 0.0012549845486284051 0 -0.041985537574425663 -0.00053360252233304736 0 -0.044283740120829945 -0.00071396614765772244 0 -0.04307699339953102 0.00080116023731822701 0 -0.044283740120829945 -0.00071396614765772244 0 -0.044799830070983433 0.0012744447624161012 0 -0.04307699339953102 0.00080116023731822701 0 -0.04584175357818545 -0.0041693475397625544 0 -0.043962475425370781 -0.002784446535894262 0 -0.045530104886016651 -0.0020818007701611293 0 -0.04584175357818545 -0.0041693475397625544 0 -0.045530104886016651 -0.0020818007701611293 0 -0.046999238851553417 -0.0028589182011892092 0 -0.047463109137926868 -0.0042695483147462809 0 -0.04584175357818545 -0.0041693475397625544 0 -0.046999238851553417 -0.0028589182011892092 0 -0.045530104886016651 -0.0020818007701611293 0 -0.046362861775878748 -0.00074847523208339804 0 -0.046999238851553417 -0.0028589182011892092 0 -0.044283740120829945 -0.00071396614765772244 0 -0.043962475425370781 -0.002784446535894262 0 -0.045530104886016651 -0.0020818007701611293 0 -0.044283740120829945 -0.00071396614765772244 0 -0.045530104886016651 -0.0020818007701611293 0 -0.046362861775878748 -0.00074847523208339804 0 -0.044283740120829945 -0.00071396614765772244 0 -0.046362861775878748 -0.00074847523208339804 0 -0.044799830070983433 0.0012744447624161012 0 -0.046362861775878748 -0.00074847523208339804 0 -0.047857607049800084 -0.00032479753022249632 0 -0.046779872774778151 0.0016472463614001858 0 -0.046362861775878748 -0.00074847523208339804 0 -0.047857607049800084 -0.00032479753022249632 0 -0.048079234773467656 -0.0019227731822198499 0 -0.049163995297554636 -0.00085316643725445263 0 -0.047857607049800084 -0.00032479753022249632 0 -0.048763760590688814 0.00086697383869282086 0 -0.049163995297554636 -0.00085316643725445263 0 -0.047857607049800084 -0.00032479753022249632 0 -0.048079234773467656 -0.0019227731822198499 0 -0.049338045348253048 -0.0022648719003421289 0 -0.049163995297554636 -0.00085316643725445263 0 -0.048079234773467656 -0.0019227731822198499 0 -0.049338045348253048 -0.0022648719003421289 0 -0.048079234773467656 -0.0019227731822198499 0 -0.048402357339124069 -0.0032844070717074742 0 -0.046362861775878748 -0.00074847523208339804 0 -0.048079234773467656 -0.0019227731822198499 0 -0.046999238851553417 -0.0028589182011892092 0 -0.048079234773467656 -0.0019227731822198499 0 -0.046999238851553417 -0.0028589182011892092 0 -0.048402357339124069 -0.0032844070717074742 0 -0.047463109137926868 -0.0042695483147462809 0 -0.046999238851553417 -0.0028589182011892092 0 -0.048402357339124069 -0.0032844070717074742 0 -0.0494474599635914 -0.0033888861771937335 0 -0.048573450728763658 -0.0043449671229961002 0 -0.048402357339124069 -0.0032844070717074742 0 -0.048272091772576256 0.0033260089243948555 0 -0.046779872774778151 0.0016472463614001858 0 -0.04636222230487879 0.0041873103512866236 0 -0.050191420250746958 0.0046462897269100882 0 -0.048272091772576256 0.0033260089243948555 0 -0.047707125810557166 0.0064481753120803238 0 -0.048272091772576256 0.0033260089243948555 0 -0.04636222230487879 0.0041873103512866236 0 -0.047707125810557166 0.0064481753120803238 0 -0.048272091772576256 0.0033260089243948555 0 -0.048763760590688814 0.00086697383869282086 0 -0.046779872774778151 0.0016472463614001858 0 -0.047857607049800084 -0.00032479753022249632 0 -0.048763760590688814 0.00086697383869282086 0 -0.046779872774778151 0.0016472463614001858 0 -0.046362861775878748 -0.00074847523208339804 0 -0.046779872774778151 0.0016472463614001858 0 -0.044799830070983433 0.0012744447624161012 0 -0.046779872774778151 0.0016472463614001858 0 -0.044799830070983433 0.0012744447624161012 0 -0.04499941266286963 0.0031113755647189031 0 -0.04636222230487879 0.0041873103512866236 0 -0.04499941266286963 0.0031113755647189031 0 -0.044224605968629385 0.0061443994818583736 0 -0.046779872774778151 0.0016472463614001858 0 -0.04636222230487879 0.0041873103512866236 0 -0.04499941266286963 0.0031113755647189031 0 -0.045230007625833069 0.00051082686507006119 0 -0.042471986763210463 0.0027464580031762924 0 -0.046012240463543408 0.0045080095946941718 0 -0.043744401642309402 0.0034816090999858365 0 -0.044759084844115726 0.005613586612962451 0 -0.04499941266286963 0.0031113755647189031 0 -0.043291318745034515 0.0027119882998415156 0 -0.044224605968629385 0.0061443994818583736 0 -0.044799830070983433 0.0012744447624161012 0 -0.04499941266286963 0.0031113755647189031 0 -0.043291318745034515 0.0027119882998415156 0 -0.044071140768837738 0.0030919578921131782 0 -0.043744401642309402 0.0034816090999858365 0 -0.044799830070983433 0.0012744447624161012 0 -0.04307699339953102 0.00080116023731822701 0 -0.042858750945312864 0.0025836556898554742 0 -0.04307699339953102 0.00080116023731822701 0 -0.042858750945312864 0.0025836556898554742 0 -0.041669124441797101 0.0012549845486284051 0 -0.041985537574425663 -0.00053360252233304736 0 -0.041669124441797101 0.0012549845486284051 0 -0.039559934290480207 0.00094424494355987065 0 -0.042858750945312864 0.0025836556898554742 0 -0.041669124441797101 0.0012549845486284051 0 -0.041040928096829118 0.0025429811802964823 0 -0.041669124441797101 0.0012549845486284051 0 -0.041040928096829118 0.0025429811802964823 0 -0.039559934290480207 0.00094424494355987065 0 -0.043744401642309402 0.0034816090999858365 0 -0.041741341687634992 0.0042768981722868527 0 -0.041040928096829118 0.0025429811802964823 0 -0.040334305613312547 0.0043665889834840132 0 -0.039192070905143372 0.0027534163789422815 0 -0.042858750945312864 0.0025836556898554742 0 -0.041040928096829118 0.0025429811802964823 0 -0.040334305613312547 0.0043665889834840132 0 -0.042471986763210463 0.0027464580031762924 0 -0.043449061828975191 0.0059578657882931145 0 -0.046012240463543408 0.0045080095946941718 0 -0.043449061828975191 0.0059578657882931145 0 -0.046724038698822384 0.0084712269305580925 0 -0.042220424524341729 0.0089872913184691813 0 -0.044759084844115726 0.005613586612962451 0 -0.045733469848127213 0.008732843558888469 0 -0.043449061828975191 0.0059578657882931145 0 -0.046012240463543408 0.0045080095946941718 0 -0.046724038698822384 0.0084712269305580925 0 -0.04636222230487879 0.0041873103512866236 0 -0.044224605968629385 0.0061443994818583736 0 -0.047707125810557166 0.0064481753120803238 0 -0.044224605968629385 0.0061443994818583736 0 -0.047707125810557166 0.0064481753120803238 0 -0.045259594084669758 0.0094461368948687979 0 -0.047707125810557166 0.0064481753120803238 0 -0.049261447942020781 0.0098099610151758717 0 -0.045259594084669758 0.0094461368948687979 0 -0.050693175284753977 0.0071288898133688577 0 -0.047707125810557166 0.0064481753120803238 0 -0.049261447942020781 0.0098099610151758717 0 -0.034942987819825064 0.0031370437861313917 0 -0.035263520158299581 0.0056786955547780439 0 -0.03237384788411022 0.0049071876572792592 0 -0.034942987819825064 0.0031370437861313917 0 -0.031916637616529346 0.0019233026503694517 0 -0.03237384788411022 0.0049071876572792592 0 -0.031916637616529346 0.0019233026503694517 0 -0.03237384788411022 0.0049071876572792592 0 -0.028138531873934825 0.0039059874781481236 0 -0.032431437808767845 -0.0013225029791306556 0 -0.031916637616529346 0.0019233026503694517 0 -0.034172699740831453 0.00059585761243952681 0 -0.034942987819825064 0.0031370437861313917 0 -0.034172699740831453 0.00059585761243952681 0 -0.035901269415868214 0.0012369283748273048 0 -0.034942987819825064 0.0031370437861313917 0 -0.031916637616529346 0.0019233026503694517 0 -0.034172699740831453 0.00059585761243952681 0 -0.034942987819825064 0.0031370437861313917 0 -0.035901269415868214 0.0012369283748273048 0 -0.037527278775660242 0.0020189809049326289 0 -0.036727022264072567 -0.00029594504876955755 0 -0.034172699740831453 0.00059585761243952681 0 -0.035901269415868214 0.0012369283748273048 0 -0.036727022264072567 -0.00029594504876955755 0 -0.035901269415868214 0.0012369283748273048 0 -0.037527278775660242 0.0020189809049326289 0 -0.036727022264072567 -0.00029594504876955755 0 -0.037527278775660242 0.0020189809049326289 0 -0.039559934290480207 0.00094424494355987065 0 -0.037527278775660242 0.0020189809049326289 0 -0.039559934290480207 0.00094424494355987065 0 -0.039192070905143372 0.0027534163789422815 0 -0.041040928096829118 0.0025429811802964823 0 -0.039559934290480207 0.00094424494355987065 0 -0.039192070905143372 0.0027534163789422815 0 -0.040334305613312547 0.0043665889834840132 0 -0.039192070905143372 0.0027534163789422815 0 -0.037526188719832577 0.0040354038956461101 0 -0.037527278775660242 0.0020189809049326289 0 -0.039192070905143372 0.0027534163789422815 0 -0.037526188719832577 0.0040354038956461101 0 -0.034942987819825064 0.0031370437861313917 0 -0.037526188719832577 0.0040354038956461101 0 -0.035263520158299581 0.0056786955547780439 0 -0.034942987819825064 0.0031370437861313917 0 -0.037527278775660242 0.0020189809049326289 0 -0.037526188719832577 0.0040354038956461101 0 -0.037987016242602388 0.0060938338366368404 0 -0.03620501312710328 0.007616991601757825 0 -0.035263520158299581 0.0056786955547780439 0 -0.037526188719832577 0.0040354038956461101 0 -0.037987016242602388 0.0060938338366368404 0 -0.035263520158299581 0.0056786955547780439 0 -0.040334305613312547 0.0043665889834840132 0 -0.037526188719832577 0.0040354038956461101 0 -0.037987016242602388 0.0060938338366368404 0 -0.041741341687634992 0.0042768981722868527 0 -0.039548532488277527 0.0056445332178450781 0 -0.042471986763210463 0.0027464580031762924 0 -0.043449061828975191 0.0059578657882931145 0 -0.039613069811104233 0.0049809940693303929 0 -0.043449061828975191 0.0059578657882931145 0 -0.039613069811104233 0.0049809940693303929 0 -0.042220424524341729 0.0089872913184691813 0 -0.039613069811104233 0.0049809940693303929 0 -0.042220424524341729 0.0089872913184691813 0 -0.03887316872024893 0.0094917163580556432 0 -0.039548532488277527 0.0056445332178450781 0 -0.038378681235989927 0.0064706683350037441 0 -0.039613069811104233 0.0049809940693303929 0 -0.03620501312710328 0.007616991601757825 0 -0.03887316872024893 0.0094917163580556432 0 -0.03620501312710328 0.007616991601757825 0 -0.035263520158299581 0.0056786955547780439 0 -0.03276073410173419 0.0079412733821600089 0 -0.035263520158299581 0.0056786955547780439 0 -0.03237384788411022 0.0049071876572792592 0 -0.03276073410173419 0.0079412733821600089 0 -0.03237384788411022 0.0049071876572792592 0 -0.03276073410173419 0.0079412733821600089 0 -0.03018154425637963 0.0064571760625210363 0 -0.03276073410173419 0.0079412733821600089 0 -0.029038916199985217 0.0090780917642504042 0 -0.03018154425637963 0.0064571760625210363 0 -0.029038916199985217 0.0090780917642504042 0 -0.02769939340981499 0.0065535663995263758 0 -0.03018154425637963 0.0064571760625210363 0 -0.02659400499575823 0.0082381747140869554 0 -0.025444629031335188 0.0097882239715231124 0 -0.029038916199985217 0.0090780917642504042 0 -0.02769939340981499 0.0065535663995263758 0 -0.025956366328628414 0.0095354405638342892 0 -0.02769939340981499 0.0065535663995263758 0 -0.028138531873934825 0.0039059874781481236 0 -0.026507805278130587 0.0044798701349741451 0 -0.02769939340981499 0.0065535663995263758 0 -0.025424550473697731 0.005061586575110754 0 -0.026507805278130587 0.0044798701349741451 0 -0.02769939340981499 0.0065535663995263758 0 -0.03018154425637963 0.0064571760625210363 0 -0.028138531873934825 0.0039059874781481236 0 -0.03237384788411022 0.0049071876572792592 0 -0.03018154425637963 0.0064571760625210363 0 -0.028138531873934825 0.0039059874781481236 0 -0.024226443488890401 0.0069525922523463813 0 -0.02159267231169832 0.0085157611213867706 0 -0.023070406482466943 0.010339603026444412 0 -0.024226443488890401 0.0069525922523463813 0 -0.023070406482466943 0.010339603026444412 0 -0.025188406050698397 0.0096671572647042958 0 -0.02769939340981499 0.0065535663995263758 0 -0.024226443488890401 0.0069525922523463813 0 -0.025188406050698397 0.0096671572647042958 0 -0.02769939340981499 0.0065535663995263758 0 -0.025424550473697731 0.005061586575110754 0 -0.024226443488890401 0.0069525922523463813 0 -0.025424550473697731 0.005061586575110754 0 -0.024226443488890401 0.0069525922523463813 0 -0.023873037278370146 0.0050149893328028002 0 -0.024226443488890401 0.0069525922523463813 0 -0.022275610325227117 0.0045507119312496198 0 -0.02159267231169832 0.0085157611213867706 0 -0.020821677343655434 0.0084530385585488907 0 -0.021389330820522828 0.0099391128897864511 0 -0.024226443488890401 0.0069525922523463813 0 -0.023873037278370146 0.0050149893328028002 0 -0.022275610325227117 0.0045507119312496198 0 -0.020578568212428941 0.007919918393869645 0 -0.021909324355073839 0.0081285574615747279 0 -0.020821677343655434 0.0084530385585488907 0 -0.021909324355073839 0.0081285574615747279 0 -0.02120616563185802 0.0083241634147092416 0 -0.021227573809325908 0.0082250669105823401 0 -0.021047517468460217 0.0082675431025648703 0 -0.023873037278370146 0.0050149893328028002 0 -0.022275610325227117 0.0045507119312496198 0 -0.025003301899269987 0.0037471417535380742 0 -0.020578568212428941 0.007919918393869645 0 -0.020821677343655434 0.0084530385585488907 0 -0.018665715420649244 0.0096867179367680443 0 -0.018588080107553348 0.010077974541118685 0 -0.01830468168957072 0.0097726812510821274 0 -0.024321822774981433 0.0030033725255501098 0 -0.025003301899269987 0.0037471417535380742 0 -0.024757913412720645 0.002723344835303316 0 -0.025424550473697731 0.005061586575110754 0 -0.023873037278370146 0.0050149893328028002 0 -0.025003301899269987 0.0037471417535380742 0 -0.025424550473697731 0.005061586575110754 0 -0.025003301899269987 0.0037471417535380742 0 -0.026507805278130587 0.0044798701349741451 0 -0.025003301899269987 0.0037471417535380742 0 -0.024757913412720645 0.002723344835303316 0 -0.025705288386127196 0.0032896658637426709 0 -0.025003301899269987 0.0037471417535380742 0 -0.026507805278130587 0.0044798701349741451 0 -0.025705288386127196 0.0032896658637426709 0 -0.024757913412720645 0.002723344835303316 0 -0.024361463732928842 0.0030588204513849961 0 -0.024733060833055553 0.0029178023122292149 0 -0.024757913412720645 0.002723344835303316 0 -0.02495482591524964 0.0020499100799688517 0 -0.024361463732928842 0.0030588204513849961 0 -0.024757913412720645 0.002723344835303316 0 -0.025705288386127196 0.0032896658637426709 0 -0.02495482591524964 0.0020499100799688517 0 -0.024321822774981433 0.0030033725255501098 0 -0.024757913412720645 0.002723344835303316 0 -0.024733060833055553 0.0029178023122292149 0 -0.019701441129009761 0.01001348240950487 0 -0.019975350604640323 0.0087589041898203657 0 -0.019055191931818403 0.0089841949033287044 0 -0.020578568212428941 0.007919918393869645 0 -0.021335943250041439 0.0064166442482542288 0 -0.028138531873934825 0.0039059874781481236 0 -0.026507805278130587 0.0044798701349741451 0 -0.025705288386127196 0.0032896658637426709 0 -0.028138531873934825 0.0039059874781481236 0 -0.025705288386127196 0.0032896658637426709 0 -0.02495482591524964 0.0020499100799688517 0 -0.025266877260288482 0.0015568739809132901 0 -0.025361132689425542 0.00147291345720713 0 -0.028138531873934825 0.0039059874781481236 0 -0.02495482591524964 0.0020499100799688517 0 -0.02910283552940263 -1.2826138886185622e-05 0 -0.031916637616529346 0.0019233026503694517 0 -0.028138531873934825 0.0039059874781481236 0 -0.02910283552940263 -1.2826138886185622e-05 0 -0.022179118713068144 0.0028734592617679312 0 -0.023299891460644265 0.0038563462702441383 0 -0.022252959656188186 0.005177366227293036 0 -0.020670786879930989 0.0034686078021705937 0 -0.022179118713068144 0.0028734592617679312 0 -0.022252959656188186 0.005177366227293036 0 -0.022898673916692855 0.0048304683060337462 0 -0.023299891460644265 0.0038563462702441383 0 -0.022252959656188186 0.005177366227293036 0 -0.022898673916692855 0.0048304683060337462 0 -0.023480295705134317 0.004322489114583228 0 -0.023015439294577295 0.0051200167675343458 0 -0.022898673916692855 0.0048304683060337462 0 -0.023299891460644265 0.0038563462702441383 0 -0.023480295705134317 0.004322489114583228 0 -0.023299891460644265 0.0038563462702441383 0 -0.024361463732928842 0.0030588204513849961 0 -0.023480295705134317 0.004322489114583228 0 -0.02495482591524964 0.0020499100799688517 0 -0.022179118713068144 0.0028734592617679312 0 -0.023299891460644265 0.0038563462702441383 0 -0.02495482591524964 0.0020499100799688517 0 -0.023299891460644265 0.0038563462702441383 0 -0.024361463732928842 0.0030588204513849961 0 -0.024361463732928842 0.0030588204513849961 0 -0.024733060833055553 0.0029178023122292149 0 -0.024133449267501033 0.0040423111574142308 0 -0.024361463732928842 0.0030588204513849961 0 -0.023480295705134317 0.004322489114583228 0 -0.024133449267501033 0.0040423111574142308 0 -0.019975350604640323 0.0087589041898203657 0 -0.019676855556803676 0.0079000699081801413 0 -0.020252480061465315 0.0075024686825511675 0 -0.024733060833055553 0.0029178023122292149 0 -0.024458860370965656 0.0044406056510435084 0 -0.024133449267501033 0.0040423111574142308 0 -0.019975350604640323 0.0087589041898203657 0 -0.019065024214663238 0.0080056769581216443 0 -0.019055191931818403 0.0089841949033287044 0 -0.021335943250041439 0.0064166442482542288 0 -0.02157374909946027 0.0058507455876660227 0 -0.019975350604640323 0.0087589041898203657 0 -0.019676855556803676 0.0079000699081801413 0 -0.019065024214663238 0.0080056769581216443 0 -0.020252480061465315 0.0075024686825511675 0 -0.019413548961463793 0.0073326978925140869 0 -0.019357123354731665 0.0063911209012619784 0 -0.019676855556803676 0.0079000699081801413 0 -0.019413548961463793 0.0073326978925140869 0 -0.019065024214663238 0.0080056769581216443 0 -0.019676855556803676 0.0079000699081801413 0 -0.020252480061465315 0.0075024686825511675 0 -0.019413548961463793 0.0073326978925140869 0 -0.024088976299898958 0.0046264224160301745 0 -0.023398160854028783 0.0048550695264397391 0 -0.022107901149064579 0.0057597945432909083 0 -0.023480295705134317 0.004322489114583228 0 -0.024133449267501033 0.0040423111574142308 0 -0.023398160854028783 0.0048550695264397391 0 -0.024088976299898958 0.0046264224160301745 0 -0.024133449267501033 0.0040423111574142308 0 -0.023398160854028783 0.0048550695264397391 0 -0.02157374909946027 0.0058507455876660227 0 -0.021618665318991283 0.0058147641402174367 0 -0.023480295705134317 0.004322489114583228 0 -0.023398160854028783 0.0048550695264397391 0 -0.023015439294577295 0.0051200167675343458 0 -0.02157374909946027 0.0058507455876660227 0 -0.021707472646827888 0.0055979643347926749 0 -0.022107901149064579 0.0057597945432909083 0 -0.021207544002256402 0.0053952512468550757 0 -0.022731151806870221 0.0054109710837865841 0 -0.023015439294577295 0.0051200167675343458 0 -0.022107901149064579 0.0057597945432909083 0 -0.022731151806870221 0.0054109710837865841 0 -0.023398160854028783 0.0048550695264397391 0 -0.023015439294577295 0.0051200167675343458 0 -0.022107901149064579 0.0057597945432909083 0 -0.021765189709203433 0.0073503848360643043 0 -0.022107901149064579 0.0057597945432909083 0 -0.020290547467498136 0.0058843238230092644 0 -0.02157374909946027 0.0058507455876660227 0 -0.020334135124307047 0.0055532574501850661 0 -0.022107901149064579 0.0057597945432909083 0 -0.021207544002256402 0.0053952512468550757 0 -0.020290547467498136 0.0058843238230092644 0 -0.018711097187529935 0.0044548630715565626 0 -0.019403905773676431 0.0049179179805621297 0 -0.019764162701736643 0.0043350430210916287 0 -0.021207544002256402 0.0053952512468550757 0 -0.02006634991503848 0.005207577233627715 0 -0.021207544002256402 0.0053952512468550757 0 -0.02006634991503848 0.005207577233627715 0 -0.020290547467498136 0.0058843238230092644 0 -0.019621267737016612 0.0042942108348124931 0 -0.021207544002256402 0.0053952512468550757 0 -0.022564414482048059 0.00530076439684156 0 -0.021207544002256402 0.0053952512468550757 0 -0.022564414482048059 0.00530076439684156 0 -0.022731151806870221 0.0054109710837865841 0 -0.020194816441963089 0.0042806518348363362 0 -0.020160603181802933 0.004453893070524277 0 -0.020072532087868997 0.0044314443995762077 0 -0.020160603181802933 0.004453893070524277 0 -0.020072532087868997 0.0044314443995762077 0 -0.02009368364726484 0.0042259764054275077 0 -0.019950708647590014 0.0042263224840669031 0 -0.020072532087868997 0.0044314443995762077 0 -0.02009368364726484 0.0042259764054275077 0 -0.022564414482048059 0.00530076439684156 0 -0.022252959656188186 0.005177366227293036 0 -0.022731151806870221 0.0054109710837865841 0 -0.022898673916692855 0.0048304683060337462 0 -0.022252959656188186 0.005177366227293036 0 -0.022731151806870221 0.0054109710837865841 0 -0.021789096801358331 0.0040812209851864532 0 -0.022605676356272742 0.0032107269110843691 0 -0.022898673916692855 0.0048304683060337462 0 -0.023015439294577295 0.0051200167675343458 0 -0.022731151806870221 0.0054109710837865841 0 -0.0167671313520158 0.0063512319801155813 0 -0.017420864143814687 0.0067472778273772929 0 -0.0169656459940076 0.0073733177690269098 0 -0.0167671313520158 0.0063512319801155813 0 -0.017438413882195854 0.0056829086645746952 0 -0.017420864143814687 0.0067472778273772929 0 -0.0167671313520158 0.0063512319801155813 0 -0.01629506799174435 0.0068696041511645423 0 -0.0169656459940076 0.0073733177690269098 0 -0.015901222652198069 0.0061037347567123373 0 -0.015610872561737953 0.0071555920850626823 0 -0.015151568822377649 0.0065293469516268998 0 -0.01629506799174435 0.0068696041511645423 0 -0.015901222652198069 0.0061037347567123373 0 -0.015610872561737953 0.0071555920850626823 0 -0.0167671313520158 0.0063512319801155813 0 -0.01629506799174435 0.0068696041511645423 0 -0.015901222652198069 0.0061037347567123373 0 -0.016273728037656077 0.0049882121424422443 0 -0.015901222652198069 0.0061037347567123373 0 -0.015096727108424007 0.0052169424187904594 0 -0.015901222652198069 0.0061037347567123373 0 -0.015096727108424007 0.0052169424187904594 0 -0.015151568822377649 0.0065293469516268998 0 -0.016273728037656077 0.0049882121424422443 0 -0.015901222652198069 0.0061037347567123373 0 -0.01672178600932455 0.0056622622385870836 0 -0.016273728037656077 0.0049882121424422443 0 -0.017096797191714037 0.0049040805686094355 0 -0.01672178600932455 0.0056622622385870836 0 -0.0167671313520158 0.0063512319801155813 0 -0.015901222652198069 0.0061037347567123373 0 -0.01672178600932455 0.0056622622385870836 0 -0.0167671313520158 0.0063512319801155813 0 -0.01672178600932455 0.0056622622385870836 0 -0.017438413882195854 0.0056829086645746952 0 -0.017096797191714037 0.0049040805686094355 0 -0.017691954954449873 0.0050984076015988047 0 -0.017438413882195854 0.0056829086645746952 0 -0.017096797191714037 0.0049040805686094355 0 -0.01672178600932455 0.0056622622385870836 0 -0.017438413882195854 0.0056829086645746952 0 -0.017691954954449873 0.0050984076015988047 0 -0.017438413882195854 0.0056829086645746952 0 -0.018444281477412727 0.0052497370067241464 0 -0.017438413882195854 0.0056829086645746952 0 -0.018444281477412727 0.0052497370067241464 0 -0.018128309133923989 0.0064121348984705088 0 -0.01926077746464034 0.0048868232082299751 0 -0.020334135124307047 0.0055532574501850661 0 -0.018444281477412727 0.0052497370067241464 0 -0.019357123354731665 0.0063911209012619784 0 -0.018128309133923989 0.0064121348984705088 0 -0.02006634991503848 0.005207577233627715 0 -0.018978413066781122 0.005137820930934847 0 -0.020290547467498136 0.0058843238230092644 0 -0.019764162701736643 0.0043350430210916287 0 -0.02006634991503848 0.005207577233627715 0 -0.018978413066781122 0.005137820930934847 0 -0.019357123354731665 0.0063911209012619784 0 -0.018128309133923989 0.0064121348984705088 0 -0.018737964323934805 0.0070807215774021659 0 -0.019413548961463793 0.0073326978925140869 0 -0.019357123354731665 0.0063911209012619784 0 -0.018737964323934805 0.0070807215774021659 0 -0.017420864143814687 0.0067472778273772929 0 -0.018128309133923989 0.0064121348984705088 0 -0.018014959564724729 0.0075274216315591507 0 -0.017438413882195854 0.0056829086645746952 0 -0.017420864143814687 0.0067472778273772929 0 -0.018128309133923989 0.0064121348984705088 0 -0.018128309133923989 0.0064121348984705088 0 -0.018014959564724729 0.0075274216315591507 0 -0.018737964323934805 0.0070807215774021659 0 -0.017420864143814687 0.0067472778273772929 0 -0.018014959564724729 0.0075274216315591507 0 -0.0169656459940076 0.0073733177690269098 0 -0.018014959564724729 0.0075274216315591507 0 -0.017344718214183312 0.0081594326392516424 0 -0.0169656459940076 0.0073733177690269098 0 -0.018014959564724729 0.0075274216315591507 0 -0.018737964323934805 0.0070807215774021659 0 -0.019065024214663238 0.0080056769581216443 0 -0.019413548961463793 0.0073326978925140869 0 -0.018737964323934805 0.0070807215774021659 0 -0.019065024214663238 0.0080056769581216443 0 -0.018014959564724729 0.0075274216315591507 0 -0.019065024214663238 0.0080056769581216443 0 -0.018168452864123795 0.008593621116090468 0 -0.019065024214663238 0.0080056769581216443 0 -0.018168452864123795 0.008593621116090468 0 -0.019055191931818403 0.0089841949033287044 0 -0.018168452864123795 0.008593621116090468 0 -0.017344718214183312 0.0081594326392516424 0 -0.017013136334106435 0.0090636302958006128 0 -0.018014959564724729 0.0075274216315591507 0 -0.018168452864123795 0.008593621116090468 0 -0.017344718214183312 0.0081594326392516424 0 -0.017344718214183312 0.0081594326392516424 0 -0.016410901522070153 0.0082712041931544966 0 -0.017013136334106435 0.0090636302958006128 0 -0.0169656459940076 0.0073733177690269098 0 -0.016232989612941982 0.0075195904816536411 0 -0.016410901522070153 0.0082712041931544966 0 -0.017344718214183312 0.0081594326392516424 0 -0.0169656459940076 0.0073733177690269098 0 -0.016410901522070153 0.0082712041931544966 0 -0.01629506799174435 0.0068696041511645423 0 -0.0169656459940076 0.0073733177690269098 0 -0.016232989612941982 0.0075195904816536411 0 -0.015610872561737953 0.0071555920850626823 0 -0.015593762877521542 0.007768624832292086 0 -0.014911628375815692 0.0074342453050190941 0 -0.015610872561737953 0.0071555920850626823 0 -0.016232989612941982 0.0075195904816536411 0 -0.015593762877521542 0.007768624832292086 0 -0.01629506799174435 0.0068696041511645423 0 -0.015610872561737953 0.0071555920850626823 0 -0.016232989612941982 0.0075195904816536411 0 -0.016232989612941982 0.0075195904816536411 0 -0.015593762877521542 0.007768624832292086 0 -0.016410901522070153 0.0082712041931544966 0 -0.016410901522070153 0.0082712041931544966 0 -0.015832024493415617 0.0085525366994962035 0 -0.017013136334106435 0.0090636302958006128 0 -0.01693119997365785 0.008341796378398221 0 -0.01751864879375999 0.0084116076577016672 0 -0.013254940161581973 0.0094044392370701401 0 -0.010445125208165994 0.0096731706962973965 0 -0.016410901522070153 0.0082712041931544966 0 -0.015832024493415617 0.0085525366994962035 0 -0.01524545828154786 0.008227988300774489 0 -0.015593762877521542 0.007768624832292086 0 -0.016410901522070153 0.0082712041931544966 0 -0.014870563108379415 0.0083850999703501961 0 -0.015832024493415617 0.0085525366994962035 0 -0.015893869270696012 0.0090500528546208683 0 -0.017124778181515636 0.0090043068568351325 0 -0.015832024493415617 0.0085525366994962035 0 -0.015893869270696012 0.0090500528546208683 0 -0.015293138941691051 0.0088554326264504712 0 -0.015893869270696012 0.0090500528546208683 0 -0.016140940998331459 0.0094936802657284592 0 -0.017124778181515636 0.0090043068568351325 0 -0.015893869270696012 0.0090500528546208683 0 -0.016140940998331459 0.0094936802657284592 0 -0.015089875936469814 0.0093780052238283049 0 -0.016140940998331459 0.0094936802657284592 0 -0.0168037746645745 0.0095743854276446449 0 -0.016385005592182266 0.0099163560325316018 0 -0.017124778181515636 0.0090043068568351325 0 -0.0168037746645745 0.0095743854276446449 0 -0.01735681650641567 0.0099888796343826063 0 -0.016140940998331459 0.0094936802657284592 0 -0.017124778181515636 0.0090043068568351325 0 -0.0168037746645745 0.0095743854276446449 0 -0.0168037746645745 0.0095743854276446449 0 -0.01735681650641567 0.0099888796343826063 0 -0.016385005592182266 0.0099163560325316018 0 -0.01735681650641567 0.0099888796343826063 0 -0.017156151068917557 0.0099924703283674268 0 -0.017310740901701181 0.010084135304962962 0 -0.016550714008852767 0.010136539500310909 0 -0.015859480042858302 0.010308274003035923 0 -0.01735681650641567 0.0099888796343826063 0 -0.017590422627466427 0.010236887686207882 0 -0.017310740901701181 0.010084135304962962 0 -0.01735681650641567 0.0099888796343826063 0 -0.01593209436747996 0.010551289966912437 0 -0.016385005592182266 0.0099163560325316018 0 -0.016140940998331459 0.0094936802657284592 0 -0.016385005592182266 0.0099163560325316018 0 -0.015667775762417117 0.0099698343104958308 0 -0.01593209436747996 0.010551289966912437 0 -0.016385005592182266 0.0099163560325316018 0 -0.015667775762417117 0.0099698343104958308 0 -0.020578568212428941 0.007919918393869645 0 -0.018741052046426954 0.0083539025700939181 0 -0.019701441129009761 0.01001348240950487 0 -0.019055191931818403 0.0089841949033287044 0 -0.018362725613614204 0.0095473567494217797 0 -0.018665715420649244 0.0096867179367680443 0 -0.017982893013260101 0.0094201761981974608 0 -0.01830468168957072 0.0097726812510821274 0 -0.018168452864123795 0.008593621116090468 0 -0.019055191931818403 0.0089841949033287044 0 -0.018362725613614204 0.0095473567494217797 0 -0.018168452864123795 0.008593621116090468 0 -0.017013136334106435 0.0090636302958006128 0 -0.018362725613614204 0.0095473567494217797 0 -0.01751864879375999 0.0084116076577016672 0 -0.018741052046426954 0.0083539025700939181 0 -0.017124778181515636 0.0090043068568351325 0 -0.01735681650641567 0.0099888796343826063 0 -0.017982893013260101 0.0094201761981974608 0 -0.01735681650641567 0.0099888796343826063 0 -0.017984737751609883 0.0099185506281301711 0 -0.017590422627466427 0.010236887686207882 0 -0.01735681650641567 0.0099888796343826063 0 -0.017982893013260101 0.0094201761981974608 0 -0.017984737751609883 0.0099185506281301711 0 -0.018588080107553348 0.010077974541118685 0 -0.017984737751609883 0.0099185506281301711 0 -0.017590422627466427 0.010236887686207882 0 -0.018588080107553348 0.010077974541118685 0 -0.017984737751609883 0.0099185506281301711 0 -0.01830468168957072 0.0097726812510821274 0 -0.017982893013260101 0.0094201761981974608 0 -0.017984737751609883 0.0099185506281301711 0 -0.01830468168957072 0.0097726812510821274 0 -0.01971300503195712 0.009595953263196769 0 -0.019209730322057351 0.01011278431458864 0 -0.019444920711196852 0.010788198572522091 0 -0.01971300503195712 0.009595953263196769 0 -0.019209730322057351 0.01011278431458864 0 -0.018529271409452187 0.0098728060154244148 0 -0.020821677343655434 0.0084530385585488907 0 -0.018395661099250702 0.0095114071522966262 0 -0.019209730322057351 0.01011278431458864 0 -0.018529271409452187 0.0098728060154244148 0 -0.018776466176244469 0.010556979709376246 0 -0.018529271409452187 0.0098728060154244148 0 -0.018776466176244469 0.010556979709376246 0 -0.018082590922451035 0.010676401136809342 0 -0.018776466176244469 0.010556979709376246 0 -0.018082590922451035 0.010676401136809342 0 -0.018604352618569187 0.011311022092113484 0 -0.018776466176244469 0.010556979709376246 0 -0.019444920711196852 0.010788198572522091 0 -0.018604352618569187 0.011311022092113484 0 -0.019209730322057351 0.01011278431458864 0 -0.018776466176244469 0.010556979709376246 0 -0.019444920711196852 0.010788198572522091 0 -0.017263289873001367 0.010209922817510606 0 -0.016901247524631333 0.010223553074270007 0 -0.017006109290665546 0.010599603942934511 0 -0.017156151068917557 0.0099924703283674268 0 -0.017263289873001367 0.010209922817510606 0 -0.016901247524631333 0.010223553074270007 0 -0.017156151068917557 0.0099924703283674268 0 -0.017263289873001367 0.010209922817510606 0 -0.017310740901701181 0.010084135304962962 0 -0.017590422627466427 0.010236887686207882 0 -0.017263289873001367 0.010209922817510606 0 -0.017310740901701181 0.010084135304962962 0 -0.018395661099250702 0.0095114071522966262 0 -0.017752109254553214 0.0097871546981503285 0 -0.018529271409452187 0.0098728060154244148 0 -0.017263289873001367 0.010209922817510606 0 -0.018082590922451035 0.010676401136809342 0 -0.017263289873001367 0.010209922817510606 0 -0.018082590922451035 0.010676401136809342 0 -0.017474547399296474 0.010756200290282817 0 -0.018082590922451035 0.010676401136809342 0 -0.017474547399296474 0.010756200290282817 0 -0.01779954793932273 0.011392232200455332 0 -0.017263289873001367 0.010209922817510606 0 -0.017474547399296474 0.010756200290282817 0 -0.017006109290665546 0.010599603942934511 0 -0.017474547399296474 0.010756200290282817 0 -0.017182258312852351 0.011101711510484707 0 -0.017006109290665546 0.010599603942934511 0 -0.017182258312852351 0.011101711510484707 0 -0.01779954793932273 0.011392232200455332 0 -0.017149430407808756 0.01175578013623659 0 -0.017474547399296474 0.010756200290282817 0 -0.017182258312852351 0.011101711510484707 0 -0.01779954793932273 0.011392232200455332 0 -0.01779954793932273 0.011392232200455332 0 -0.018143982794781962 0.011900227518012308 0 -0.018604352618569187 0.011311022092113484 0 -0.018082590922451035 0.010676401136809342 0 -0.01779954793932273 0.011392232200455332 0 -0.018604352618569187 0.011311022092113484 0 -0.01779954793932273 0.011392232200455332 0 -0.018143982794781962 0.011900227518012308 0 -0.017724556942543521 0.012107553167231382 0 -0.018143982794781962 0.011900227518012308 0 -0.017724556942543521 0.012107553167231382 0 -0.018333577829367755 0.012334238660514368 0 -0.017724556942543521 0.012107553167231382 0 -0.017149430407808756 0.01175578013623659 0 -0.017176307302847527 0.01264253456961969 0 -0.01779954793932273 0.011392232200455332 0 -0.017724556942543521 0.012107553167231382 0 -0.017149430407808756 0.01175578013623659 0 -0.017724556942543521 0.012107553167231382 0 -0.017176307302847527 0.01264253456961969 0 -0.017921953095522206 0.012686949879083276 0 -0.017724556942543521 0.012107553167231382 0 -0.017921953095522206 0.012686949879083276 0 -0.018333577829367755 0.012334238660514368 0 -0.017921953095522206 0.012686949879083276 0 -0.018393037321851487 0.012941006086431044 0 -0.018333577829367755 0.012334238660514368 0 -0.017921953095522206 0.012686949879083276 0 -0.017980545353628908 0.013406179722981946 0 -0.018393037321851487 0.012941006086431044 0 -0.017980545353628908 0.013406179722981946 0 -0.018532991782526605 0.013390055740633478 0 -0.018393037321851487 0.012941006086431044 0 -0.046531844761265921 -0.0018377827955804492 0 -0.045710554908712689 -0.0026419612581686986 0 -0.04684223280247736 -0.0026928128584035199 0 -0.017176307302847527 0.01264253456961969 0 -0.017921953095522206 0.012686949879083276 0 -0.017980545353628908 0.013406179722981946 0 -0.031860911508292948 0.0055784954129953013 0 -0.032187737500549443 0.0061101159799187088 0 -0.021405993527003706 0.016391959315128667 0 -0.02061435552695055 0.016252439374079459 0 -0.021244847647835591 0.01559511365612478 0 -0.022657669374484577 0.015858308883410801 0 -0.02203933406047253 0.01687605513757464 0 -0.023157161167414363 0.016984576400580272 0 -0.021405993527003706 0.016391959315128667 0 -0.022657669374484577 0.015858308883410801 0 -0.02203933406047253 0.01687605513757464 0 -0.021405993527003706 0.016391959315128667 0 -0.021244847647835591 0.01559511365612478 0 -0.022657669374484577 0.015858308883410801 0 -0.02203933406047253 0.01687605513757464 0 -0.023157161167414363 0.016984576400580272 0 -0.022030067087205969 0.017923378908628204 0 -0.021405993527003706 0.016391959315128667 0 -0.02061435552695055 0.016252439374079459 0 -0.021059594405138458 0.017371919837768039 0 -0.02203933406047253 0.01687605513757464 0 -0.021059594405138458 0.017371919837768039 0 -0.022030067087205969 0.017923378908628204 0 -0.021405993527003706 0.016391959315128667 0 -0.02203933406047253 0.01687605513757464 0 -0.021059594405138458 0.017371919837768039 0 -0.018973912223036137 0.013054864370687681 0 -0.018532991782526605 0.013390055740633478 0 -0.018393037321851487 0.012941006086431044 0 -0.018973912223036137 0.013054864370687681 0 -0.018393037321851487 0.012941006086431044 0 -0.018642826577365462 0.012640865089023137 0 -0.018393037321851487 0.012941006086431044 0 -0.018642826577365462 0.012640865089023137 0 -0.018333577829367755 0.012334238660514368 0 -0.018973912223036137 0.013054864370687681 0 -0.018642826577365462 0.012640865089023137 0 -0.01878734608475531 0.01234006168142069 0 -0.018642826577365462 0.012640865089023137 0 -0.018333577829367755 0.012334238660514368 0 -0.01878734608475531 0.01234006168142069 0 -0.018973912223036137 0.013054864370687681 0 -0.01878734608475531 0.01234006168142069 0 -0.019190178741774793 0.011940813159004561 0 -0.025559349523655229 0.01426128447866685 0 -0.02247190630504442 0.012393451068331087 0 -0.021244847647835591 0.01559511365612478 0 -0.021054982828244022 0.012374189313553623 0 -0.023056613189596308 0.012581843624381512 0 -0.022373873753890359 0.013917674912692126 0 -0.023530471727279345 0.012364193700427501 0 -0.02061435552695055 0.016252439374079459 0 -0.021244847647835591 0.01559511365612478 0 -0.021054982828244022 0.012374189313553623 0 -0.021244847647835591 0.01559511365612478 0 -0.022657669374484577 0.015858308883410801 0 -0.023772453640303962 0.012527563462109056 0 -0.018143982794781962 0.011900227518012308 0 -0.018628855327079672 0.011944247941620483 0 -0.018604352618569187 0.011311022092113484 0 -0.019190178741774793 0.011940813159004561 0 -0.018628855327079672 0.011944247941620483 0 -0.018604352618569187 0.011311022092113484 0 -0.018333577829367755 0.012334238660514368 0 -0.01878734608475531 0.01234006168142069 0 -0.018628855327079672 0.011944247941620483 0 -0.018143982794781962 0.011900227518012308 0 -0.018333577829367755 0.012334238660514368 0 -0.018628855327079672 0.011944247941620483 0 -0.01878734608475531 0.01234006168142069 0 -0.019190178741774793 0.011940813159004561 0 -0.018628855327079672 0.011944247941620483 0 -0.02159267231169832 0.0085157611213867706 0 -0.021054982828244022 0.012374189313553623 0 -0.023070406482466943 0.010339603026444412 0 -0.021389330820522828 0.0099391128897864511 0 -0.02247190630504442 0.012393451068331087 0 -0.019444920711196852 0.010788198572522091 0 -0.019190178741774793 0.011940813159004561 0 -0.018604352618569187 0.011311022092113484 0 -0.023070406482466943 0.010339603026444412 0 -0.025188406050698397 0.0096671572647042958 0 -0.023056613189596308 0.012581843624381512 0 -0.025444629031335188 0.0097882239715231124 0 -0.023530471727279345 0.012364193700427501 0 -0.025956366328628414 0.0095354405638342892 0 -0.025925293715563832 0.012317198989835016 0 -0.027993104435368316 0.011698209235043744 0 -0.025925293715563832 0.012317198989835016 0 -0.027993104435368316 0.011698209235043744 0 -0.026749937150399673 0.013908530964588125 0 -0.025956366328628414 0.0095354405638342892 0 -0.025925293715563832 0.012317198989835016 0 -0.023772453640303962 0.012527563462109056 0 -0.021054982828244022 0.012374189313553623 0 -0.023070406482466943 0.010339603026444412 0 -0.023056613189596308 0.012581843624381512 0 -0.025925293715563832 0.012317198989835016 0 -0.023772453640303962 0.012527563462109056 0 -0.025164673864096401 0.013965741139104969 0 -0.03276073410173419 0.0079412733821600089 0 -0.029038916199985217 0.0090780917642504042 0 -0.031243174422612537 0.011089389512711559 0 -0.029038916199985217 0.0090780917642504042 0 -0.031243174422612537 0.011089389512711559 0 -0.027993104435368316 0.011698209235043744 0 -0.029038916199985217 0.0090780917642504042 0 -0.025956366328628414 0.0095354405638342892 0 -0.027993104435368316 0.011698209235043744 0 -0.027993104435368316 0.011698209235043744 0 -0.029612815584501382 0.014408148029351205 0 -0.026749937150399673 0.013908530964588125 0 -0.031243174422612537 0.011089389512711559 0 -0.029612815584501382 0.014408148029351205 0 -0.032685277743025438 0.013952830563813159 0 -0.031243174422612537 0.011089389512711559 0 -0.027993104435368316 0.011698209235043744 0 -0.029612815584501382 0.014408148029351205 0 -0.029612815584501382 0.014408148029351205 0 -0.032685277743025438 0.013952830563813159 0 -0.032125342329774924 0.017431551949135499 0 -0.029612815584501382 0.014408148029351205 0 -0.027380289849394467 0.015705599243273236 0 -0.026749937150399673 0.013908530964588125 0 -0.028707719323009268 0.017119296009106545 0 -0.027380289849394467 0.015705599243273236 0 -0.026430697435410769 0.017140178703079413 0 -0.028707719323009268 0.017119296009106545 0 -0.026430697435410769 0.017140178703079413 0 -0.027318466503070408 0.018647593443560043 0 -0.029612815584501382 0.014408148029351205 0 -0.028707719323009268 0.017119296009106545 0 -0.027380289849394467 0.015705599243273236 0 -0.029612815584501382 0.014408148029351205 0 -0.028707719323009268 0.017119296009106545 0 -0.032125342329774924 0.017431551949135499 0 -0.022657669374484577 0.015858308883410801 0 -0.023772453640303962 0.012527563462109056 0 -0.024097493753011224 0.015356668879719928 0 -0.023772453640303962 0.012527563462109056 0 -0.024097493753011224 0.015356668879719928 0 -0.025164673864096401 0.013965741139104969 0 -0.024097493753011224 0.015356668879719928 0 -0.025164673864096401 0.013965741139104969 0 -0.025603609166764327 0.015763932701996861 0 -0.025925293715563832 0.012317198989835016 0 -0.025164673864096401 0.013965741139104969 0 -0.026749937150399673 0.013908530964588125 0 -0.027380289849394467 0.015705599243273236 0 -0.026749937150399673 0.013908530964588125 0 -0.025603609166764327 0.015763932701996861 0 -0.025164673864096401 0.013965741139104969 0 -0.026749937150399673 0.013908530964588125 0 -0.025603609166764327 0.015763932701996861 0 -0.025603609166764327 0.015763932701996861 0 -0.026430697435410769 0.017140178703079413 0 -0.024554922479620746 0.016906023923569626 0 -0.027380289849394467 0.015705599243273236 0 -0.025603609166764327 0.015763932701996861 0 -0.026430697435410769 0.017140178703079413 0 -0.026430697435410769 0.017140178703079413 0 -0.024554922479620746 0.016906023923569626 0 -0.024885397978145502 0.018281691532198396 0 -0.024554922479620746 0.016906023923569626 0 -0.023818917023890909 0.017952046389877362 0 -0.024885397978145502 0.018281691532198396 0 -0.024097493753011224 0.015356668879719928 0 -0.025603609166764327 0.015763932701996861 0 -0.024554922479620746 0.016906023923569626 0 -0.024097493753011224 0.015356668879719928 0 -0.024554922479620746 0.016906023923569626 0 -0.023157161167414363 0.016984576400580272 0 -0.022657669374484577 0.015858308883410801 0 -0.024097493753011224 0.015356668879719928 0 -0.023157161167414363 0.016984576400580272 0 -0.024554922479620746 0.016906023923569626 0 -0.023157161167414363 0.016984576400580272 0 -0.023818917023890909 0.017952046389877362 0 -0.023157161167414363 0.016984576400580272 0 -0.022905541848660286 0.018251167886655383 0 -0.023818917023890909 0.017952046389877362 0 -0.022905541848660286 0.018251167886655383 0 -0.023818917023890909 0.017952046389877362 0 -0.023599136371736242 0.019325794294788829 0 -0.022905541848660286 0.018251167886655383 0 -0.023599136371736242 0.019325794294788829 0 -0.022233147354445825 0.019438305289092444 0 -0.023599136371736242 0.019325794294788829 0 -0.024644894194964573 0.019624288475343674 0 -0.024885397978145502 0.018281691532198396 0 -0.023818917023890909 0.017952046389877362 0 -0.023599136371736242 0.019325794294788829 0 -0.024885397978145502 0.018281691532198396 0 -0.03175848328045705 0.018465517120728591 0 -0.032496356272750909 0.01847590570238284 0 -0.026430697435410769 0.017140178703079413 0 -0.027318466503070408 0.018647593443560043 0 -0.026365145935887395 0.019523361752626003 0 -0.026430697435410769 0.017140178703079413 0 -0.024885397978145502 0.018281691532198396 0 -0.025970251941517447 0.019657604963412279 0 -0.03197986961195376 0.018771886705593169 0 -0.032496356272750909 0.01847590570238284 0 -0.024644894194964573 0.019624288475343674 0 -0.024885397978145502 0.018281691532198396 0 -0.025970251941517447 0.019657604963412279 0 -0.027318466503070408 0.018647593443560043 0 -0.02681512303602018 0.019270426168736251 0 -0.027312284723255472 0.020805454427434065 0 -0.02681512303602018 0.019270426168736251 0 -0.027312284723255472 0.020805454427434065 0 -0.026620017410787407 0.021733999736713278 0 -0.036109317302138913 0.01644508576552766 0 -0.037309796316693233 0.015385930813742128 0 -0.03641508937448041 0.014476201933301994 0 -0.032496356272750909 0.01847590570238284 0 -0.036012209588863288 0.017178549102872944 0 -0.024125953145044701 0.021222937204668366 0 -0.022323750654758952 0.022792023773556547 0 -0.022333210360044119 0.021059334864543956 0 -0.033647190562560117 0.0162493648432127 0 -0.037890058633101534 0.011426585046923031 0 -0.023599136371736242 0.019325794294788829 0 -0.024125953145044701 0.021222937204668366 0 -0.022333210360044119 0.021059334864543956 0 -0.024644894194964573 0.019624288475343674 0 -0.025970251941517447 0.019657604963412279 0 -0.024125953145044701 0.021222937204668366 0 -0.032496356272750909 0.01847590570238284 0 -0.033647190562560117 0.0162493648432127 0 -0.023599136371736242 0.019325794294788829 0 -0.024644894194964573 0.019624288475343674 0 -0.024125953145044701 0.021222937204668366 0 -0.03064430775590905 0.01859905281709465 0 -0.033425616880065623 0.016707591850992756 0 -0.028707719323009268 0.017119296009106545 0 -0.029200867133042839 0.01923810541573398 0 -0.032125342329774924 0.017431551949135499 0 -0.031153663293266201 0.018140141298499817 0 -0.032808471939647234 0.019926952656305029 0 -0.034658098641443223 0.01594938428216355 0 -0.028707719323009268 0.017119296009106545 0 -0.027318466503070408 0.018647593443560043 0 -0.029200867133042839 0.01923810541573398 0 -0.027312284723255472 0.020805454427434065 0 -0.031153663293266201 0.018140141298499817 0 -0.030508144932067591 0.02111911944572219 0 -0.027318466503070408 0.018647593443560043 0 -0.027312284723255472 0.020805454427434065 0 -0.029200867133042839 0.01923810541573398 0 -0.029144104860682217 0.019654407590261939 0 -0.03064430775590905 0.01859905281709465 0 -0.031153663293266201 0.018140141298499817 0 -0.030508144932067591 0.02111911944572219 0 -0.032808471939647234 0.019926952656305029 0 -0.032808471939647234 0.019926952656305029 0 -0.03329553124526563 0.022877137472567585 0 -0.035233942654733792 0.020085432252511616 0 -0.030508144932067591 0.02111911944572219 0 -0.03329553124526563 0.022877137472567585 0 -0.030486741347181857 0.023734037939979719 0 -0.030508144932067591 0.02111911944572219 0 -0.032808471939647234 0.019926952656305029 0 -0.03329553124526563 0.022877137472567585 0 -0.030508144932067591 0.02111911944572219 0 -0.030486741347181857 0.023734037939979719 0 -0.028581592020972706 0.02237716323328709 0 -0.027312284723255472 0.020805454427434065 0 -0.030508144932067591 0.02111911944572219 0 -0.028581592020972706 0.02237716323328709 0 -0.030486741347181857 0.023734037939979719 0 -0.028581592020972706 0.02237716323328709 0 -0.028310887127507955 0.024029659454470265 0 -0.030486741347181857 0.023734037939979719 0 -0.029989569657523245 0.026011894160853345 0 -0.032689982287141414 0.025763381117765424 0 -0.030486741347181857 0.023734037939979719 0 -0.029989569657523245 0.026011894160853345 0 -0.028310887127507955 0.024029659454470265 0 -0.03329553124526563 0.022877137472567585 0 -0.032689982287141414 0.025763381117765424 0 -0.034757539044942713 0.02546063553137164 0 -0.03329553124526563 0.022877137472567585 0 -0.030486741347181857 0.023734037939979719 0 -0.032689982287141414 0.025763381117765424 0 -0.037234157456620967 0.014179036905105743 0 -0.03641508937448041 0.014476201933301994 0 -0.036718235165640649 0.012527728849494359 0 -0.041702406936074903 0.012918328441651309 0 -0.037890058633101534 0.011426585046923031 0 -0.037234157456620967 0.014179036905105743 0 -0.036718235165640649 0.012527728849494359 0 -0.038494063243841192 0.014332486127811872 0 -0.037309796316693233 0.015385930813742128 0 -0.037234157456620967 0.014179036905105743 0 -0.038494063243841192 0.014332486127811872 0 -0.037309796316693233 0.015385930813742128 0 -0.037234157456620967 0.014179036905105743 0 -0.03641508937448041 0.014476201933301994 0 -0.036012209588863288 0.017178549102872944 0 -0.041702406936074903 0.012918328441651309 0 -0.026620017410787407 0.021733999736713278 0 -0.028310887127507955 0.024029659454470265 0 -0.026158265820619087 0.025229153653196067 0 -0.027312284723255472 0.020805454427434065 0 -0.026620017410787407 0.021733999736713278 0 -0.028581592020972706 0.02237716323328709 0 -0.026620017410787407 0.021733999736713278 0 -0.028581592020972706 0.02237716323328709 0 -0.028310887127507955 0.024029659454470265 0 -0.029989569657523245 0.026011894160853345 0 -0.028310887127507955 0.024029659454470265 0 -0.026158265820619087 0.025229153653196067 0 -0.04998640537294978 0.0058125745669118699 0 -0.050582918729144326 0.0058019769944318003 0 -0.050533221971982914 0.0063581294527955984 0 -0.04998640537294978 0.0058125745669118699 0 -0.050582918729144326 0.0058019769944318003 0 -0.050305615039053515 0.0054992360295825684 0 -0.050582918729144326 0.0058019769944318003 0 -0.050533221971982914 0.0063581294527955984 0 -0.050910708094284302 0.0060089065757588742 0 -0.050582918729144326 0.0058019769944318003 0 -0.050916788712110736 0.0056541551068433737 0 -0.050765410996939236 0.0054378100830449203 0 -0.050582918729144326 0.0058019769944318003 0 -0.050910708094284302 0.0060089065757588742 0 -0.050916788712110736 0.0056541551068433737 0 -0.037890058633101534 0.011426585046923031 0 -0.042665557084343934 0.0073022145279866332 0 -0.038553533056402349 0.0086551550465654558 0 -0.039687665863260328 0.0090083677874017356 0 -0.039788981936224703 0.0075601022779192501 0 -0.049630021028368165 0.0043477623946806838 0 -0.050067121555752339 0.0042659855492966524 0 -0.049458431408856945 0.0050138814698978459 0 -0.039687665863260328 0.0090083677874017356 0 -0.040632781521811843 0.0082704208493028317 0 -0.040228321542492299 0.010062230998620849 0 -0.039687665863260328 0.0090083677874017356 0 -0.040632781521811843 0.0082704208493028317 0 -0.039788981936224703 0.0075601022779192501 0 -0.042665557084343934 0.0073022145279866332 0 -0.045090165263193621 0.0047689457875717215 0 -0.041342966537322064 0.0061469028166291498 0 -0.045090165263193621 0.0047689457875717215 0 -0.040632781521811843 0.0082704208493028317 0 -0.039788981936224703 0.0075601022779192501 0 -0.041041005989154021 0.0064578398244538177 0 -0.050910708094284302 0.0060089065757588742 0 -0.050916788712110736 0.0056541551068433737 0 -0.051224106409024334 0.0056745715261324794 0 -0.049786215004632373 0.0037222300503298132 0 -0.05003613176610465 0.0036759992598382803 0 -0.050164076695132689 0.0038780049180158326 0 -0.049786215004632373 0.0037222300503298132 0 -0.050164076695132689 0.0038780049180158326 0 -0.050067121555752339 0.0042659855492966524 0 -0.050164076695132689 0.0038780049180158326 0 -0.050496788724525246 0.0041875971535648053 0 -0.050246958937839738 0.003382059186569795 0 -0.049630021028368165 0.0043477623946806838 0 -0.049786215004632373 0.0037222300503298132 0 -0.050067121555752339 0.0042659855492966524 0 -0.05003613176610465 0.0036759992598382803 0 -0.050164076695132689 0.0038780049180158326 0 -0.050246958937839738 0.003382059186569795 0 -0.050164076695132689 0.0038780049180158326 0 -0.050496788724525246 0.0041875971535648053 0 -0.050067121555752339 0.0042659855492966524 0 -0.050028265795057689 0.0040366246903656379 0 -0.049853351382981408 0.0038750082118039582 0 -0.050637248158384503 0.0039359139777569918 0 -0.050496788724525246 0.0041875971535648053 0 -0.050606622757080409 0.0037752740282625302 0 -0.050715681324497552 0.003905547004516566 0 -0.050637248158384503 0.0039359139777569918 0 -0.050732198421312907 0.0040901675819051313 0 -0.050637248158384503 0.0039359139777569918 0 -0.050732198421312907 0.0040901675819051313 0 -0.050496788724525246 0.0041875971535648053 0 -0.050732198421312907 0.0040901675819051313 0 -0.050406030775541177 0.0045123394300743786 0 -0.051008057394232045 0.0041165994613520289 0 -0.050732198421312907 0.0040901675819051313 0 -0.050496788724525246 0.0041875971535648053 0 -0.050406030775541177 0.0045123394300743786 0 -0.04717798666257262 0.0019827456535945814 0 -0.050566249940286211 0.00060580642871930579 0 -0.050406030775541177 0.0045123394300743786 0 -0.050067121555752339 0.0042659855492966524 0 -0.049458431408856945 0.0050138814698978459 0 -0.050496788724525246 0.0041875971535648053 0 -0.050406030775541177 0.0045123394300743786 0 -0.050067121555752339 0.0042659855492966524 0 -0.046044877858656207 -0.0041387322722496768 0 -0.045590037146635821 -0.0034241426049745473 0 -0.044898084961949858 -0.0035469563320748359 0 -0.04717798666257262 0.0019827456535945814 0 -0.036176458950433796 0.0082517302945682922 0 -0.046044877858656207 -0.0041387322722496768 0 -0.046420392910360729 -0.0033577118400378997 0 -0.046886317227997742 -0.003868505537303894 0 -0.046044877858656207 -0.0041387322722496768 0 -0.045590037146635821 -0.0034241426049745473 0 -0.046420392910360729 -0.0033577118400378997 0 -0.045710554908712689 -0.0026419612581686986 0 -0.046420392910360729 -0.0033577118400378997 0 -0.04684223280247736 -0.0026928128584035199 0 -0.032187737500549443 0.0061101159799187088 0 -0.034657726006269832 0.0090695160850587878 0 -0.045710554908712689 -0.0026419612581686986 0 -0.045590037146635821 -0.0034241426049745473 0 -0.046420392910360729 -0.0033577118400378997 0 -0.045710554908712689 -0.0026419612581686986 0 -0.045590037146635821 -0.0034241426049745473 0 -0.044874664597862303 -0.0034382880077324283 0 -0.018973912223036137 0.013054864370687681 0 -0.018532991782526605 0.013390055740633478 0 -0.018781983117000179 0.014157548848728873 0 -0.02061435552695055 0.016252439374079459 0 -0.021059594405138458 0.017371919837768039 0 -0.019843191645332645 0.020312094161469063 0 -0.025559349523655229 0.01426128447866685 0 -0.034657726006269832 0.0090695160850587878 0 -0.017980545353628908 0.013406179722981946 0 -0.018532991782526605 0.013390055740633478 0 -0.018781983117000179 0.014157548848728873 0 -0.021059594405138458 0.017371919837768039 0 -0.021111948767291909 0.018424127901833419 0 -0.019843191645332645 0.020312094161469063 0 -0.021059594405138458 0.017371919837768039 0 -0.021111948767291909 0.018424127901833419 0 -0.022030067087205969 0.017923378908628204 0 -0.021111948767291909 0.018424127901833419 0 -0.022030067087205969 0.017923378908628204 0 -0.02175077035263058 0.018667082916176237 0 -0.022905541848660286 0.018251167886655383 0 -0.02175077035263058 0.018667082916176237 0 -0.022233147354445825 0.019438305289092444 0 -0.023157161167414363 0.016984576400580272 0 -0.022905541848660286 0.018251167886655383 0 -0.022030067087205969 0.017923378908628204 0 -0.022905541848660286 0.018251167886655383 0 -0.022030067087205969 0.017923378908628204 0 -0.02175077035263058 0.018667082916176237 0 -0.021111948767291909 0.018424127901833419 0 -0.021195229779524951 0.019380649488236069 0 -0.019843191645332645 0.020312094161469063 0 -0.02175077035263058 0.018667082916176237 0 -0.022233147354445825 0.019438305289092444 0 -0.021195229779524951 0.019380649488236069 0 -0.021111948767291909 0.018424127901833419 0 -0.02175077035263058 0.018667082916176237 0 -0.021195229779524951 0.019380649488236069 0 -0.022233147354445825 0.019438305289092444 0 -0.021561586589272506 0.019835871496566852 0 -0.021195229779524951 0.019380649488236069 0 -0.021561586589272506 0.019835871496566852 0 -0.021195229779524951 0.019380649488236069 0 -0.020852923224829668 0.020111769885428683 0 -0.038553533056402349 0.0086551550465654558 0 -0.039687665863260328 0.0090083677874017356 0 -0.040039799320264483 0.010158399443568568 0 -0.020852923224829668 0.020111769885428683 0 -0.022333210360044119 0.021059334864543956 0 -0.020059114361328262 0.020516901278163115 0 -0.037890058633101534 0.011426585046923031 0 -0.034987680905633714 0.0091299126366083967 0 -0.021561586589272506 0.019835871496566852 0 -0.020852923224829668 0.020111769885428683 0 -0.022333210360044119 0.021059334864543956 0 -0.022323750654758952 0.022792023773556547 0 -0.022333210360044119 0.021059334864543956 0 -0.020059114361328262 0.020516901278163115 0 -0.023599136371736242 0.019325794294788829 0 -0.022233147354445825 0.019438305289092444 0 -0.022333210360044119 0.021059334864543956 0 -0.022233147354445825 0.019438305289092444 0 -0.021561586589272506 0.019835871496566852 0 -0.022333210360044119 0.021059334864543956 0 -0.039687665863260328 0.0090083677874017356 0 -0.040228321542492299 0.010062230998620849 0 -0.040039799320264483 0.010158399443568568 0 -0.045590037146635821 -0.0034241426049745473 0 -0.044874664597862303 -0.0034382880077324283 0 -0.044898084961949858 -0.0035469563320748359 0 -0.041342966537322064 0.0061469028166291498 0 -0.036176458950433796 0.0082517302945682922 0 -0.021195229779524951 0.019380649488236069 0 -0.020852923224829668 0.020111769885428683 0 -0.019843191645332645 0.020312094161469063 0 -0.034657726006269832 0.0090695160850587878 0 -0.034987680905633714 0.0091299126366083967 0 -0.033987963461704213 0.0097028294920823172 0 -0.034987680905633714 0.0091299126366083967 0 -0.020852923224829668 0.020111769885428683 0 -0.019843191645332645 0.020312094161469063 0 -0.020052245982401639 0.020519343347209049 0 -0.034657726006269832 0.0090695160850587878 0 -0.036176458950433796 0.0082517302945682922 0 -0.033146812099713464 0.0071701283073530185 0 -0.031394397007635681 0.015263953449821845 0 -0.037879850570197604 0.011954098363135169 0 -0.036176458950433796 0.0082517302945682922 0 -0.034987680905633714 0.0091299126366083967 0 -0.049780754656391112 0.014215020236985348 0 -0.049975990754759961 0.015937168867488808 0 -0.049215369190453995 0.015836955712058769 0 -0.049215369190453995 0.015836955712058769 0 -0.047821520935739027 0.015180591482389016 0 -0.048851283838631146 0.016937321759978634 0 -0.049780754656391112 0.014215020236985348 0 -0.049215369190453995 0.015836955712058769 0 -0.047821520935739027 0.015180591482389016 0 -0.049975990754759961 0.015937168867488808 0 -0.049215369190453995 0.015836955712058769 0 -0.049616546316108311 0.016740077778717041 0 -0.046918899200475608 0.013059003226656997 0 -0.046530409456551076 0.011593017374572372 0 -0.047821520935739027 0.015180591482389016 0 -0.048618309008378761 0.012246127975875692 0 -0.046396964442270469 0.01249108066167085 0 -0.047821520935739027 0.015180591482389016 0 -0.047381034398178458 0.012059923625949478 0 -0.045771951166043469 0.014456210643420305 0 -0.049780754656391112 0.014215020236985348 0 -0.047821520935739027 0.015180591482389016 0 -0.048618309008378761 0.012246127975875692 0 -0.048618309008378761 0.012246127975875692 0 -0.049261447942020781 0.0098099610151758717 0 -0.045259594084669758 0.0094461368948687979 0 -0.046530409456551076 0.011593017374572372 0 -0.045733469848127213 0.008732843558888469 0 -0.048618309008378761 0.012246127975875692 0 -0.046396964442270469 0.01249108066167085 0 -0.045259594084669758 0.0094461368948687979 0 -0.047381034398178458 0.012059923625949478 0 -0.046724038698822384 0.0084712269305580925 0 -0.043949371887940007 0.012264328031916145 0 -0.046724038698822384 0.0084712269305580925 0 -0.042220424524341729 0.0089872913184691813 0 -0.043949371887940007 0.012264328031916145 0 -0.043949371887940007 0.012264328031916145 0 -0.045771951166043469 0.014456210643420305 0 -0.043287524709929637 0.01526161128512263 0 -0.045771951166043469 0.014456210643420305 0 -0.043287524709929637 0.01526161128512263 0 -0.047464924888603717 0.017887033882325383 0 -0.047821520935739027 0.015180591482389016 0 -0.045771951166043469 0.014456210643420305 0 -0.047464924888603717 0.017887033882325383 0 -0.047381034398178458 0.012059923625949478 0 -0.043949371887940007 0.012264328031916145 0 -0.045771951166043469 0.014456210643420305 0 -0.043287524709929637 0.01526161128512263 0 -0.040132930777472986 0.015818139264232776 0 -0.04305672704964774 0.017651595290924828 0 -0.040132930777472986 0.015818139264232776 0 -0.037748183648910118 0.014076471125383279 0 -0.037810757820217936 0.017696471237851823 0 -0.037825331031716411 0.013710512648624901 0 -0.036245647537420413 0.014804584319579013 0 -0.040132930777472986 0.015818139264232776 0 -0.039847454720984325 0.012537261139356885 0 -0.037748183648910118 0.014076471125383279 0 -0.043949371887940007 0.012264328031916145 0 -0.043287524709929637 0.01526161128512263 0 -0.039847454720984325 0.012537261139356885 0 -0.043287524709929637 0.01526161128512263 0 -0.040132930777472986 0.015818139264232776 0 -0.039847454720984325 0.012537261139356885 0 -0.042220424524341729 0.0089872913184691813 0 -0.043949371887940007 0.012264328031916145 0 -0.039847454720984325 0.012537261139356885 0 -0.042220424524341729 0.0089872913184691813 0 -0.03887316872024893 0.0094917163580556432 0 -0.039847454720984325 0.012537261139356885 0 -0.03620501312710328 0.007616991601757825 0 -0.03887316872024893 0.0094917163580556432 0 -0.03525596042580359 0.011161399063999608 0 -0.039847454720984325 0.012537261139356885 0 -0.03525596042580359 0.011161399063999608 0 -0.035554685748511762 0.015409008576512626 0 -0.03887316872024893 0.0094917163580556432 0 -0.039847454720984325 0.012537261139356885 0 -0.03525596042580359 0.011161399063999608 0 -0.03620501312710328 0.007616991601757825 0 -0.03276073410173419 0.0079412733821600089 0 -0.03525596042580359 0.011161399063999608 0 -0.03276073410173419 0.0079412733821600089 0 -0.031243174422612537 0.011089389512711559 0 -0.03525596042580359 0.011161399063999608 0 -0.031243174422612537 0.011089389512711559 0 -0.03525596042580359 0.011161399063999608 0 -0.032685277743025438 0.013952830563813159 0 -0.032685277743025438 0.013952830563813159 0 -0.035554685748511762 0.015409008576512626 0 -0.032125342329774924 0.017431551949135499 0 -0.03525596042580359 0.011161399063999608 0 -0.032685277743025438 0.013952830563813159 0 -0.035554685748511762 0.015409008576512626 0 -0.037748183648910118 0.014076471125383279 0 -0.034658098641443223 0.01594938428216355 0 -0.037810757820217936 0.017696471237851823 0 -0.036245647537420413 0.014804584319579013 0 -0.033425616880065623 0.016707591850992756 0 -0.032808471939647234 0.019926952656305029 0 -0.034658098641443223 0.01594938428216355 0 -0.035233942654733792 0.020085432252511616 0 -0.034658098641443223 0.01594938428216355 0 -0.037810757820217936 0.017696471237851823 0 -0.035233942654733792 0.020085432252511616 0 -0.037810757820217936 0.017696471237851823 0 -0.035233942654733792 0.020085432252511616 0 -0.038271224283981387 0.021056814817979278 0 -0.04354955113044761 0.019895671913349042 0 -0.045493723561446618 0.020096553246429855 0 -0.03329553124526563 0.022877137472567585 0 -0.035233942654733792 0.020085432252511616 0 -0.036027680566892414 0.023708581428368972 0 -0.03329553124526563 0.022877137472567585 0 -0.036027680566892414 0.023708581428368972 0 -0.034757539044942713 0.02546063553137164 0 -0.036027680566892414 0.023708581428368972 0 -0.034757539044942713 0.02546063553137164 0 -0.037005941567926713 0.027069385368113558 0 -0.045493723561446618 0.020096553246429855 0 -0.051054725400057392 0.017799334110642068 0 -0.036068332081095153 0.023278025733884673 0 -0.038751201695335996 0.024175793493615882 0 -0.037009822967513338 0.026341095148458192 0 -0.046859431044249632 0.021807988629805933 0 -0.051054725400057392 0.017799334110642068 0 -0.038751201695335996 0.024175793493615882 0 -0.039242286844272542 0.026041025618589744 0 -0.037070834258482933 0.026324948624601868 0 -0.035233942654733792 0.020085432252511616 0 -0.036068332081095153 0.023278025733884673 0 -0.038271224283981387 0.021056814817979278 0 -0.036068332081095153 0.023278025733884673 0 -0.038271224283981387 0.021056814817979278 0 -0.038751201695335996 0.024175793493615882 0 -0.038271224283981387 0.021056814817979278 0 -0.040214519530330679 0.022388437750568511 0 -0.038751201695335996 0.024175793493615882 0 -0.038751201695335996 0.024175793493615882 0 -0.041270627010518174 0.025386489871850253 0 -0.039242286844272542 0.026041025618589744 0 -0.040214519530330679 0.022388437750568511 0 -0.038751201695335996 0.024175793493615882 0 -0.041270627010518174 0.025386489871850253 0 -0.041270627010518174 0.025386489871850253 0 -0.042830665805726434 0.022264642703946971 0 -0.044033311758141687 0.024709742747290528 0 -0.040214519530330679 0.022388437750568511 0 -0.041270627010518174 0.025386489871850253 0 -0.042830665805726434 0.022264642703946971 0 -0.040214519530330679 0.022388437750568511 0 -0.042830665805726434 0.022264642703946971 0 -0.040831142180107999 0.019547204986383571 0 -0.042830665805726434 0.022264642703946971 0 -0.040831142180107999 0.019547204986383571 0 -0.044093740514998266 0.019862943601408459 0 -0.040831142180107999 0.019547204986383571 0 -0.04305672704964774 0.017651595290924828 0 -0.044093740514998266 0.019862943601408459 0 -0.037810757820217936 0.017696471237851823 0 -0.038271224283981387 0.021056814817979278 0 -0.040831142180107999 0.019547204986383571 0 -0.038271224283981387 0.021056814817979278 0 -0.040214519530330679 0.022388437750568511 0 -0.040831142180107999 0.019547204986383571 0 -0.040132930777472986 0.015818139264232776 0 -0.037810757820217936 0.017696471237851823 0 -0.040831142180107999 0.019547204986383571 0 -0.040132930777472986 0.015818139264232776 0 -0.040831142180107999 0.019547204986383571 0 -0.04305672704964774 0.017651595290924828 0 -0.043287524709929637 0.01526161128512263 0 -0.04305672704964774 0.017651595290924828 0 -0.047464924888603717 0.017887033882325383 0 -0.048863508564349109 0.01817444100675435 0 -0.049050270420527495 0.018723258018972351 0 -0.047464924888603717 0.017887033882325383 0 -0.044093740514998266 0.019862943601408459 0 -0.046775037078900863 0.021982047289172916 0 -0.047464924888603717 0.017887033882325383 0 -0.050473086890930309 0.017735782003370688 0 -0.049161390082599198 0.017788466320509289 0 -0.04305672704964774 0.017651595290924828 0 -0.047464924888603717 0.017887033882325383 0 -0.044093740514998266 0.019862943601408459 0 -0.042830665805726434 0.022264642703946971 0 -0.044033311758141687 0.024709742747290528 0 -0.046775037078900863 0.021982047289172916 0 -0.042830665805726434 0.022264642703946971 0 -0.044093740514998266 0.019862943601408459 0 -0.046775037078900863 0.021982047289172916 0 -0.044033311758141687 0.024709742747290528 0 -0.046286586585264022 0.025398846073628405 0 -0.046775037078900863 0.021982047289172916 0 -0.049420829766012621 0.018968424124868311 0 -0.049050270420527495 0.018723258018972351 0 -0.05348728340054331 0.015813698670570812 0 -0.050473086890930309 0.017735782003370688 0 -0.051255102213245869 0.016601816636109715 0 -0.05348728340054331 0.015813698670570812 0 -0.051255102213245869 0.016601816636109715 0 -0.05189084269036031 0.015043862357056594 0 -0.050473086890930309 0.017735782003370688 0 -0.050022228563570477 0.017158658516997237 0 -0.049161390082599198 0.017788466320509289 0 -0.050473086890930309 0.017735782003370688 0 -0.050022228563570477 0.017158658516997237 0 -0.051255102213245869 0.016601816636109715 0 -0.050022228563570477 0.017158658516997237 0 -0.051255102213245869 0.016601816636109715 0 -0.050617970718625921 0.016281639274326441 0 -0.051255102213245869 0.016601816636109715 0 -0.050617970718625921 0.016281639274326441 0 -0.05189084269036031 0.015043862357056594 0 -0.050022228563570477 0.017158658516997237 0 -0.050617970718625921 0.016281639274326441 0 -0.049441018862729683 0.016149421043299042 0 -0.049423828578393864 0.017035159825956811 0 -0.050022228563570477 0.017158658516997237 0 -0.049441018862729683 0.016149421043299042 0 -0.050022228563570477 0.017158658516997237 0 -0.049481427878780716 0.017472364967922312 0 -0.049161390082599198 0.017788466320509289 0 -0.049423828578393864 0.017035159825956811 0 -0.050022228563570477 0.017158658516997237 0 -0.049481427878780716 0.017472364967922312 0 -0.049611196012929022 0.017240197984160557 0 -0.049481427878780716 0.017472364967922312 0 -0.049339450438638403 0.017330676614315931 0 -0.049611196012929022 0.017240197984160557 0 -0.049339450438638403 0.017330676614315931 0 -0.049616546316108311 0.016740077778717041 0 -0.049481427878780716 0.017472364967922312 0 -0.049339450438638403 0.017330676614315931 0 -0.049161390082599198 0.017788466320509289 0 -0.047464924888603717 0.017887033882325383 0 -0.049161390082599198 0.017788466320509289 0 -0.048851283838631146 0.016937321759978634 0 -0.049339450438638403 0.017330676614315931 0 -0.049161390082599198 0.017788466320509289 0 -0.048851283838631146 0.016937321759978634 0 -0.047821520935739027 0.015180591482389016 0 -0.047464924888603717 0.017887033882325383 0 -0.048851283838631146 0.016937321759978634 0 -0.049215369190453995 0.015836955712058769 0 -0.048851283838631146 0.016937321759978634 0 -0.049616546316108311 0.016740077778717041 0 -0.049339450438638403 0.017330676614315931 0 -0.048851283838631146 0.016937321759978634 0 -0.049616546316108311 0.016740077778717041 0 -0.057176405657560221 0.0024400507952531359 0 -0.056959552522407898 0.0011590189349246114 0 -0.044480061002422459 0.00049865707991980884 0 -0.047938566608441445 0.0030076904443795773 0 -0.050074641557815908 -0.00081113706379520195 0 -0.047938566608441445 0.0030076904443795773 0 -0.050737676737866819 0.0032391703628919435 0 -0.049086082800089172 0.0055829194669262255 0 -0.044480061002422459 0.00049865707991980884 0 -0.047938566608441445 0.0030076904443795773 0 -0.046241538558220836 0.0037145858472084491 0 -0.047938566608441445 0.0030076904443795773 0 -0.050737676737866819 0.0032391703628919435 0 -0.050074641557815908 -0.00081113706379520195 0 -0.053007025451165465 0.0015937649064333842 0 -0.050737676737866819 0.0032391703628919435 0 -0.050074641557815908 -0.00081113706379520195 0 -0.053007025451165465 0.0015937649064333842 0 -0.058107194683991642 -0.0015977485124382426 0 -0.050074641557815908 -0.00081113706379520195 0 -0.053007025451165465 0.0015937649064333842 0 -0.055691128490804612 0.0013408506282579743 0 -0.058107194683991642 -0.0015977485124382426 0 -0.055691128490804612 0.0013408506282579743 0 -0.053229267127426344 0.0038784893802429475 0 -0.054937053331865673 0.0038191528570363075 0 -0.053007025451165465 0.0015937649064333842 0 -0.055691128490804612 0.0013408506282579743 0 -0.053229267127426344 0.0038784893802429475 0 -0.053007025451165465 0.0015937649064333842 0 -0.053229267127426344 0.0038784893802429475 0 -0.050737676737866819 0.0032391703628919435 0 -0.053229267127426344 0.0038784893802429475 0 -0.050737676737866819 0.0032391703628919435 0 -0.051169719297195576 0.0055119435890601124 0 -0.053229267127426344 0.0038784893802429475 0 -0.051169719297195576 0.0055119435890601124 0 -0.052598312237578493 0.0068628978523506412 0 -0.051169719297195576 0.0055119435890601124 0 -0.050482416054653423 0.0079553284564608338 0 -0.049086082800089172 0.0055829194669262255 0 -0.053229267127426344 0.0038784893802429475 0 -0.052598312237578493 0.0068628978523506412 0 -0.054737920404622255 0.0055880977135410528 0 -0.053229267127426344 0.0038784893802429475 0 -0.054737920404622255 0.0055880977135410528 0 -0.054937053331865673 0.0038191528570363075 0 -0.052598312237578493 0.0068628978523506412 0 -0.050482416054653423 0.0079553284564608338 0 -0.052498497216374215 0.0099774501397318603 0 -0.052598312237578493 0.0068628978523506412 0 -0.054507621209830596 0.0078583042615119544 0 -0.054737920404622255 0.0055880977135410528 0 -0.052598312237578493 0.0068628978523506412 0 -0.052498497216374215 0.0099774501397318603 0 -0.054507621209830596 0.0078583042615119544 0 -0.051169719297195576 0.0055119435890601124 0 -0.052598312237578493 0.0068628978523506412 0 -0.050482416054653423 0.0079553284564608338 0 -0.050482416054653423 0.0079553284564608338 0 -0.048411744124373768 0.0074489105790484025 0 -0.049086082800089172 0.0055829194669262255 0 -0.050737676737866819 0.0032391703628919435 0 -0.051169719297195576 0.0055119435890601124 0 -0.049086082800089172 0.0055829194669262255 0 -0.048411744124373768 0.0074489105790484025 0 -0.049086082800089172 0.0055829194669262255 0 -0.04698900787978718 0.0057367068798347444 0 -0.047938566608441445 0.0030076904443795773 0 -0.046241538558220836 0.0037145858472084491 0 -0.04698900787978718 0.0057367068798347444 0 -0.047938566608441445 0.0030076904443795773 0 -0.049086082800089172 0.0055829194669262255 0 -0.04698900787978718 0.0057367068798347444 0 -0.045536395736279663 0.0055897136343482524 0 -0.046241538558220836 0.0037145858472084491 0 -0.04698900787978718 0.0057367068798347444 0 -0.0452125639656763 0.0063733535157202174 0 -0.04698900787978718 0.0057367068798347444 0 -0.046687672758208482 0.0077232404032874262 0 -0.048411744124373768 0.0074489105790484025 0 -0.04698900787978718 0.0057367068798347444 0 -0.046687672758208482 0.0077232404032874262 0 -0.045572366666297069 0.009201310019270912 0 -0.046687672758208482 0.0077232404032874262 0 -0.048553967268805356 0.0098133171542920238 0 -0.048411744124373768 0.0074489105790484025 0 -0.046687672758208482 0.0077232404032874262 0 -0.048553967268805356 0.0098133171542920238 0 -0.050482416054653423 0.0079553284564608338 0 -0.048411744124373768 0.0074489105790484025 0 -0.048553967268805356 0.0098133171542920238 0 -0.047861673686727856 0.010086301258720313 0 -0.047842638473484751 0.012237777376446478 0 -0.049823802077471988 0.012903658315524095 0 -0.045969587018154436 0.011483727654933447 0 -0.047861673686727856 0.010086301258720313 0 -0.047842638473484751 0.012237777376446478 0 -0.045969587018154436 0.011483727654933447 0 -0.047842638473484751 0.012237777376446478 0 -0.047120490703278152 0.014830855514722201 0 -0.047842638473484751 0.012237777376446478 0 -0.047120490703278152 0.014830855514722201 0 -0.049823802077471988 0.012903658315524095 0 -0.049284069745274828 0.013072601040710903 0 -0.050358791882336398 0.013548106229586243 0 -0.047120490703278152 0.014830855514722201 0 -0.05189084269036031 0.015043862357056594 0 -0.049823802077471988 0.012903658315524095 0 -0.050617970718625921 0.016281639274326441 0 -0.049441018862729683 0.016149421043299042 0 -0.05189084269036031 0.015043862357056594 0 -0.05189084269036031 0.015043862357056594 0 -0.049823802077471988 0.012903658315524095 0 -0.053026504618913006 0.012816607876962252 0 -0.050482416054653423 0.0079553284564608338 0 -0.048553967268805356 0.0098133171542920238 0 -0.052498497216374215 0.0099774501397318603 0 -0.049831821968123996 0.0081558858208835953 0 -0.050389479453405939 0.0083989346115944941 0 -0.049823802077471988 0.012903658315524095 0 -0.052498497216374215 0.0099774501397318603 0 -0.053026504618913006 0.012816607876962252 0 -0.047861673686727856 0.010086301258720313 0 -0.049823802077471988 0.012903658315524095 0 -0.052498497216374215 0.0099774501397318603 0 -0.052498497216374215 0.0099774501397318603 0 -0.056306910414683019 0.010597878241240656 0 -0.054507621209830596 0.0078583042615119544 0 -0.052498497216374215 0.0099774501397318603 0 -0.056306910414683019 0.010597878241240656 0 -0.053026504618913006 0.012816607876962252 0 -0.056306910414683019 0.010597878241240656 0 -0.055991141159386693 0.0065850621275984327 0 -0.054507621209830596 0.0078583042615119544 0 -0.046286586585264022 0.025398846073628405 0 -0.045901267511103128 0.028732715556303867 0 -0.044686219336649936 0.026821701647579747 0 -0.05348728340054331 0.015813698670570812 0 -0.056306910414683019 0.010597878241240656 0 -0.053026504618913006 0.012816607876962252 0 -0.049420829766012621 0.018968424124868311 0 -0.049646771790320614 0.017706597302525461 0 -0.05348728340054331 0.015813698670570812 0 -0.05189084269036031 0.015043862357056594 0 -0.053026504618913006 0.012816607876962252 0 -0.044033311758141687 0.024709742747290528 0 -0.044686219336649936 0.026821701647579747 0 -0.043265125069855317 0.026741974091929133 0 -0.044033311758141687 0.024709742747290528 0 -0.046286586585264022 0.025398846073628405 0 -0.044686219336649936 0.026821701647579747 0 -0.044686219336649936 0.026821701647579747 0 -0.043931949395169777 0.02848597376585596 0 -0.043265125069855317 0.026741974091929133 0 -0.045901267511103128 0.028732715556303867 0 -0.044686219336649936 0.026821701647579747 0 -0.043931949395169777 0.02848597376585596 0 -0.045901267511103128 0.028732715556303867 0 -0.043931949395169777 0.02848597376585596 0 -0.044558856632145261 0.029871832792658089 0 -0.043931949395169777 0.02848597376585596 0 -0.044558856632145261 0.029871832792658089 0 -0.042814134826063381 0.030166730991610807 0 -0.045901267511103128 0.028732715556303867 0 -0.044558856632145261 0.029871832792658089 0 -0.045599131935917941 0.031999395043369662 0 -0.060959071556998395 0.0029443463034653766 0 -0.059319869545151879 0.0028610934776982138 0 -0.061857686711747871 0.0042910693425429677 0 -0.049429713839547765 0.013115709609614317 0 -0.051561735793601592 0.01596686275655676 0 -0.044558856632145261 0.029871832792658089 0 -0.045599131935917941 0.031999395043369662 0 -0.042814134826063381 0.030166730991610807 0 -0.056306910414683019 0.010597878241240656 0 -0.055991141159386693 0.0065850621275984327 0 -0.057962879890803037 0.0047075141700624731 0 -0.049646771790320614 0.017706597302525461 0 -0.049429713839547765 0.013115709609614317 0 -0.055991141159386693 0.0065850621275984327 0 -0.054507621209830596 0.0078583042615119544 0 -0.054737920404622255 0.0055880977135410528 0 -0.055991141159386693 0.0065850621275984327 0 -0.054737920404622255 0.0055880977135410528 0 -0.056048652303739926 0.0043526089707499518 0 -0.054737920404622255 0.0055880977135410528 0 -0.056048652303739926 0.0043526089707499518 0 -0.054937053331865673 0.0038191528570363075 0 -0.055991141159386693 0.0065850621275984327 0 -0.056048652303739926 0.0043526089707499518 0 -0.057962879890803037 0.0047075141700624731 0 -0.059187704108729172 0.0019810030841760128 0 -0.058174809284739705 0.0001891478838125021 0 -0.058629269957277928 -0.0012649875728661202 0 -0.049429713839547765 0.013115709609614317 0 -0.049529668530816091 0.012758373286947365 0 -0.055691128490804612 0.0013408506282579743 0 -0.059122443608540944 0.0028397768822319325 0 -0.059187704108729172 0.0019810030841760128 0 -0.055691128490804612 0.0013408506282579743 0 -0.059187704108729172 0.0019810030841760128 0 -0.058174809284739705 0.0001891478838125021 0 -0.055691128490804612 0.0013408506282579743 0 -0.056048652303739926 0.0043526089707499518 0 -0.054937053331865673 0.0038191528570363075 0 -0.050058248733750726 0.011493301739705249 0 -0.049429713839547765 0.013115709609614317 0 -0.055691128490804612 0.0013408506282579743 0 -0.056048652303739926 0.0043526089707499518 0 -0.057962879890803037 0.0047075141700624731 0 -0.055691128490804612 0.0013408506282579743 0 -0.058174809284739705 0.0001891478838125021 0 -0.058107194683991642 -0.0015977485124382426 0 -0.061376250157771414 0.0013019992044826483 0 -0.061353307268990312 0.00061908978268965578 0 -0.060959071556998395 0.0029443463034653766 0 -0.061812333223998657 0.0024204617875991283 0 -0.06132035342698107 0.0019851475319235018 0 -0.060959071556998395 0.0029443463034653766 0 -0.059187704108729172 0.0019810030841760128 0 -0.058629269957277928 -0.0012649875728661202 0 -0.060959071556998395 0.0029443463034653766 0 -0.06132035342698107 0.0019851475319235018 0 -0.060699353574504504 0.0017834263598451451 0 -0.060959071556998395 0.0029443463034653766 0 -0.059319869545151879 0.0028610934776982138 0 -0.059187704108729172 0.0019810030841760128 0 -0.062511711453454868 0.002854157301709521 0 -0.061812333223998657 0.0024204617875991283 0 -0.061958573147806048 0.0033074507806290111 0 -0.060959071556998395 0.0029443463034653766 0 -0.061812333223998657 0.0024204617875991283 0 -0.061958573147806048 0.0033074507806290111 0 -0.061812333223998657 0.0024204617875991283 0 -0.06241155297885817 0.0022320492974283422 0 -0.061912357669224982 0.0016440085130704158 0 -0.062511711453454868 0.002854157301709521 0 -0.061812333223998657 0.0024204617875991283 0 -0.06241155297885817 0.0022320492974283422 0 -0.062511711453454868 0.002854157301709521 0 -0.06241155297885817 0.0022320492974283422 0 -0.062938006636723803 0.0024743421726357924 0 -0.06241155297885817 0.0022320492974283422 0 -0.062938006636723803 0.0024743421726357924 0 -0.062890880467515356 0.0018478755781317976 0 -0.062938006636723803 0.0024743421726357924 0 -0.063687031650795575 0.0024678193147404286 0 -0.062890880467515356 0.0018478755781317976 0 -0.062938006636723803 0.0024743421726357924 0 -0.063261925629393409 0.0031760635618603697 0 -0.063687031650795575 0.0024678193147404286 0 -0.062511711453454868 0.002854157301709521 0 -0.062938006636723803 0.0024743421726357924 0 -0.063261925629393409 0.0031760635618603697 0 -0.062511711453454868 0.002854157301709521 0 -0.063261925629393409 0.0031760635618603697 0 -0.062954227381279176 0.0039204131793254314 0 -0.063261925629393409 0.0031760635618603697 0 -0.062954227381279176 0.0039204131793254314 0 -0.06412342167488011 0.0042213480041289981 0 -0.062954227381279176 0.0039204131793254314 0 -0.061958573147806048 0.0033074507806290111 0 -0.061857686711747871 0.0042910693425429677 0 -0.062511711453454868 0.002854157301709521 0 -0.062954227381279176 0.0039204131793254314 0 -0.061958573147806048 0.0033074507806290111 0 -0.060959071556998395 0.0029443463034653766 0 -0.061958573147806048 0.0033074507806290111 0 -0.061857686711747871 0.0042910693425429677 0 -0.043931949395169777 0.02848597376585596 0 -0.042814134826063381 0.030166730991610807 0 -0.04209090417402097 0.028096647271727181 0 -0.042814134826063381 0.030166730991610807 0 -0.04209090417402097 0.028096647271727181 0 -0.039924980826492255 0.028271517340125261 0 -0.051561735793601592 0.01596686275655676 0 -0.05136739078719197 0.016857442442488581 0 -0.041270627010518174 0.025386489871850253 0 -0.044033311758141687 0.024709742747290528 0 -0.043265125069855317 0.026741974091929133 0 -0.041270627010518174 0.025386489871850253 0 -0.04209090417402097 0.028096647271727181 0 -0.043265125069855317 0.026741974091929133 0 -0.041270627010518174 0.025386489871850253 0 -0.04209090417402097 0.028096647271727181 0 -0.039924980826492255 0.028271517340125261 0 -0.043931949395169777 0.02848597376585596 0 -0.04209090417402097 0.028096647271727181 0 -0.043265125069855317 0.026741974091929133 0 -0.041270627010518174 0.025386489871850253 0 -0.039242286844272542 0.026041025618589744 0 -0.039924980826492255 0.028271517340125261 0 -0.039242286844272542 0.026041025618589744 0 -0.039924980826492255 0.028271517340125261 0 -0.037070834258482933 0.026324948624601868 0 -0.062954227381279176 0.0039204131793254314 0 -0.063103873675288982 0.0050992708371238038 0 -0.06412342167488011 0.0042213480041289981 0 -0.062954227381279176 0.0039204131793254314 0 -0.061857686711747871 0.0042910693425429677 0 -0.063103873675288982 0.0050992708371238038 0 -0.063103873675288982 0.0050992708371238038 0 -0.064402966616834867 0.0060462053911561906 0 -0.06412342167488011 0.0042213480041289981 0 -0.064137150917356597 0.0076939570141587119 0 -0.065348924147759224 0.0061837268967869837 0 -0.063768542786908369 0.0052258520373503758 0 -0.051054725400057392 0.017799334110642068 0 -0.057142023225696371 0.0076406031359998704 0 -0.05136739078719197 0.016857442442488581 0 -0.051054725400057392 0.017799334110642068 0 -0.037005941567926713 0.027069385368113558 0 -0.034530022043028463 0.027447636332800156 0 -0.034938455369347039 0.029612839059548441 0 -0.051054725400057392 0.017799334110642068 0 -0.050536457464997242 0.015146339847322613 0 -0.032689982287141414 0.025763381117765424 0 -0.034757539044942713 0.02546063553137164 0 -0.034530022043028463 0.027447636332800156 0 -0.034757539044942713 0.02546063553137164 0 -0.037005941567926713 0.027069385368113558 0 -0.034530022043028463 0.027447636332800156 0 -0.034530022043028463 0.027447636332800156 0 -0.034938455369347039 0.029612839059548441 0 -0.03263210017086958 0.028668822191849047 0 -0.065348924147759224 0.0061837268967869837 0 -0.06542808437099791 0.0051001422341235489 0 -0.063768542786908369 0.0052258520373503758 0 -0.065348924147759224 0.0061837268967869837 0 -0.06542808437099791 0.0051001422341235489 0 -0.066403958504571828 0.0048352546718649324 0 -0.050536457464997242 0.015146339847322613 0 -0.051899041614102061 0.0097357910826266682 0 -0.06542808437099791 0.0051001422341235489 0 -0.065696401380179903 0.0041124752815909485 0 -0.066403958504571828 0.0048352546718649324 0 -0.065696401380179903 0.0041124752815909485 0 -0.064696017080059204 0.0044554260974323549 0 -0.064312612511852649 0.0033730515824415006 0 -0.06542808437099791 0.0051001422341235489 0 -0.064696017080059204 0.0044554260974323549 0 -0.063768542786908369 0.0052258520373503758 0 -0.06542808437099791 0.0051001422341235489 0 -0.065696401380179903 0.0041124752815909485 0 -0.064696017080059204 0.0044554260974323549 0 -0.057142023225696371 0.0076406031359998704 0 -0.059733997096372948 0.0042715149621711575 0 -0.063261925629393409 0.0031760635618603697 0 -0.06412342167488011 0.0042213480041289981 0 -0.063687031650795575 0.0024678193147404286 0 -0.064696017080059204 0.0044554260974323549 0 -0.063768542786908369 0.0052258520373503758 0 -0.064312612511852649 0.0033730515824415006 0 -0.063768542786908369 0.0052258520373503758 0 -0.064312612511852649 0.0033730515824415006 0 -0.063441146762510434 0.0029896310579038033 0 -0.063441146762510434 0.0029896310579038033 0 -0.064353473391390567 0.0027185977067213122 0 -0.063742563617033426 0.0020342211278359707 0 -0.064312612511852649 0.0033730515824415006 0 -0.063441146762510434 0.0029896310579038033 0 -0.064353473391390567 0.0027185977067213122 0 -0.056331184787395086 0.0087446044289983 0 -0.058281326862559317 0.008211714437439491 0 -0.065575282816071737 0.0040559398321332518 0 -0.064312612511852649 0.0033730515824415006 0 -0.064353473391390567 0.0027185977067213122 0 -0.056331184787395086 0.0087446044289983 0 -0.058597596196780503 0.0087538791383630719 0 -0.065327132522906894 0.003778491078933808 0 -0.064353473391390567 0.0027185977067213122 0 -0.064967777014012809 0.0028316339395899554 0 -0.065327132522906894 0.003778491078933808 0 -0.064967777014012809 0.0028316339395899554 0 -0.065986558430470257 0.0040706322477213393 0 -0.059666073829804274 0.0057449578825719766 0 -0.054622310947319536 0.0074248005261606494 0 -0.064419589906886204 0.0016258644102804828 0 -0.06461826709316669 0.0016256682436588358 0 -0.064565630816847588 0.0014877603072347813 0 -0.064419589906886204 0.0016258644102804828 0 -0.064454942435069718 0.0013518793177936352 0 -0.063915302626550513 0.0013524597755941029 0 -0.064454942435069718 0.0013518793177936352 0 -0.064544605160648846 0.0011975189023884388 0 -0.064622171665243838 0.0013430854360395926 0 -0.064454942435069718 0.0013518793177936352 0 -0.064622171665243838 0.0013430854360395926 0 -0.064565630816847588 0.0014877603072347813 0 -0.064419589906886204 0.0016258644102804828 0 -0.064454942435069718 0.0013518793177936352 0 -0.064565630816847588 0.0014877603072347813 0 -0.064353473391390567 0.0027185977067213122 0 -0.064967777014012809 0.0028316339395899554 0 -0.063915302626550513 0.0013524597755941029 0 -0.064353473391390567 0.0027185977067213122 0 -0.063742563617033426 0.0020342211278359707 0 -0.063915302626550513 0.0013524597755941029 0 -0.064454942435069718 0.0013518793177936352 0 -0.063915302626550513 0.0013524597755941029 0 -0.064338999435114119 0.0011666270790075489 0 -0.059666073829804274 0.0057449578825719766 0 -0.06063233092388038 0.004783316006622078 0 -0.063742563617033426 0.0020342211278359707 0 -0.063915302626550513 0.0013524597755941029 0 -0.063301702334965931 0.0010950527528240984 0 -0.063915302626550513 0.0013524597755941029 0 -0.064338999435114119 0.0011666270790075489 0 -0.063990784898575209 0.00062954010792779153 0 -0.063915302626550513 0.0013524597755941029 0 -0.063990784898575209 0.00062954010792779153 0 -0.063301702334965931 0.0010950527528240984 0 -0.064338999435114119 0.0011666270790075489 0 -0.063990784898575209 0.00062954010792779153 0 -0.064553246288302654 0.00043022060969973811 0 -0.064338999435114119 0.0011666270790075489 0 -0.064553246288302654 0.00043022060969973811 0 -0.065067922477517706 0.00010885893837548914 0 -0.064338999435114119 0.0011666270790075489 0 -0.064544605160648846 0.0011975189023884388 0 -0.064600329292844635 0.00099981516171396626 0 -0.064440558204485326 0.00081145734560412997 0 -0.064598547474270573 0.00055842544371651284 0 -0.064454942435069718 0.0013518793177936352 0 -0.064338999435114119 0.0011666270790075489 0 -0.064544605160648846 0.0011975189023884388 0 -0.064553246288302654 0.00043022060969973811 0 -0.064747322507224439 -7.7864655955234762e-05 0 -0.065067922477517706 0.00010885893837548914 0 -0.06499974520030069 -1.3878981604616095e-07 0 -0.064747322507224439 -7.7864655955234762e-05 0 -0.064999643602197663 6.9003500301844373e-08 0 -0.06499974520030069 -1.3878981604616095e-07 0 -0.064747322507224439 -7.7864655955234762e-05 0 -0.065067922477517706 0.00010885893837548914 0 -0.064747322507224439 -7.7864655955234762e-05 0 -0.064999643602197663 6.9003500301844373e-08 0 -0.06498452567761423 -8.0770389962308526e-05 0 -0.063990784898575209 0.00062954010792779153 0 -0.064553246288302654 0.00043022060969973811 0 -0.064747322507224439 -7.7864655955234762e-05 0 -0.064236448223771114 2.5276733675442333e-05 0 -0.064078547006541003 7.5133225506383139e-05 0 -0.063990784898575209 0.00062954010792779153 0 -0.064747322507224439 -7.7864655955234762e-05 0 -0.063482008293409678 -5.053559318884285e-05 0 -0.063482008293409678 -5.053559318884285e-05 0 -0.062856609433972407 0.00066000993363342949 0 -0.063406650785096733 0.00058728702256068913 0 -0.063990784898575209 0.00062954010792779153 0 -0.063482008293409678 -5.053559318884285e-05 0 -0.063406650785096733 0.00058728702256068913 0 -0.063482008293409678 -5.053559318884285e-05 0 -0.062404626891411123 0.00018711102250391847 0 -0.062856609433972407 0.00066000993363342949 0 -0.064078547006541003 7.5133225506383139e-05 0 -0.063784436056707861 0.00019354466568135555 0 -0.064999643602197663 6.9003500301844373e-08 0 -0.06498452567761423 -8.0770389962308526e-05 0 -0.065000257750597049 -8.9504124342285503e-08 0 -0.06498452567761423 -8.0770389962308526e-05 0 -0.065000257750597049 -8.9504124342285503e-08 0 -0.065030323232504114 -9.1983600413478962e-05 0 -0.064997930059776096 -9.0664236657876322e-08 0 -0.063784436056707861 0.00019354466568135555 0 -0.065000088111786689 2.70267917577178e-08 0 -0.065015197098463762 4.7897489424457761e-05 0 -0.064996596690180111 2.7892397751765298e-05 0 -0.063784436056707861 0.00019354466568135555 0 -0.063051866204405962 0.00022964431318224282 0 -0.062189973962815823 -0.00021772069476909994 0 -0.062044194316295577 0.00070907769283044353 0 -0.061134338176472007 0.00013130771663015059 0 -0.062227695386747044 0.00093205831123557013 0 -0.062856609433972407 0.00066000993363342949 0 -0.062675488397606727 0.0012602000299899289 0 -0.063784436056707861 0.00019354466568135555 0 -0.063362639469803084 0.0007109201479044056 0 -0.062404626891411123 0.00018711102250391847 0 -0.062227695386747044 0.00093205831123557013 0 -0.062856609433972407 0.00066000993363342949 0 -0.062856609433972407 0.00066000993363342949 0 -0.063406650785096733 0.00058728702256068913 0 -0.063301702334965931 0.0010950527528240984 0 -0.063990784898575209 0.00062954010792779153 0 -0.063406650785096733 0.00058728702256068913 0 -0.063301702334965931 0.0010950527528240984 0 -0.062856609433972407 0.00066000993363342949 0 -0.063301702334965931 0.0010950527528240984 0 -0.062675488397606727 0.0012602000299899289 0 -0.063301702334965931 0.0010950527528240984 0 -0.062675488397606727 0.0012602000299899289 0 -0.062890880467515356 0.0018478755781317976 0 -0.063687031650795575 0.0024678193147404286 0 -0.063301702334965931 0.0010950527528240984 0 -0.062890880467515356 0.0018478755781317976 0 -0.059733997096372948 0.0042715149621711575 0 -0.060408821074961649 0.0030619755521129055 0 -0.063441146762510434 0.0029896310579038033 0 -0.063742563617033426 0.0020342211278359707 0 -0.063301702334965931 0.0010950527528240984 0 -0.06241155297885817 0.0022320492974283422 0 -0.062890880467515356 0.0018478755781317976 0 -0.061912357669224982 0.0016440085130704158 0 -0.061812333223998657 0.0024204617875991283 0 -0.061912357669224982 0.0016440085130704158 0 -0.06132035342698107 0.0019851475319235018 0 -0.062044194316295577 0.00070907769283044353 0 -0.061912357669224982 0.0016440085130704158 0 -0.061191067212118519 0.0010537559930342566 0 -0.063362639469803084 0.0007109201479044056 0 -0.063211951930579116 0.00097146955000286528 0 -0.062227695386747044 0.00093205831123557013 0 -0.062675488397606727 0.0012602000299899289 0 -0.061912357669224982 0.0016440085130704158 0 -0.062675488397606727 0.0012602000299899289 0 -0.062890880467515356 0.0018478755781317976 0 -0.061912357669224982 0.0016440085130704158 0 -0.061912357669224982 0.0016440085130704158 0 -0.06132035342698107 0.0019851475319235018 0 -0.061191067212118519 0.0010537559930342566 0 -0.06132035342698107 0.0019851475319235018 0 -0.060699353574504504 0.0017834263598451451 0 -0.061191067212118519 0.0010537559930342566 0 -0.060699353574504504 0.0017834263598451451 0 -0.060103772252574315 0.00047958327408659484 0 -0.061191067212118519 0.0010537559930342566 0 -0.058629269957277928 -0.0012649875728661202 0 -0.058426925039532472 0.00072031138419438264 0 -0.059365163840472399 -0.0005413911390161545 0 -0.058174809284739705 0.0001891478838125021 0 -0.058629269957277928 -0.0012649875728661202 0 -0.058107194683991642 -0.0015977485124382426 0 -0.058629269957277928 -0.0012649875728661202 0 -0.058107194683991642 -0.0015977485124382426 0 -0.059365163840472399 -0.0005413911390161545 0 -0.061353307268990312 0.00061908978268965578 0 -0.062275488571837324 0.00031337830960350663 0 -0.062275488571837324 0.00031337830960350663 0 -0.063051866204405962 0.00022964431318224282 0 -0.060103772252574315 0.00047958327408659484 0 -0.061191067212118519 0.0010537559930342566 0 -0.061134338176472007 0.00013130771663015059 0 -0.062044194316295577 0.00070907769283044353 0 -0.061191067212118519 0.0010537559930342566 0 -0.061134338176472007 0.00013130771663015059 0 -0.065015197098463762 4.7897489424457761e-05 0 -0.064985014090695112 7.2023005297761332e-05 0 -0.064996596690180111 2.7892397751765298e-05 0 -0.064985014090695112 7.2023005297761332e-05 0 -0.064996596690180111 2.7892397751765298e-05 0 -0.064967494816373414 5.0592747707171656e-05 0 -0.064999901000529992 -1.8085769843108015e-09 0 -0.064996596690180111 2.7892397751765298e-05 0 -0.064967494816373414 5.0592747707171656e-05 0 -0.065000088111786689 2.70267917577178e-08 0 -0.064999901000529992 -1.8085769843108015e-09 0 -0.064996596690180111 2.7892397751765298e-05 0 -0.064999901000529992 -1.8085769843108015e-09 0 -0.064911649980014613 5.6790534361519988e-05 0 -0.064861963242424894 -2.4674085406023285e-08 0 -0.064999901000529992 -1.8085769843108015e-09 0 -0.064967494816373414 5.0592747707171656e-05 0 -0.064911649980014613 5.6790534361519988e-05 0 -0.062275488571837324 0.00031337830960350663 0 -0.062971409670587231 0.00025790181825078727 0 -0.064938972555689353 9.6610121433880921e-05 0 -0.064967494816373414 5.0592747707171656e-05 0 -0.064911649980014613 5.6790534361519988e-05 0 -0.064938972555689353 9.6610121433880921e-05 0 -0.064985014090695112 7.2023005297761332e-05 0 -0.064967494816373414 5.0592747707171656e-05 0 -0.063394590201081194 5.4683182872945226e-05 0 -0.063580804943847893 -1.596038348344906e-05 0 -0.063137573934332017 -4.9190287396094385e-05 0 -0.063580804943847893 -1.596038348344906e-05 0 -0.064303089108781866 5.9168335303154816e-05 0 -0.063677160414472633 9.0463480791009047e-05 0 -0.063580804943847893 -1.596038348344906e-05 0 -0.063677160414472633 9.0463480791009047e-05 0 -0.063137573934332017 -4.9190287396094385e-05 0 -0.063580804943847893 -1.596038348344906e-05 0 -0.064303089108781866 5.9168335303154816e-05 0 -0.06485954432604174 5.868554541166227e-07 0 -0.062971409670587231 0.00025790181825078727 0 -0.063193590656362916 0.00019879757681348043 0 -0.064303089108781866 5.9168335303154816e-05 0 -0.06485954432604174 5.868554541166227e-07 0 -0.064489275570902241 0.00012704066954974885 0 -0.06499981266283128 2.111741300083446e-07 0 -0.06485954432604174 5.868554541166227e-07 0 -0.064489275570902241 0.00012704066954974885 0 -0.064303089108781866 5.9168335303154816e-05 0 -0.064489275570902241 0.00012704066954974885 0 -0.063677160414472633 9.0463480791009047e-05 0 -0.064799670406000917 0.0001045906982227773 0 -0.064489275570902241 0.00012704066954974885 0 -0.063677160414472633 9.0463480791009047e-05 0 -0.064582585612758758 -0.0006285372431213814 0 -0.063677160414472633 9.0463480791009047e-05 0 -0.063549894493285783 -0.0010312181140402408 0 -0.063677160414472633 9.0463480791009047e-05 0 -0.062287633117776013 -6.4669776406290171e-05 0 -0.063549894493285783 -0.0010312181140402408 0 -0.063394590201081194 5.4683182872945226e-05 0 -0.063137573934332017 -4.9190287396094385e-05 0 -0.062287633117776013 -6.4669776406290171e-05 0 -0.062275488571837324 0.00031337830960350663 0 -0.062238153341531779 0.00027515567775562291 0 -0.063677160414472633 9.0463480791009047e-05 0 -0.063137573934332017 -4.9190287396094385e-05 0 -0.062287633117776013 -6.4669776406290171e-05 0 -0.058426925039532472 0.00072031138419438264 0 -0.059365163840472399 -0.0005413911390161545 0 -0.062287633117776013 -6.4669776406290171e-05 0 -0.059365163840472399 -0.0005413911390161545 0 -0.062287633117776013 -6.4669776406290171e-05 0 -0.062464167605612304 -0.0026153702374805033 0 -0.057271825592903149 0.00072168567865377663 0 -0.056959552522407898 0.0011590189349246114 0 -0.058107194683991642 -0.0015977485124382426 0 -0.059365163840472399 -0.0005413911390161545 0 -0.062464167605612304 -0.0026153702374805033 0 -0.062287633117776013 -6.4669776406290171e-05 0 -0.063549894493285783 -0.0010312181140402408 0 -0.062464167605612304 -0.0026153702374805033 0 -0.064671939938488521 -0.0027293814985637679 0 -0.063549894493285783 -0.0010312181140402408 0 -0.062464167605612304 -0.0026153702374805033 0 -0.051080528231686018 0.0048819099895365294 0 -0.050790554048530126 0.0049401157856741517 0 -0.050980858131812086 0.0047003989665118104 0 -0.051080528231686018 0.0048819099895365294 0 -0.050790554048530126 0.0049401157856741517 0 -0.050925901136774643 0.0051204816946569271 0 -0.051080528231686018 0.0048819099895365294 0 -0.051323314822188507 0.0049764074897840809 0 -0.05115081192802335 0.0050977912926054138 0 -0.050790554048530126 0.0049401157856741517 0 -0.050740449933499701 0.0047131948093534744 0 -0.050613440232103638 0.0048799060263634156 0 -0.050790554048530126 0.0049401157856741517 0 -0.050740449933499701 0.0047131948093534744 0 -0.050980858131812086 0.0047003989665118104 0 -0.050740449933499701 0.0047131948093534744 0 -0.050980858131812086 0.0047003989665118104 0 -0.05097731528993308 0.00442432599947876 0 -0.050740449933499701 0.0047131948093534744 0 -0.05097731528993308 0.00442432599947876 0 -0.05079653536564168 0.0043295534727415975 0 -0.051080528231686018 0.0048819099895365294 0 -0.050980858131812086 0.0047003989665118104 0 -0.051225923901532411 0.0046002125449008799 0 -0.050980858131812086 0.0047003989665118104 0 -0.051225923901532411 0.0046002125449008799 0 -0.05097731528993308 0.00442432599947876 0 -0.053171412379642409 0.0025424907302678762 0 -0.053753401406076699 0.0026165442362259378 0 -0.055702830403453876 0.0015522457494862468 0 -0.055739312196912874 0.0013376272376538737 0 -0.055920805234734659 0.0017516015183676778 0 -0.050985983644382706 0.0039857516417006805 0 -0.050824488617731679 0.0038155609415367071 0 -0.050947016472740039 0.004090763105741105 0 -0.050698076075082039 0.0037674283190273477 0 -0.050824488617731679 0.0038155609415367071 0 -0.050947016472740039 0.004090763105741105 0 -0.055743148195810749 0.0017218609110844513 0 -0.055702830403453876 0.0015522457494862468 0 -0.055920805234734659 0.0017516015183676778 0 -0.058768276148409834 0.0018413172205865472 0 -0.057361922788228652 0.0020454063368363085 0 -0.052381755371412674 0.0053292581511450131 0 -0.052520725623807607 0.0049994672937746475 0 -0.05320305440825316 0.0058823057698251932 0 -0.055743148195810749 0.0017218609110844513 0 -0.055702830403453876 0.0015522457494862468 0 -0.055498215638557558 0.0015417712579070127 0 -0.055304478263818208 0.0023758591502770683 0 -0.057361922788228652 0.0020454063368363085 0 -0.055702830403453876 0.0015522457494862468 0 -0.055609844011905905 0.0014081812365318615 0 -0.055498215638557558 0.0015417712579070127 0 -0.055702830403453876 0.0015522457494862468 0 -0.055609844011905905 0.0014081812365318615 0 -0.055739312196912874 0.0013376272376538737 0 -0.055609844011905905 0.0014081812365318615 0 -0.055739312196912874 0.0013376272376538737 0 -0.055608491411385103 0.0012476965911942955 0 -0.055609844011905905 0.0014081812365318615 0 -0.055608491411385103 0.0012476965911942955 0 -0.055494070892881595 0.0013006493338907617 0 -0.050133869038311442 0.0043500238967759718 0 -0.049374137308981512 0.0039465836222769184 0 -0.051080528231686018 0.0048819099895365294 0 -0.051225923901532411 0.0046002125449008799 0 -0.051323314822188507 0.0049764074897840809 0 -0.050985983644382706 0.0039857516417006805 0 -0.050824488617731679 0.0038155609415367071 0 -0.050835198702425054 0.0036893717060539452 0 -0.050698076075082039 0.0037674283190273477 0 -0.050824488617731679 0.0038155609415367071 0 -0.050762325224425711 0.00374580896673789 0 -0.049433012390645188 0.0039022397276994854 0 -0.049374137308981512 0.0039465836222769184 0 -0.049374137308981512 0.0039465836222769184 0 -0.047677005108887484 0.0041320177347273527 0 -0.050026067992043725 0.0026267844854180964 0 -0.049911695916182629 0.0031672415028353006 0 -0.050246958937839738 0.003382059186569795 0 -0.051323314822188507 0.0049764074897840809 0 -0.051271367506727443 0.0052892744526335288 0 -0.05115081192802335 0.0050977912926054138 0 -0.050762325224425711 0.00374580896673789 0 -0.050686024903287413 0.0037504584998155066 0 -0.050606622757080409 0.0037752740282625302 0 -0.049374137308981512 0.0039465836222769184 0 -0.049853351382981408 0.0038750082118039582 0 -0.050698076075082039 0.0037674283190273477 0 -0.050762325224425711 0.00374580896673789 0 -0.050686024903287413 0.0037504584998155066 0 -0.055739312196912874 0.0013376272376538737 0 -0.055608491411385103 0.0012476965911942955 0 -0.055581775519656949 0.00090290205667793667 0 -0.050698076075082039 0.0037674283190273477 0 -0.050686024903287413 0.0037504584998155066 0 -0.050721488108475953 0.003744793229704176 0 -0.053171412379642409 0.0025424907302678762 0 -0.052453019724046021 0.0022702032377937146 0 -0.055608491411385103 0.0012476965911942955 0 -0.055581775519656949 0.00090290205667793667 0 -0.05553135849744039 0.0011561527903411911 0 -0.050686024903287413 0.0037504584998155066 0 -0.050668093558385932 0.0037754478466562767 0 -0.050721488108475953 0.003744793229704176 0 -0.050686024903287413 0.0037504584998155066 0 -0.050668093558385932 0.0037754478466562767 0 -0.050606622757080409 0.0037752740282625302 0 -0.050668093558385932 0.0037754478466562767 0 -0.050654930236306205 0.0038319207599863646 0 -0.050606622757080409 0.0037752740282625302 0 -0.050637248158384503 0.0039359139777569918 0 -0.050654930236306205 0.0038319207599863646 0 -0.050606622757080409 0.0037752740282625302 0 -0.050715681324497552 0.003905547004516566 0 -0.050668093558385932 0.0037754478466562767 0 -0.050721488108475953 0.003744793229704176 0 -0.050715681324497552 0.003905547004516566 0 -0.050668093558385932 0.0037754478466562767 0 -0.050654930236306205 0.0038319207599863646 0 -0.050715681324497552 0.003905547004516566 0 -0.050637248158384503 0.0039359139777569918 0 -0.050654930236306205 0.0038319207599863646 0 -0.049778532371935802 0.0037279092831327197 0 -0.049911695916182629 0.0031672415028353006 0 -0.050060483747603239 0.0034836844549010447 0 -0.045090165263193621 0.0047689457875717215 0 -0.047677005108887484 0.0041320177347273527 0 -0.049911695916182629 0.0031672415028353006 0 -0.050246958937839738 0.003382059186569795 0 -0.050060483747603239 0.0034836844549010447 0 -0.05003613176610465 0.0036759992598382803 0 -0.050246958937839738 0.003382059186569795 0 -0.050060483747603239 0.0034836844549010447 0 -0.049786215004632373 0.0037222300503298132 0 -0.05003613176610465 0.0036759992598382803 0 -0.050060483747603239 0.0034836844549010447 0 -0.045090165263193621 0.0047689457875717215 0 -0.045777639022424023 0.0043182081471235603 0 -0.051049282000958082 0.0053952153608344345 0 -0.050925901136774643 0.0051204816946569271 0 -0.050765410996939236 0.0054378100830449203 0 -0.050916788712110736 0.0056541551068433737 0 -0.051224106409024334 0.0056745715261324794 0 -0.051049282000958082 0.0053952153608344345 0 -0.051224106409024334 0.0056745715261324794 0 -0.051271367506727443 0.0052892744526335288 0 -0.051049282000958082 0.0053952153608344345 0 -0.050916788712110736 0.0056541551068433737 0 -0.051049282000958082 0.0053952153608344345 0 -0.050765410996939236 0.0054378100830449203 0 -0.051049282000958082 0.0053952153608344345 0 -0.050925901136774643 0.0051204816946569271 0 -0.05115081192802335 0.0050977912926054138 0 -0.051271367506727443 0.0052892744526335288 0 -0.051049282000958082 0.0053952153608344345 0 -0.05115081192802335 0.0050977912926054138 0 -0.051080528231686018 0.0048819099895365294 0 -0.050925901136774643 0.0051204816946569271 0 -0.05115081192802335 0.0050977912926054138 0 -0.050925901136774643 0.0051204816946569271 0 -0.050685459208924075 0.0051626645491546453 0 -0.050765410996939236 0.0054378100830449203 0 -0.050790554048530126 0.0049401157856741517 0 -0.050685459208924075 0.0051626645491546453 0 -0.05062327761175936 0.0050166818333714051 0 -0.050790554048530126 0.0049401157856741517 0 -0.050925901136774643 0.0051204816946569271 0 -0.050685459208924075 0.0051626645491546453 0 -0.050582918729144326 0.0058019769944318003 0 -0.050765410996939236 0.0054378100830449203 0 -0.050305615039053515 0.0054992360295825684 0 -0.050765410996939236 0.0054378100830449203 0 -0.050305615039053515 0.0054992360295825684 0 -0.050085044174332183 0.0051106902176053116 0 -0.041702406936074903 0.012918328441651309 0 -0.047694539543904305 0.0070118220899751523 0 -0.050685459208924075 0.0051626645491546453 0 -0.050765410996939236 0.0054378100830449203 0 -0.05050197013928797 0.005196667451045159 0 -0.048957410789466055 0.0069857399202675691 0 -0.047694539543904305 0.0070118220899751523 0 -0.04998640537294978 0.0058125745669118699 0 -0.050305615039053515 0.0054992360295825684 0 -0.050085044174332183 0.0051106902176053116 0 -0.046484728350664882 0.0066921597624591692 0 -0.046124015553991968 0.0092138523740067889 0 -0.048745672285392755 0.0089339776625146621 0 -0.041702406936074903 0.012918328441651309 0 -0.044587577057467499 0.013443884273323213 0 -0.029989569657523245 0.026011894160853345 0 -0.026158265820619087 0.025229153653196067 0 -0.02963186446572685 0.028615928848354191 0 -0.046124015553991968 0.0092138523740067889 0 -0.048745672285392755 0.0089339776625146621 0 -0.048745164409430761 0.0094805978326302377 0 -0.047694539543904305 0.0070118220899751523 0 -0.05012866863546403 0.0071218589652756589 0 -0.046124015553991968 0.0092138523740067889 0 -0.048745164409430761 0.0094805978326302377 0 -0.048306482638487136 0.010292559696482975 0 -0.050435098057046941 0.0050348930403416601 0 -0.050516037852116759 0.0051599287987840513 0 -0.050323157764537746 0.0050493343783306055 0 -0.050435098057046941 0.0050348930403416601 0 -0.050524657416153217 0.0051018365073652637 0 -0.050528748631554536 0.004988677047448392 0 -0.050524657416153217 0.0051018365073652637 0 -0.05062327761175936 0.0050166818333714051 0 -0.050528748631554536 0.004988677047448392 0 -0.050685459208924075 0.0051626645491546453 0 -0.050524657416153217 0.0051018365073652637 0 -0.05062327761175936 0.0050166818333714051 0 -0.050685459208924075 0.0051626645491546453 0 -0.050524657416153217 0.0051018365073652637 0 -0.05050197013928797 0.005196667451045159 0 -0.050435098057046941 0.0050348930403416601 0 -0.050524657416153217 0.0051018365073652637 0 -0.050516037852116759 0.0051599287987840513 0 -0.047750884666740739 0.0068872927758083288 0 -0.047694539543904305 0.0070118220899751523 0 -0.032689982287141414 0.025763381117765424 0 -0.034530022043028463 0.027447636332800156 0 -0.03263210017086958 0.028668822191849047 0 -0.029989569657523245 0.026011894160853345 0 -0.032689982287141414 0.025763381117765424 0 -0.03263210017086958 0.028668822191849047 0 -0.029989569657523245 0.026011894160853345 0 -0.03263210017086958 0.028668822191849047 0 -0.02963186446572685 0.028615928848354191 0 -0.048745164409430761 0.0094805978326302377 0 -0.048306482638487136 0.010292559696482975 0 -0.050489410468443581 0.011350718067909465 0 -0.048745672285392755 0.0089339776625146621 0 -0.048745164409430761 0.0094805978326302377 0 -0.05106624284606235 0.011226792797391158 0 -0.052638445794014908 0.0076821563328246618 0 -0.053774397990313479 0.0074123353790667311 0 -0.034938455369347039 0.029612839059548441 0 -0.03263210017086958 0.028668822191849047 0 -0.033058123428693985 0.031942122784718315 0 -0.044587577057467499 0.013443884273323213 0 -0.051899041614102061 0.0097357910826266682 0 -0.03263210017086958 0.028668822191849047 0 -0.02963186446572685 0.028615928848354191 0 -0.033058123428693985 0.031942122784718315 0 -0.048745164409430761 0.0094805978326302377 0 -0.05106624284606235 0.011226792797391158 0 -0.050534689874689877 0.011409263774672109 0 -0.055794803410142778 0.0094243804841433552 0 -0.051374386667113456 0.0049580497002633603 0 -0.049721861005893674 0.0070050522168015215 0 -0.056331184787395086 0.0087446044289983 0 -0.051899041614102061 0.0097357910826266682 0 -0.056331184787395086 0.0087446044289983 0 -0.054622310947319536 0.0074248005261606494 0 -0.05106624284606235 0.011226792797391158 0 -0.050534689874689877 0.011409263774672109 0 -0.050741057326990469 0.011634101948928059 0 -0.051899041614102061 0.0097357910826266682 0 -0.054622310947319536 0.0074248005261606494 0 -0.053774397990313479 0.0074123353790667311 0 -0.054622310947319536 0.0074248005261606494 0 -0.049912753747654443 0.0049123099546542889 0 -0.049848919985481362 0.0048569964263535997 0 -0.050178342807225725 0.0048605320395392372 0 -0.05012866863546403 0.0071218589652756589 0 -0.053774397990313479 0.0074123353790667311 0 -0.049848919985481362 0.0048569964263535997 0 -0.050178342807225725 0.0048605320395392372 0 -0.050205851821866425 0.0042598064036869724 0 -0.050323157764537746 0.0050493343783306055 0 -0.049912753747654443 0.0049123099546542889 0 -0.050178342807225725 0.0048605320395392372 0 -0.050178342807225725 0.0048605320395392372 0 -0.050353349600963479 0.0048931043234588644 0 -0.050390783105068754 0.0046719919062054704 0 -0.050323157764537746 0.0050493343783306055 0 -0.050178342807225725 0.0048605320395392372 0 -0.050353349600963479 0.0048931043234588644 0 -0.050205851821866425 0.0042598064036869724 0 -0.050959421744646592 0.0042695667959154948 0 -0.050773416032067149 0.003519143841416615 0 -0.050178342807225725 0.0048605320395392372 0 -0.050205851821866425 0.0042598064036869724 0 -0.050959421744646592 0.0042695667959154948 0 -0.051526798550170769 0.0050473591778325303 0 -0.052233340375740143 0.0047154553300230058 0 -0.0646262265140021 0.0018454390498141649 0 -0.064800755988330461 0.0016286260506228761 0 -0.06461826709316669 0.0016256682436588358 0 -0.054622310947319536 0.0074248005261606494 0 -0.056763796401622525 0.0041458025635511021 0 -0.064419589906886204 0.0016258644102804828 0 -0.0646262265140021 0.0018454390498141649 0 -0.06461826709316669 0.0016256682436588358 0 -0.064800755988330461 0.0016286260506228761 0 -0.06461826709316669 0.0016256682436588358 0 -0.064692752040507853 0.0014948959023919259 0 -0.06461826709316669 0.0016256682436588358 0 -0.064565630816847588 0.0014877603072347813 0 -0.064692752040507853 0.0014948959023919259 0 -0.050613440232103638 0.0048799060263634156 0 -0.050472649499769533 0.0048688437740734055 0 -0.05055766629547135 0.0047187667514865753 0 -0.050740449933499701 0.0047131948093534744 0 -0.050613440232103638 0.0048799060263634156 0 -0.05055766629547135 0.0047187667514865753 0 -0.050790554048530126 0.0049401157856741517 0 -0.05062327761175936 0.0050166818333714051 0 -0.050613440232103638 0.0048799060263634156 0 -0.05062327761175936 0.0050166818333714051 0 -0.050613440232103638 0.0048799060263634156 0 -0.050528748631554536 0.004988677047448392 0 -0.050613440232103638 0.0048799060263634156 0 -0.050528748631554536 0.004988677047448392 0 -0.050472649499769533 0.0048688437740734055 0 -0.050353349600963479 0.0048931043234588644 0 -0.050472649499769533 0.0048688437740734055 0 -0.050390783105068754 0.0046719919062054704 0 -0.050435098057046941 0.0050348930403416601 0 -0.050353349600963479 0.0048931043234588644 0 -0.050472649499769533 0.0048688437740734055 0 -0.050435098057046941 0.0050348930403416601 0 -0.050528748631554536 0.004988677047448392 0 -0.050472649499769533 0.0048688437740734055 0 -0.050435098057046941 0.0050348930403416601 0 -0.050323157764537746 0.0050493343783306055 0 -0.050353349600963479 0.0048931043234588644 0 -0.050472649499769533 0.0048688437740734055 0 -0.050390783105068754 0.0046719919062054704 0 -0.05055766629547135 0.0047187667514865753 0 -0.053961738869505865 0.0032645613619662118 0 -0.054975806133200772 0.0032726916678933889 0 -0.050390783105068754 0.0046719919062054704 0 -0.05055766629547135 0.0047187667514865753 0 -0.050604027688286285 0.0044708271466812298 0 -0.050740449933499701 0.0047131948093534744 0 -0.05055766629547135 0.0047187667514865753 0 -0.050604027688286285 0.0044708271466812298 0 -0.054975806133200772 0.0032726916678933889 0 -0.056105703549398714 0.0028358703331830626 0 -0.051792139756693917 0.003530656986194731 0 -0.050773416032067149 0.003519143841416615 0 -0.051389715796957197 0.0027611183719478648 0 -0.052233340375740143 0.0047154553300230058 0 -0.054975806133200772 0.0032726916678933889 0 -0.050959421744646592 0.0042695667959154948 0 -0.051792139756693917 0.003530656986194731 0 -0.050773416032067149 0.003519143841416615 0 -0.064955120042249903 0.001398310712176671 0 -0.064950863721758192 0.0011403420576331924 0 -0.065097411346283371 0.0011962051985745768 0 -0.057461443527760683 0.0027510155228473152 0 -0.05762652109622813 0.0019435250185945118 0 -0.064950863721758192 0.0011403420576331924 0 -0.065097411346283371 0.0011962051985745768 0 -0.064998896820969751 0.0010096447123230452 0 -0.057046512745575782 0.0021720361996323966 0 -0.056825949331711284 0.0017535139837331589 0 -0.057414585091071828 0.0018302226707511016 0 -0.056825949331711284 0.0017535139837331589 0 -0.057101145803284716 0.0014137208524762199 0 -0.057414585091071828 0.0018302226707511016 0 -0.05762652109622813 0.0019435250185945118 0 -0.059132318466756248 0.0012681432950274224 0 -0.054975806133200772 0.0032726916678933889 0 -0.05762652109622813 0.0019435250185945118 0 -0.064622171665243838 0.0013430854360395926 0 -0.064565630816847588 0.0014877603072347813 0 -0.064692752040507853 0.0014948959023919259 0 -0.064622171665243838 0.0013430854360395926 0 -0.064692752040507853 0.0014948959023919259 0 -0.064797268574158393 0.0013598204365983379 0 -0.056763796401622525 0.0041458025635511021 0 -0.057461443527760683 0.0027510155228473152 0 -0.064800755988330461 0.0016286260506228761 0 -0.064955120042249903 0.001398310712176671 0 -0.064797268574158393 0.0013598204365983379 0 -0.064800755988330461 0.0016286260506228761 0 -0.064692752040507853 0.0014948959023919259 0 -0.064797268574158393 0.0013598204365983379 0 -0.064955120042249903 0.001398310712176671 0 -0.064797268574158393 0.0013598204365983379 0 -0.06482840281176043 0.0011970853805496329 0 -0.064955120042249903 0.001398310712176671 0 -0.064950863721758192 0.0011403420576331924 0 -0.06482840281176043 0.0011970853805496329 0 -0.064950863721758192 0.0011403420576331924 0 -0.06482840281176043 0.0011970853805496329 0 -0.064866965210353955 0.0010808963684814908 0 -0.06482840281176043 0.0011970853805496329 0 -0.064688971737791048 0.0011783101088479559 0 -0.064774953731842652 0.0010395832166837542 0 -0.064797268574158393 0.0013598204365983379 0 -0.06482840281176043 0.0011970853805496329 0 -0.064688971737791048 0.0011783101088479559 0 -0.064544605160648846 0.0011975189023884388 0 -0.064688971737791048 0.0011783101088479559 0 -0.064600329292844635 0.00099981516171396626 0 -0.064622171665243838 0.0013430854360395926 0 -0.064797268574158393 0.0013598204365983379 0 -0.064688971737791048 0.0011783101088479559 0 -0.064544605160648846 0.0011975189023884388 0 -0.064622171665243838 0.0013430854360395926 0 -0.064688971737791048 0.0011783101088479559 0 -0.064600329292844635 0.00099981516171396626 0 -0.064774953731842652 0.0010395832166837542 0 -0.064835450640505193 0.00089621340119324907 0 -0.064688971737791048 0.0011783101088479559 0 -0.064600329292844635 0.00099981516171396626 0 -0.064774953731842652 0.0010395832166837542 0 -0.064774953731842652 0.0010395832166837542 0 -0.064850553461835353 0.0010037865668914776 0 -0.064835450640505193 0.00089621340119324907 0 -0.06482840281176043 0.0011970853805496329 0 -0.064774953731842652 0.0010395832166837542 0 -0.064866965210353955 0.0010808963684814908 0 -0.064950863721758192 0.0011403420576331924 0 -0.064866965210353955 0.0010808963684814908 0 -0.064924966051749661 0.0010006947923055904 0 -0.064774953731842652 0.0010395832166837542 0 -0.064866965210353955 0.0010808963684814908 0 -0.064850553461835353 0.0010037865668914776 0 -0.064866965210353955 0.0010808963684814908 0 -0.064850553461835353 0.0010037865668914776 0 -0.064924966051749661 0.0010006947923055904 0 -0.064850553461835353 0.0010037865668914776 0 -0.064835450640505193 0.00089621340119324907 0 -0.064924966051749661 0.0010006947923055904 0 -0.064835450640505193 0.00089621340119324907 0 -0.064924966051749661 0.0010006947923055904 0 -0.064992936576636115 0.0010086618754850118 0 -0.064600329292844635 0.00099981516171396626 0 -0.064835450640505193 0.00089621340119324907 0 -0.064823260081798589 0.00075965164112721324 0 -0.064835450640505193 0.00089621340119324907 0 -0.064862515984143373 0.00076172921116265252 0 -0.064992936576636115 0.0010086618754850118 0 -0.064835450640505193 0.00089621340119324907 0 -0.064862515984143373 0.00076172921116265252 0 -0.064823260081798589 0.00075965164112721324 0 -0.064999927478890343 -1.3554709911604511e-07 0 -0.065045545252674836 8.5048233395571468e-05 0 -0.064820406854441723 1.3559854687259099e-07 0 -0.064692083736007794 0.00018950630367434181 0 -0.064685183971795304 0.00021040608577987922 0 -0.064991498169362436 4.896582743040215e-06 0 -0.064692083736007794 0.00018950630367434181 0 -0.06499974520030069 -1.3878981604616095e-07 0 -0.065067922477517706 0.00010885893837548914 0 -0.064820706784585416 1.2563976379158587e-07 0 -0.064598547474270573 0.00055842544371651284 0 -0.064685183971795304 0.00021040608577987922 0 -0.061724802932018451 0.00040780996437398738 0 -0.062301682713072022 0.00047300147085959228 0 -0.06195532845953889 0.00071245898923387116 0 -0.059132318466756248 0.0012681432950274224 0 -0.060950773655937145 0.0015549553743956373 0 -0.061606410026947923 0.00055411519481355352 0 -0.06195532845953889 0.00071245898923387116 0 -0.061589764322464241 0.00080884298582327256 0 -0.061606410026947923 0.00055411519481355352 0 -0.061724802932018451 0.00040780996437398738 0 -0.06195532845953889 0.00071245898923387116 0 -0.059228054899793534 0.0011844506032769324 0 -0.059132318466756248 0.0012681432950274224 0 -0.05762652109622813 0.0019435250185945118 0 -0.060950773655937145 0.0015549553743956373 0 -0.058762848928030173 0.0010634601933913138 0 -0.058801928554571767 0.0010148868949799111 0 -0.058736714642673681 0.0010087054355013838 0 -0.064950863721758192 0.0011403420576331924 0 -0.064924966051749661 0.0010006947923055904 0 -0.064998896820969751 0.0010096447123230452 0 -0.061174910740758037 0.0015655920283089667 0 -0.060950773655937145 0.0015549553743956373 0 -0.062661941379022409 0.0011324201664435454 0 -0.061951225831943332 0.0010928667324796592 0 -0.06195532845953889 0.00071245898923387116 0 -0.064999999328478511 7.0366185371426367e-10 0 -0.064999927815650477 1.2663335590127398e-07 0 -0.064999998385340305 1.0479610690656759e-09 0 -0.064692083736007794 0.00018950630367434181 0 -0.063908151884180059 0.0001304368579514097 0 -0.064999927815650477 1.2663335590127398e-07 0 -0.064999998385340305 1.0479610690656759e-09 0 -0.064999795326800114 1.0219690941478809e-07 0 -0.062661941379022409 0.0011324201664435454 0 -0.062301682713072022 0.00047300147085959228 0 -0.06195532845953889 0.00071245898923387116 0 -0.064692083736007794 0.00018950630367434181 0 -0.060950773655937145 0.0015549553743956373 0 -0.064999998385340305 1.0479610690656759e-09 0 -0.064999795326800114 1.0219690941478809e-07 0 -0.064999998313342841 -2.4063695279953687e-09 0 -0.063908151884180059 0.0001304368579514097 0 -0.064088550590884419 -7.3235020387867433e-05 0 -0.061951225831943332 0.0010928667324796592 0 -0.061589764322464241 0.00080884298582327256 0 -0.061243012489624833 0.0010518889167169133 0 -0.061951225831943332 0.0010928667324796592 0 -0.06195532845953889 0.00071245898923387116 0 -0.061589764322464241 0.00080884298582327256 0 -0.064999795326800114 1.0219690941478809e-07 0 -0.064999998313342841 -2.4063695279953687e-09 0 -0.064999646692726495 -3.7643734780139308e-07 0 -0.061243012489624833 0.0010518889167169133 0 -0.060730925591186084 0.00048285913148430503 0 -0.061193138509732244 0.00063240692829517344 0 -0.064993909046658027 1.5322077328712619e-06 0 -0.064088550590884419 -7.3235020387867433e-05 0 -0.065000226082206972 3.6072132134957663e-08 0 -0.064999758967970334 -3.724813501884605e-08 0 -0.064973145986494008 -0.00013359620655651464 0 -0.061589764322464241 0.00080884298582327256 0 -0.061243012489624833 0.0010518889167169133 0 -0.061193138509732244 0.00063240692829517344 0 -0.064999758967970334 -3.724813501884605e-08 0 -0.064973145986494008 -0.00013359620655651464 0 -0.064073908532480961 -0.00046934893173087753 0 -0.064973145986494008 -0.00013359620655651464 0 -0.0643919310103791 -0.00076695579484674999 0 -0.064073908532480961 -0.00046934893173087753 0 -0.064998575874892467 4.68045447531626e-07 0 -0.06300834334471947 -0.00023318195507209151 0 -0.06499999788694498 3.1111391372006169e-09 0 -0.064998198586286193 -5.1157050674886178e-07 0 -0.06499999720091823 -2.7308385248904325e-09 0 -0.064088550590884419 -7.3235020387867433e-05 0 -0.061268528814253917 0.00031415852532634952 0 -0.061268528814253917 0.00031415852532634952 0 -0.06300834334471947 -0.00023318195507209151 0 -0.060730925591186084 0.00048285913148430503 0 -0.060915416079301871 0.0003117679891891824 0 -0.061193138509732244 0.00063240692829517344 0 -0.061268528814253917 0.00031415852532634952 0 -0.059154133225686779 0.0011522535874353931 0 -0.061149283018689791 0.0014675498805334559 0 -0.062147529385886663 0.00054156926374078495 0 -0.060113482050514304 0.00030803161860040897 0 -0.051049963839722184 0.0038427785667755703 0 -0.051189452577812516 0.004018205035735049 0 -0.051478354551763646 0.0038074726017895129 0 -0.059154133225686779 0.0011522535874353931 0 -0.060451117797929721 0.00042286729466940861 0 -0.061268528814253917 0.00031415852532634952 0 -0.060451117797929721 0.00042286729466940861 0 -0.062252357964662317 -0.00010879422675672795 0 -0.06241977383221587 7.8093736257023433e-05 0 -0.06246197748169692 -0.00010884965671967112 0 -0.061606410026947923 0.00055411519481355352 0 -0.061724020134289272 0.00040757498757245292 0 -0.060915416079301871 0.0003117679891891824 0 -0.061606410026947923 0.00055411519481355352 0 -0.060915416079301871 0.0003117679891891824 0 -0.061193138509732244 0.00063240692829517344 0 -0.059132318466756248 0.0012681432950274224 0 -0.059154133225686779 0.0011522535874353931 0 -0.061606410026947923 0.00055411519481355352 0 -0.061589764322464241 0.00080884298582327256 0 -0.061193138509732244 0.00063240692829517344 0 -0.057101145803284716 0.0014137208524762199 0 -0.057782860673714236 0.0014879460815034001 0 -0.057414585091071828 0.0018302226707511016 0 -0.050797632986730734 0.0040955468641848706 0 -0.05099167920880298 0.0041258236857307793 0 -0.05079653536564168 0.0043295534727415975 0 -0.051049963839722184 0.0038427785667755703 0 -0.050797632986730734 0.0040955468641848706 0 -0.05099167920880298 0.0041258236857307793 0 -0.059154133225686779 0.0011522535874353931 0 -0.056105703549398714 0.0028358703331830626 0 -0.053673198659808678 0.0027997551659261978 0 -0.053991429217787199 0.0025611039917739975 0 -0.051189452577812516 0.004018205035735049 0 -0.051112591882589313 0.0041859558662891245 0 -0.05104694409753429 0.0041802225092887543 0 -0.051189452577812516 0.004018205035735049 0 -0.051563662390667404 0.0047843250289121061 0 -0.051524469910555065 0.0041783880236199887 0 -0.051049963839722184 0.0038427785667755703 0 -0.051189452577812516 0.004018205035735049 0 -0.05099167920880298 0.0041258236857307793 0 -0.051189452577812516 0.004018205035735049 0 -0.051524469910555065 0.0041783880236199887 0 -0.051478354551763646 0.0038074726017895129 0 -0.051189452577812516 0.004018205035735049 0 -0.05099167920880298 0.0041258236857307793 0 -0.051112591882589313 0.0041859558662891245 0 -0.050133869038311442 0.0043500238967759718 0 -0.050333298023330274 0.0043828293435207288 0 -0.05099167920880298 0.0041258236857307793 0 -0.051112591882589313 0.0041859558662891245 0 -0.05097731528993308 0.00442432599947876 0 -0.051225923901532411 0.0046002125449008799 0 -0.051112591882589313 0.0041859558662891245 0 -0.05097731528993308 0.00442432599947876 0 -0.05099167920880298 0.0041258236857307793 0 -0.05097731528993308 0.00442432599947876 0 -0.05079653536564168 0.0043295534727415975 0 -0.050740449933499701 0.0047131948093534744 0 -0.050547834760635985 0.0043204426473903009 0 -0.05079653536564168 0.0043295534727415975 0 -0.050547834760635985 0.0043204426473903009 0 -0.050797632986730734 0.0040955468641848706 0 -0.05079653536564168 0.0043295534727415975 0 -0.064257460675868835 -3.6564227722066772e-06 0 -0.064395832986824261 -0.00015863181919206711 0 -0.064499266047511439 -4.9376264914932625e-05 0 -0.064257460675868835 -3.6564227722066772e-06 0 -0.064118659098260214 -0.00017289630758074578 0 -0.064254387745945774 -0.00016599093519569451 0 -0.064257460675868835 -3.6564227722066772e-06 0 -0.064254387745945774 -0.00016599093519569451 0 -0.064395832986824261 -0.00015863181919206711 0 -0.052381755371412674 0.0053292581511450131 0 -0.052520725623807607 0.0049994672937746475 0 -0.051563662390667404 0.0047843250289121061 0 -0.050985983644382706 0.0039857516417006805 0 -0.051112591882589313 0.0041859558662891245 0 -0.050947016472740039 0.004090763105741105 0 -0.052520725623807607 0.0049994672937746475 0 -0.051563662390667404 0.0047843250289121061 0 -0.051846979793156882 0.0041399595280871967 0 -0.055304478263818208 0.0023758591502770683 0 -0.053991429217787199 0.0025611039917739975 0 -0.055743148195810749 0.0017218609110844513 0 -0.055920805234734659 0.0017516015183676778 0 -0.055987374284288287 0.0019015268181904849 0 -0.053753401406076699 0.0026165442362259378 0 -0.053991429217787199 0.0025611039917739975 0 -0.051112591882589313 0.0041859558662891245 0 -0.050947016472740039 0.004090763105741105 0 -0.05104694409753429 0.0041802225092887543 0 -0.058768276148409834 0.0018413172205865472 0 -0.060011419006788254 0.00088690134463966582 0 -0.064036205503769456 -0.00025407023819355067 0 -0.064244311455256942 -0.00033833192685890287 0 -0.063919812150389319 -0.00037865389274929252 0 -0.064257460675868835 -3.6564227722066772e-06 0 -0.064118659098260214 -0.00017289630758074578 0 -0.064035266398816765 -0.00024510777479820937 0 -0.060182685864705737 0.00095278547185196402 0 -0.060011419006788254 0.00088690134463966582 0 -0.051563662390667404 0.0047843250289121061 0 -0.051524469910555065 0.0041783880236199887 0 -0.051846979793156882 0.0041399595280871967 0 -0.060011419006788254 0.00088690134463966582 0 -0.060451117797929721 0.00042286729466940861 0 -0.051524469910555065 0.0041783880236199887 0 -0.051846979793156882 0.0041399595280871967 0 -0.051478354551763646 0.0038074726017895129 0 -0.064118659098260214 -0.00017289630758074578 0 -0.064036205503769456 -0.00025407023819355067 0 -0.064244311455256942 -0.00033833192685890287 0 -0.064118659098260214 -0.00017289630758074578 0 -0.064244311455256942 -0.00033833192685890287 0 -0.064254387745945774 -0.00016599093519569451 0 -0.064244311455256942 -0.00033833192685890287 0 -0.064254387745945774 -0.00016599093519569451 0 -0.064395832986824261 -0.00015863181919206711 0 -0.062973629299363496 0.0001402803034393485 0 -0.063014254580337131 -7.0607238605195643e-05 0 -0.063532714685446648 0.00020226948544022809 0 -0.062973629299363496 0.0001402803034393485 0 -0.063014254580337131 -7.0607238605195643e-05 0 -0.062674691037939614 -6.464528128771468e-05 0 -0.064998582008908831 -5.3533616913749005e-06 0 -0.064998968036920249 -1.4547064806849657e-06 0 -0.064995276509662317 -3.6108685796007082e-06 0 -0.063014254580337131 -7.0607238605195643e-05 0 -0.062674691037939614 -6.464528128771468e-05 0 -0.062501685422284931 -0.00034001072353270518 0 -0.063689867441974649 5.622869457225263e-05 0 -0.06300834334471947 -0.00023318195507209151 0 -0.062973629299363496 0.0001402803034393485 0 -0.06241977383221587 7.8093736257023433e-05 0 -0.062674691037939614 -6.464528128771468e-05 0 -0.064998582008908831 -5.3533616913749005e-06 0 -0.064998419049801928 -1.3998170140908947e-06 0 -0.06499877402959324 -8.1178932014585803e-07 0 -0.062821874418045084 0.00030361145897786029 0 -0.060451117797929721 0.00042286729466940861 0 -0.06241977383221587 7.8093736257023433e-05 0 -0.062674691037939614 -6.464528128771468e-05 0 -0.06246197748169692 -0.00010884965671967112 0 -0.062674691037939614 -6.464528128771468e-05 0 -0.06246197748169692 -0.00010884965671967112 0 -0.062501685422284931 -0.00034001072353270518 0 -0.062252357964662317 -0.00010879422675672795 0 -0.06246197748169692 -0.00010884965671967112 0 -0.062501685422284931 -0.00034001072353270518 0 -0.064998198586286193 -5.1157050674886178e-07 0 -0.06499877402959324 -8.1178932014585803e-07 0 -0.06499999720091823 -2.7308385248904325e-09 0 -0.06300834334471947 -0.00023318195507209151 0 -0.063054649383171291 -0.00025598635601104886 0 -0.06499877402959324 -8.1178932014585803e-07 0 -0.06499999720091823 -2.7308385248904325e-09 0 -0.064998968036920249 -1.4547064806849657e-06 0 -0.064998968036920249 -1.4547064806849657e-06 0 -0.06499999524605031 3.2190397813301463e-11 0 -0.064995276509662317 -3.6108685796007082e-06 0 -0.06499999720091823 -2.7308385248904325e-09 0 -0.064998968036920249 -1.4547064806849657e-06 0 -0.06499999524605031 3.2190397813301463e-11 0 -0.064998582008908831 -5.3533616913749005e-06 0 -0.06499877402959324 -8.1178932014585803e-07 0 -0.064998968036920249 -1.4547064806849657e-06 0 -0.06499999524605031 3.2190397813301463e-11 0 -0.064990852744199676 -1.130596385129467e-06 0 -0.064995276509662317 -3.6108685796007082e-06 0 -0.064990852744199676 -1.130596385129467e-06 0 -0.064973018958226117 -5.0570420339799904e-06 0 -0.064999960727137929 4.7553026166134932e-09 0 -0.06499999524605031 3.2190397813301463e-11 0 -0.064990852744199676 -1.130596385129467e-06 0 -0.064999960727137929 4.7553026166134932e-09 0 -0.064990852744199676 -1.130596385129467e-06 0 -0.064973018958226117 -5.0570420339799904e-06 0 -0.064986404893639008 -7.924878081307039e-06 0 -0.064973018958226117 -5.0570420339799904e-06 0 -0.064979091752426416 -1.1707441144775286e-05 0 -0.064986404893639008 -7.924878081307039e-06 0 -0.064998582008908831 -5.3533616913749005e-06 0 -0.064995276509662317 -3.6108685796007082e-06 0 -0.06498928029296322 -1.5503931040248946e-05 0 -0.064986404893639008 -7.924878081307039e-06 0 -0.064995276509662317 -3.6108685796007082e-06 0 -0.06498928029296322 -1.5503931040248946e-05 0 -0.064979091752426416 -1.1707441144775286e-05 0 -0.064986404893639008 -7.924878081307039e-06 0 -0.06498928029296322 -1.5503931040248946e-05 0 -0.063689867441974649 5.622869457225263e-05 0 -0.063935049305003211 0.00021413323944735168 0 -0.064990852744199676 -1.130596385129467e-06 0 -0.064986404893639008 -7.924878081307039e-06 0 -0.064995276509662317 -3.6108685796007082e-06 0 -0.064999967907946612 -1.3997711981224353e-08 0 -0.064965803297728525 -7.8232259560621066e-06 0 -0.064983282756623129 -8.363464427748198e-06 0 -0.064973018958226117 -5.0570420339799904e-06 0 -0.064999960727137929 4.7553026166134932e-09 0 -0.064965803297728525 -7.8232259560621066e-06 0 -0.064999967907946612 -1.3997711981224353e-08 0 -0.064999960727137929 4.7553026166134932e-09 0 -0.064965803297728525 -7.8232259560621066e-06 0 -0.064973018958226117 -5.0570420339799904e-06 0 -0.064965803297728525 -7.8232259560621066e-06 0 -0.064937607687476126 -1.3508634029990456e-05 0 -0.064965803297728525 -7.8232259560621066e-06 0 -0.06493453706833073 -1.4961027615037415e-05 0 -0.064983282756623129 -8.363464427748198e-06 0 -0.06493453706833073 -1.4961027615037415e-05 0 -0.064974339729398908 -5.7590692578111588e-06 0 -0.064983282756623129 -8.363464427748198e-06 0 -0.06493453706833073 -1.4961027615037415e-05 0 -0.064881865936835176 2.9219065384391487e-05 0 -0.064974339729398908 -5.7590692578111588e-06 0 -0.064965803297728525 -7.8232259560621066e-06 0 -0.06493453706833073 -1.4961027615037415e-05 0 -0.064937607687476126 -1.3508634029990456e-05 0 -0.06493453706833073 -1.4961027615037415e-05 0 -0.064937607687476126 -1.3508634029990456e-05 0 -0.064883286254128883 -2.6172420439018893e-05 0 -0.064937607687476126 -1.3508634029990456e-05 0 -0.064883286254128883 -2.6172420439018893e-05 0 -0.06496230745393447 -2.5772375946302114e-05 0 -0.064452540862018737 0.00024929650729323962 0 -0.064335914735333344 0.00024291219982070257 0 -0.06493453706833073 -1.4961027615037415e-05 0 -0.064883286254128883 -2.6172420439018893e-05 0 -0.064881865936835176 2.9219065384391487e-05 0 -0.064883286254128883 -2.6172420439018893e-05 0 -0.064819787070902732 4.1709404010959226e-05 0 -0.064697433905875554 -1.9106011852537506e-05 0 -0.064883286254128883 -2.6172420439018893e-05 0 -0.064819787070902732 4.1709404010959226e-05 0 -0.064881865936835176 2.9219065384391487e-05 0 -0.064819787070902732 4.1709404010959226e-05 0 -0.064881865936835176 2.9219065384391487e-05 0 -0.064849582219099575 8.4257471314921786e-05 0 -0.064881865936835176 2.9219065384391487e-05 0 -0.064900906785487114 4.8595229946877238e-05 0 -0.064908801996634388 2.2326448152524882e-05 0 -0.064881865936835176 2.9219065384391487e-05 0 -0.064900906785487114 4.8595229946877238e-05 0 -0.064882863438595367 8.1848076590755934e-05 0 -0.064924935830299541 2.098147747265075e-05 0 -0.064942839082694728 1.020826915105124e-05 0 -0.064244311455256942 -0.00033833192685890287 0 -0.064395832986824261 -0.00015863181919206711 0 -0.064529162914456012 -0.00029120775569317409 0 -0.062821874418045084 0.00030361145897786029 0 -0.063935049305003211 0.00021413323944735168 0 -0.064579306698319711 -0.00015444521934890925 0 -0.064395832986824261 -0.00015863181919206711 0 -0.064529162914456012 -0.00029120775569317409 0 -0.064979091752426416 -1.1707441144775286e-05 0 -0.06498928029296322 -1.5503931040248946e-05 0 -0.06496230745393447 -2.5772375946302114e-05 0 -0.063935049305003211 0.00021413323944735168 0 -0.064335914735333344 0.00024291219982070257 0 -0.064973018958226117 -5.0570420339799904e-06 0 -0.064979091752426416 -1.1707441144775286e-05 0 -0.06496230745393447 -2.5772375946302114e-05 0 -0.064973018958226117 -5.0570420339799904e-06 0 -0.064937607687476126 -1.3508634029990456e-05 0 -0.06496230745393447 -2.5772375946302114e-05 0 -0.064579306698319711 -0.00015444521934890925 0 -0.064529162914456012 -0.00029120775569317409 0 -0.064710425022350818 -0.0001729290377371659 0 -0.064579306698319711 -0.00015444521934890925 0 -0.064710425022350818 -0.0001729290377371659 0 -0.064697433905875554 -1.9106011852537506e-05 0 -0.064883286254128883 -2.6172420439018893e-05 0 -0.064710425022350818 -0.0001729290377371659 0 -0.064697433905875554 -1.9106011852537506e-05 0 -0.064819787070902732 4.1709404010959226e-05 0 -0.064697433905875554 -1.9106011852537506e-05 0 -0.06472166199464098 7.6951943232077638e-05 0 -0.064697433905875554 -1.9106011852537506e-05 0 -0.064537043216602141 7.9075060689356655e-05 0 -0.06472166199464098 7.6951943232077638e-05 0 -0.064257460675868835 -3.6564227722066772e-06 0 -0.064499266047511439 -4.9376264914932625e-05 0 -0.064537043216602141 7.9075060689356655e-05 0 -0.064697433905875554 -1.9106011852537506e-05 0 -0.064499266047511439 -4.9376264914932625e-05 0 -0.064537043216602141 7.9075060689356655e-05 0 -0.064579306698319711 -0.00015444521934890925 0 -0.064697433905875554 -1.9106011852537506e-05 0 -0.064499266047511439 -4.9376264914932625e-05 0 -0.064579306698319711 -0.00015444521934890925 0 -0.064395832986824261 -0.00015863181919206711 0 -0.064499266047511439 -4.9376264914932625e-05 0 -0.064257460675868835 -3.6564227722066772e-06 0 -0.064537043216602141 7.9075060689356655e-05 0 -0.064445732289707708 0.00019943276270060863 0 -0.064445732289707708 0.00019943276270060863 0 -0.064610692140051967 0.00029662834029439911 0 -0.064654351418302794 0.00014554933131530638 0 -0.064537043216602141 7.9075060689356655e-05 0 -0.064445732289707708 0.00019943276270060863 0 -0.064654351418302794 0.00014554933131530638 0 -0.055609844011905905 0.0014081812365318615 0 -0.055498215638557558 0.0015417712579070127 0 -0.055494070892881595 0.0013006493338907617 0 -0.055797921761998805 0.001863122261593743 0 -0.055433077537564553 0.0013688369817360772 0 -0.055412456090029164 0.0015866235362110449 0 -0.055498215638557558 0.0015417712579070127 0 -0.055288312460523431 0.0012559844240954668 0 -0.055494070892881595 0.0013006493338907617 0 -0.057361922788228652 0.0020454063368363085 0 -0.056275993441265618 0.0012557000211085615 0 -0.057361922788228652 0.0020454063368363085 0 -0.059167372154903058 0.0015143408917567655 0 -0.055288312460523431 0.0012559844240954668 0 -0.055494070892881595 0.0013006493338907617 0 -0.055402632798100059 0.0011575267453562466 0 -0.055608491411385103 0.0012476965911942955 0 -0.055494070892881595 0.0013006493338907617 0 -0.05553135849744039 0.0011561527903411911 0 -0.064749520357389151 0.00040864266853703803 0 -0.064610692140051967 0.00029662834029439911 0 -0.064654351418302794 0.00014554933131530638 0 -0.060567804600726659 0.00095066668169602761 0 -0.061581462045359109 0.001150635822460789 0 -0.064764907360122373 0.00019328210498756741 0 -0.064754259692683197 0.00015579357015326419 0 -0.064654351418302794 0.00014554933131530638 0 -0.055433077537564553 0.0013688369817360772 0 -0.055063766287228422 0.0013157889825500322 0 -0.055412456090029164 0.0015866235362110449 0 -0.060567804600726659 0.00095066668169602761 0 -0.059167372154903058 0.0015143408917567655 0 -0.064754259692683197 0.00015579357015326419 0 -0.064747658185865198 0.00012157805298026797 0 -0.064654351418302794 0.00014554933131530638 0 -0.064537043216602141 7.9075060689356655e-05 0 -0.064654351418302794 0.00014554933131530638 0 -0.06472166199464098 7.6951943232077638e-05 0 -0.064747658185865198 0.00012157805298026797 0 -0.064654351418302794 0.00014554933131530638 0 -0.06472166199464098 7.6951943232077638e-05 0 -0.064747658185865198 0.00012157805298026797 0 -0.06472166199464098 7.6951943232077638e-05 0 -0.064789425277092486 9.1013906011897278e-05 0 -0.064819787070902732 4.1709404010959226e-05 0 -0.064789425277092486 9.1013906011897278e-05 0 -0.064849582219099575 8.4257471314921786e-05 0 -0.064789425277092486 9.1013906011897278e-05 0 -0.064849582219099575 8.4257471314921786e-05 0 -0.064798816279487859 0.00012500922949707278 0 -0.064819787070902732 4.1709404010959226e-05 0 -0.06472166199464098 7.6951943232077638e-05 0 -0.064789425277092486 9.1013906011897278e-05 0 -0.064849582219099575 8.4257471314921786e-05 0 -0.064798816279487859 0.00012500922949707278 0 -0.064833140418026167 0.00013384455615835674 0 -0.064747658185865198 0.00012157805298026797 0 -0.064789425277092486 9.1013906011897278e-05 0 -0.064798816279487859 0.00012500922949707278 0 -0.064754259692683197 0.00015579357015326419 0 -0.064747658185865198 0.00012157805298026797 0 -0.064798816279487859 0.00012500922949707278 0 -0.064849582219099575 8.4257471314921786e-05 0 -0.064882863438595367 8.1848076590755934e-05 0 -0.064859600466898704 0.00010685098192148669 0 -0.064881865936835176 2.9219065384391487e-05 0 -0.064849582219099575 8.4257471314921786e-05 0 -0.064882863438595367 8.1848076590755934e-05 0 -0.064849582219099575 8.4257471314921786e-05 0 -0.064859600466898704 0.00010685098192148669 0 -0.064833140418026167 0.00013384455615835674 0 -0.064882863438595367 8.1848076590755934e-05 0 -0.064871789627882023 0.00012850619504174555 0 -0.064912365178798101 8.3956284646224174e-05 0 -0.064882863438595367 8.1848076590755934e-05 0 -0.064859600466898704 0.00010685098192148669 0 -0.064871789627882023 0.00012850619504174555 0 -0.064871789627882023 0.00012850619504174555 0 -0.064827548338077537 0.00017000515213422645 0 -0.064860729030253916 0.00018652774355196975 0 -0.064859600466898704 0.00010685098192148669 0 -0.064871789627882023 0.00012850619504174555 0 -0.064833140418026167 0.00013384455615835674 0 -0.064871789627882023 0.00012850619504174555 0 -0.064827548338077537 0.00017000515213422645 0 -0.064833140418026167 0.00013384455615835674 0 -0.064754259692683197 0.00015579357015326419 0 -0.064798816279487859 0.00012500922949707278 0 -0.06479095556246188 0.00017128713410264655 0 -0.064798816279487859 0.00012500922949707278 0 -0.064833140418026167 0.00013384455615835674 0 -0.06479095556246188 0.00017128713410264655 0 -0.064827548338077537 0.00017000515213422645 0 -0.06479095556246188 0.00017128713410264655 0 -0.064801277478507474 0.00018201262266698493 0 -0.064827548338077537 0.00017000515213422645 0 -0.064833140418026167 0.00013384455615835674 0 -0.06479095556246188 0.00017128713410264655 0 -0.06479095556246188 0.00017128713410264655 0 -0.064778771437426219 0.00019219510338159713 0 -0.064801277478507474 0.00018201262266698493 0 -0.064764907360122373 0.00019328210498756741 0 -0.06479095556246188 0.00017128713410264655 0 -0.064778771437426219 0.00019219510338159713 0 -0.064764907360122373 0.00019328210498756741 0 -0.064754259692683197 0.00015579357015326419 0 -0.06479095556246188 0.00017128713410264655 0 -0.060567804600726659 0.00095066668169602761 0 -0.06075990969892904 0.0010236531449656196 0 -0.060567804600726659 0.00095066668169602761 0 -0.05930864087758448 0.00051276244764766519 0 -0.055063766287228422 0.0013157889825500322 0 -0.054895616012823882 0.00089001434473701384 0 -0.055093144305314874 0.00094596938136299702 0 -0.064763167084240014 0.00018416842261906826 0 -0.064778771437426219 0.00019219510338159713 0 -0.06478566292550525 0.00022292821817102015 0 -0.064778771437426219 0.00019219510338159713 0 -0.064801277478507474 0.00018201262266698493 0 -0.06480929821934317 0.00019994318854703642 0 -0.064827548338077537 0.00017000515213422645 0 -0.064801277478507474 0.00018201262266698493 0 -0.06480929821934317 0.00019994318854703642 0 -0.064778771437426219 0.00019219510338159713 0 -0.06480929821934317 0.00019994318854703642 0 -0.06478566292550525 0.00022292821817102015 0 -0.064827548338077537 0.00017000515213422645 0 -0.06480929821934317 0.00019994318854703642 0 -0.064860729030253916 0.00018652774355196975 0 -0.06480929821934317 0.00019994318854703642 0 -0.064860729030253916 0.00018652774355196975 0 -0.064826275733512975 0.00023049185128609962 0 -0.064860729030253916 0.00018652774355196975 0 -0.064826275733512975 0.00023049185128609962 0 -0.064867751527078327 0.00022619385429559625 0 -0.064826275733512975 0.00023049185128609962 0 -0.064800394629284525 0.00026851843734764343 0 -0.064834724081515374 0.00027004410845893724 0 -0.064826275733512975 0.00023049185128609962 0 -0.064867751527078327 0.00022619385429559625 0 -0.064834724081515374 0.00027004410845893724 0 -0.054895616012823882 0.00089001434473701384 0 -0.054920312208955234 0.00072003311171005323 0 -0.054772684209743558 0.00057716604621360829 0 -0.05930864087758448 0.00051276244764766519 0 -0.057708025807737803 -0.00028098766147084496 0 -0.064826275733512975 0.00023049185128609962 0 -0.06478566292550525 0.00022292821817102015 0 -0.064800394629284525 0.00026851843734764343 0 -0.054895616012823882 0.00089001434473701384 0 -0.05497890467843667 0.00079482578152974086 0 -0.055093144305314874 0.00094596938136299702 0 -0.054895616012823882 0.00089001434473701384 0 -0.05497890467843667 0.00079482578152974086 0 -0.054920312208955234 0.00072003311171005323 0 -0.06480929821934317 0.00019994318854703642 0 -0.064826275733512975 0.00023049185128609962 0 -0.06478566292550525 0.00022292821817102015 0 -0.054920312208955234 0.00072003311171005323 0 -0.055016696111660421 0.0006842313876755285 0 -0.054772684209743558 0.00057716604621360829 0 -0.05497890467843667 0.00079482578152974086 0 -0.055016696111660421 0.0006842313876755285 0 -0.055075899334278977 0.00076700653959684006 0 -0.05497890467843667 0.00079482578152974086 0 -0.054920312208955234 0.00072003311171005323 0 -0.055016696111660421 0.0006842313876755285 0 -0.055016696111660421 0.0006842313876755285 0 -0.055075899334278977 0.00076700653959684006 0 -0.055172104412856297 0.00072990467275811806 0 -0.055172104412856297 0.00072990467275811806 0 -0.055404866989546511 0.00069883001926598551 0 -0.055103919763946498 0.00060184307941422554 0 -0.055016696111660421 0.0006842313876755285 0 -0.055172104412856297 0.00072990467275811806 0 -0.055103919763946498 0.00060184307941422554 0 -0.055075899334278977 0.00076700653959684006 0 -0.055167000082929359 0.00083436937260678392 0 -0.055172104412856297 0.00072990467275811806 0 -0.055075899334278977 0.00076700653959684006 0 -0.055167000082929359 0.00083436937260678392 0 -0.055093144305314874 0.00094596938136299702 0 -0.05497890467843667 0.00079482578152974086 0 -0.055075899334278977 0.00076700653959684006 0 -0.055093144305314874 0.00094596938136299702 0 -0.055240899640236298 0.00093218244796046997 0 -0.055167000082929359 0.00083436937260678392 0 -0.055093144305314874 0.00094596938136299702 0 -0.055167000082929359 0.00083436937260678392 0 -0.055251967246859282 0.00079821933850887509 0 -0.055172104412856297 0.00072990467275811806 0 -0.055240899640236298 0.00093218244796046997 0 -0.055167000082929359 0.00083436937260678392 0 -0.055251967246859282 0.00079821933850887509 0 -0.055251967246859282 0.00079821933850887509 0 -0.055172104412856297 0.00072990467275811806 0 -0.055404866989546511 0.00069883001926598551 0 -0.055404866989546511 0.00069883001926598551 0 -0.055581775519656949 0.00090290205667793667 0 -0.055161553282363981 8.7717789516316176e-05 0 -0.055404866989546511 0.00069883001926598551 0 -0.055581775519656949 0.00090290205667793667 0 -0.05544103989879514 0.000921225157899559 0 -0.055581775519656949 0.00090290205667793667 0 -0.05544103989879514 0.000921225157899559 0 -0.055462020577757308 0.0010314987700129632 0 -0.055404866989546511 0.00069883001926598551 0 -0.05544103989879514 0.000921225157899559 0 -0.055333700150023264 0.00087437072415134812 0 -0.055251967246859282 0.00079821933850887509 0 -0.055404866989546511 0.00069883001926598551 0 -0.055333700150023264 0.00087437072415134812 0 -0.05544103989879514 0.000921225157899559 0 -0.055333700150023264 0.00087437072415134812 0 -0.055356919721106936 0.0010082934675415096 0 -0.055240899640236298 0.00093218244796046997 0 -0.055251967246859282 0.00079821933850887509 0 -0.055333700150023264 0.00087437072415134812 0 -0.055240899640236298 0.00093218244796046997 0 -0.055356919721106936 0.0010082934675415096 0 -0.055273887569227069 0.0010601561871348591 0 -0.055240899640236298 0.00093218244796046997 0 -0.055333700150023264 0.00087437072415134812 0 -0.055356919721106936 0.0010082934675415096 0 -0.055356919721106936 0.0010082934675415096 0 -0.055462020577757308 0.0010314987700129632 0 -0.055402632798100059 0.0011575267453562466 0 -0.055356919721106936 0.0010082934675415096 0 -0.055402632798100059 0.0011575267453562466 0 -0.055273887569227069 0.0010601561871348591 0 -0.055581775519656949 0.00090290205667793667 0 -0.055462020577757308 0.0010314987700129632 0 -0.05553135849744039 0.0011561527903411911 0 -0.05544103989879514 0.000921225157899559 0 -0.055356919721106936 0.0010082934675415096 0 -0.055462020577757308 0.0010314987700129632 0 -0.055494070892881595 0.0013006493338907617 0 -0.05553135849744039 0.0011561527903411911 0 -0.055402632798100059 0.0011575267453562466 0 -0.055462020577757308 0.0010314987700129632 0 -0.05553135849744039 0.0011561527903411911 0 -0.055402632798100059 0.0011575267453562466 0 -0.055288312460523431 0.0012559844240954668 0 -0.055402632798100059 0.0011575267453562466 0 -0.055273887569227069 0.0010601561871348591 0 -0.056275993441265618 0.0012557000211085615 0 -0.055954710502353476 0.0010224698817001118 0 -0.055433077537564553 0.0013688369817360772 0 -0.055063766287228422 0.0013157889825500322 0 -0.055093144305314874 0.00094596938136299702 0 -0.055288312460523431 0.0012559844240954668 0 -0.055093144305314874 0.00094596938136299702 0 -0.055273887569227069 0.0010601561871348591 0 -0.055240899640236298 0.00093218244796046997 0 -0.055093144305314874 0.00094596938136299702 0 -0.055273887569227069 0.0010601561871348591 0 -0.063662977147305219 -0.0033117643189878019 0 -0.063706318475389503 -0.0033049130215725897 0 -0.063670421385328135 -0.0032723647545749089 0 -0.063662977147305219 -0.0033117643189878019 0 -0.06368228030056676 -0.00333662640543906 0 -0.063706318475389503 -0.0033049130215725897 0 -0.060703437690168831 -0.0036247975669656757 0 -0.062806035048956627 -0.0039089793798196175 0 -0.063788573897362658 -0.0038183657164474398 0 -0.063614193432700805 -0.0037543446254593941 0 -0.063662968801051628 -0.0038991505394478316 0 -0.063806282401058664 -0.0035596318795520793 0 -0.063988048263145095 -0.0038218204461816538 0 -0.063614193432700805 -0.0037543446254593941 0 -0.062303637958792644 -0.0039934289796000073 0 -0.060703437690168831 -0.0036247975669656757 0 -0.06368228030056676 -0.00333662640543906 0 -0.063706318475389503 -0.0033049130215725897 0 -0.063697438905702036 -0.0033375382193186541 0 -0.064902707698870243 0.00019421916728853614 0 -0.064955909666931697 0.00017200760776412292 0 -0.064912245303441279 0.00025377546948377426 0 -0.060703437690168831 -0.0036247975669656757 0 -0.059238681379286062 -0.0024271980650835594 0 -0.062260837631533908 -0.0021613119333108873 0 -0.059238681379286062 -0.0024271980650835594 0 -0.064867751527078327 0.00022619385429559625 0 -0.064834724081515374 0.00027004410845893724 0 -0.064912245303441279 0.00025377546948377426 0 -0.064867751527078327 0.00022619385429559625 0 -0.064902707698870243 0.00019421916728853614 0 -0.064912245303441279 0.00025377546948377426 0 -0.064860729030253916 0.00018652774355196975 0 -0.064902707698870243 0.00019421916728853614 0 -0.064910354798997025 0.00013923431929429902 0 -0.064860729030253916 0.00018652774355196975 0 -0.064867751527078327 0.00022619385429559625 0 -0.064902707698870243 0.00019421916728853614 0 -0.064902707698870243 0.00019421916728853614 0 -0.064955909666931697 0.00017200760776412292 0 -0.064910354798997025 0.00013923431929429902 0 -0.064955909666931697 0.00017200760776412292 0 -0.064910354798997025 0.00013923431929429902 0 -0.064945410085009217 8.8093105761477347e-05 0 -0.064871789627882023 0.00012850619504174555 0 -0.064910354798997025 0.00013923431929429902 0 -0.064912365178798101 8.3956284646224174e-05 0 -0.064871789627882023 0.00012850619504174555 0 -0.064860729030253916 0.00018652774355196975 0 -0.064910354798997025 0.00013923431929429902 0 -0.064912365178798101 8.3956284646224174e-05 0 -0.064945410085009217 8.8093105761477347e-05 0 -0.064923149961449503 4.5458376668474058e-05 0 -0.064910354798997025 0.00013923431929429902 0 -0.064912365178798101 8.3956284646224174e-05 0 -0.064945410085009217 8.8093105761477347e-05 0 -0.064900906785487114 4.8595229946877238e-05 0 -0.064882863438595367 8.1848076590755934e-05 0 -0.064912365178798101 8.3956284646224174e-05 0 -0.064945410085009217 8.8093105761477347e-05 0 -0.064987782398960608 9.1551673509092374e-05 0 -0.0649740136213936 5.338378903415093e-05 0 -0.063706318475389503 -0.0033049130215725897 0 -0.063718141346056023 -0.0032195727964934059 0 -0.063670421385328135 -0.0032723647545749089 0 -0.062260837631533908 -0.0021613119333108873 0 -0.063608938900477904 -0.0017650555347350175 0 -0.064955909666931697 0.00017200760776412292 0 -0.064945410085009217 8.8093105761477347e-05 0 -0.064987782398960608 9.1551673509092374e-05 0 -0.063662977147305219 -0.0033117643189878019 0 -0.063670421385328135 -0.0032723647545749089 0 -0.063609738373397381 -0.0032869250176347721 0 -0.062303637958792644 -0.0039934289796000073 0 -0.06263848383524763 -0.0039365685016795734 0 -0.063670421385328135 -0.0032723647545749089 0 -0.063649246674217785 -0.0032231896660559279 0 -0.063609738373397381 -0.0032869250176347721 0 -0.063718141346056023 -0.0032195727964934059 0 -0.063670421385328135 -0.0032723647545749089 0 -0.063649246674217785 -0.0032231896660559279 0 -0.063718141346056023 -0.0032195727964934059 0 -0.063649246674217785 -0.0032231896660559279 0 -0.063651135497258496 -0.0031522289500904386 0 -0.063649246674217785 -0.0032231896660559279 0 -0.063651135497258496 -0.0031522289500904386 0 -0.063589820262432192 -0.0031713683939866557 0 -0.063651135497258496 -0.0031522289500904386 0 -0.063690383020757607 -0.0030660986183778508 0 -0.063602711991819993 -0.0030889057046023629 0 -0.063718141346056023 -0.0032195727964934059 0 -0.063651135497258496 -0.0031522289500904386 0 -0.063690383020757607 -0.0030660986183778508 0 -0.064364551842209947 -0.0013206480736610298 0 -0.064362091183875508 -0.0013259896045217752 0 -0.064987782398960608 9.1551673509092374e-05 0 -0.064995969934243017 3.0627904189377969e-05 0 -0.0649740136213936 5.338378903415093e-05 0 -0.064987782398960608 9.1551673509092374e-05 0 -0.064995969934243017 3.0627904189377969e-05 0 -0.065001812692465313 2.7029876354638392e-05 0 -0.063608938900477904 -0.0017650555347350175 0 -0.064362091183875508 -0.0013259896045217752 0 -0.0649740136213936 5.338378903415093e-05 0 -0.064971129133796046 3.8031800321708525e-05 0 -0.064983450130918149 3.186266897041723e-05 0 -0.0649740136213936 5.338378903415093e-05 0 -0.064971129133796046 3.8031800321708525e-05 0 -0.064955106391260953 4.5707947505257476e-05 0 -0.064995969934243017 3.0627904189377969e-05 0 -0.0649740136213936 5.338378903415093e-05 0 -0.064983450130918149 3.186266897041723e-05 0 -0.064995969934243017 3.0627904189377969e-05 0 -0.064983450130918149 3.186266897041723e-05 0 -0.064993543150031322 2.3034480394386736e-05 0 -0.064983450130918149 3.186266897041723e-05 0 -0.064986861527178183 1.9482984036907176e-05 0 -0.064993543150031322 2.3034480394386736e-05 0 -0.064983450130918149 3.186266897041723e-05 0 -0.064986861527178183 1.9482984036907176e-05 0 -0.064977825323320595 2.5175544520764103e-05 0 -0.064986861527178183 1.9482984036907176e-05 0 -0.06499484868261042 1.4868629613426054e-05 0 -0.064993543150031322 2.3034480394386736e-05 0 -0.064977825323320595 2.5175544520764103e-05 0 -0.064978207541416047 1.2961274782852817e-05 0 -0.064963920682745674 2.9904887417050228e-05 0 -0.064971129133796046 3.8031800321708525e-05 0 -0.064977825323320595 2.5175544520764103e-05 0 -0.064963920682745674 2.9904887417050228e-05 0 -0.064971129133796046 3.8031800321708525e-05 0 -0.064983450130918149 3.186266897041723e-05 0 -0.064977825323320595 2.5175544520764103e-05 0 -0.064986861527178183 1.9482984036907176e-05 0 -0.064977825323320595 2.5175544520764103e-05 0 -0.064978207541416047 1.2961274782852817e-05 0 -0.064986861527178183 1.9482984036907176e-05 0 -0.064978207541416047 1.2961274782852817e-05 0 -0.064989764645073791 1.2744691841077579e-05 0 -0.064986861527178183 1.9482984036907176e-05 0 -0.064989764645073791 1.2744691841077579e-05 0 -0.06499484868261042 1.4868629613426054e-05 0 -0.064362091183875508 -0.0013259896045217752 0 -0.064358698745892395 -0.0013145850002164244 0 -0.06499484868261042 1.4868629613426054e-05 0 -0.06499687061417056 1.9837972734056373e-05 0 -0.064998177797108952 8.6045445775060664e-06 0 -0.064989764645073791 1.2744691841077579e-05 0 -0.06499484868261042 1.4868629613426054e-05 0 -0.064995097851592465 9.0699220353693629e-06 0 -0.06499484868261042 1.4868629613426054e-05 0 -0.064998177797108952 8.6045445775060664e-06 0 -0.064995097851592465 9.0699220353693629e-06 0 -0.06499687061417056 1.9837972734056373e-05 0 -0.064996620503616417 2.1525449756931579e-05 0 -0.065001458477239413 7.0638046713422264e-06 0 -0.06499687061417056 1.9837972734056373e-05 0 -0.064998177797108952 8.6045445775060664e-06 0 -0.065001458477239413 7.0638046713422264e-06 0 -0.064995969934243017 3.0627904189377969e-05 0 -0.064993543150031322 2.3034480394386736e-05 0 -0.064997592793056738 2.6426040266675123e-05 0 -0.06499687061417056 1.9837972734056373e-05 0 -0.064993543150031322 2.3034480394386736e-05 0 -0.064997592793056738 2.6426040266675123e-05 0 -0.064360185445068427 -0.0013082293184519291 0 -0.064362091183875508 -0.0013259896045217752 0 -0.06499484868261042 1.4868629613426054e-05 0 -0.06499687061417056 1.9837972734056373e-05 0 -0.064993543150031322 2.3034480394386736e-05 0 -0.064900906785487114 4.8595229946877238e-05 0 -0.064923149961449503 4.5458376668474058e-05 0 -0.064908801996634388 2.2326448152524882e-05 0 -0.064900906785487114 4.8595229946877238e-05 0 -0.064912365178798101 8.3956284646224174e-05 0 -0.064923149961449503 4.5458376668474058e-05 0 -0.064945410085009217 8.8093105761477347e-05 0 -0.0649740136213936 5.338378903415093e-05 0 -0.064955106391260953 4.5707947505257476e-05 0 -0.064945410085009217 8.8093105761477347e-05 0 -0.064923149961449503 4.5458376668474058e-05 0 -0.064955106391260953 4.5707947505257476e-05 0 -0.064923149961449503 4.5458376668474058e-05 0 -0.064955106391260953 4.5707947505257476e-05 0 -0.064947743233558189 2.3273545750477232e-05 0 -0.064971129133796046 3.8031800321708525e-05 0 -0.064955106391260953 4.5707947505257476e-05 0 -0.064963920682745674 2.9904887417050228e-05 0 -0.064955106391260953 4.5707947505257476e-05 0 -0.064963920682745674 2.9904887417050228e-05 0 -0.064947743233558189 2.3273545750477232e-05 0 -0.064978207541416047 1.2961274782852817e-05 0 -0.064963920682745674 2.9904887417050228e-05 0 -0.064947743233558189 2.3273545750477232e-05 0 -0.064947743233558189 2.3273545750477232e-05 0 -0.064908801996634388 2.2326448152524882e-05 0 -0.064957284767754711 -4.0645376845600909e-06 0 -0.064923149961449503 4.5458376668474058e-05 0 -0.064947743233558189 2.3273545750477232e-05 0 -0.064908801996634388 2.2326448152524882e-05 0 -0.064974339729398908 -5.7590692578111588e-06 0 -0.064983282756623129 -8.363464427748198e-06 0 -0.064992860255460735 -3.9885052007340381e-06 0 -0.064942839082694728 1.020826915105124e-05 0 -0.064964557162143485 -6.3820227430562174e-07 0 -0.064978207541416047 1.2961274782852817e-05 0 -0.064947743233558189 2.3273545750477232e-05 0 -0.064957284767754711 -4.0645376845600909e-06 0 -0.064983282756623129 -8.363464427748198e-06 0 -0.064992860255460735 -3.9885052007340381e-06 0 -0.064999991729208964 -6.80012306332506e-09 0 -0.064964557162143485 -6.3820227430562174e-07 0 -0.064973779452704494 -4.0796021289982198e-06 0 -0.064992860255460735 -3.9885052007340381e-06 0 -0.064999991729208964 -6.80012306332506e-09 0 -0.064998355086596502 -1.69139229670293e-06 0 -0.064999967907946612 -1.3997711981224353e-08 0 -0.064983282756623129 -8.363464427748198e-06 0 -0.064999991729208964 -6.80012306332506e-09 0 -0.064996827523511144 4.4160650128674783e-06 0 -0.064996648378343402 1.4880914046816027e-07 0 -0.065000232549884129 2.0356335476355846e-06 0 -0.064996827523511144 4.4160650128674783e-06 0 -0.064991246107253389 5.8855754068379027e-06 0 -0.064996648378343402 1.4880914046816027e-07 0 -0.064996827523511144 4.4160650128674783e-06 0 -0.064998177797108952 8.6045445775060664e-06 0 -0.065000232549884129 2.0356335476355846e-06 0 -0.064996827523511144 4.4160650128674783e-06 0 -0.064995097851592465 9.0699220353693629e-06 0 -0.064991246107253389 5.8855754068379027e-06 0 -0.064989764645073791 1.2744691841077579e-05 0 -0.064995097851592465 9.0699220353693629e-06 0 -0.064991246107253389 5.8855754068379027e-06 0 -0.064996827523511144 4.4160650128674783e-06 0 -0.064998177797108952 8.6045445775060664e-06 0 -0.064995097851592465 9.0699220353693629e-06 0 -0.064978207541416047 1.2961274782852817e-05 0 -0.064991246107253389 5.8855754068379027e-06 0 -0.064985822673203145 9.0783045467751101e-07 0 -0.064978207541416047 1.2961274782852817e-05 0 -0.064957284767754711 -4.0645376845600909e-06 0 -0.064985822673203145 9.0783045467751101e-07 0 -0.064978207541416047 1.2961274782852817e-05 0 -0.064989764645073791 1.2744691841077579e-05 0 -0.064991246107253389 5.8855754068379027e-06 0 -0.064991246107253389 5.8855754068379027e-06 0 -0.064985822673203145 9.0783045467751101e-07 0 -0.064996648378343402 1.4880914046816027e-07 0 -0.064985822673203145 9.0783045467751101e-07 0 -0.064998355086596502 -1.69139229670293e-06 0 -0.064996648378343402 1.4880914046816027e-07 0 -0.064957284767754711 -4.0645376845600909e-06 0 -0.064985822673203145 9.0783045467751101e-07 0 -0.064998355086596502 -1.69139229670293e-06 0 -0.064999991729208964 -6.80012306332506e-09 0 -0.064998355086596502 -1.69139229670293e-06 0 -0.064999988463283767 -4.0926510727061651e-09 0 -0.064998355086596502 -1.69139229670293e-06 0 -0.064999988463283767 -4.0926510727061651e-09 0 -0.064996648378343402 1.4880914046816027e-07 0 -0.064999988463283767 -4.0926510727061651e-09 0 -0.064996648378343402 1.4880914046816027e-07 0 -0.065000232549884129 2.0356335476355846e-06 0 -0.064999988463283767 -4.0926510727061651e-09 0 -0.065000232549884129 2.0356335476355846e-06 0 -0.065000005069940289 3.2371925050214885e-09 0 -0.064998177797108952 8.6045445775060664e-06 0 -0.065000232549884129 2.0356335476355846e-06 0 -0.065001458477239413 7.0638046713422264e-06 0 -0.065000232549884129 2.0356335476355846e-06 0 -0.065001785430539527 1.6252113943775935e-06 0 -0.065001458477239413 7.0638046713422264e-06 0 -0.064381474263298183 -0.0011982882758839594 0 -0.064358698745892395 -0.0013145850002164244 0 -0.065000232549884129 2.0356335476355846e-06 0 -0.065000005069940289 3.2371925050214885e-09 0 -0.065001785430539527 1.6252113943775935e-06 0 -0.065000005069940289 3.2371925050214885e-09 0 -0.065000000752396911 -1.5139469661982645e-09 0 -0.065001785430539527 1.6252113943775935e-06 0 -0.064998706849809962 -1.1724512787673213e-06 0 -0.064381474263298183 -0.0011982882758839594 0 -0.065000001371145394 -1.9041482494761752e-09 0 -0.064999262794590312 -6.0190833379383199e-06 0 -0.065010356184269549 -2.3437156040299327e-05 0 -0.064224372758816123 -0.00088567075315350557 0 -0.064742864706628128 -0.00041197693075656539 0 -0.064999235725214197 -2.8774880147721878e-06 0 -0.065000001371145394 -1.9041482494761752e-09 0 -0.064999996245630229 -3.8544087394217585e-09 0 -0.064999235725214197 -2.8774880147721878e-06 0 -0.064998669830315187 -6.1102923639534831e-06 0 -0.064999337378873576 -1.4705026462129602e-06 0 -0.064999235725214197 -2.8774880147721878e-06 0 -0.065000001371145394 -1.9041482494761752e-09 0 -0.064999262794590312 -6.0190833379383199e-06 0 -0.064267435306534185 -0.00077418907033691327 0 -0.064224372758816123 -0.00088567075315350557 0 -0.064999235725214197 -2.8774880147721878e-06 0 -0.064999262794590312 -6.0190833379383199e-06 0 -0.064998669830315187 -6.1102923639534831e-06 0 -0.065541796251427309 -8.6263842518817079e-05 0 -0.06549562273460606 -0.00093290557464262909 0 -0.065078001831879562 -0.00037238029403133743 0 -0.064224372758816123 -0.00088567075315350557 0 -0.063994326469525575 -0.0018619554696740835 0 -0.064999262794590312 -6.0190833379383199e-06 0 -0.064996403190464277 -1.4537788660373288e-05 0 -0.065010356184269549 -2.3437156040299327e-05 0 -0.064224372758816123 -0.00088567075315350557 0 -0.064381474263298183 -0.0011982882758839594 0 -0.06316575739257764 -0.0026484489790188333 0 -0.063348896403533653 -0.0027371093244097666 0 -0.063287612175198335 -0.0029148745903339055 0 -0.06316575739257764 -0.0026484489790188333 0 -0.063287612175198335 -0.0029148745903339055 0 -0.063101942033371689 -0.0029268678422601172 0 -0.063101942033371689 -0.0029268678422601172 0 -0.063186230279626915 -0.0030867015841341784 0 -0.063041484481586876 -0.0031986719077981181 0 -0.063994326469525575 -0.0018619554696740835 0 -0.063614068949373451 -0.0025178482234180298 0 -0.063287612175198335 -0.0029148745903339055 0 -0.063101942033371689 -0.0029268678422601172 0 -0.063186230279626915 -0.0030867015841341784 0 -0.063287612175198335 -0.0029148745903339055 0 -0.063186230279626915 -0.0030867015841341784 0 -0.063330601489833147 -0.0030987191282466275 0 -0.063330601489833147 -0.0030987191282466275 0 -0.063465595061044197 -0.0031122445291026971 0 -0.063474417903744071 -0.0029510711746124972 0 -0.063287612175198335 -0.0029148745903339055 0 -0.063330601489833147 -0.0030987191282466275 0 -0.063474417903744071 -0.0029510711746124972 0 -0.064210119665814552 -0.002296221681456467 0 -0.064142897271144042 -0.0025789199150504797 0 -0.063651135497258496 -0.0031522289500904386 0 -0.063602711991819993 -0.0030889057046023629 0 -0.063589820262432192 -0.0031713683939866557 0 -0.063465595061044197 -0.0031122445291026971 0 -0.063474417903744071 -0.0029510711746124972 0 -0.063589820262432192 -0.0031713683939866557 0 -0.063602711991819993 -0.0030889057046023629 0 -0.063519786419830304 -0.0030598476587205383 0 -0.063589820262432192 -0.0031713683939866557 0 -0.063690383020757607 -0.0030660986183778508 0 -0.063602711991819993 -0.0030889057046023629 0 -0.06357226639524953 -0.0030017514407598123 0 -0.063602711991819993 -0.0030889057046023629 0 -0.06357226639524953 -0.0030017514407598123 0 -0.063519786419830304 -0.0030598476587205383 0 -0.063348896403533653 -0.0027371093244097666 0 -0.063287612175198335 -0.0029148745903339055 0 -0.063474417903744071 -0.0029510711746124972 0 -0.063449035720345631 -0.0029351063996626179 0 -0.06357226639524953 -0.0030017514407598123 0 -0.063519786419830304 -0.0030598476587205383 0 -0.064381474263298183 -0.0011982882758839594 0 -0.064210119665814552 -0.002296221681456467 0 -0.06422793827761028 -0.00025948359613389173 0 -0.06395187973898038 -0.00033374366683661507 0 -0.063707161479900715 -0.0001428359926667433 0 -0.06408201763657656 -0.00042952045476652085 0 -0.06395187973898038 -0.00033374366683661507 0 -0.063855998543624892 -0.00044550985696644553 0 -0.06408201763657656 -0.00042952045476652085 0 -0.06422793827761028 -0.00025948359613389173 0 -0.06395187973898038 -0.00033374366683661507 0 -0.064590868825416245 -6.1648219331270678e-05 0 -0.064514931935195682 -8.1214929676995637e-05 0 -0.064999548015885061 -1.7031372107447934e-07 0 -0.064731554680902567 8.3806121235352493e-06 0 -0.065030125877887104 1.9110453970775808e-05 0 -0.06422793827761028 -0.00025948359613389173 0 -0.064731554680902567 8.3806121235352493e-06 0 -0.063707161479900715 -0.0001428359926667433 0 -0.064999548015885061 -1.7031372107447934e-07 0 -0.064731554680902567 8.3806121235352493e-06 0 -0.064998928260270331 2.3234589085976386e-07 0 -0.064731554680902567 8.3806121235352493e-06 0 -0.064440823002382186 -0.00025074356344186412 0 -0.064777986841404539 -7.80640009645176e-05 0 -0.06422793827761028 -0.00025948359613389173 0 -0.064731554680902567 8.3806121235352493e-06 0 -0.064440823002382186 -0.00025074356344186412 0 -0.06408201763657656 -0.00042952045476652085 0 -0.06422793827761028 -0.00025948359613389173 0 -0.064440823002382186 -0.00025074356344186412 0 -0.06408201763657656 -0.00042952045476652085 0 -0.064440823002382186 -0.00025074356344186412 0 -0.06407421019892337 -0.00050655122347551484 0 -0.064440823002382186 -0.00025074356344186412 0 -0.064623520935807047 -0.00031947735289129846 0 -0.06407421019892337 -0.00050655122347551484 0 -0.064623520935807047 -0.00031947735289129846 0 -0.064777986841404539 -7.80640009645176e-05 0 -0.065049730729284452 5.0294923110432423e-05 0 -0.064440823002382186 -0.00025074356344186412 0 -0.064623520935807047 -0.00031947735289129846 0 -0.064777986841404539 -7.80640009645176e-05 0 -0.064731554680902567 8.3806121235352493e-06 0 -0.064998928260270331 2.3234589085976386e-07 0 -0.064777986841404539 -7.80640009645176e-05 0 -0.064998928260270331 2.3234589085976386e-07 0 -0.064777986841404539 -7.80640009645176e-05 0 -0.065049730729284452 5.0294923110432423e-05 0 -0.064999474826102313 -1.0322713363668907e-06 0 -0.064742864706628128 -0.00041197693075656539 0 -0.065000000452617057 1.5093200577129194e-09 0 -0.064999996245630229 -3.8544087394217585e-09 0 -0.064999337378873576 -1.4705026462129602e-06 0 -0.064999235725214197 -2.8774880147721878e-06 0 -0.064999996245630229 -3.8544087394217585e-09 0 -0.064999337378873576 -1.4705026462129602e-06 0 -0.065541796251427309 -8.6263842518817079e-05 0 -0.065049730729284452 5.0294923110432423e-05 0 -0.065078001831879562 -0.00037238029403133743 0 -0.064623520935807047 -0.00031947735289129846 0 -0.065049730729284452 5.0294923110432423e-05 0 -0.065078001831879562 -0.00037238029403133743 0 -0.064623520935807047 -0.00031947735289129846 0 -0.065078001831879562 -0.00037238029403133743 0 -0.064659569423151708 -0.00080278582551301621 0 -0.06549562273460606 -0.00093290557464262909 0 -0.065078001831879562 -0.00037238029403133743 0 -0.064659569423151708 -0.00080278582551301621 0 -0.06549562273460606 -0.00093290557464262909 0 -0.064513790567360202 -0.0019696724833101393 0 -0.065266824609403279 -0.0022510058671132271 0 -0.06549562273460606 -0.00093290557464262909 0 -0.064659569423151708 -0.00080278582551301621 0 -0.064513790567360202 -0.0019696724833101393 0 -0.063266029154436895 -0.0021725532514928181 0 -0.063454144368403659 -0.0022983194379497256 0 -0.063998435378333246 -0.0011101726761051877 0 -0.063107786189991258 -0.0017194601229458049 0 -0.064513790567360202 -0.0019696724833101393 0 -0.063998435378333246 -0.0011101726761051877 0 -0.064659569423151708 -0.00080278582551301621 0 -0.064513790567360202 -0.0019696724833101393 0 -0.063998435378333246 -0.0011101726761051877 0 -0.064182253122802138 -0.00065353167601298805 0 -0.063635982286836784 -0.00068987991177487274 0 -0.063998435378333246 -0.0011101726761051877 0 -0.064659569423151708 -0.00080278582551301621 0 -0.064182253122802138 -0.00065353167601298805 0 -0.064623520935807047 -0.00031947735289129846 0 -0.064659569423151708 -0.00080278582551301621 0 -0.064182253122802138 -0.00065353167601298805 0 -0.064623520935807047 -0.00031947735289129846 0 -0.064182253122802138 -0.00065353167601298805 0 -0.06407421019892337 -0.00050655122347551484 0 -0.06408201763657656 -0.00042952045476652085 0 -0.06407421019892337 -0.00050655122347551484 0 -0.06387778436342488 -0.00061232014952896686 0 -0.06407421019892337 -0.00050655122347551484 0 -0.063635982286836784 -0.00068987991177487274 0 -0.06387778436342488 -0.00061232014952896686 0 -0.064182253122802138 -0.00065353167601298805 0 -0.06407421019892337 -0.00050655122347551484 0 -0.063635982286836784 -0.00068987991177487274 0 -0.063998435378333246 -0.0011101726761051877 0 -0.063635982286836784 -0.00068987991177487274 0 -0.063107786189991258 -0.0017194601229458049 0 -0.063107786189991258 -0.0017194601229458049 0 -0.061638017638571782 -0.0017095803303957509 0 -0.062245491384260034 -0.0021837523020232915 0 -0.063026058640238317 -0.0011751595598588997 0 -0.062796570133673582 -0.001397137723889455 0 -0.063635982286836784 -0.00068987991177487274 0 -0.063107786189991258 -0.0017194601229458049 0 -0.061638017638571782 -0.0017095803303957509 0 -0.063865441828843114 -0.00057703772523170051 0 -0.063849166521148706 -0.00058204626843567009 0 -0.063794822741112228 -0.00060194989916357092 0 -0.063865441828843114 -0.00057703772523170051 0 -0.063849166521148706 -0.00058204626843567009 0 -0.06387778436342488 -0.00061232014952896686 0 -0.063635982286836784 -0.00068987991177487274 0 -0.063865441828843114 -0.00057703772523170051 0 -0.06387778436342488 -0.00061232014952896686 0 -0.063849166521148706 -0.00058204626843567009 0 -0.06387778436342488 -0.00061232014952896686 0 -0.063821362492821873 -0.00053706080271294484 0 -0.06387778436342488 -0.00061232014952896686 0 -0.063855998543624892 -0.00044550985696644553 0 -0.063821362492821873 -0.00053706080271294484 0 -0.06408201763657656 -0.00042952045476652085 0 -0.06387778436342488 -0.00061232014952896686 0 -0.063855998543624892 -0.00044550985696644553 0 -0.061608529488123578 -0.0026717106232461681 0 -0.061293208787573508 -0.0033137274884139155 0 -0.060795913892190259 -0.0032415644850823425 0 -0.061608529488123578 -0.0026717106232461681 0 -0.061925914621676875 -0.0030918592568851323 0 -0.061293208787573508 -0.0033137274884139155 0 -0.061638017638571782 -0.0017095803303957509 0 -0.061608529488123578 -0.0026717106232461681 0 -0.06075723421371939 -0.0024771966191116323 0 -0.061638017638571782 -0.0017095803303957509 0 -0.061608529488123578 -0.0026717106232461681 0 -0.062245491384260034 -0.0021837523020232915 0 -0.061608529488123578 -0.0026717106232461681 0 -0.062245491384260034 -0.0021837523020232915 0 -0.062505496450871348 -0.0024252511393931912 0 -0.063107786189991258 -0.0017194601229458049 0 -0.062245491384260034 -0.0021837523020232915 0 -0.062505496450871348 -0.0024252511393931912 0 -0.061608529488123578 -0.0026717106232461681 0 -0.062505496450871348 -0.0024252511393931912 0 -0.061925914621676875 -0.0030918592568851323 0 -0.062505496450871348 -0.0024252511393931912 0 -0.062537940900155978 -0.0029712747065822739 0 -0.061925914621676875 -0.0030918592568851323 0 -0.062505496450871348 -0.0024252511393931912 0 -0.062537940900155978 -0.0029712747065822739 0 -0.06288247901644678 -0.0025106203032899941 0 -0.063107786189991258 -0.0017194601229458049 0 -0.062505496450871348 -0.0024252511393931912 0 -0.06289986929339425 -0.0021093514600484683 0 -0.062505496450871348 -0.0024252511393931912 0 -0.06289986929339425 -0.0021093514600484683 0 -0.06288247901644678 -0.0025106203032899941 0 -0.06289986929339425 -0.0021093514600484683 0 -0.063254245834060793 -0.0023093334157264795 0 -0.06288247901644678 -0.0025106203032899941 0 -0.063454144368403659 -0.0022983194379497256 0 -0.063614068949373451 -0.0025178482234180298 0 -0.063614068949373451 -0.0025178482234180298 0 -0.06332117173196436 -0.0029946269133746075 0 -0.063254245834060793 -0.0023093334157264795 0 -0.06288247901644678 -0.0025106203032899941 0 -0.063079713380350941 -0.0028902162589500321 0 -0.062537940900155978 -0.0029712747065822739 0 -0.06288247901644678 -0.0025106203032899941 0 -0.063079713380350941 -0.0028902162589500321 0 -0.062537940900155978 -0.0029712747065822739 0 -0.063079713380350941 -0.0028902162589500321 0 -0.062706221443909943 -0.0036004470489645864 0 -0.06332117173196436 -0.0029946269133746075 0 -0.063213149125166873 -0.0031972240609451611 0 -0.062793718315294192 -0.003365859786051157 0 -0.062706221443909943 -0.0036004470489645864 0 -0.063009576577161094 -0.003555982896659645 0 -0.062171811423202487 -0.0034950299096209799 0 -0.061424069609613399 -0.0037161706974713844 0 -0.062302244209349371 -0.0043934115690432768 0 -0.062706221443909943 -0.0036004470489645864 0 -0.062171811423202487 -0.0034950299096209799 0 -0.062302244209349371 -0.0043934115690432768 0 -0.062537940900155978 -0.0029712747065822739 0 -0.062171811423202487 -0.0034950299096209799 0 -0.061925914621676875 -0.0030918592568851323 0 -0.062537940900155978 -0.0029712747065822739 0 -0.062706221443909943 -0.0036004470489645864 0 -0.062171811423202487 -0.0034950299096209799 0 -0.061925914621676875 -0.0030918592568851323 0 -0.061424069609613399 -0.0037161706974713844 0 -0.061293208787573508 -0.0033137274884139155 0 -0.062171811423202487 -0.0034950299096209799 0 -0.061925914621676875 -0.0030918592568851323 0 -0.061424069609613399 -0.0037161706974713844 0 -0.060805226203639151 -0.0040106628035163966 0 -0.060793514692047822 -0.0037502332264037577 0 -0.060431542672290228 -0.0041807115234579915 0 -0.061424069609613399 -0.0037161706974713844 0 -0.060805226203639151 -0.0040106628035163966 0 -0.060793514692047822 -0.0037502332264037577 0 -0.061424069609613399 -0.0037161706974713844 0 -0.060793514692047822 -0.0037502332264037577 0 -0.061293208787573508 -0.0033137274884139155 0 -0.060793514692047822 -0.0037502332264037577 0 -0.061293208787573508 -0.0033137274884139155 0 -0.060795913892190259 -0.0032415644850823425 0 -0.063505796966051672 -0.0033966534528363556 0 -0.063465846769211492 -0.0032226869662321462 0 -0.063276398326944025 -0.0032935397606277859 0 -0.063490919303388765 -0.0029973145852350848 0 -0.063436930719485557 -0.0028599187136226214 0 -0.063505796966051672 -0.0033966534528363556 0 -0.063193150750228577 -0.0032506880039761448 0 -0.063287842070007677 -0.003514742786372203 0 -0.063505796966051672 -0.0033966534528363556 0 -0.063609738373397381 -0.0032869250176347721 0 -0.063597533341281848 -0.0035247799292620848 0 -0.063505796966051672 -0.0033966534528363556 0 -0.063609738373397381 -0.0032869250176347721 0 -0.063465846769211492 -0.0032226869662321462 0 -0.063609738373397381 -0.0032869250176347721 0 -0.063589820262432192 -0.0031713683939866557 0 -0.063465846769211492 -0.0032226869662321462 0 -0.063649246674217785 -0.0032231896660559279 0 -0.063609738373397381 -0.0032869250176347721 0 -0.063589820262432192 -0.0031713683939866557 0 -0.063465595061044197 -0.0031122445291026971 0 -0.063589820262432192 -0.0031713683939866557 0 -0.063465846769211492 -0.0032226869662321462 0 -0.063330601489833147 -0.0030987191282466275 0 -0.063465595061044197 -0.0031122445291026971 0 -0.063465846769211492 -0.0032226869662321462 0 -0.063330601489833147 -0.0030987191282466275 0 -0.063465846769211492 -0.0032226869662321462 0 -0.063276398326944025 -0.0032935397606277859 0 -0.063186230279626915 -0.0030867015841341784 0 -0.063330601489833147 -0.0030987191282466275 0 -0.063276398326944025 -0.0032935397606277859 0 -0.063614068949373451 -0.0025178482234180298 0 -0.063436930719485557 -0.0028599187136226214 0 -0.063186230279626915 -0.0030867015841341784 0 -0.063041484481586876 -0.0031986719077981181 0 -0.063276398326944025 -0.0032935397606277859 0 -0.062793718315294192 -0.003365859786051157 0 -0.063193150750228577 -0.0032506880039761448 0 -0.063009576577161094 -0.003555982896659645 0 -0.062857456535801548 -0.0031069338456235457 0 -0.062793718315294192 -0.003365859786051157 0 -0.063193150750228577 -0.0032506880039761448 0 -0.063287842070007677 -0.003514742786372203 0 -0.063009576577161094 -0.003555982896659645 0 -0.063255617512847181 -0.003748396787032946 0 -0.063193150750228577 -0.0032506880039761448 0 -0.063287842070007677 -0.003514742786372203 0 -0.063009576577161094 -0.003555982896659645 0 -0.063009576577161094 -0.003555982896659645 0 -0.063255617512847181 -0.003748396787032946 0 -0.0630252886136424 -0.0041339313683130194 0 -0.062706221443909943 -0.0036004470489645864 0 -0.063009576577161094 -0.003555982896659645 0 -0.0630252886136424 -0.0041339313683130194 0 -0.063455312252401017 -0.0036304760333906155 0 -0.063614193432700805 -0.0037543446254593941 0 -0.063390173814306242 -0.0039865237868953593 0 -0.063255617512847181 -0.003748396787032946 0 -0.063455312252401017 -0.0036304760333906155 0 -0.063390173814306242 -0.0039865237868953593 0 -0.063287842070007677 -0.003514742786372203 0 -0.063255617512847181 -0.003748396787032946 0 -0.063455312252401017 -0.0036304760333906155 0 -0.063505796966051672 -0.0033966534528363556 0 -0.063287842070007677 -0.003514742786372203 0 -0.063455312252401017 -0.0036304760333906155 0 -0.063455312252401017 -0.0036304760333906155 0 -0.063597533341281848 -0.0035247799292620848 0 -0.063614193432700805 -0.0037543446254593941 0 -0.063806282401058664 -0.0035596318795520793 0 -0.063609738373397381 -0.0032869250176347721 0 -0.063597533341281848 -0.0035247799292620848 0 -0.063806282401058664 -0.0035596318795520793 0 -0.063597533341281848 -0.0035247799292620848 0 -0.063614193432700805 -0.0037543446254593941 0 -0.063505796966051672 -0.0033966534528363556 0 -0.063455312252401017 -0.0036304760333906155 0 -0.063597533341281848 -0.0035247799292620848 0 -0.063614193432700805 -0.0037543446254593941 0 -0.063390173814306242 -0.0039865237868953593 0 -0.063662968801051628 -0.0038991505394478316 0 -0.059026914276429643 -0.0043482936726555533 0 -0.058259742884634758 -0.0038880467033930934 0 -0.05288983991156767 -0.0047634991790865217 0 -0.054764065742973288 -0.0055218941054815812 0 -0.05264285278180332 -0.0055437328161162943 0 -0.0536633245309006 -0.0042604229296258032 0 -0.054230886744320063 -0.0037474657383888416 0 -0.05288983991156767 -0.0047634991790865217 0 -0.054169191501607816 -0.0044390342579538793 0 -0.054318287366041496 -0.0031606807850025611 0 -0.05288983991156767 -0.0047634991790865217 0 -0.053435204897477703 -0.0039962267440339849 0 -0.052720039652761022 -0.0042166206897127747 0 -0.05288983991156767 -0.0047634991790865217 0 -0.054169191501607816 -0.0044390342579538793 0 -0.054764065742973288 -0.0055218941054815812 0 -0.054169191501607816 -0.0044390342579538793 0 -0.054764065742973288 -0.0055218941054815812 0 -0.055942918796338913 -0.0037717285809887144 0 -0.063255617512847181 -0.003748396787032946 0 -0.063390173814306242 -0.0039865237868953593 0 -0.0630252886136424 -0.0041339313683130194 0 -0.059026914276429643 -0.0043482936726555533 0 -0.05977888895521874 -0.0045247343680401781 0 -0.05692634413228969 -0.0053183166062772342 0 -0.055942918796338913 -0.0037717285809887144 0 -0.058061067554903777 -0.003973820343237444 0 -0.054764065742973288 -0.0055218941054815812 0 -0.05692634413228969 -0.0053183166062772342 0 -0.055942918796338913 -0.0037717285809887144 0 -0.055942918796338913 -0.0037717285809887144 0 -0.055680844667532148 -0.0017050154972200094 0 -0.054318287366041496 -0.0031606807850025611 0 -0.055942918796338913 -0.0037717285809887144 0 -0.058061067554903777 -0.003973820343237444 0 -0.05752703442797702 -0.0024266914388479197 0 -0.055286932238859013 -0.0030328870777974327 0 -0.056736577641943224 -0.0032676306263035144 0 -0.055942918796338913 -0.0037717285809887144 0 -0.055680844667532148 -0.0017050154972200094 0 -0.05752703442797702 -0.0024266914388479197 0 -0.055518516255475346 -0.003098833479611702 0 -0.054644937419528243 -0.0032149746600619281 0 -0.056206865558360491 -0.0037778091505195708 0 -0.055518516255475346 -0.003098833479611702 0 -0.056206865558360491 -0.0037778091505195708 0 -0.055873880705690507 -0.0029685750625869783 0 -0.055286932238859013 -0.0030328870777974327 0 -0.055258233779397696 -0.0030269347257448104 0 -0.052967758528080021 -0.0031534683641307355 0 -0.053435204897477703 -0.0039962267440339849 0 -0.053479874264067868 -0.0031238668018717269 0 -0.05401302074907826 -0.0032116431120603767 0 -0.053435204897477703 -0.0039962267440339849 0 -0.053479874264067868 -0.0031238668018717269 0 -0.054163703755603365 -0.0032666858375042691 0 -0.05401302074907826 -0.0032116431120603767 0 -0.053435204897477703 -0.0039962267440339849 0 -0.055286932238859013 -0.0030328870777974327 0 -0.054230886744320063 -0.0037474657383888416 0 -0.052967758528080021 -0.0031534683641307355 0 -0.052705587127388376 -0.0037374841855586007 0 -0.053435204897477703 -0.0039962267440339849 0 -0.052967758528080021 -0.0031534683641307355 0 -0.052705587127388376 -0.0037374841855586007 0 -0.052294570961915351 -0.0033877529845334538 0 -0.052705587127388376 -0.0037374841855586007 0 -0.053435204897477703 -0.0039962267440339849 0 -0.052720039652761022 -0.0042166206897127747 0 -0.054169191501607816 -0.0044390342579538793 0 -0.055942918796338913 -0.0037717285809887144 0 -0.054318287366041496 -0.0031606807850025611 0 -0.060545805047336906 -0.0044113384162732675 0 -0.059922544189083278 -0.0039982040731553342 0 -0.060431542672290228 -0.0041807115234579915 0 -0.059922544189083278 -0.0039982040731553342 0 -0.060431542672290228 -0.0041807115234579915 0 -0.060176576256100761 -0.0037890707208409475 0 -0.060805226203639151 -0.0040106628035163966 0 -0.060545805047336906 -0.0044113384162732675 0 -0.060431542672290228 -0.0041807115234579915 0 -0.061424069609613399 -0.0037161706974713844 0 -0.060805226203639151 -0.0040106628035163966 0 -0.060545805047336906 -0.0044113384162732675 0 -0.061424069609613399 -0.0037161706974713844 0 -0.060545805047336906 -0.0044113384162732675 0 -0.062302244209349371 -0.0043934115690432768 0 -0.060394316156726531 -0.0045464658193946654 0 -0.060272016338722201 -0.0045633854840273864 0 -0.060545805047336906 -0.0044113384162732675 0 -0.05961390595687454 -0.0041033506821209252 0 -0.059922544189083278 -0.0039982040731553342 0 -0.060545805047336906 -0.0044113384162732675 0 -0.05961390595687454 -0.0041033506821209252 0 -0.058825233210264359 -0.0049997206565238171 0 -0.05961390595687454 -0.0041033506821209252 0 -0.058825233210264359 -0.0049997206565238171 0 -0.058061067554903777 -0.003973820343237444 0 -0.05977888895521874 -0.0045247343680401781 0 -0.060272016338722201 -0.0045633854840273864 0 -0.062706221443909943 -0.0036004470489645864 0 -0.0630252886136424 -0.0041339313683130194 0 -0.062302244209349371 -0.0043934115690432768 0 -0.05692634413228969 -0.0053183166062772342 0 -0.058825233210264359 -0.0049997206565238171 0 -0.058061067554903777 -0.003973820343237444 0 -0.056736577641943224 -0.0032676306263035144 0 -0.058123654175582899 -0.0036241365072271349 0 -0.058061067554903777 -0.003973820343237444 0 -0.05752703442797702 -0.0024266914388479197 0 -0.059203933704543805 -0.0032322456790107893 0 -0.056206865558360491 -0.0037778091505195708 0 -0.058026324039759568 -0.0041074703360856439 0 -0.057170324488131759 -0.0029423842093297082 0 -0.056206865558360491 -0.0037778091505195708 0 -0.057170324488131759 -0.0029423842093297082 0 -0.055873880705690507 -0.0029685750625869783 0 -0.058026324039759568 -0.0041074703360856439 0 -0.058853864009360796 -0.0032225165060195174 0 -0.057170324488131759 -0.0029423842093297082 0 -0.05961390595687454 -0.0041033506821209252 0 -0.058061067554903777 -0.003973820343237444 0 -0.059203933704543805 -0.0032322456790107893 0 -0.05961390595687454 -0.0041033506821209252 0 -0.059203933704543805 -0.0032322456790107893 0 -0.059922544189083278 -0.0039982040731553342 0 -0.058123654175582899 -0.0036241365072271349 0 -0.058804406820988017 -0.0038162459411541071 0 -0.058026324039759568 -0.0041074703360856439 0 -0.058853864009360796 -0.0032225165060195174 0 -0.059922544189083278 -0.0039982040731553342 0 -0.058853864009360796 -0.0032225165060195174 0 -0.059744378853777251 -0.0032869502295956414 0 -0.059922544189083278 -0.0039982040731553342 0 -0.058853864009360796 -0.0032225165060195174 0 -0.059744378853777251 -0.0032869502295956414 0 -0.059249603203403875 -0.0026969455597310723 0 -0.059744378853777251 -0.0032869502295956414 0 -0.059922544189083278 -0.0039982040731553342 0 -0.060176576256100761 -0.0037890707208409475 0 -0.059326336691355001 -0.0021801912868908762 0 -0.059249603203403875 -0.0026969455597310723 0 -0.059709564161320887 -0.0026793984384339635 0 -0.059744378853777251 -0.0032869502295956414 0 -0.059249603203403875 -0.0026969455597310723 0 -0.059709564161320887 -0.0026793984384339635 0 -0.059326336691355001 -0.0021801912868908762 0 -0.059249603203403875 -0.0026969455597310723 0 -0.058027632028702474 -0.0020002320481602464 0 -0.058853864009360796 -0.0032225165060195174 0 -0.059249603203403875 -0.0026969455597310723 0 -0.058027632028702474 -0.0020002320481602464 0 -0.058414257154931391 -0.0021889947070958282 0 -0.057436437330092911 -0.0022713259714167199 0 -0.057984310078974838 -0.0023155266475237812 0 -0.056783586539052577 -0.0024116873714877022 0 -0.057180186196546953 -0.0014841285264993065 0 -0.056783586539052577 -0.0024116873714877022 0 -0.056204266913635531 -0.0021100133829711158 0 -0.0562764940773747 -0.0015475978027160748 0 -0.058853864009360796 -0.0032225165060195174 0 -0.058027632028702474 -0.0020002320481602464 0 -0.057170324488131759 -0.0029423842093297082 0 -0.057436437330092911 -0.0022713259714167199 0 -0.05677606127720667 -0.0023375054064488543 0 -0.058027632028702474 -0.0020002320481602464 0 -0.057170324488131759 -0.0029423842093297082 0 -0.05587449700667714 -0.0023534437544812997 0 -0.057170324488131759 -0.0029423842093297082 0 -0.055873880705690507 -0.0029685750625869783 0 -0.05587449700667714 -0.0023534437544812997 0 -0.056204266913635531 -0.0021100133829711158 0 -0.05587449700667714 -0.0023534437544812997 0 -0.055659694326483593 -0.0021129317497657675 0 -0.056783586539052577 -0.0024116873714877022 0 -0.056204266913635531 -0.0021100133829711158 0 -0.05587449700667714 -0.0023534437544812997 0 -0.056204266913635531 -0.0021100133829711158 0 -0.055720835926599377 -0.0017073979025167682 0 -0.055659694326483593 -0.0021129317497657675 0 -0.055720835926599377 -0.0017073979025167682 0 -0.0562764940773747 -0.0015475978027160748 0 -0.055258630501442106 -0.0010248413240089493 0 -0.056204266913635531 -0.0021100133829711158 0 -0.055720835926599377 -0.0017073979025167682 0 -0.0562764940773747 -0.0015475978027160748 0 -0.0562764940773747 -0.0015475978027160748 0 -0.056471662803083848 -0.00056643122041469859 0 -0.055258630501442106 -0.0010248413240089493 0 -0.056471662803083848 -0.00056643122041469859 0 -0.055258630501442106 -0.0010248413240089493 0 -0.055134400013089183 0.00055397307410156725 0 -0.0562764940773747 -0.0015475978027160748 0 -0.056471662803083848 -0.00056643122041469859 0 -0.057180186196546953 -0.0014841285264993065 0 -0.056783586539052577 -0.0024116873714877022 0 -0.0562764940773747 -0.0015475978027160748 0 -0.057180186196546953 -0.0014841285264993065 0 -0.057984310078974838 -0.0023155266475237812 0 -0.057180186196546953 -0.0014841285264993065 0 -0.057897204668846868 -0.0013448247740467764 0 -0.057180186196546953 -0.0014841285264993065 0 -0.057591346406627955 -0.00070506867189430928 0 -0.057897204668846868 -0.0013448247740467764 0 -0.056471662803083848 -0.00056643122041469859 0 -0.057180186196546953 -0.0014841285264993065 0 -0.057591346406627955 -0.00070506867189430928 0 -0.057591346406627955 -0.00070506867189430928 0 -0.058182838048072623 -0.00091392007845615035 0 -0.057897204668846868 -0.0013448247740467764 0 -0.058182838048072623 -0.00091392007845615035 0 -0.057897204668846868 -0.0013448247740467764 0 -0.058540326576700115 -0.0013907136679877123 0 -0.057984310078974838 -0.0023155266475237812 0 -0.057897204668846868 -0.0013448247740467764 0 -0.058540326576700115 -0.0013907136679877123 0 -0.053975194312495915 -0.0023427417805743748 0 -0.054339748053969225 -0.0018975964268737771 0 -0.053351432445572403 -0.0017156505472751317 0 -0.053512258211715347 -0.0026758835766091935 0 -0.053975194312495915 -0.0023427417805743748 0 -0.053351432445572403 -0.0017156505472751317 0 -0.05275202379691267 -0.0024209584527850169 0 -0.053512258211715347 -0.0026758835766091935 0 -0.053351432445572403 -0.0017156505472751317 0 -0.05275202379691267 -0.0024209584527850169 0 -0.053351432445572403 -0.0017156505472751317 0 -0.052167092842322717 -0.0017872971083714002 0 -0.052967758528080021 -0.0031534683641307355 0 -0.05275202379691267 -0.0024209584527850169 0 -0.053512258211715347 -0.0026758835766091935 0 -0.052967758528080021 -0.0031534683641307355 0 -0.053479874264067868 -0.0031238668018717269 0 -0.053512258211715347 -0.0026758835766091935 0 -0.05401302074907826 -0.0032116431120603767 0 -0.053479874264067868 -0.0031238668018717269 0 -0.053512258211715347 -0.0026758835766091935 0 -0.054193560520717152 -0.0032929203915290531 0 -0.05401302074907826 -0.0032116431120603767 0 -0.054286327775643413 -0.0028708105422896712 0 -0.053512258211715347 -0.0026758835766091935 0 -0.054286327775643413 -0.0028708105422896712 0 -0.053975194312495915 -0.0023427417805743748 0 -0.05401302074907826 -0.0032116431120603767 0 -0.053512258211715347 -0.0026758835766091935 0 -0.054286327775643413 -0.0028708105422896712 0 -0.055286932238859013 -0.0030328870777974327 0 -0.055337885910791876 -0.0028228169228337232 0 -0.055518516255475346 -0.003098833479611702 0 -0.054644937419528243 -0.0032149746600619281 0 -0.055360955842424189 -0.0024868632450562029 0 -0.054193560520717152 -0.0032929203915290531 0 -0.054286327775643413 -0.0028708105422896712 0 -0.054807508423936814 -0.0028133791149660857 0 -0.054286327775643413 -0.0028708105422896712 0 -0.054807508423936814 -0.0028133791149660857 0 -0.054450038112540976 -0.002469060254195468 0 -0.054286327775643413 -0.0028708105422896712 0 -0.053975194312495915 -0.0023427417805743748 0 -0.054450038112540976 -0.002469060254195468 0 -0.055518516255475346 -0.003098833479611702 0 -0.055873880705690507 -0.0029685750625869783 0 -0.055360955842424189 -0.0024868632450562029 0 -0.055360955842424189 -0.0024868632450562029 0 -0.05587449700667714 -0.0023534437544812997 0 -0.055659694326483593 -0.0021129317497657675 0 -0.055873880705690507 -0.0029685750625869783 0 -0.055360955842424189 -0.0024868632450562029 0 -0.05587449700667714 -0.0023534437544812997 0 -0.055337885910791876 -0.0028228169228337232 0 -0.055447711292508445 -0.0026578889657764325 0 -0.054807508423936814 -0.0028133791149660857 0 -0.055659694326483593 -0.0021129317497657675 0 -0.054859723258086857 -0.0021790272051621464 0 -0.055659694326483593 -0.0021129317497657675 0 -0.054859723258086857 -0.0021790272051621464 0 -0.055064869458392507 -0.0016558840802767566 0 -0.054859723258086857 -0.0021790272051621464 0 -0.054339748053969225 -0.0018975964268737771 0 -0.055064869458392507 -0.0016558840802767566 0 -0.055720835926599377 -0.0017073979025167682 0 -0.055659694326483593 -0.0021129317497657675 0 -0.055064869458392507 -0.0016558840802767566 0 -0.053975194312495915 -0.0023427417805743748 0 -0.054450038112540976 -0.002469060254195468 0 -0.054339748053969225 -0.0018975964268737771 0 -0.054807508423936814 -0.0028133791149660857 0 -0.054859723258086857 -0.0021790272051621464 0 -0.054450038112540976 -0.002469060254195468 0 -0.054859723258086857 -0.0021790272051621464 0 -0.054450038112540976 -0.002469060254195468 0 -0.054339748053969225 -0.0018975964268737771 0 -0.054339748053969225 -0.0018975964268737771 0 -0.054125246753563082 -0.0011727761520068302 0 -0.055064869458392507 -0.0016558840802767566 0 -0.054339748053969225 -0.0018975964268737771 0 -0.054125246753563082 -0.0011727761520068302 0 -0.053351432445572403 -0.0017156505472751317 0 -0.054125246753563082 -0.0011727761520068302 0 -0.055064869458392507 -0.0016558840802767566 0 -0.055258630501442106 -0.0010248413240089493 0 -0.055720835926599377 -0.0017073979025167682 0 -0.055064869458392507 -0.0016558840802767566 0 -0.055258630501442106 -0.0010248413240089493 0 -0.054125246753563082 -0.0011727761520068302 0 -0.055258630501442106 -0.0010248413240089493 0 -0.05373471576918367 -0.00011786285216977334 0 -0.054125246753563082 -0.0011727761520068302 0 -0.053285847653799651 -0.00069872464422918493 0 -0.05373471576918367 -0.00011786285216977334 0 -0.054125246753563082 -0.0011727761520068302 0 -0.053285847653799651 -0.00069872464422918493 0 -0.053351432445572403 -0.0017156505472751317 0 -0.053285847653799651 -0.00069872464422918493 0 -0.053351432445572403 -0.0017156505472751317 0 -0.052437345131015181 -0.00077236794067432276 0 -0.053351432445572403 -0.0017156505472751317 0 -0.052437345131015181 -0.00077236794067432276 0 -0.052167092842322717 -0.0017872971083714002 0 -0.053285847653799651 -0.00069872464422918493 0 -0.052437345131015181 -0.00077236794067432276 0 -0.052919595105458204 0.00010144213954903796 0 -0.052437345131015181 -0.00077236794067432276 0 -0.051799154574042383 -0.000503288650457737 0 -0.0514427856238132 -0.0011029585826105976 0 -0.051799154574042383 -0.000503288650457737 0 -0.0514427856238132 -0.0011029585826105976 0 -0.051259562323038584 -0.00023006787614914337 0 -0.0514427856238132 -0.0011029585826105976 0 -0.051343880515131869 -0.0019733520123383775 0 -0.050592649716095471 -0.0014406176007443826 0 -0.0514427856238132 -0.0011029585826105976 0 -0.052167092842322717 -0.0017872971083714002 0 -0.051343880515131869 -0.0019733520123383775 0 -0.052437345131015181 -0.00077236794067432276 0 -0.0514427856238132 -0.0011029585826105976 0 -0.052167092842322717 -0.0017872971083714002 0 -0.05275202379691267 -0.0024209584527850169 0 -0.052167092842322717 -0.0017872971083714002 0 -0.051722341066177561 -0.0027805608402423064 0 -0.052167092842322717 -0.0017872971083714002 0 -0.051343880515131869 -0.0019733520123383775 0 -0.051722341066177561 -0.0027805608402423064 0 -0.051343880515131869 -0.0019733520123383775 0 -0.051722341066177561 -0.0027805608402423064 0 -0.050595289449410635 -0.0024037490301661627 0 -0.05168651161661883 -0.0026623044114346011 0 -0.050607381342096074 -0.0022971887701592432 0 -0.052967758528080021 -0.0031534683641307355 0 -0.05275202379691267 -0.0024209584527850169 0 -0.051722341066177561 -0.0027805608402423064 0 -0.052274554782450876 -0.0028610582180309007 0 -0.05168651161661883 -0.0026623044114346011 0 -0.049961638874781042 -0.0022656114137003798 0 -0.050308423090878233 -0.0027726597906127842 0 -0.049718533069321995 -0.0031375402325194601 0 -0.049961638874781042 -0.0022656114137003798 0 -0.050308423090878233 -0.0027726597906127842 0 -0.050724306617411806 -0.0022017380445938563 0 -0.05194942376910882 -0.002678529296100005 0 -0.050724306617411806 -0.0022017380445938563 0 -0.050820666501303263 -0.002970743348825816 0 -0.050308423090878233 -0.0027726597906127842 0 -0.050724306617411806 -0.0022017380445938563 0 -0.050820666501303263 -0.002970743348825816 0 -0.051343880515131869 -0.0019733520123383775 0 -0.050595289449410635 -0.0024037490301661627 0 -0.050592649716095471 -0.0014406176007443826 0 -0.050595289449410635 -0.0024037490301661627 0 -0.049579308403654265 -0.0018774255662862272 0 -0.049308417740719854 -0.0019660597069914034 0 -0.050607381342096074 -0.0022971887701592432 0 -0.049457306379070975 -0.001915526643004037 0 -0.049961638874781042 -0.0022656114137003798 0 -0.050724306617411806 -0.0022017380445938563 0 -0.049368756861070111 -0.0017289650920380606 0 -0.050595289449410635 -0.0024037490301661627 0 -0.050592649716095471 -0.0014406176007443826 0 -0.049579308403654265 -0.0018774255662862272 0 -0.050592649716095471 -0.0014406176007443826 0 -0.049980823314609048 -0.00091001773505152599 0 -0.049579308403654265 -0.0018774255662862272 0 -0.044778742695371347 0.00040998192962722331 0 -0.04577762004249223 -0.00038220076933164095 0 -0.0514427856238132 -0.0011029585826105976 0 -0.050615977139738179 -0.00054838521846074643 0 -0.051259562323038584 -0.00023006787614914337 0 -0.0514427856238132 -0.0011029585826105976 0 -0.050592649716095471 -0.0014406176007443826 0 -0.050615977139738179 -0.00054838521846074643 0 -0.044778742695371347 0.00040998192962722331 0 -0.041002440459558427 0.0022538023738955248 0 -0.050615977139738179 -0.00054838521846074643 0 -0.049980823314609048 -0.00091001773505152599 0 -0.050312508293394745 -1.6422698512652555e-05 0 -0.050592649716095471 -0.0014406176007443826 0 -0.050615977139738179 -0.00054838521846074643 0 -0.049980823314609048 -0.00091001773505152599 0 -0.048302283241130957 -1.8002530414293048e-05 0 -0.049062439929165001 -0.0010343789706729282 0 -0.049321121996033127 0.00013178837619347839 0 -0.049713304376311621 -0.00051530778247529008 0 -0.049062439929165001 -0.0010343789706729282 0 -0.049321121996033127 0.00013178837619347839 0 -0.048302283241130957 -1.8002530414293048e-05 0 -0.048252833829993957 -0.00080523722041436568 0 -0.049062439929165001 -0.0010343789706729282 0 -0.048252833829993957 -0.00080523722041436568 0 -0.049062439929165001 -0.0010343789706729282 0 -0.0479161154126704 -0.0013932723181899803 0 -0.049062439929165001 -0.0010343789706729282 0 -0.0479161154126704 -0.0013932723181899803 0 -0.049308417740719854 -0.0019660597069914034 0 -0.049713304376311621 -0.00051530778247529008 0 -0.049062439929165001 -0.0010343789706729282 0 -0.049579308403654265 -0.0018774255662862272 0 -0.017182258312852351 0.011101711510484707 0 -0.017149430407808756 0.01175578013623659 0 -0.016569835786967618 0.011057167173293194 0 -0.017149430407808756 0.01175578013623659 0 -0.016569835786967618 0.011057167173293194 0 -0.016379110591121054 0.011882408416239243 0 -0.015516786954049986 0.011112029534837009 0 -0.016569835786967618 0.011057167173293194 0 -0.016379110591121054 0.011882408416239243 0 -0.048302283241130957 -1.8002530414293048e-05 0 -0.048252833829993957 -0.00080523722041436568 0 -0.047379693158543568 -0.00096531976249896487 0 -0.031916721091864962 0.005492329811292886 0 -0.031865382423235097 0.0054956898009347575 0 -0.047379693158543568 -0.00096531976249896487 0 -0.047369037241660389 -0.001695360426767328 0 -0.0479161154126704 -0.0013932723181899803 0 -0.048252833829993957 -0.00080523722041436568 0 -0.047379693158543568 -0.00096531976249896487 0 -0.0479161154126704 -0.0013932723181899803 0 -0.017149430407808756 0.01175578013623659 0 -0.017176307302847527 0.01264253456961969 0 -0.016379110591121054 0.011882408416239243 0 -0.046531844761265921 -0.0018377827955804492 0 -0.047379693158543568 -0.00096531976249896487 0 -0.047369037241660389 -0.001695360426767328 0 -0.046531844761265921 -0.0018377827955804492 0 -0.047369037241660389 -0.001695360426767328 0 -0.047248575458437386 -0.0022081971882847362 0 -0.031860911508292948 0.0055784954129953013 0 -0.031865382423235097 0.0054956898009347575 0 -0.047369037241660389 -0.001695360426767328 0 -0.047792660173439888 -0.0020726636062917475 0 -0.047248575458437386 -0.0022081971882847362 0 -0.047369037241660389 -0.001695360426767328 0 -0.0479161154126704 -0.0013932723181899803 0 -0.047792660173439888 -0.0020726636062917475 0 -0.0479161154126704 -0.0013932723181899803 0 -0.047792660173439888 -0.0020726636062917475 0 -0.048235133743954065 -0.0019433315095501074 0 -0.047792660173439888 -0.0020726636062917475 0 -0.047597497871233463 -0.0026762284992658042 0 -0.048400133623304475 -0.0024919455924114656 0 -0.047597497871233463 -0.0026762284992658042 0 -0.048400133623304475 -0.0024919455924114656 0 -0.048052988669416256 -0.0031734406129324149 0 -0.047792660173439888 -0.0020726636062917475 0 -0.047597497871233463 -0.0026762284992658042 0 -0.047248575458437386 -0.0022081971882847362 0 -0.047597497871233463 -0.0026762284992658042 0 -0.04684223280247736 -0.0026928128584035199 0 -0.047248575458437386 -0.0022081971882847362 0 -0.046531844761265921 -0.0018377827955804492 0 -0.04684223280247736 -0.0026928128584035199 0 -0.047248575458437386 -0.0022081971882847362 0 -0.049062439929165001 -0.0010343789706729282 0 -0.049579308403654265 -0.0018774255662862272 0 -0.049308417740719854 -0.0019660597069914034 0 -0.049368756861070111 -0.0017289650920380606 0 -0.048839587331601805 -0.0018047367769974958 0 -0.049120957180954404 -0.0021610790939977807 0 -0.049368756861070111 -0.0017289650920380606 0 -0.049120957180954404 -0.0021610790939977807 0 -0.049440449080283305 -0.0021805660467580285 0 -0.049961638874781042 -0.0022656114137003798 0 -0.049368756861070111 -0.0017289650920380606 0 -0.049440449080283305 -0.0021805660467580285 0 -0.0479161154126704 -0.0013932723181899803 0 -0.049368756861070111 -0.0017289650920380606 0 -0.048839587331601805 -0.0018047367769974958 0 -0.048775455986626519 -0.0016952448252258905 0 -0.049457306379070975 -0.001915526643004037 0 -0.0479161154126704 -0.0013932723181899803 0 -0.048235133743954065 -0.0019433315095501074 0 -0.048839587331601805 -0.0018047367769974958 0 -0.048235133743954065 -0.0019433315095501074 0 -0.048839587331601805 -0.0018047367769974958 0 -0.048400133623304475 -0.0024919455924114656 0 -0.048839587331601805 -0.0018047367769974958 0 -0.048563762700468319 -0.0025623163972078944 0 -0.049120957180954404 -0.0021610790939977807 0 -0.050039480589722428 -0.0024543333972002696 0 -0.050208383664366529 -0.0024614463853723585 0 -0.047792660173439888 -0.0020726636062917475 0 -0.048235133743954065 -0.0019433315095501074 0 -0.048400133623304475 -0.0024919455924114656 0 -0.048563762700468319 -0.0025623163972078944 0 -0.049308108068738296 -0.0025535211516633394 0 -0.048920269073505697 -0.0031704809187451969 0 -0.049961638874781042 -0.0022656114137003798 0 -0.049308108068738296 -0.0025535211516633394 0 -0.049718533069321995 -0.0031375402325194601 0 -0.048563762700468319 -0.0025623163972078944 0 -0.049308108068738296 -0.0025535211516633394 0 -0.049120957180954404 -0.0021610790939977807 0 -0.049308108068738296 -0.0025535211516633394 0 -0.049120957180954404 -0.0021610790939977807 0 -0.049440449080283305 -0.0021805660467580285 0 -0.049961638874781042 -0.0022656114137003798 0 -0.049308108068738296 -0.0025535211516633394 0 -0.049440449080283305 -0.0021805660467580285 0 -0.04927785168641946 -0.0035489617449097157 0 -0.048920269073505697 -0.0031704809187451969 0 -0.048887485743798573 -0.0039747418112025664 0 -0.049718533069321995 -0.0031375402325194601 0 -0.04927785168641946 -0.0035489617449097157 0 -0.048920269073505697 -0.0031704809187451969 0 -0.049308108068738296 -0.0025535211516633394 0 -0.049718533069321995 -0.0031375402325194601 0 -0.048920269073505697 -0.0031704809187451969 0 -0.049718533069321995 -0.0031375402325194601 0 -0.049660899868130763 -0.0036722877144859537 0 -0.04927785168641946 -0.0035489617449097157 0 -0.048920269073505697 -0.0031704809187451969 0 -0.048237494471402693 -0.0032956244451849692 0 -0.048887485743798573 -0.0039747418112025664 0 -0.048563762700468319 -0.0025623163972078944 0 -0.048920269073505697 -0.0031704809187451969 0 -0.048237494471402693 -0.0032956244451849692 0 -0.050208383664366529 -0.0024614463853723585 0 -0.051023857489740851 -0.0019177169430489771 0 -0.051023857489740851 -0.0019177169430489771 0 -0.052477165928493053 -0.0018790893595830021 0 -0.053963919076465451 -0.00096863307891514394 0 -0.054823329188487382 -0.00072397370233081334 0 -0.054251593131662931 -0.00039001999340001781 0 -0.054451963149204995 -0.0015003640437988087 0 -0.053963919076465451 -0.00096863307891514394 0 -0.054823329188487382 -0.00072397370233081334 0 -0.053963919076465451 -0.00096863307891514394 0 -0.053880561529306939 -0.00047193653274257 0 -0.054251593131662931 -0.00039001999340001781 0 -0.053963919076465451 -0.00096863307891514394 0 -0.0534715085510006 -0.00043814190872769429 0 -0.053880561529306939 -0.00047193653274257 0 -0.052477165928493053 -0.0018790893595830021 0 -0.05446347514510088 -0.0018966428257575633 0 -0.048887485743798573 -0.0039747418112025664 0 -0.049423047622693457 -0.0040012442982197815 0 -0.049547737395469249 -0.0046555636875978751 0 -0.049719943890930922 -0.0042893959342045112 0 -0.049423047622693457 -0.0040012442982197815 0 -0.049828108479347114 -0.0039762136294005448 0 -0.049719943890930922 -0.0042893959342045112 0 -0.049423047622693457 -0.0040012442982197815 0 -0.049547737395469249 -0.0046555636875978751 0 -0.049660899868130763 -0.0036722877144859537 0 -0.049423047622693457 -0.0040012442982197815 0 -0.049828108479347114 -0.0039762136294005448 0 -0.049660899868130763 -0.0036722877144859537 0 -0.04927785168641946 -0.0035489617449097157 0 -0.049423047622693457 -0.0040012442982197815 0 -0.04927785168641946 -0.0035489617449097157 0 -0.048887485743798573 -0.0039747418112025664 0 -0.049423047622693457 -0.0040012442982197815 0 -0.047597497871233463 -0.0026762284992658042 0 -0.04684223280247736 -0.0026928128584035199 0 -0.04722590933271853 -0.0032867484921956644 0 -0.046420392910360729 -0.0033577118400378997 0 -0.04684223280247736 -0.0026928128584035199 0 -0.04722590933271853 -0.0032867484921956644 0 -0.047597497871233463 -0.0026762284992658042 0 -0.047954612162993675 -0.0030604552336733737 0 -0.04722590933271853 -0.0032867484921956644 0 -0.050599821348018797 -0.0017771272647447379 0 -0.051023857489740851 -0.0019177169430489771 0 -0.051023857489740851 -0.0019177169430489771 0 -0.050671280236224171 -0.001351509572815624 0 -0.047954612162993675 -0.0030604552336733737 0 -0.04722590933271853 -0.0032867484921956644 0 -0.047560014228943806 -0.0038669494178463684 0 -0.04722590933271853 -0.0032867484921956644 0 -0.047560014228943806 -0.0038669494178463684 0 -0.046886317227997742 -0.003868505537303894 0 -0.046420392910360729 -0.0033577118400378997 0 -0.04722590933271853 -0.0032867484921956644 0 -0.046886317227997742 -0.003868505537303894 0 -0.047560014228943806 -0.0038669494178463684 0 -0.046886317227997742 -0.003868505537303894 0 -0.047168055658120135 -0.0046963228725246074 0 -0.046044877858656207 -0.0041387322722496768 0 -0.046886317227997742 -0.003868505537303894 0 -0.047168055658120135 -0.0046963228725246074 0 -0.050671280236224171 -0.001351509572815624 0 -0.050566249940286211 0.00060580642871930579 0 -0.054823329188487382 -0.00072397370233081334 0 -0.054635381156374646 -8.9050359520579116e-05 0 -0.054251593131662931 -0.00039001999340001781 0 -0.054823329188487382 -0.00072397370233081334 0 -0.054635381156374646 -8.9050359520579116e-05 0 -0.055184786673852855 5.2365623647573719e-05 0 -0.054635381156374646 -8.9050359520579116e-05 0 -0.054539875458949692 8.8016629766654006e-05 0 -0.054324942611085961 1.0478613765832885e-06 0 -0.055404866989546511 0.00069883001926598551 0 -0.055069054530935579 0.00055476241903393037 0 -0.055103919763946498 0.00060184307941422554 0 -0.055404866989546511 0.00069883001926598551 0 -0.054540519587167331 0.00030737075089238381 0 -0.054896076363026583 0.00020226536090310704 0 -0.055384297641553303 -8.8155291519514609e-05 0 -0.055215780366439676 -0.00043731943530715998 0 -0.05465859663331777 0.00013110071431128735 0 -0.054540519587167331 0.00030737075089238381 0 -0.054896076363026583 0.00020226536090310704 0 -0.054635381156374646 -8.9050359520579116e-05 0 -0.054539875458949692 8.8016629766654006e-05 0 -0.05465859663331777 0.00013110071431128735 0 -0.054635381156374646 -8.9050359520579116e-05 0 -0.05465859663331777 0.00013110071431128735 0 -0.054896076363026583 0.00020226536090310704 0 -0.054539875458949692 8.8016629766654006e-05 0 -0.05465859663331777 0.00013110071431128735 0 -0.054540519587167331 0.00030737075089238381 0 -0.054635381156374646 -8.9050359520579116e-05 0 -0.054896076363026583 0.00020226536090310704 0 -0.055184786673852855 5.2365623647573719e-05 0 -0.050988482248428398 0.00044249942915844419 0 -0.050566249940286211 0.00060580642871930579 0 -0.055404866989546511 0.00069883001926598551 0 -0.054896076363026583 0.00020226536090310704 0 -0.055161553282363981 8.7717789516316176e-05 0 -0.052453019724046021 0.0022702032377937146 0 -0.050566249940286211 0.00060580642871930579 0 -0.050715681324497552 0.003905547004516566 0 -0.050721488108475953 0.003744793229704176 0 -0.051008057394232045 0.0041165994613520289 0 -0.050715681324497552 0.003905547004516566 0 -0.050732198421312907 0.0040901675819051313 0 -0.051008057394232045 0.0041165994613520289 0 -0.053593304312393772 -0.0001773504635056637 0 -0.053880561529306939 -0.00047193653274257 0 -0.054036240215773169 -0.0001331731839986021 0 -0.056075317643866966 -0.0012104947100629324 0 -0.056245621087301786 -0.001121966748225494 0 -0.056236088997316906 -0.0014100905224828798 0 -0.055227983359326396 -0.00140219770539492 0 -0.054860798289735641 -0.0018416744224276089 0 -0.054237263728228687 -0.0020202661168446366 0 -0.05440938849836828 -0.0016559930469703 0 -0.054581896145432809 -0.0018413030565154356 0 -0.055227983359326396 -0.00140219770539492 0 -0.05446347514510088 -0.0018966428257575633 0 -0.049557613925106589 -0.0046472386089004654 0 -0.04971362069703205 -0.0048158832487325562 0 -0.049879859054006319 -0.0044829044122147617 0 -0.05446347514510088 -0.0018966428257575633 0 -0.054860798289735641 -0.0018416744224276089 0 -0.054205653582611438 -0.0022442082737201981 0 -0.05446347514510088 -0.0018966428257575633 0 -0.049719943890930922 -0.0042893959342045112 0 -0.049557613925106589 -0.0046472386089004654 0 -0.049879859054006319 -0.0044829044122147617 0 -0.053593304312393772 -0.0001773504635056637 0 -0.0534715085510006 -0.00043814190872769429 0 -0.053880561529306939 -0.00047193653274257 0 -0.053880561529306939 -0.00047193653274257 0 -0.054251593131662931 -0.00039001999340001781 0 -0.054036240215773169 -0.0001331731839986021 0 -0.054540519587167331 0.00030737075089238381 0 -0.053593304312393772 -0.0001773504635056637 0 -0.054036240215773169 -0.0001331731839986021 0 -0.054635381156374646 -8.9050359520579116e-05 0 -0.054251593131662931 -0.00039001999340001781 0 -0.054324942611085961 1.0478613765832885e-06 0 -0.054251593131662931 -0.00039001999340001781 0 -0.054036240215773169 -0.0001331731839986021 0 -0.054324942611085961 1.0478613765832885e-06 0 -0.055069054530935579 0.00055476241903393037 0 -0.054861062926643091 0.00042842582035521265 0 -0.054970439389027535 0.0005429340750752981 0 -0.056547612354558859 -0.00018998466037375855 0 -0.057708025807737803 -0.00028098766147084496 0 -0.055215780366439676 -0.00043731943530715998 0 -0.055227983359326396 -0.00140219770539492 0 -0.055103919763946498 0.00060184307941422554 0 -0.054970439389027535 0.0005429340750752981 0 -0.054921778585468047 0.00057402524659094095 0 -0.055016696111660421 0.0006842313876755285 0 -0.055103919763946498 0.00060184307941422554 0 -0.054772684209743558 0.00057716604621360829 0 -0.054539875458949692 8.8016629766654006e-05 0 -0.054540519587167331 0.00030737075089238381 0 -0.054324942611085961 1.0478613765832885e-06 0 -0.054540519587167331 0.00030737075089238381 0 -0.054036240215773169 -0.0001331731839986021 0 -0.054324942611085961 1.0478613765832885e-06 0 -0.055069054530935579 0.00055476241903393037 0 -0.055103919763946498 0.00060184307941422554 0 -0.054970439389027535 0.0005429340750752981 0 -0.054970439389027535 0.0005429340750752981 0 -0.054921778585468047 0.00057402524659094095 0 -0.054912483073199882 0.00055233523649780055 0 -0.057172104665512494 -0.00049261943174148655 0 -0.057339498665335803 -0.00053549947057022259 0 -0.057708025807737803 -0.00028098766147084496 0 -0.058278616421427606 -0.0010030861365830784 0 -0.057339498665335803 -0.00053549947057022259 0 -0.058278616421427606 -0.0010030861365830784 0 -0.057060459198770862 -0.00098178289617268364 0 -0.057168553230768908 -0.00075396967547538673 0 -0.058143069568730499 -0.00094131619980223778 0 -0.057708025807737803 -0.00028098766147084496 0 -0.057339498665335803 -0.00053549947057022259 0 -0.055227983359326396 -0.00140219770539492 0 -0.057339498665335803 -0.00053549947057022259 0 -0.056075317643866966 -0.0012104947100629324 0 -0.055909600541794204 -0.0015633182904045847 0 -0.056236088997316906 -0.0014100905224828798 0 -0.054861062926643091 0.00042842582035521265 0 -0.054970439389027535 0.0005429340750752981 0 -0.054914842203313122 0.00055121525636370628 0 -0.055909600541794204 -0.0015633182904045847 0 -0.056236088997316906 -0.0014100905224828798 0 -0.056188576116744 -0.0016183776727412918 0 -0.054860798289735641 -0.0018416744224276089 0 -0.05729889874704093 -0.0019253099707466407 0 -0.056236088997316906 -0.0014100905224828798 0 -0.056188576116744 -0.0016183776727412918 0 -0.056692012709988672 -0.0016017039962087517 0 -0.058430969244197294 -0.0012771077409845376 0 -0.058003806344862144 -0.0013005625326428117 0 -0.057971569990818823 -0.0012664852730296442 0 -0.056342953776843764 -0.0019337942981711464 0 -0.056291751970735319 -0.0017142635868502534 0 -0.056378363813878528 -0.0019324691719189737 0 -0.058430969244197294 -0.0012771077409845376 0 -0.057971569990818823 -0.0012664852730296442 0 -0.057870200611560306 -0.0011791310892963929 0 -0.056245621087301786 -0.001121966748225494 0 -0.056236088997316906 -0.0014100905224828798 0 -0.056692012709988672 -0.0016017039962087517 0 -0.058278616421427606 -0.0010030861365830784 0 -0.059238681379286062 -0.0024271980650835594 0 -0.058278616421427606 -0.0010030861365830784 0 -0.05729889874704093 -0.0019253099707466407 0 -0.05729889874704093 -0.0019253099707466407 0 -0.057300043295860768 -0.0019241424019452971 0 -0.050298893899156052 -0.0044603681140558968 0 -0.050639490343286298 -0.0045582960806370013 0 -0.050754119852600567 -0.0055863901735714195 0 -0.055120327270368363 -0.0027021622260945716 0 -0.057727264569369802 -0.0020526470361515439 0 -0.056185334106784099 -0.0017690039744104591 0 -0.056342953776843764 -0.0019337942981711464 0 -0.056291751970735319 -0.0017142635868502534 0 -0.0504256774759076 -0.0044026960077816141 0 -0.050639490343286298 -0.0045582960806370013 0 -0.050687459591535304 -0.0042973413474207264 0 -0.0504256774759076 -0.0044026960077816141 0 -0.050298893899156052 -0.0044603681140558968 0 -0.050639490343286298 -0.0045582960806370013 0 -0.055051267785933146 -0.0027352566794316547 0 -0.055120327270368363 -0.0027021622260945716 0 -0.04971362069703205 -0.0048158832487325562 0 -0.050284140596708396 -0.0045227143727679464 0 -0.049879859054006319 -0.0044829044122147617 0 -0.054860798289735641 -0.0018416744224276089 0 -0.055120327270368363 -0.0027021622260945716 0 -0.055638557161617794 -0.002512866939750173 0 -0.057798928983581736 -0.0028221415508878495 0 -0.050639490343286298 -0.0045582960806370013 0 -0.051321362309655311 -0.0054859911781276298 0 -0.051311562075300361 -0.0047431243884668503 0 -0.050975907375310207 -0.004416437608947707 0 -0.050639490343286298 -0.0045582960806370013 0 -0.051311562075300361 -0.0047431243884668503 0 -0.050975907375310207 -0.004416437608947707 0 -0.051311562075300361 -0.0047431243884668503 0 -0.051299910625311605 -0.0043969231606723613 0 -0.050975907375310207 -0.004416437608947707 0 -0.050639490343286298 -0.0045582960806370013 0 -0.050687459591535304 -0.0042973413474207264 0 -0.058444318221249313 -0.0025416851040541981 0 -0.059176915954967851 -0.0026776421989899019 0 -0.058722899504513912 -0.0029204697295420411 0 -0.050639490343286298 -0.0045582960806370013 0 -0.050754119852600567 -0.0055863901735714195 0 -0.051425349829876781 -0.005558479515893 0 -0.058004330060076686 -0.001302328523517207 0 -0.057971569990818823 -0.0012664852730296442 0 -0.057917187975136307 -0.0013054628301738043 0 -0.05729889874704093 -0.0019253099707466407 0 -0.057727264569369802 -0.0020526470361515439 0 -0.057727264569369802 -0.0020526470361515439 0 -0.059238681379286062 -0.0024271980650835594 0 -0.057971569990818823 -0.0012664852730296442 0 -0.057917187975136307 -0.0013054628301738043 0 -0.057870200611560306 -0.0011791310892963929 0 -0.059259123194682579 -0.0028971101141687049 0 -0.059176915954967851 -0.0026776421989899019 0 -0.058722899504513912 -0.0029204697295420411 0 -0.057727264569369802 -0.0020526470361515439 0 -0.057798928983581736 -0.0028221415508878495 0 -0.057798928983581736 -0.0028221415508878495 0 -0.058259742884634758 -0.0038880467033930934 0 -0.060703437690168831 -0.0036247975669656757 0 -0.057798928983581736 -0.0028221415508878495 0 -0.051321362309655311 -0.0054859911781276298 0 -0.051959697800291936 -0.005107892905539725 0 -0.051311562075300361 -0.0047431243884668503 0 -0.051321362309655311 -0.0054859911781276298 0 -0.051959697800291936 -0.005107892905539725 0 -0.05264285278180332 -0.0055437328161162943 0 -0.063788573897362658 -0.0038183657164474398 0 -0.063823174824991266 -0.003872022444691238 0 -0.063662968801051628 -0.0038991505394478316 0 -0.051959697800291936 -0.005107892905539725 0 -0.05264285278180332 -0.0055437328161162943 0 -0.052437075355152379 -0.0050036615562783042 0 -0.05288983991156767 -0.0047634991790865217 0 -0.05264285278180332 -0.0055437328161162943 0 -0.052437075355152379 -0.0050036615562783042 0 -0.05288983991156767 -0.0047634991790865217 0 -0.052437075355152379 -0.0050036615562783042 0 -0.05229974725402519 -0.0046275056003187197 0 -0.051959697800291936 -0.005107892905539725 0 -0.052437075355152379 -0.0050036615562783042 0 -0.05229974725402519 -0.0046275056003187197 0 -0.05229974725402519 -0.0046275056003187197 0 -0.051765132087321107 -0.0044323395532535189 0 -0.052134896848655 -0.0039978321464858649 0 -0.05288983991156767 -0.0047634991790865217 0 -0.05229974725402519 -0.0046275056003187197 0 -0.052720039652761022 -0.0042166206897127747 0 -0.051959697800291936 -0.005107892905539725 0 -0.051311562075300361 -0.0047431243884668503 0 -0.051765132087321107 -0.0044323395532535189 0 -0.051959697800291936 -0.005107892905539725 0 -0.05229974725402519 -0.0046275056003187197 0 -0.051765132087321107 -0.0044323395532535189 0 -0.051311562075300361 -0.0047431243884668503 0 -0.051765132087321107 -0.0044323395532535189 0 -0.051299910625311605 -0.0043969231606723613 0 -0.051765132087321107 -0.0044323395532535189 0 -0.051299910625311605 -0.0043969231606723613 0 -0.051463203519581918 -0.0039968750450944902 0 -0.051765132087321107 -0.0044323395532535189 0 -0.051463203519581918 -0.0039968750450944902 0 -0.052134896848655 -0.0039978321464858649 0 -0.051463203519581918 -0.0039968750450944902 0 -0.052134896848655 -0.0039978321464858649 0 -0.051800512217156994 -0.0035154292483393678 0 -0.05229974725402519 -0.0046275056003187197 0 -0.052720039652761022 -0.0042166206897127747 0 -0.052134896848655 -0.0039978321464858649 0 -0.052705587127388376 -0.0037374841855586007 0 -0.052134896848655 -0.0039978321464858649 0 -0.052294570961915351 -0.0033877529845334538 0 -0.052705587127388376 -0.0037374841855586007 0 -0.052720039652761022 -0.0042166206897127747 0 -0.052134896848655 -0.0039978321464858649 0 -0.052967758528080021 -0.0031534683641307355 0 -0.05194942376910882 -0.002678529296100005 0 -0.052294570961915351 -0.0033877529845334538 0 -0.05194942376910882 -0.002678529296100005 0 -0.052294570961915351 -0.0033877529845334538 0 -0.051800512217156994 -0.0035154292483393678 0 -0.052134896848655 -0.0039978321464858649 0 -0.052294570961915351 -0.0033877529845334538 0 -0.051800512217156994 -0.0035154292483393678 0 -0.05194942376910882 -0.002678529296100005 0 -0.051800512217156994 -0.0035154292483393678 0 -0.051140778477647295 -0.0035042014657995272 0 -0.05194942376910882 -0.002678529296100005 0 -0.051140778477647295 -0.0035042014657995272 0 -0.050820666501303263 -0.002970743348825816 0 -0.051463203519581918 -0.0039968750450944902 0 -0.051800512217156994 -0.0035154292483393678 0 -0.051140778477647295 -0.0035042014657995272 0 -0.051140778477647295 -0.0035042014657995272 0 -0.050663650389465062 -0.0036467592035523506 0 -0.050820666501303263 -0.002970743348825816 0 -0.050663650389465062 -0.0036467592035523506 0 -0.050820666501303263 -0.002970743348825816 0 -0.050310514918688168 -0.0032769315542927001 0 -0.050308423090878233 -0.0027726597906127842 0 -0.050820666501303263 -0.002970743348825816 0 -0.050310514918688168 -0.0032769315542927001 0 -0.050308423090878233 -0.0027726597906127842 0 -0.049718533069321995 -0.0031375402325194601 0 -0.050310514918688168 -0.0032769315542927001 0 -0.049718533069321995 -0.0031375402325194601 0 -0.050310514918688168 -0.0032769315542927001 0 -0.050125919595976176 -0.0037093643802672918 0 -0.049718533069321995 -0.0031375402325194601 0 -0.049660899868130763 -0.0036722877144859537 0 -0.050125919595976176 -0.0037093643802672918 0 -0.050663650389465062 -0.0036467592035523506 0 -0.050310514918688168 -0.0032769315542927001 0 -0.050125919595976176 -0.0037093643802672918 0 -0.050125919595976176 -0.0037093643802672918 0 -0.050135022475750912 -0.0041286521373399944 0 -0.050504810985205068 -0.0040568007059983754 0 -0.050663650389465062 -0.0036467592035523506 0 -0.050125919595976176 -0.0037093643802672918 0 -0.050504810985205068 -0.0040568007059983754 0 -0.049828108479347114 -0.0039762136294005448 0 -0.050125919595976176 -0.0037093643802672918 0 -0.050135022475750912 -0.0041286521373399944 0 -0.049660899868130763 -0.0036722877144859537 0 -0.049828108479347114 -0.0039762136294005448 0 -0.050125919595976176 -0.0037093643802672918 0 -0.049719943890930922 -0.0042893959342045112 0 -0.049828108479347114 -0.0039762136294005448 0 -0.050135022475750912 -0.0041286521373399944 0 -0.049719943890930922 -0.0042893959342045112 0 -0.049879859054006319 -0.0044829044122147617 0 -0.050135022475750912 -0.0041286521373399944 0 -0.050284140596708396 -0.0045227143727679464 0 -0.049879859054006319 -0.0044829044122147617 0 -0.050135022475750912 -0.0041286521373399944 0 -0.0504256774759076 -0.0044026960077816141 0 -0.050135022475750912 -0.0041286521373399944 0 -0.050504810985205068 -0.0040568007059983754 0 -0.0504256774759076 -0.0044026960077816141 0 -0.050296855434972615 -0.0044705478994380345 0 -0.050135022475750912 -0.0041286521373399944 0 -0.055120327270368363 -0.0027021622260945716 0 -0.054976926876325653 -0.002721834736843494 0 -0.0504256774759076 -0.0044026960077816141 0 -0.050504810985205068 -0.0040568007059983754 0 -0.050687459591535304 -0.0042973413474207264 0 -0.050504810985205068 -0.0040568007059983754 0 -0.050687459591535304 -0.0042973413474207264 0 -0.050940798765661099 -0.0040812169815355572 0 -0.050975907375310207 -0.004416437608947707 0 -0.050687459591535304 -0.0042973413474207264 0 -0.050940798765661099 -0.0040812169815355572 0 -0.050975907375310207 -0.004416437608947707 0 -0.051299910625311605 -0.0043969231606723613 0 -0.050940798765661099 -0.0040812169815355572 0 -0.051299910625311605 -0.0043969231606723613 0 -0.051463203519581918 -0.0039968750450944902 0 -0.050940798765661099 -0.0040812169815355572 0 -0.051463203519581918 -0.0039968750450944902 0 -0.051140778477647295 -0.0035042014657995272 0 -0.050940798765661099 -0.0040812169815355572 0 -0.051140778477647295 -0.0035042014657995272 0 -0.050663650389465062 -0.0036467592035523506 0 -0.050940798765661099 -0.0040812169815355572 0 -0.050663650389465062 -0.0036467592035523506 0 -0.050504810985205068 -0.0040568007059983754 0 -0.050940798765661099 -0.0040812169815355572 0 -0.051347368754081371 0.00016575447870360299 0 -0.054826883917582517 -4.6559983275551094e-07 0 -0.047324025815357419 2.9118969309826401e-06 0 -0.051347368754081371 0.00016575447870360299 0 -0.049572375840192799 0.00023444196731730555 0 -0.049240937043433797 0.00018687620635552199 0 -0.053325049645909207 0.00080119255637251777 0 -0.052594814732139658 0.00081247356143895172 0 -0.051347368754081371 0.00016575447870360299 0 -0.052814198937040056 0.00018100841722827222 0 -0.049572375840192799 0.00023444196731730555 0 -0.049529074670478013 0.00028599667209101669 0 -0.049421343487415281 0.00044392485338518858 0 -0.049572375840192799 0.00023444196731730555 0 -0.049529074670478013 0.00028599667209101669 0 -0.049421343487415281 0.00044392485338518858 0 -0.04973053724088132 0.00058680968817556968 0 -0.051347368754081371 0.00016575447870360299 0 -0.052814198937040056 0.00018100841722827222 0 -0.054734071315812788 0.00016846560352997867 0 -0.052814198937040056 0.00018100841722827222 0 -0.055723879872678454 0.00032206859350135565 0 -0.054734071315812788 0.00016846560352997867 0 -0.049433919542464066 0.00091336187540317932 0 -0.049753290444620887 0.00096451897599804978 0 -0.04973053724088132 0.00058680968817556968 0 -0.053325049645909207 0.00080119255637251777 0 -0.055320901218742301 0.00052175817677049222 0 -0.049421343487415281 0.00044392485338518858 0 -0.049433919542464066 0.00091336187540317932 0 -0.04973053724088132 0.00058680968817556968 0 -0.055723879872678454 0.00032206859350135565 0 -0.057069657376148074 8.1119173380389453e-05 0 -0.057101704250343673 -0.00049496789286253675 0 -0.055320901218742301 0.00052175817677049222 0 -0.058927564202322168 -0.00065942048009441829 0 -0.049433919542464066 0.00091336187540317932 0 -0.049626807328699819 0.0012201942205706284 0 -0.049457288525781004 0.0015344351561173961 0 -0.049433919542464066 0.00091336187540317932 0 -0.049626807328699819 0.0012201942205706284 0 -0.049753290444620887 0.00096451897599804978 0 -0.055723879872678454 0.00032206859350135565 0 -0.057069657376148074 8.1119173380389453e-05 0 -0.054734071315812788 0.00016846560352997867 0 -0.054734071315812788 0.00016846560352997867 0 -0.054826883917582517 -4.6559983275551094e-07 0 -0.057581037683312429 -0.00011420522806905836 0 -0.057069657376148074 8.1119173380389453e-05 0 -0.054734071315812788 0.00016846560352997867 0 -0.057581037683312429 -0.00011420522806905836 0 -0.051347368754081371 0.00016575447870360299 0 -0.054734071315812788 0.00016846560352997867 0 -0.054826883917582517 -4.6559983275551094e-07 0 -0.054826883917582517 -4.6559983275551094e-07 0 -0.057581037683312429 -0.00011420522806905836 0 -0.062397902701322207 6.7607685214569118e-05 0 -0.054826883917582517 -4.6559983275551094e-07 0 -0.06499585261838256 2.4896091754552979e-07 0 -0.062397902701322207 6.7607685214569118e-05 0 -0.057581037683312429 -0.00011420522806905836 0 -0.062397902701322207 6.7607685214569118e-05 0 -0.058934665383903594 -0.00046924064259564174 0 -0.06499585261838256 2.4896091754552979e-07 0 -0.062397902701322207 6.7607685214569118e-05 0 -0.064993523396287223 5.2984109293291973e-07 0 -0.062397902701322207 6.7607685214569118e-05 0 -0.062680350129342158 0.00017696849954553943 0 -0.061293636584004024 -3.8130435797657695e-05 0 -0.062397902701322207 6.7607685214569118e-05 0 -0.064993523396287223 5.2984109293291973e-07 0 -0.062680350129342158 0.00017696849954553943 0 -0.064999962197526406 4.5016161498747289e-09 0 -0.064969569703563407 -1.0380111165222859e-05 0 -0.064989320378644258 -5.1094673459265443e-06 0 -0.064995411070620998 1.0721395848033706e-06 0 -0.062461350689672818 0.00022147728984002181 0 -0.062680350129342158 0.00017696849954553943 0 -0.061293636584004024 -3.8130435797657695e-05 0 -0.061306992491627979 -0.00082419174550977311 0 -0.062461350689672818 0.00022147728984002181 0 -0.058927564202322168 -0.00065942048009441829 0 -0.064969569703563407 -1.0380111165222859e-05 0 -0.064945194787389235 -4.0659033395212944e-05 0 -0.064970888461924975 -2.2663255468021808e-05 0 -0.064945194787389235 -4.0659033395212944e-05 0 -0.064963487749072513 -4.0753129465225217e-05 0 -0.064970888461924975 -2.2663255468021808e-05 0 -0.062397902701322207 6.7607685214569118e-05 0 -0.061293636584004024 -3.8130435797657695e-05 0 -0.058934665383903594 -0.00046924064259564174 0 -0.061293636584004024 -3.8130435797657695e-05 0 -0.058934665383903594 -0.00046924064259564174 0 -0.061306992491627979 -0.00082419174550977311 0 -0.058994473596885769 -0.0006490742526335853 0 -0.058927564202322168 -0.00065942048009441829 0 -0.057069657376148074 8.1119173380389453e-05 0 -0.058934665383903594 -0.00046924064259564174 0 -0.057101704250343673 -0.00049496789286253675 0 -0.057069657376148074 8.1119173380389453e-05 0 -0.057581037683312429 -0.00011420522806905836 0 -0.058934665383903594 -0.00046924064259564174 0 -0.049457288525781004 0.0015344351561173961 0 -0.049650181249539703 0.00146373089168073 0 -0.049719551240610844 0.0015452971554254392 0 -0.058927564202322168 -0.00065942048009441829 0 -0.059689751116590854 -0.00025570736194534922 0 -0.049626807328699819 0.0012201942205706284 0 -0.049457288525781004 0.0015344351561173961 0 -0.049650181249539703 0.00146373089168073 0 -0.05015069129699113 0.0014714735116530266 0 -0.049675527729804388 0.0015935169342921034 0 -0.050784054635925717 0.0017058638575520749 0 -0.059689751116590854 -0.00025570736194534922 0 -0.058562753920324478 0.00021251269044027265 0 -0.049867281245025992 0.0012535973385036385 0 -0.05015069129699113 0.0014714735116530266 0 -0.049675527729804388 0.0015935169342921034 0 -0.049626807328699819 0.0012201942205706284 0 -0.049650181249539703 0.00146373089168073 0 -0.049867281245025992 0.0012535973385036385 0 -0.049650181249539703 0.00146373089168073 0 -0.049867281245025992 0.0012535973385036385 0 -0.049675527729804388 0.0015935169342921034 0 -0.059525422475318272 -0.00033613516435963592 0 -0.059689751116590854 -0.00025570736194534922 0 -0.05015069129699113 0.0014714735116530266 0 -0.050784054635925717 0.0017058638575520749 0 -0.050631432040143726 7.6722356516109293e-05 0 -0.064887188079226804 -7.7188066213227697e-05 0 -0.064868479423672465 -2.4153060626643307e-05 0 -0.064935051475682098 -2.816501743322036e-05 0 -0.059689751116590854 -0.00025570736194534922 0 -0.062809450139039727 0.00049755472331148285 0 -0.064800793366658296 -8.6359821504792528e-05 0 -0.064887188079226804 -7.7188066213227697e-05 0 -0.064868479423672465 -2.4153060626643307e-05 0 -0.064963487749072513 -4.0753129465225217e-05 0 -0.064987881255964164 -1.8273825349720388e-05 0 -0.064970888461924975 -2.2663255468021808e-05 0 -0.064969569703563407 -1.0380111165222859e-05 0 -0.064970888461924975 -2.2663255468021808e-05 0 -0.064989320378644258 -5.1094673459265443e-06 0 -0.064987881255964164 -1.8273825349720388e-05 0 -0.064970888461924975 -2.2663255468021808e-05 0 -0.064989320378644258 -5.1094673459265443e-06 0 -0.064868479423672465 -2.4153060626643307e-05 0 -0.064935920340318906 6.4699865854931805e-06 0 -0.064935051475682098 -2.816501743322036e-05 0 -0.062809450139039727 0.00049755472331148285 0 -0.064174184513794127 0.00032298733653568523 0 -0.064987881255964164 -1.8273825349720388e-05 0 -0.064989320378644258 -5.1094673459265443e-06 0 -0.064999372923248144 -3.8987545701551171e-06 0 -0.064999372923248144 -3.8987545701551171e-06 0 -0.064999998864219213 -1.6766895122863917e-09 0 -0.065000002238580837 -4.738776419244342e-10 0 -0.064989320378644258 -5.1094673459265443e-06 0 -0.064999372923248144 -3.8987545701551171e-06 0 -0.064999998864219213 -1.6766895122863917e-09 0 -0.064999962197526406 4.5016161498747289e-09 0 -0.064989320378644258 -5.1094673459265443e-06 0 -0.064999998864219213 -1.6766895122863917e-09 0 -0.064989160073307017 7.2546044736171673e-06 0 -0.064999837937541383 8.5637728349662409e-08 0 -0.064974730924365995 5.4210292975851493e-07 0 -0.064989160073307017 7.2546044736171673e-06 0 -0.064999837937541383 8.5637728349662409e-08 0 -0.065000124518283492 -6.7543297746727865e-08 0 -0.064935920340318906 6.4699865854931805e-06 0 -0.064999837937541383 8.5637728349662409e-08 0 -0.064974730924365995 5.4210292975851493e-07 0 -0.064174184513794127 0.00032298733653568523 0 -0.064998417639701683 9.423084040729981e-07 0 -0.064935920340318906 6.4699865854931805e-06 0 -0.064974730924365995 5.4210292975851493e-07 0 -0.064935051475682098 -2.816501743322036e-05 0 -0.064989160073307017 7.2546044736171673e-06 0 -0.064974730924365995 5.4210292975851493e-07 0 -0.064982957225630689 2.2790950226678091e-05 0 -0.064974730924365995 5.4210292975851493e-07 0 -0.064965144982031084 -2.9103520290877956e-05 0 -0.064935051475682098 -2.816501743322036e-05 0 -0.064974730924365995 5.4210292975851493e-07 0 -0.064965144982031084 -2.9103520290877956e-05 0 -0.064983477963695177 -1.4275852223526562e-05 0 -0.064887188079226804 -7.7188066213227697e-05 0 -0.064935051475682098 -2.816501743322036e-05 0 -0.064943166282564496 -5.7664769354584017e-05 0 -0.064965144982031084 -2.9103520290877956e-05 0 -0.064935051475682098 -2.816501743322036e-05 0 -0.064943166282564496 -5.7664769354584017e-05 0 -0.050784054635925717 0.0017058638575520749 0 -0.052299598772929848 0.0017466760263559413 0 -0.051571984995899073 0.00092897390927317133 0 -0.058562753920324478 0.00021251269044027265 0 -0.058745234728800555 0.00044967097734293249 0 -0.052299598772929848 0.0017466760263559413 0 -0.052387960257120475 0.0011269237929895995 0 -0.051571984995899073 0.00092897390927317133 0 -0.052299598772929848 0.0017466760263559413 0 -0.052387960257120475 0.0011269237929895995 0 -0.053405329161190535 0.0016827289076119174 0 -0.058745234728800555 0.00044967097734293249 0 -0.059184216870729216 0.00053542127258996081 0 -0.052299598772929848 0.0017466760263559413 0 -0.053405329161190535 0.0016827289076119174 0 -0.053742779338635187 0.0017325046229698078 0 -0.052387960257120475 0.0011269237929895995 0 -0.053405329161190535 0.0016827289076119174 0 -0.052262510234018254 0.00015013839288678383 0 -0.064965144982031084 -2.9103520290877956e-05 0 -0.064943166282564496 -5.7664769354584017e-05 0 -0.064975252984565954 -4.5788113665163405e-05 0 -0.053405329161190535 0.0016827289076119174 0 -0.053439179686022104 0.00045351401547900899 0 -0.05262025003131033 0.00046628120677309173 0 -0.05214509485321412 0.0014876085176747512 0 -0.051435474869570043 0.0010488338382123364 0 -0.053439179686022104 0.00045351401547900899 0 -0.052981704041826651 -0.00011305188953294561 0 -0.053194841376094044 -0.00071457688158488785 0 -0.056669248181573768 -5.5249866789322791e-05 0 -0.055896229508114396 -0.00048107406892945937 0 -0.053439179686022104 0.00045351401547900899 0 -0.052981704041826651 -0.00011305188953294561 0 -0.05262025003131033 0.00046628120677309173 0 -0.053488003197646981 0.00041701039611757472 0 -0.053194841376094044 -0.00071457688158488785 0 -0.053532158265976279 -0.0007345005688795573 0 -0.052981704041826651 -0.00011305188953294561 0 -0.052599434873869602 -0.00038101784159797635 0 -0.052878146665663067 -0.00049957437100909055 0 -0.052981704041826651 -0.00011305188953294561 0 -0.053194841376094044 -0.00071457688158488785 0 -0.052878146665663067 -0.00049957437100909055 0 -0.052599434873869602 -0.00038101784159797635 0 -0.05262025003131033 0.00046628120677309173 0 -0.051853404148359913 -0.00064631928563590037 0 -0.051435474869570043 0.0010488338382123364 0 -0.049982070698614642 0.0010712093254901522 0 -0.052981704041826651 -0.00011305188953294561 0 -0.052599434873869602 -0.00038101784159797635 0 -0.05262025003131033 0.00046628120677309173 0 -0.052262510234018254 0.00015013839288678383 0 -0.051571984995899073 0.00092897390927317133 0 -0.050631432040143726 7.6722356516109293e-05 0 -0.052387960257120475 0.0011269237929895995 0 -0.052262510234018254 0.00015013839288678383 0 -0.051571984995899073 0.00092897390927317133 0 -0.050784054635925717 0.0017058638575520749 0 -0.051571984995899073 0.00092897390927317133 0 -0.050631432040143726 7.6722356516109293e-05 0 -0.050133267251074677 0.00097338308619871524 0 -0.050180598770451605 0.00075568978001751795 0 -0.049867281245025992 0.0012535973385036385 0 -0.05015069129699113 0.0014714735116530266 0 -0.050088817853911505 0.00092709932493561598 0 -0.049867281245025992 0.0012535973385036385 0 -0.050088817853911505 0.00092709932493561598 0 -0.049753290444620887 0.00096451897599804978 0 -0.049626807328699819 0.0012201942205706284 0 -0.049867281245025992 0.0012535973385036385 0 -0.049753290444620887 0.00096451897599804978 0 -0.050088817853911505 0.00092709932493561598 0 -0.049753290444620887 0.00096451897599804978 0 -0.04973053724088132 0.00058680968817556968 0 -0.052262510234018254 0.00015013839288678383 0 -0.050631432040143726 7.6722356516109293e-05 0 -0.051165786298493811 -0.0013485461092709889 0 -0.050088817853911505 0.00092709932493561598 0 -0.050131774427240254 0.00056434851865059285 0 -0.04973053724088132 0.00058680968817556968 0 -0.050180598770451605 0.00075568978001751795 0 -0.049982070698614642 0.0010712093254901522 0 -0.049982070698614642 0.0010712093254901522 0 -0.048709030519255424 0.0020339146168978886 0 -0.050131774427240254 0.00056434851865059285 0 -0.04973053724088132 0.00058680968817556968 0 -0.04974638270633177 0.00024033330098647906 0 -0.049529074670478013 0.00028599667209101669 0 -0.04973053724088132 0.00058680968817556968 0 -0.04974638270633177 0.00024033330098647906 0 -0.04766151516858403 0.0065701752046993739 0 -0.046526131717268798 0.0050328227869556675 0 -0.048275234663828395 0.004952488258913988 0 -0.052316631574592661 -0.0018336171161307563 0 -0.052643746615800159 -0.001266668642638796 0 -0.053132234808453069 -0.0018757203264340939 0 -0.051853404148359913 -0.00064631928563590037 0 -0.052316631574592661 -0.0018336171161307563 0 -0.052643746615800159 -0.001266668642638796 0 -0.049982070698614642 0.0010712093254901522 0 -0.050649266582261189 0.001049327852297358 0 -0.053132234808453069 -0.0018757203264340939 0 -0.053048681110189254 -0.0010773108688073936 0 -0.053532158265976279 -0.0007345005688795573 0 -0.052643746615800159 -0.001266668642638796 0 -0.053132234808453069 -0.0018757203264340939 0 -0.053048681110189254 -0.0010773108688073936 0 -0.054121731963636295 -0.0034211755253194605 0 -0.055831904378224266 -0.0031206126217576641 0 -0.058120593180361432 -0.0081878355310722496 0 -0.058802951206356056 -0.0063639981699079081 0 -0.059004270981612289 -0.0072389175133140433 0 -0.053048681110189254 -0.0010773108688073936 0 -0.053194841376094044 -0.00071457688158488785 0 -0.052738242535247566 -0.00078919909328034903 0 -0.052643746615800159 -0.001266668642638796 0 -0.053048681110189254 -0.0010773108688073936 0 -0.052738242535247566 -0.00078919909328034903 0 -0.053048681110189254 -0.0010773108688073936 0 -0.053194841376094044 -0.00071457688158488785 0 -0.053532158265976279 -0.0007345005688795573 0 -0.053194841376094044 -0.00071457688158488785 0 -0.052878146665663067 -0.00049957437100909055 0 -0.052738242535247566 -0.00078919909328034903 0 -0.052599434873869602 -0.00038101784159797635 0 -0.052878146665663067 -0.00049957437100909055 0 -0.052738242535247566 -0.00078919909328034903 0 -0.051853404148359913 -0.00064631928563590037 0 -0.052643746615800159 -0.001266668642638796 0 -0.052738242535247566 -0.00078919909328034903 0 -0.052599434873869602 -0.00038101784159797635 0 -0.051853404148359913 -0.00064631928563590037 0 -0.052738242535247566 -0.00078919909328034903 0 -0.060843855406469617 -0.0071748504955763057 0 -0.061889783772922022 -0.0062744649245397516 0 -0.062754206264487772 -0.0057618725259902474 0 -0.0581961124056012 -0.0082005770615579832 0 -0.058090808216633899 -0.0081808196017839601 0 -0.058049818460893118 -0.0082865294056864124 0 -0.059767581273121456 -0.0061895110816911564 0 -0.061370446999217246 -0.0042653351237089826 0 -0.060843855406469617 -0.0071748504955763057 0 -0.060663747576145927 -0.0064169406559390638 0 -0.059774519680886484 -0.0070109708591700294 0 -0.060843855406469617 -0.0071748504955763057 0 -0.061889783772922022 -0.0062744649245397516 0 -0.060663747576145927 -0.0064169406559390638 0 -0.0581961124056012 -0.0082005770615579832 0 -0.058090808216633899 -0.0081808196017839601 0 -0.05812475814849085 -0.0080976570925943483 0 -0.061889783772922022 -0.0062744649245397516 0 -0.061090815277326439 -0.0058580551633954344 0 -0.061634121495599214 -0.0054942786556132946 0 -0.061889783772922022 -0.0062744649245397516 0 -0.062190177069391457 -0.0055689154561631843 0 -0.061634121495599214 -0.0054942786556132946 0 -0.061889783772922022 -0.0062744649245397516 0 -0.061090815277326439 -0.0058580551633954344 0 -0.060663747576145927 -0.0064169406559390638 0 -0.061090815277326439 -0.0058580551633954344 0 -0.060663747576145927 -0.0064169406559390638 0 -0.060449150349705945 -0.005844645355006649 0 -0.060449150349705945 -0.005844645355006649 0 -0.059823494756530246 -0.0058792011459441757 0 -0.059908238035460935 -0.0063661365366345255 0 -0.059823494756530246 -0.0058792011459441757 0 -0.059908238035460935 -0.0063661365366345255 0 -0.059403063864359729 -0.0066120174166455093 0 -0.060663747576145927 -0.0064169406559390638 0 -0.060449150349705945 -0.005844645355006649 0 -0.059908238035460935 -0.0063661365366345255 0 -0.059823494756530246 -0.0058792011459441757 0 -0.058802951206356056 -0.0063639981699079081 0 -0.059403063864359729 -0.0066120174166455093 0 -0.058802951206356056 -0.0063639981699079081 0 -0.059403063864359729 -0.0066120174166455093 0 -0.059004270981612289 -0.0072389175133140433 0 -0.059403063864359729 -0.0066120174166455093 0 -0.059774519680886484 -0.0070109708591700294 0 -0.059004270981612289 -0.0072389175133140433 0 -0.060663747576145927 -0.0064169406559390638 0 -0.059908238035460935 -0.0063661365366345255 0 -0.059774519680886484 -0.0070109708591700294 0 -0.059908238035460935 -0.0063661365366345255 0 -0.059403063864359729 -0.0066120174166455093 0 -0.059774519680886484 -0.0070109708591700294 0 -0.060843855406469617 -0.0071748504955763057 0 -0.059774519680886484 -0.0070109708591700294 0 -0.058567579625685914 -0.0080468329322995781 0 -0.058567579625685914 -0.0080468329322995781 0 -0.058171876262195117 -0.0080189602094245405 0 -0.058199528527719563 -0.0079703119183868795 0 -0.0581961124056012 -0.0082005770615579832 0 -0.058567579625685914 -0.0080468329322995781 0 -0.058171876262195117 -0.0080189602094245405 0 -0.059767581273121456 -0.0061895110816911564 0 -0.05928754525948135 -0.006740166521007205 0 -0.059774519680886484 -0.0070109708591700294 0 -0.059004270981612289 -0.0072389175133140433 0 -0.058567579625685914 -0.0080468329322995781 0 -0.058120593180361432 -0.0081878355310722496 0 -0.059004270981612289 -0.0072389175133140433 0 -0.058567579625685914 -0.0080468329322995781 0 -0.058171876262195117 -0.0080189602094245405 0 -0.05812475814849085 -0.0080976570925943483 0 -0.058060895670850203 -0.0080236809220822543 0 -0.0581961124056012 -0.0082005770615579832 0 -0.058171876262195117 -0.0080189602094245405 0 -0.05812475814849085 -0.0080976570925943483 0 -0.061014832158279624 -0.0035746407382850052 0 -0.061162767926523712 -0.0035639729683890598 0 -0.061207372974000432 -0.0033348217332982897 0 -0.058090808216633899 -0.0081808196017839601 0 -0.05812475814849085 -0.0080976570925943483 0 -0.058060895670850203 -0.0080236809220822543 0 -0.061749256257016411 -0.0031564513997812474 0 -0.061705021171800621 -0.0032281624960478102 0 -0.061162767926523712 -0.0035639729683890598 0 -0.061207372974000432 -0.0033348217332982897 0 -0.061369591094165045 -0.0036269862635723389 0 -0.061517865085546977 -0.0031942538591000652 0 -0.061083869621825847 -0.0029787492467529893 0 -0.061369591094165045 -0.0036269862635723389 0 -0.061517865085546977 -0.0031942538591000652 0 -0.061369591094165045 -0.0036269862635723389 0 -0.061573282259852986 -0.0036652636250505029 0 -0.061083869621825847 -0.0029787492467529893 0 -0.061380539628969735 -0.0024492087253742178 0 -0.060759677308384538 -0.0022187038415099549 0 -0.061517865085546977 -0.0031942538591000652 0 -0.061722109610112888 -0.0026896063410635977 0 -0.061083869621825847 -0.0029787492467529893 0 -0.061722109610112888 -0.0026896063410635977 0 -0.061083869621825847 -0.0029787492467529893 0 -0.061380539628969735 -0.0024492087253742178 0 -0.061722109610112888 -0.0026896063410635977 0 -0.061380539628969735 -0.0024492087253742178 0 -0.061736840780465201 -0.0022587669277713733 0 -0.060160448215851203 -0.0055114063213091364 0 -0.061758954323256982 -0.0037569134606773059 0 -0.061749256257016411 -0.0031564513997812474 0 -0.062087382936408766 -0.0033412558397932597 0 -0.061207372974000432 -0.0033348217332982897 0 -0.061045454863697099 -0.0030494935796351653 0 -0.061077755529868751 -0.0030233423798945009 0 -0.061014832158279624 -0.0035746407382850052 0 -0.061207372974000432 -0.0033348217332982897 0 -0.061045454863697099 -0.0030494935796351653 0 -0.058090808216633899 -0.0081808196017839601 0 -0.058060895670850203 -0.0080236809220822543 0 -0.058027827081734727 -0.0083045369677620176 0 -0.058090808216633899 -0.0081808196017839601 0 -0.058049818460893118 -0.0082865294056864124 0 -0.058027827081734727 -0.0083045369677620176 0 -0.061364454106844539 -0.0043402275191162173 0 -0.061370446999217246 -0.0042653351237089826 0 -0.061889783772922022 -0.0062744649245397516 0 -0.06260902666686935 -0.0057751028121454714 0 -0.062190177069391457 -0.0055689154561631843 0 -0.062190177069391457 -0.0055689154561631843 0 -0.062415551119116452 -0.0052607567479948936 0 -0.062577102781912433 -0.0054743530801638829 0 -0.06260902666686935 -0.0057751028121454714 0 -0.062190177069391457 -0.0055689154561631843 0 -0.062577102781912433 -0.0054743530801638829 0 -0.062190177069391457 -0.0055689154561631843 0 -0.062415551119116452 -0.0052607567479948936 0 -0.062018807124806619 -0.0050435630323518981 0 -0.062415551119116452 -0.0052607567479948936 0 -0.062822154120353343 -0.0051073952345829145 0 -0.062402871014167263 -0.0049826842768442032 0 -0.062415551119116452 -0.0052607567479948936 0 -0.062402871014167263 -0.0049826842768442032 0 -0.062018807124806619 -0.0050435630323518981 0 -0.062415551119116452 -0.0052607567479948936 0 -0.062822154120353343 -0.0051073952345829145 0 -0.062577102781912433 -0.0054743530801638829 0 -0.062149828357736046 -0.0033571926567627988 0 -0.061758954323256982 -0.0037569134606773059 0 -0.062822154120353343 -0.0051073952345829145 0 -0.062577102781912433 -0.0054743530801638829 0 -0.062819698661288878 -0.0055861670724557796 0 -0.062274528486015154 -0.0041089641591002916 0 -0.062424036774081718 -0.0019749477021710959 0 -0.061642400828931021 -0.0026145554029626769 0 -0.061758954323256982 -0.0037569134606773059 0 -0.062087382936408766 -0.0033412558397932597 0 -0.06260902666686935 -0.0057751028121454714 0 -0.062577102781912433 -0.0054743530801638829 0 -0.062819698661288878 -0.0055861670724557796 0 -0.061370446999217246 -0.0042653351237089826 0 -0.061758954323256982 -0.0037569134606773059 0 -0.062149828357736046 -0.0033571926567627988 0 -0.062087382936408766 -0.0033412558397932597 0 -0.062087382936408766 -0.0033412558397932597 0 -0.063236883150498649 -0.0017958901126601532 0 -0.065058456036172801 0.00092902485580989374 0 -0.065019244618408481 0.00080019555242356714 0 -0.064905054431356052 0.00080981862714647095 0 -0.065075294509361697 0.00089062339336376311 0 -0.065058456036172801 0.00092902485580989374 0 -0.065019244618408481 0.00080019555242356714 0 -0.062822154120353343 -0.0051073952345829145 0 -0.062283253864286639 -0.0045062215888270526 0 -0.062402871014167263 -0.0049826842768442032 0 -0.062283253864286639 -0.0045062215888270526 0 -0.062402871014167263 -0.0049826842768442032 0 -0.062018807124806619 -0.0050435630323518981 0 -0.060759677308384538 -0.0022187038415099549 0 -0.06152841197193832 -0.001788140803289763 0 -0.061609975739614894 -0.001678367821124528 0 -0.060759677308384538 -0.0022187038415099549 0 -0.061439148244215973 -0.0021274469418053762 0 -0.06152841197193832 -0.001788140803289763 0 -0.062087382936408766 -0.0033412558397932597 0 -0.06283055771062053 -0.0018855365595582664 0 -0.062092643509762457 -0.0027457613229351736 0 -0.062831098487256293 -0.0021323305418940973 0 -0.063164864627041684 -0.0020653894477780784 0 -0.061439148244215973 -0.0021274469418053762 0 -0.061736840780465201 -0.0022587669277713733 0 -0.061794711689777182 -0.0018980194331699614 0 -0.061380539628969735 -0.0024492087253742178 0 -0.061439148244215973 -0.0021274469418053762 0 -0.061736840780465201 -0.0022587669277713733 0 -0.061380539628969735 -0.0024492087253742178 0 -0.060759677308384538 -0.0022187038415099549 0 -0.061439148244215973 -0.0021274469418053762 0 -0.061439148244215973 -0.0021274469418053762 0 -0.06152841197193832 -0.001788140803289763 0 -0.061794711689777182 -0.0018980194331699614 0 -0.062821151956801297 -0.0018909981110540495 0 -0.06283055771062053 -0.0018855365595582664 0 -0.06152841197193832 -0.001788140803289763 0 -0.061612440566184895 -0.0016725323166613434 0 -0.061794711689777182 -0.0018980194331699614 0 -0.064905054431356052 0.00080981862714647095 0 -0.064892878143510996 0.00060023392816429264 0 -0.064730672733591274 0.00068741820576780641 0 -0.064905054431356052 0.00080981862714647095 0 -0.064974507343069671 0.00070030258681238122 0 -0.064892878143510996 0.00060023392816429264 0 -0.062831098487256293 -0.0021323305418940973 0 -0.063164864627041684 -0.0020653894477780784 0 -0.063569381211383849 -0.0015196904191295292 0 -0.063236883150498649 -0.0017958901126601532 0 -0.06339430165974648 -0.0012175135289355806 0 -0.065019244618408481 0.00080019555242356714 0 -0.064905054431356052 0.00080981862714647095 0 -0.064974507343069671 0.00070030258681238122 0 -0.064974507343069671 0.00070030258681238122 0 -0.065080168426898899 0.00060958585510141215 0 -0.064892878143510996 0.00060023392816429264 0 -0.064892878143510996 0.00060023392816429264 0 -0.064785370679692034 0.00057680847966517406 0 -0.064730672733591274 0.00068741820576780641 0 -0.062149828357736046 -0.0033571926567627988 0 -0.063477750457935175 -0.0017674960379634396 0 -0.065019244618408481 0.00080019555242356714 0 -0.064974507343069671 0.00070030258681238122 0 -0.065080168426898899 0.00060958585510141215 0 -0.062822154120353343 -0.0051073952345829145 0 -0.062283253864286639 -0.0045062215888270526 0 -0.062116399468543963 -0.0033714394451070029 0 -0.065075294509361697 0.00089062339336376311 0 -0.065019244618408481 0.00080019555242356714 0 -0.065080168426898899 0.00060958585510141215 0 -0.062149828357736046 -0.0033571926567627988 0 -0.062434118322833992 -0.0034389359413491186 0 -0.064388562344481648 -0.0061307580526683168 0 -0.064570293133299095 -0.0037836621330143987 0 -0.063526398433395789 -0.0040876139986815701 0 -0.062116399468543963 -0.0033714394451070029 0 -0.061600251339327852 -0.0036333614334529908 0 -0.061812627801036926 -0.0040033638563993787 0 -0.062116399468543963 -0.0033714394451070029 0 -0.061404937046472638 -0.0032757968852651195 0 -0.061588367587438034 -0.0028882979324720216 0 -0.061404937046472638 -0.0032757968852651195 0 -0.061600251339327852 -0.0036333614334529908 0 -0.061074316612270863 -0.0038347664598999713 0 -0.062116399468543963 -0.0033714394451070029 0 -0.061404937046472638 -0.0032757968852651195 0 -0.061600251339327852 -0.0036333614334529908 0 -0.061600251339327852 -0.0036333614334529908 0 -0.061332757852879803 -0.0040651565672073951 0 -0.061812627801036926 -0.0040033638563993787 0 -0.061600251339327852 -0.0036333614334529908 0 -0.061074316612270863 -0.0038347664598999713 0 -0.061332757852879803 -0.0040651565672073951 0 -0.061074316612270863 -0.0038347664598999713 0 -0.061332757852879803 -0.0040651565672073951 0 -0.060769023159384497 -0.0042964263519609646 0 -0.062283253864286639 -0.0045062215888270526 0 -0.062116399468543963 -0.0033714394451070029 0 -0.061812627801036926 -0.0040033638563993787 0 -0.061332757852879803 -0.0040651565672073951 0 -0.061812627801036926 -0.0040033638563993787 0 -0.061724907430130593 -0.0045005170558846475 0 -0.062283253864286639 -0.0045062215888270526 0 -0.061812627801036926 -0.0040033638563993787 0 -0.061724907430130593 -0.0045005170558846475 0 -0.062283253864286639 -0.0045062215888270526 0 -0.061724907430130593 -0.0045005170558846475 0 -0.062018807124806619 -0.0050435630323518981 0 -0.061724907430130593 -0.0045005170558846475 0 -0.062018807124806619 -0.0050435630323518981 0 -0.06155482941948618 -0.0050153907161000662 0 -0.061332757852879803 -0.0040651565672073951 0 -0.061724907430130593 -0.0045005170558846475 0 -0.061027935351312956 -0.0046979086041859311 0 -0.061332757852879803 -0.0040651565672073951 0 -0.061027935351312956 -0.0046979086041859311 0 -0.060769023159384497 -0.0042964263519609646 0 -0.061724907430130593 -0.0045005170558846475 0 -0.061027935351312956 -0.0046979086041859311 0 -0.06155482941948618 -0.0050153907161000662 0 -0.061027935351312956 -0.0046979086041859311 0 -0.061061795678869039 -0.005282298020866859 0 -0.06155482941948618 -0.0050153907161000662 0 -0.061061795678869039 -0.005282298020866859 0 -0.061634121495599214 -0.0054942786556132946 0 -0.06155482941948618 -0.0050153907161000662 0 -0.061027935351312956 -0.0046979086041859311 0 -0.061061795678869039 -0.005282298020866859 0 -0.060417342623856583 -0.0052837234671473717 0 -0.060449150349705945 -0.005844645355006649 0 -0.061061795678869039 -0.005282298020866859 0 -0.060417342623856583 -0.0052837234671473717 0 -0.061090815277326439 -0.0058580551633954344 0 -0.060449150349705945 -0.005844645355006649 0 -0.061061795678869039 -0.005282298020866859 0 -0.061090815277326439 -0.0058580551633954344 0 -0.061061795678869039 -0.005282298020866859 0 -0.061634121495599214 -0.0054942786556132946 0 -0.062190177069391457 -0.0055689154561631843 0 -0.061634121495599214 -0.0054942786556132946 0 -0.062018807124806619 -0.0050435630323518981 0 -0.061634121495599214 -0.0054942786556132946 0 -0.062018807124806619 -0.0050435630323518981 0 -0.06155482941948618 -0.0050153907161000662 0 -0.053488003197646981 0.00041701039611757472 0 -0.053532158265976279 -0.0007345005688795573 0 -0.053957235478935106 0.00040739518029802218 0 -0.055831904378224266 -0.0031206126217576641 0 -0.05758203512522482 -0.0018098278764774006 0 -0.058802951206356056 -0.0063639981699079081 0 -0.060186217437540185 -0.0050677625469588055 0 -0.060202648784560386 -0.0039959621958064497 0 -0.059823494756530246 -0.0058792011459441757 0 -0.058802951206356056 -0.0063639981699079081 0 -0.060186217437540185 -0.0050677625469588055 0 -0.059823494756530246 -0.0058792011459441757 0 -0.060417342623856583 -0.0052837234671473717 0 -0.060186217437540185 -0.0050677625469588055 0 -0.060449150349705945 -0.005844645355006649 0 -0.059823494756530246 -0.0058792011459441757 0 -0.060417342623856583 -0.0052837234671473717 0 -0.061027935351312956 -0.0046979086041859311 0 -0.060186217437540185 -0.0050677625469588055 0 -0.060769023159384497 -0.0042964263519609646 0 -0.060186217437540185 -0.0050677625469588055 0 -0.060202648784560386 -0.0039959621958064497 0 -0.060769023159384497 -0.0042964263519609646 0 -0.061027935351312956 -0.0046979086041859311 0 -0.060417342623856583 -0.0052837234671473717 0 -0.060186217437540185 -0.0050677625469588055 0 -0.056669248181573768 -5.5249866789322791e-05 0 -0.059184216870729216 0.00053542127258996081 0 -0.053488003197646981 0.00041701039611757472 0 -0.053957235478935106 0.00040739518029802218 0 -0.053756239220640573 0.0015611465801201431 0 -0.05758203512522482 -0.0018098278764774006 0 -0.059937248348752602 0.00052804462329455787 0 -0.061404937046472638 -0.0032757968852651195 0 -0.060202648784560386 -0.0039959621958064497 0 -0.061588367587438034 -0.0028882979324720216 0 -0.061404937046472638 -0.0032757968852651195 0 -0.061074316612270863 -0.0038347664598999713 0 -0.060202648784560386 -0.0039959621958064497 0 -0.061074316612270863 -0.0038347664598999713 0 -0.060202648784560386 -0.0039959621958064497 0 -0.060769023159384497 -0.0042964263519609646 0 -0.053957235478935106 0.00040739518029802218 0 -0.053756239220640573 0.0015611465801201431 0 -0.054359861449425576 0.001561381590335232 0 -0.053405329161190535 0.0016827289076119174 0 -0.053439179686022104 0.00045351401547900899 0 -0.053742779338635187 0.0017325046229698078 0 -0.060202648784560386 -0.0039959621958064497 0 -0.061588367587438034 -0.0028882979324720216 0 -0.061736441842310599 -0.00234563075514961 0 -0.059184216870729216 0.00053542127258996081 0 -0.059937248348752602 0.00052804462329455787 0 -0.064961106680389305 9.1360529563164363e-05 0 -0.064947158630341936 9.1088909495885348e-05 0 -0.064959508315434109 8.075858881663098e-05 0 -0.063526398433395789 -0.0040876139986815701 0 -0.062482736596462751 -0.0019425524066848784 0 -0.063839466532993966 -0.0025783330190190354 0 -0.062434118322833992 -0.0034389359413491186 0 -0.062299801377463951 -0.0028845309987802245 0 -0.062116399468543963 -0.0033714394451070029 0 -0.061972984745734053 -0.0023667128783532191 0 -0.062482736596462751 -0.0019425524066848784 0 -0.062116399468543963 -0.0033714394451070029 0 -0.061588367587438034 -0.0028882979324720216 0 -0.061972984745734053 -0.0023667128783532191 0 -0.061588367587438034 -0.0028882979324720216 0 -0.061972984745734053 -0.0023667128783532191 0 -0.061736441842310599 -0.00234563075514961 0 -0.059949827943643008 0.00052307752154949949 0 -0.059937248348752602 0.00052804462329455787 0 -0.061972984745734053 -0.0023667128783532191 0 -0.061786211848402703 -0.002387887379492578 0 -0.062482736596462751 -0.0019425524066848784 0 -0.061786211848402703 -0.002387887379492578 0 -0.062482736596462751 -0.0019425524066848784 0 -0.063512577546062932 -0.00063904869287665831 0 -0.059937248348752602 0.00052804462329455787 0 -0.061747207854103404 0.000139279083601159 0 -0.064947158630341936 9.1088909495885348e-05 0 -0.064959508315434109 8.075858881663098e-05 0 -0.064948463576536455 5.8045356652273548e-05 0 -0.063641145846289701 -0.0015952093210171796 0 -0.062482736596462751 -0.0019425524066848784 0 -0.063512577546062932 -0.00063904869287665831 0 -0.063641145846289701 -0.0015952093210171796 0 -0.062482736596462751 -0.0019425524066848784 0 -0.063839466532993966 -0.0025783330190190354 0 -0.064970040958494804 6.6828743401615729e-05 0 -0.064959508315434109 8.075858881663098e-05 0 -0.064948463576536455 5.8045356652273548e-05 0 -0.064965144982031084 -2.9103520290877956e-05 0 -0.064975252984565954 -4.5788113665163405e-05 0 -0.064983477963695177 -1.4275852223526562e-05 0 -0.059184216870729216 0.00053542127258996081 0 -0.060761914869180852 0.00063116989811568718 0 -0.064961106680389305 9.1360529563164363e-05 0 -0.064970040958494804 6.6828743401615729e-05 0 -0.064959508315434109 8.075858881663098e-05 0 -0.064974730924365995 5.4210292975851493e-07 0 -0.064983477963695177 -1.4275852223526562e-05 0 -0.064982957225630689 2.2790950226678091e-05 0 -0.064970040958494804 6.6828743401615729e-05 0 -0.064982957225630689 2.2790950226678091e-05 0 -0.064948463576536455 5.8045356652273548e-05 0 -0.060761914869180852 0.00063116989811568718 0 -0.061241930738395449 0.0006322784622057883 0 -0.061747207854103404 0.000139279083601159 0 -0.062368578731503262 0.00018573008951385512 0 -0.064948463576536455 5.8045356652273548e-05 0 -0.064952527871272134 3.3398208465314734e-05 0 -0.064884943844705209 3.306048228618977e-05 0 -0.064982957225630689 2.2790950226678091e-05 0 -0.064948463576536455 5.8045356652273548e-05 0 -0.064952527871272134 3.3398208465314734e-05 0 -0.064982957225630689 2.2790950226678091e-05 0 -0.064969422515807729 1.1010484148790199e-05 0 -0.064952527871272134 3.3398208465314734e-05 0 -0.064969422515807729 1.1010484148790199e-05 0 -0.065000124518283492 -6.7543297746727865e-08 0 -0.064999412989923191 2.279907315129362e-07 0 -0.064969422515807729 1.1010484148790199e-05 0 -0.064952527871272134 3.3398208465314734e-05 0 -0.064884943844705209 3.306048228618977e-05 0 -0.064969422515807729 1.1010484148790199e-05 0 -0.064884943844705209 3.306048228618977e-05 0 -0.064999412989923191 2.279907315129362e-07 0 -0.064989160073307017 7.2546044736171673e-06 0 -0.064982957225630689 2.2790950226678091e-05 0 -0.065000124518283492 -6.7543297746727865e-08 0 -0.064982957225630689 2.2790950226678091e-05 0 -0.064969422515807729 1.1010484148790199e-05 0 -0.065000124518283492 -6.7543297746727865e-08 0 -0.064947564230794022 -4.3225815096261693e-05 0 -0.06499997868751109 -1.7139583916075654e-07 0 -0.064971734212678475 -6.4813432464137381e-05 0 -0.064947564230794022 -4.3225815096261693e-05 0 -0.06499997868751109 -1.7139583916075654e-07 0 -0.064896614821864734 -7.9994293830478645e-05 0 -0.06499997868751109 -1.7139583916075654e-07 0 -0.064999412989923191 2.279907315129362e-07 0 -0.064971734212678475 -6.4813432464137381e-05 0 -0.064884943844705209 3.306048228618977e-05 0 -0.064999412989923191 2.279907315129362e-07 0 -0.064971734212678475 -6.4813432464137381e-05 0 -0.064283504393943397 -0.00041907870682143263 0 -0.064094880923974709 -0.00081070736460003433 0 -0.063512577546062932 -0.00063904869287665831 0 -0.064884943844705209 3.306048228618977e-05 0 -0.064971734212678475 -6.4813432464137381e-05 0 -0.063512577546062932 -0.00063904869287665831 0 -0.064971734212678475 -6.4813432464137381e-05 0 -0.064660165910529324 -0.0014451503691464821 0 -0.064971734212678475 -6.4813432464137381e-05 0 -0.064914248491428878 9.4041623790781822e-05 0 -0.065078422881643019 0.00026132339627835599 0 -0.064947564230794022 -4.3225815096261693e-05 0 -0.064971734212678475 -6.4813432464137381e-05 0 -0.064914248491428878 9.4041623790781822e-05 0 -0.064947564230794022 -4.3225815096261693e-05 0 -0.064914248491428878 9.4041623790781822e-05 0 -0.064896614821864734 -7.9994293830478645e-05 0 -0.064914248491428878 9.4041623790781822e-05 0 -0.064814582325184444 0.00025380205624624266 0 -0.065078422881643019 0.00026132339627835599 0 -0.064814582325184444 0.00025380205624624266 0 -0.065078422881643019 0.00026132339627835599 0 -0.064831626412364271 0.00042156689561785522 0 -0.063641145846289701 -0.0015952093210171796 0 -0.063512577546062932 -0.00063904869287665831 0 -0.064660165910529324 -0.0014451503691464821 0 -0.063641145846289701 -0.0015952093210171796 0 -0.064660165910529324 -0.0014451503691464821 0 -0.063839466532993966 -0.0025783330190190354 0 -0.063477750457935175 -0.0017674960379634396 0 -0.064094880923974709 -0.00081070736460003433 0 -0.064570293133299095 -0.0037836621330143987 0 -0.064660165910529324 -0.0014451503691464821 0 -0.063839466532993966 -0.0025783330190190354 0 -0.065080168426898899 0.00060958585510141215 0 -0.065078422881643019 0.00026132339627835599 0 -0.064892878143510996 0.00060023392816429264 0 -0.064570293133299095 -0.0037836621330143987 0 -0.063526398433395789 -0.0040876139986815701 0 -0.063839466532993966 -0.0025783330190190354 0 -0.065078422881643019 0.00026132339627835599 0 -0.064831626412364271 0.00042156689561785522 0 -0.064892878143510996 0.00060023392816429264 0 -0.064831626412364271 0.00042156689561785522 0 -0.064892878143510996 0.00060023392816429264 0 -0.064785370679692034 0.00057680847966517406 0 -0.063351878435855463 -0.0011596205654311519 0 -0.06339430165974648 -0.0012175135289355806 0 -0.063764438040028015 -0.00049367909877507548 0 -0.06339430165974648 -0.0012175135289355806 0 -0.064695543366695127 0.00053992479496800018 0 -0.064531428454206521 0.0005043381642380831 0 -0.064730672733591274 0.00068741820576780641 0 -0.064785370679692034 0.00057680847966517406 0 -0.064695543366695127 0.00053992479496800018 0 -0.064730672733591274 0.00068741820576780641 0 -0.063212973889919352 -0.0007710079585238743 0 -0.063136274603366627 -0.00069569431918388913 0 -0.062878506080368463 -0.0010518709337005948 0 -0.064831626412364271 0.00042156689561785522 0 -0.064785370679692034 0.00057680847966517406 0 -0.064695543366695127 0.00053992479496800018 0 -0.064695543366695127 0.00053992479496800018 0 -0.064620126482692025 0.00046488912460787704 0 -0.06467623047201182 0.00038294071093605966 0 -0.064695543366695127 0.00053992479496800018 0 -0.064620126482692025 0.00046488912460787704 0 -0.064531428454206521 0.0005043381642380831 0 -0.064580697375903259 0.00042724385219070863 0 -0.064620126482692025 0.00046488912460787704 0 -0.064531428454206521 0.0005043381642380831 0 -0.064580697375903259 0.00042724385219070863 0 -0.064620126482692025 0.00046488912460787704 0 -0.06467623047201182 0.00038294071093605966 0 -0.064831626412364271 0.00042156689561785522 0 -0.064695543366695127 0.00053992479496800018 0 -0.06467623047201182 0.00038294071093605966 0 -0.063201492487956978 -0.001234297560334041 0 -0.06301009203802882 -0.0014448473361113013 0 -0.063212973889919352 -0.0007710079585238743 0 -0.063480099122092307 -0.00072861311495408295 0 -0.06314271034695304 -0.00095099365136113465 0 -0.063480099122092307 -0.00072861311495408295 0 -0.063068633408806182 -0.0011997271007005278 0 -0.062544839756172615 -0.0011088381988044584 0 -0.063136274603366627 -0.00069569431918388913 0 -0.063272241039459304 -0.00067461004010885034 0 -0.063346011228809118 -0.00057993367921948071 0 -0.063212973889919352 -0.0007710079585238743 0 -0.063136274603366627 -0.00069569431918388913 0 -0.063272241039459304 -0.00067461004010885034 0 -0.063212973889919352 -0.0007710079585238743 0 -0.063272241039459304 -0.00067461004010885034 0 -0.063480099122092307 -0.00072861311495408295 0 -0.063272241039459304 -0.00067461004010885034 0 -0.063346011228809118 -0.00057993367921948071 0 -0.063480099122092307 -0.00072861311495408295 0 -0.063136274603366627 -0.00069569431918388913 0 -0.063346011228809118 -0.00057993367921948071 0 -0.063446252416959253 -0.00036159051145673174 0 -0.064531428454206521 0.0005043381642380831 0 -0.064483903276111115 0.00033545341267055505 0 -0.064193341215026914 0.00026744672444321252 0 -0.063764438040028015 -0.00049367909877507548 0 -0.063833609977406794 -0.00028786192257503496 0 -0.064580697375903259 0.00042724385219070863 0 -0.064531428454206521 0.0005043381642380831 0 -0.064483903276111115 0.00033545341267055505 0 -0.064483903276111115 0.00033545341267055505 0 -0.064464544317402089 0.00018831773146696476 0 -0.064193341215026914 0.00026744672444321252 0 -0.064814582325184444 0.00025380205624624266 0 -0.064831626412364271 0.00042156689561785522 0 -0.06467623047201182 0.00038294071093605966 0 -0.064580697375903259 0.00042724385219070863 0 -0.064483903276111115 0.00033545341267055505 0 -0.06467623047201182 0.00038294071093605966 0 -0.064483903276111115 0.00033545341267055505 0 -0.06467623047201182 0.00038294071093605966 0 -0.064676280860472571 0.00020985496618498265 0 -0.064483903276111115 0.00033545341267055505 0 -0.064464544317402089 0.00018831773146696476 0 -0.064676280860472571 0.00020985496618498265 0 -0.064914248491428878 9.4041623790781822e-05 0 -0.064814582325184444 0.00025380205624624266 0 -0.064676280860472571 0.00020985496618498265 0 -0.064814582325184444 0.00025380205624624266 0 -0.06467623047201182 0.00038294071093605966 0 -0.064676280860472571 0.00020985496618498265 0 -0.064701318131723834 6.7572917717119701e-05 0 -0.064399519093876492 8.6555604191864492e-06 0 -0.064896614821864734 -7.9994293830478645e-05 0 -0.064914248491428878 9.4041623790781822e-05 0 -0.064676280860472571 0.00020985496618498265 0 -0.064701318131723834 6.7572917717119701e-05 0 -0.064914248491428878 9.4041623790781822e-05 0 -0.064701318131723834 6.7572917717119701e-05 0 -0.064896614821864734 -7.9994293830478645e-05 0 -0.064464544317402089 0.00018831773146696476 0 -0.064676280860472571 0.00020985496618498265 0 -0.064701318131723834 6.7572917717119701e-05 0 -0.064464544317402089 0.00018831773146696476 0 -0.064193341215026914 0.00026744672444321252 0 -0.064399519093876492 8.6555604191864492e-06 0 -0.064399519093876492 8.6555604191864492e-06 0 -0.064038583574024435 -0.0003152728268218482 0 -0.064896614821864734 -7.9994293830478645e-05 0 -0.064464544317402089 0.00018831773146696476 0 -0.064701318131723834 6.7572917717119701e-05 0 -0.064399519093876492 8.6555604191864492e-06 0 -0.064193341215026914 0.00026744672444321252 0 -0.064104191730373225 -5.4994680670292952e-05 0 -0.064399519093876492 8.6555604191864492e-06 0 -0.064104191730373225 -5.4994680670292952e-05 0 -0.064399519093876492 8.6555604191864492e-06 0 -0.064038583574024435 -0.0003152728268218482 0 -0.064999889515973061 9.5925651162258216e-09 0 -0.065008996647263256 -2.2916823457512646e-05 0 -0.064896614821864734 -7.9994293830478645e-05 0 -0.064563483832538321 -0.00010376302480755952 0 -0.064665336720958588 -0.00010192474238189188 0 -0.06499997868751109 -1.7139583916075654e-07 0 -0.064999889515973061 9.5925651162258216e-09 0 -0.064896614821864734 -7.9994293830478645e-05 0 -0.064999548015885061 -1.7031372107447934e-07 0 -0.06500023653310312 5.9628388568844644e-08 0 -0.065030125877887104 1.9110453970775808e-05 0 -0.064038583574024435 -0.0003152728268218482 0 -0.063707161479900715 -0.0001428359926667433 0 -0.063803903582852275 -0.00018948272973694216 0 -0.065008996647263256 -2.2916823457512646e-05 0 -0.06500023653310312 5.9628388568844644e-08 0 -0.065030125877887104 1.9110453970775808e-05 0 -0.064563483832538321 -0.00010376302480755952 0 -0.064514931935195682 -8.1214929676995637e-05 0 -0.064999889515973061 9.5925651162258216e-09 0 -0.065008996647263256 -2.2916823457512646e-05 0 -0.06500023653310312 5.9628388568844644e-08 0 -0.063833609977406794 -0.00028786192257503496 0 -0.063831379779925465 -0.00026307474171448369 0 -0.064193341215026914 0.00026744672444321252 0 -0.064104191730373225 -5.4994680670292952e-05 0 -0.063808084218868411 -0.00018993693745923272 0 -0.063428397003338313 -0.00037738227295188841 0 -0.063317615438754166 -0.00056911689342699129 0 -0.064038583574024435 -0.0003152728268218482 0 -0.063803903582852275 -0.00018948272973694216 0 -0.063808084218868411 -0.00018993693745923272 0 -0.063803903582852275 -0.00018948272973694216 0 -0.063808084218868411 -0.00018993693745923272 0 -0.063697066481801262 -0.000289525006819361 0 -0.063446252416959253 -0.00036159051145673174 0 -0.063808084218868411 -0.00018993693745923272 0 -0.063697066481801262 -0.000289525006819361 0 -0.063803903582852275 -0.00018948272973694216 0 -0.06379445564622345 -0.00039655963596026079 0 -0.063698093157295146 -0.00051900985412677708 0 -0.063803903582852275 -0.00018948272973694216 0 -0.063697066481801262 -0.000289525006819361 0 -0.063681467915006104 -0.00043563466292067068 0 -0.064104191730373225 -5.4994680670292952e-05 0 -0.064038583574024435 -0.0003152728268218482 0 -0.063808084218868411 -0.00018993693745923272 0 -0.063707161479900715 -0.0001428359926667433 0 -0.063803903582852275 -0.00018948272973694216 0 -0.063799003763102588 -0.00029981059730262502 0 -0.063803903582852275 -0.00018948272973694216 0 -0.06379445564622345 -0.00039655963596026079 0 -0.063799003763102588 -0.00029981059730262502 0 -0.06395187973898038 -0.00033374366683661507 0 -0.063707161479900715 -0.0001428359926667433 0 -0.063799003763102588 -0.00029981059730262502 0 -0.06395187973898038 -0.00033374366683661507 0 -0.063799003763102588 -0.00029981059730262502 0 -0.063855998543624892 -0.00044550985696644553 0 -0.06379445564622345 -0.00039655963596026079 0 -0.063799003763102588 -0.00029981059730262502 0 -0.063855998543624892 -0.00044550985696644553 0 -0.06379445564622345 -0.00039655963596026079 0 -0.063855998543624892 -0.00044550985696644553 0 -0.063821362492821873 -0.00053706080271294484 0 -0.06379445564622345 -0.00039655963596026079 0 -0.063821362492821873 -0.00053706080271294484 0 -0.063698093157295146 -0.00051900985412677708 0 -0.063821362492821873 -0.00053706080271294484 0 -0.063698093157295146 -0.00051900985412677708 0 -0.063794822741112228 -0.00060194989916357092 0 -0.063346011228809118 -0.00057993367921948071 0 -0.063446252416959253 -0.00036159051145673174 0 -0.063681467915006104 -0.00043563466292067068 0 -0.063346011228809118 -0.00057993367921948071 0 -0.063681467915006104 -0.00043563466292067068 0 -0.063480099122092307 -0.00072861311495408295 0 -0.063446252416959253 -0.00036159051145673174 0 -0.063697066481801262 -0.000289525006819361 0 -0.063681467915006104 -0.00043563466292067068 0 -0.063317615438754166 -0.00056911689342699129 0 -0.062964572007563058 -0.0011053518830559691 0 -0.063698093157295146 -0.00051900985412677708 0 -0.063794822741112228 -0.00060194989916357092 0 -0.063701102141440383 -0.00066193248212158707 0 -0.063681467915006104 -0.00043563466292067068 0 -0.063480099122092307 -0.00072861311495408295 0 -0.063564159966946643 -0.0011221348752006625 0 -0.063480099122092307 -0.00072861311495408295 0 -0.063564159966946643 -0.0011221348752006625 0 -0.063068633408806182 -0.0011997271007005278 0 -0.063849166521148706 -0.00058204626843567009 0 -0.063821362492821873 -0.00053706080271294484 0 -0.063794822741112228 -0.00060194989916357092 0 -0.063865441828843114 -0.00057703772523170051 0 -0.063794822741112228 -0.00060194989916357092 0 -0.063785930058269713 -0.00071256132903970554 0 -0.062796570133673582 -0.001397137723889455 0 -0.062473028049476451 -0.0018118119733699905 0 -0.063794822741112228 -0.00060194989916357092 0 -0.063785930058269713 -0.00071256132903970554 0 -0.063701102141440383 -0.00066193248212158707 0 -0.06075723421371939 -0.0024771966191116323 0 -0.06022704676840266 -0.0031802743838450728 0 -0.060795913892190259 -0.0032415644850823425 0 -0.061608529488123578 -0.0026717106232461681 0 -0.06075723421371939 -0.0024771966191116323 0 -0.060795913892190259 -0.0032415644850823425 0 -0.06217789095341384 -0.0023751972816712492 0 -0.062964572007563058 -0.0011053518830559691 0 -0.062473028049476451 -0.0018118119733699905 0 -0.06217789095341384 -0.0023751972816712492 0 -0.063785930058269713 -0.00071256132903970554 0 -0.063677203050811412 -0.00081859261880161882 0 -0.063701102141440383 -0.00066193248212158707 0 -0.06342509767928578 -0.002208284374354288 0 -0.063564159966946643 -0.0011221348752006625 0 -0.063064955410898835 -0.0016116922466958539 0 -0.063564159966946643 -0.0011221348752006625 0 -0.063068633408806182 -0.0011997271007005278 0 -0.063064955410898835 -0.0016116922466958539 0 -0.063068633408806182 -0.0011997271007005278 0 -0.062544839756172615 -0.0011088381988044584 0 -0.062677997865877591 -0.0015146057410683248 0 -0.063068633408806182 -0.0011997271007005278 0 -0.062677997865877591 -0.0015146057410683248 0 -0.063064955410898835 -0.0016116922466958539 0 -0.06283055771062053 -0.0018855365595582664 0 -0.06301009203802882 -0.0014448473361113013 0 -0.061612440566184895 -0.0016725323166613434 0 -0.062544839756172615 -0.0011088381988044584 0 -0.062235762689995512 -0.0016363631644364818 0 -0.063212973889919352 -0.0007710079585238743 0 -0.06314271034695304 -0.00095099365136113465 0 -0.062931782861722199 -0.0010060233990748467 0 -0.062803911175343452 -0.0011811515669124548 0 -0.06314271034695304 -0.00095099365136113465 0 -0.062931782861722199 -0.0010060233990748467 0 -0.062544839756172615 -0.0011088381988044584 0 -0.062677997865877591 -0.0015146057410683248 0 -0.062235762689995512 -0.0016363631644364818 0 -0.06283055771062053 -0.0018855365595582664 0 -0.06339430165974648 -0.0012175135289355806 0 -0.062235762689995512 -0.0016363631644364818 0 -0.061794711689777182 -0.0018980194331699614 0 -0.062164568905917469 -0.002265272819190972 0 -0.061612440566184895 -0.0016725323166613434 0 -0.062235762689995512 -0.0016363631644364818 0 -0.061794711689777182 -0.0018980194331699614 0 -0.062235762689995512 -0.0016363631644364818 0 -0.062164568905917469 -0.002265272819190972 0 -0.062721286339596866 -0.0020699122745558877 0 -0.061736840780465201 -0.0022587669277713733 0 -0.061794711689777182 -0.0018980194331699614 0 -0.062164568905917469 -0.002265272819190972 0 -0.06342509767928578 -0.002208284374354288 0 -0.063064955410898835 -0.0016116922466958539 0 -0.062721286339596866 -0.0020699122745558877 0 -0.062677997865877591 -0.0015146057410683248 0 -0.063064955410898835 -0.0016116922466958539 0 -0.062721286339596866 -0.0020699122745558877 0 -0.062677997865877591 -0.0015146057410683248 0 -0.062235762689995512 -0.0016363631644364818 0 -0.062721286339596866 -0.0020699122745558877 0 -0.060318322503559604 -0.0038042931725715172 0 -0.060426048769403738 -0.0038612733013857524 0 -0.060326233357981852 -0.003752183906441909 0 -0.06217789095341384 -0.0023751972816712492 0 -0.061546568731592484 -0.003168273297270402 0 -0.062164568905917469 -0.002265272819190972 0 -0.062721286339596866 -0.0020699122745558877 0 -0.062520119098133445 -0.0029846614866443359 0 -0.06342509767928578 -0.002208284374354288 0 -0.062721286339596866 -0.0020699122745558877 0 -0.062520119098133445 -0.0029846614866443359 0 -0.061517865085546977 -0.0031942538591000652 0 -0.061722109610112888 -0.0026896063410635977 0 -0.062520119098133445 -0.0029846614866443359 0 -0.061722109610112888 -0.0026896063410635977 0 -0.062164568905917469 -0.002265272819190972 0 -0.062520119098133445 -0.0029846614866443359 0 -0.061722109610112888 -0.0026896063410635977 0 -0.061736840780465201 -0.0022587669277713733 0 -0.062164568905917469 -0.002265272819190972 0 -0.060426048769403738 -0.0038612733013857524 0 -0.060513883712175739 -0.0039090742590603073 0 -0.060669245364147674 -0.0039664173985643732 0 -0.061517865085546977 -0.0031942538591000652 0 -0.062520119098133445 -0.0029846614866443359 0 -0.061573282259852986 -0.0036652636250505029 0 -0.061546568731592484 -0.003168273297270402 0 -0.061238181621384294 -0.0035497165793622549 0 -0.060426048769403738 -0.0038612733013857524 0 -0.060513883712175739 -0.0039090742590603073 0 -0.060400090364197578 -0.0038995054465950159 0 -0.060426048769403738 -0.0038612733013857524 0 -0.060400090364197578 -0.0038995054465950159 0 -0.060326233357981852 -0.003752183906441909 0 -0.060400090364197578 -0.0038995054465950159 0 -0.060437764789915617 -0.00395431669102518 0 -0.060326233357981852 -0.003752183906441909 0 -0.060437764789915617 -0.00395431669102518 0 -0.060560280163006318 -0.003665683279350288 0 -0.060326233357981852 -0.003752183906441909 0 -0.060793514692047822 -0.0037502332264037577 0 -0.060437764789915617 -0.00395431669102518 0 -0.060560280163006318 -0.003665683279350288 0 -0.060793514692047822 -0.0037502332264037577 0 -0.060437764789915617 -0.00395431669102518 0 -0.060431542672290228 -0.0041807115234579915 0 -0.06022704676840266 -0.0031802743838450728 0 -0.060795913892190259 -0.0032415644850823425 0 -0.060560280163006318 -0.003665683279350288 0 -0.060793514692047822 -0.0037502332264037577 0 -0.060795913892190259 -0.0032415644850823425 0 -0.060560280163006318 -0.003665683279350288 0 -0.06022704676840266 -0.0031802743838450728 0 -0.060560280163006318 -0.003665683279350288 0 -0.060326233357981852 -0.003752183906441909 0 -0.06217789095341384 -0.0023751972816712492 0 -0.061960326999174323 -0.0028173522455074581 0 -0.060401558304443853 -0.0039398243108876262 0 -0.060431542672290228 -0.0041807115234579915 0 -0.060176576256100761 -0.0037890707208409475 0 -0.060437764789915617 -0.00395431669102518 0 -0.060401558304443853 -0.0039398243108876262 0 -0.060431542672290228 -0.0041807115234579915 0 -0.060400090364197578 -0.0038995054465950159 0 -0.060437764789915617 -0.00395431669102518 0 -0.060401558304443853 -0.0039398243108876262 0 -0.060513883712175739 -0.0039090742590603073 0 -0.060400090364197578 -0.0038995054465950159 0 -0.060492449655709581 -0.0038979728941571051 0 -0.060400090364197578 -0.0038995054465950159 0 -0.060401558304443853 -0.0039398243108876262 0 -0.060492449655709581 -0.0038979728941571051 0 -0.060513883712175739 -0.0039090742590603073 0 -0.060591630686576331 -0.0039048526484206005 0 -0.060669245364147674 -0.0039664173985643732 0 -0.060591630686576331 -0.0039048526484206005 0 -0.060722606413042425 -0.0038673813481060713 0 -0.060669245364147674 -0.0039664173985643732 0 -0.060513883712175739 -0.0039090742590603073 0 -0.060492449655709581 -0.0038979728941571051 0 -0.060591630686576331 -0.0039048526484206005 0 -0.060492449655709581 -0.0038979728941571051 0 -0.060591630686576331 -0.0039048526484206005 0 -0.060628880276421618 -0.0038469096818232423 0 -0.060492449655709581 -0.0038979728941571051 0 -0.060628880276421618 -0.0038469096818232423 0 -0.06054937716399867 -0.0038205734574882576 0 -0.060591630686576331 -0.0039048526484206005 0 -0.060628880276421618 -0.0038469096818232423 0 -0.060722606413042425 -0.0038673813481060713 0 -0.060628880276421618 -0.0038469096818232423 0 -0.06054937716399867 -0.0038205734574882576 0 -0.060718733052423646 -0.0037116325803788603 0 -0.060628880276421618 -0.0038469096818232423 0 -0.060718733052423646 -0.0037116325803788603 0 -0.06078096554326199 -0.0037977745317380449 0 -0.060628880276421618 -0.0038469096818232423 0 -0.06078096554326199 -0.0037977745317380449 0 -0.060722606413042425 -0.0038673813481060713 0 -0.060401558304443853 -0.0039398243108876262 0 -0.060492449655709581 -0.0038979728941571051 0 -0.06054937716399867 -0.0038205734574882576 0 -0.060401558304443853 -0.0039398243108876262 0 -0.06054937716399867 -0.0038205734574882576 0 -0.060523152552550752 -0.0036248741782615797 0 -0.06054937716399867 -0.0038205734574882576 0 -0.060523152552550752 -0.0036248741782615797 0 -0.060718733052423646 -0.0037116325803788603 0 -0.060523152552550752 -0.0036248741782615797 0 -0.060435751566513145 -0.0033195173867325216 0 -0.060324595937828795 -0.0036044063405812976 0 -0.060403469929208017 -0.003486442982966808 0 -0.06030306450027495 -0.0033163023650993801 0 -0.060718733052423646 -0.0037116325803788603 0 -0.060710856898851973 -0.0035088243220801289 0 -0.060833880118247377 -0.0036556928841510539 0 -0.060523152552550752 -0.0036248741782615797 0 -0.060718733052423646 -0.0037116325803788603 0 -0.060806738733554334 -0.0032808727587767673 0 -0.060523152552550752 -0.0036248741782615797 0 -0.060806738733554334 -0.0032808727587767673 0 -0.060435751566513145 -0.0033195173867325216 0 -0.060806738733554334 -0.0032808727587767673 0 -0.060435751566513145 -0.0033195173867325216 0 -0.060500831604318892 -0.0030700048100193462 0 -0.060435751566513145 -0.0033195173867325216 0 -0.060082321833450962 -0.0031829628988375787 0 -0.060324595937828795 -0.0036044063405812976 0 -0.060435751566513145 -0.0033195173867325216 0 -0.060082321833450962 -0.0031829628988375787 0 -0.060500831604318892 -0.0030700048100193462 0 -0.060401558304443853 -0.0039398243108876262 0 -0.060523152552550752 -0.0036248741782615797 0 -0.060324595937828795 -0.0036044063405812976 0 -0.060401558304443853 -0.0039398243108876262 0 -0.060324595937828795 -0.0036044063405812976 0 -0.060176576256100761 -0.0037890707208409475 0 -0.060082321833450962 -0.0031829628988375787 0 -0.060324595937828795 -0.0036044063405812976 0 -0.060176576256100761 -0.0037890707208409475 0 -0.059744378853777251 -0.0032869502295956414 0 -0.060082321833450962 -0.0031829628988375787 0 -0.060176576256100761 -0.0037890707208409475 0 -0.059744378853777251 -0.0032869502295956414 0 -0.060082321833450962 -0.0031829628988375787 0 -0.059709564161320887 -0.0026793984384339635 0 -0.060082321833450962 -0.0031829628988375787 0 -0.059709564161320887 -0.0026793984384339635 0 -0.059984479810986036 -0.0025192403727816583 0 -0.060082321833450962 -0.0031829628988375787 0 -0.059984479810986036 -0.0025192403727816583 0 -0.06020668400084063 -0.0025466787435446969 0 -0.060051769502781127 -0.0029829261394674071 0 -0.060147057780366824 -0.0028726392642579603 0 -0.059984479810986036 -0.0025192403727816583 0 -0.060049709147665581 -0.0022993023042257592 0 -0.06020668400084063 -0.0025466787435446969 0 -0.059984479810986036 -0.0025192403727816583 0 -0.060049709147665581 -0.0022993023042257592 0 -0.059825286061182731 -0.002022061944091302 0 -0.059709564161320887 -0.0026793984384339635 0 -0.059984479810986036 -0.0025192403727816583 0 -0.059825286061182731 -0.002022061944091302 0 -0.059709564161320887 -0.0026793984384339635 0 -0.059298987250786868 -0.0019562574013003934 0 -0.059384004219846069 -0.0021376677595668684 0 -0.059298987250786868 -0.0019562574013003934 0 -0.059384004219846069 -0.0021376677595668684 0 -0.058923134270378659 -0.0017930625357057332 0 -0.060049709147665581 -0.0022993023042257592 0 -0.059825286061182731 -0.002022061944091302 0 -0.060022361082603698 -0.0020636906521936463 0 -0.05946806118535037 -0.0022833516085936549 0 -0.059568531649829844 -0.0019243363846063628 0 -0.059326336691355001 -0.0021801912868908762 0 -0.059709564161320887 -0.0026793984384339635 0 -0.059384004219846069 -0.0021376677595668684 0 -0.057984310078974838 -0.0023155266475237812 0 -0.059384004219846069 -0.0021376677595668684 0 -0.058923134270378659 -0.0017930625357057332 0 -0.058414257154931391 -0.0021889947070958282 0 -0.05890291631735272 -0.0021406021046368163 0 -0.057984310078974838 -0.0023155266475237812 0 -0.058540326576700115 -0.0013907136679877123 0 -0.058923134270378659 -0.0017930625357057332 0 -0.058540326576700115 -0.0013907136679877123 0 -0.058923134270378659 -0.0017930625357057332 0 -0.059053470407252735 -0.0013256067819038782 0 -0.059568531649829844 -0.0019243363846063628 0 -0.059800140085250891 -0.0012532112576176433 0 -0.059298987250786868 -0.0019562574013003934 0 -0.059053470407252735 -0.0013256067819038782 0 -0.059488746202502364 -0.0010781366545463665 0 -0.059298987250786868 -0.0019562574013003934 0 -0.058923134270378659 -0.0017930625357057332 0 -0.059053470407252735 -0.0013256067819038782 0 -0.059825286061182731 -0.002022061944091302 0 -0.060033675329109505 -0.0018108132640641565 0 -0.060022361082603698 -0.0020636906521936463 0 -0.059053470407252735 -0.0013256067819038782 0 -0.058690744082652367 -0.00087165714539464616 0 -0.059488746202502364 -0.0010781366545463665 0 -0.058540326576700115 -0.0013907136679877123 0 -0.059053470407252735 -0.0013256067819038782 0 -0.058690744082652367 -0.00087165714539464616 0 -0.058182838048072623 -0.00091392007845615035 0 -0.058540326576700115 -0.0013907136679877123 0 -0.058690744082652367 -0.00087165714539464616 0 -0.060257665904608661 -0.0012239435473967331 0 -0.060156678686884589 -0.0015666750025124395 0 -0.060425443234077593 -0.0015388796505066001 0 -0.060257665904608661 -0.0012239435473967331 0 -0.060425443234077593 -0.0015388796505066001 0 -0.060522090478596247 -0.0013084932890457461 0 -0.060425443234077593 -0.0015388796505066001 0 -0.060522090478596247 -0.0013084932890457461 0 -0.060553553698927058 -0.0014617417120847713 0 -0.060257665904608661 -0.0012239435473967331 0 -0.060522090478596247 -0.0013084932890457461 0 -0.060576068181178784 -0.0010374444327114168 0 -0.060257665904608661 -0.0012239435473967331 0 -0.059877180545381048 -0.0013146253735250219 0 -0.060156678686884589 -0.0015666750025124395 0 -0.060156678686884589 -0.0015666750025124395 0 -0.060186768354059755 -0.0018238936535186154 0 -0.060292602635112991 -0.0017462826632218943 0 -0.059825286061182731 -0.002022061944091302 0 -0.059877180545381048 -0.0013146253735250219 0 -0.060033675329109505 -0.0018108132640641565 0 -0.060156678686884589 -0.0015666750025124395 0 -0.060033675329109505 -0.0018108132640641565 0 -0.060186768354059755 -0.0018238936535186154 0 -0.059877180545381048 -0.0013146253735250219 0 -0.060156678686884589 -0.0015666750025124395 0 -0.060033675329109505 -0.0018108132640641565 0 -0.060033675329109505 -0.0018108132640641565 0 -0.060022361082603698 -0.0020636906521936463 0 -0.060162955625924164 -0.002027480102925922 0 -0.060033675329109505 -0.0018108132640641565 0 -0.060186768354059755 -0.0018238936535186154 0 -0.060162955625924164 -0.002027480102925922 0 -0.060186768354059755 -0.0018238936535186154 0 -0.060292735806083124 -0.0019591107588363215 0 -0.060162955625924164 -0.002027480102925922 0 -0.060292735806083124 -0.0019591107588363215 0 -0.060389606083739507 -0.0018660699982937258 0 -0.060398063527683878 -0.0020020158052269669 0 -0.060389606083739507 -0.0018660699982937258 0 -0.060497306841856988 -0.0018054147491974295 0 -0.060398063527683878 -0.0020020158052269669 0 -0.060389606083739507 -0.0018660699982937258 0 -0.060292602635112991 -0.0017462826632218943 0 -0.060448546125968124 -0.0017466875079812081 0 -0.060292735806083124 -0.0019591107588363215 0 -0.060389606083739507 -0.0018660699982937258 0 -0.060292602635112991 -0.0017462826632218943 0 -0.060186768354059755 -0.0018238936535186154 0 -0.060292735806083124 -0.0019591107588363215 0 -0.060292602635112991 -0.0017462826632218943 0 -0.060156678686884589 -0.0015666750025124395 0 -0.060292602635112991 -0.0017462826632218943 0 -0.060425443234077593 -0.0015388796505066001 0 -0.060425443234077593 -0.0015388796505066001 0 -0.060409448427291693 -0.0016876605490753632 0 -0.060577130212011103 -0.0015952439065775161 0 -0.060425443234077593 -0.0015388796505066001 0 -0.060448546125968124 -0.0017466875079812081 0 -0.060501434144831834 -0.0018013894989485179 0 -0.059683633500923643 -0.0027106540836885026 0 -0.059663965580486311 -0.002818469876685689 0 -0.060292602635112991 -0.0017462826632218943 0 -0.060425443234077593 -0.0015388796505066001 0 -0.060448546125968124 -0.0017466875079812081 0 -0.059663965580486311 -0.002818469876685689 0 -0.0594544091267417 -0.0031711599820627733 0 -0.060389606083739507 -0.0018660699982937258 0 -0.060448546125968124 -0.0017466875079812081 0 -0.060497306841856988 -0.0018054147491974295 0 -0.059664183299489783 -0.0028150649470256987 0 -0.059663965580486311 -0.002818469876685689 0 -0.059663965580486311 -0.002818469876685689 0 -0.059926807775695694 -0.0029260061710817882 0 -0.059759718290147701 -0.0028956661601368412 0 -0.059756936670018183 -0.0033675230517057715 0 -0.059994184344233654 -0.0032032594587398698 0 -0.060315334531190139 -0.0021792607748469446 0 -0.060513020094273902 -0.0021846870833274303 0 -0.06020668400084063 -0.0025466787435446969 0 -0.060497306841856988 -0.0018054147491974295 0 -0.060398063527683878 -0.0020020158052269669 0 -0.060513020094273902 -0.0021846870833274303 0 -0.059926807775695694 -0.0029260061710817882 0 -0.0594544091267417 -0.0031711599820627733 0 -0.060398063527683878 -0.0020020158052269669 0 -0.060315334531190139 -0.0021792607748469446 0 -0.060513020094273902 -0.0021846870833274303 0 -0.060292735806083124 -0.0019591107588363215 0 -0.060398063527683878 -0.0020020158052269669 0 -0.060315334531190139 -0.0021792607748469446 0 -0.060022361082603698 -0.0020636906521936463 0 -0.060162955625924164 -0.002027480102925922 0 -0.060152379237369831 -0.0022293547611839811 0 -0.060292735806083124 -0.0019591107588363215 0 -0.060315334531190139 -0.0021792607748469446 0 -0.060162955625924164 -0.002027480102925922 0 -0.060315334531190139 -0.0021792607748469446 0 -0.060162955625924164 -0.002027480102925922 0 -0.060152379237369831 -0.0022293547611839811 0 -0.060315334531190139 -0.0021792607748469446 0 -0.060152379237369831 -0.0022293547611839811 0 -0.06020668400084063 -0.0025466787435446969 0 -0.060049709147665581 -0.0022993023042257592 0 -0.060152379237369831 -0.0022293547611839811 0 -0.06020668400084063 -0.0025466787435446969 0 -0.060049709147665581 -0.0022993023042257592 0 -0.060022361082603698 -0.0020636906521936463 0 -0.060152379237369831 -0.0022293547611839811 0 -0.060710856898851973 -0.0035088243220801289 0 -0.060704837855375178 -0.0032779306788341326 0 -0.060795223400041704 -0.0034096143919763143 0 -0.06030306450027495 -0.0033163023650993801 0 -0.059926807775695694 -0.0029260061710817882 0 -0.059926807775695694 -0.0029260061710817882 0 -0.060147057780366824 -0.0028726392642579603 0 -0.060806738733554334 -0.0032808727587767673 0 -0.060814191152639002 -0.0028588247357792585 0 -0.060500831604318892 -0.0030700048100193462 0 -0.058415715754638241 -0.0036491323846942177 0 -0.059173965007753286 -0.0032336606115427576 0 -0.060795223400041704 -0.0034096143919763143 0 -0.060907417906371046 -0.0034070141643531191 0 -0.060857182556480781 -0.0035171856764901546 0 -0.060795223400041704 -0.0034096143919763143 0 -0.060907417906371046 -0.0034070141643531191 0 -0.060780620745801803 -0.003306198040891647 0 -0.056516006296433809 -0.0023320625769437239 0 -0.055656583809789786 -0.0025537070185628211 0 -0.055753604445891961 -0.0013405670104296745 0 -0.056516006296433809 -0.0023320625769437239 0 -0.056154261270499994 -0.0032503816821840485 0 -0.055656583809789786 -0.0025537070185628211 0 -0.056516006296433809 -0.0023320625769437239 0 -0.056154261270499994 -0.0032503816821840485 0 -0.056685491989649804 -0.0034065463617050191 0 -0.056154261270499994 -0.0032503816821840485 0 -0.055501978160889871 -0.0038237072373289087 0 -0.055656583809789786 -0.0025537070185628211 0 -0.056685491989649804 -0.0034065463617050191 0 -0.056305998079380019 -0.0038614127352023082 0 -0.056919227832434749 -0.0040016015053091439 0 -0.056154261270499994 -0.0032503816821840485 0 -0.056685491989649804 -0.0034065463617050191 0 -0.056305998079380019 -0.0038614127352023082 0 -0.056154261270499994 -0.0032503816821840485 0 -0.056305998079380019 -0.0038614127352023082 0 -0.055501978160889871 -0.0038237072373289087 0 -0.056516006296433809 -0.0023320625769437239 0 -0.056685491989649804 -0.0034065463617050191 0 -0.057290915987217333 -0.0033525433498114796 0 -0.060907417906371046 -0.0034070141643531191 0 -0.060800438191075688 -0.003268339914471707 0 -0.060780620745801803 -0.003306198040891647 0 -0.060800552830728632 -0.0032678159855020149 0 -0.060780620745801803 -0.003306198040891647 0 -0.060771917100200662 -0.0032304598847198293 0 -0.060704837855375178 -0.0032779306788341326 0 -0.060795223400041704 -0.0034096143919763143 0 -0.060780620745801803 -0.003306198040891647 0 -0.060704837855375178 -0.0032779306788341326 0 -0.060780620745801803 -0.003306198040891647 0 -0.060771917100200662 -0.0032304598847198293 0 -0.059173965007753286 -0.0032336606115427576 0 -0.059199482429719619 -0.0032162588653784109 0 -0.056685491989649804 -0.0034065463617050191 0 -0.057290915987217333 -0.0033525433498114796 0 -0.056919227832434749 -0.0040016015053091439 0 -0.059173965007753286 -0.0032336606115427576 0 -0.058777553785291946 -0.0033826377103670746 0 -0.0594544091267417 -0.0031711599820627733 0 -0.058777553785291946 -0.0033826377103670746 0 -0.058871531305987622 -0.0032847191550397963 0 -0.058754882854459553 -0.003131737411272859 0 -0.059074360102647612 -0.0029104953079564034 0 -0.059173965007753286 -0.0032336606115427576 0 -0.0594544091267417 -0.0031711599820627733 0 -0.060409448427291693 -0.0016876605490753632 0 -0.060569517374185228 -0.0019248947691679829 0 -0.060592237823010923 -0.0017331126229105786 0 -0.060569517374185228 -0.0019248947691679829 0 -0.060592237823010923 -0.0017331126229105786 0 -0.060786678037485178 -0.0017917077669464768 0 -0.060409448427291693 -0.0016876605490753632 0 -0.060592237823010923 -0.0017331126229105786 0 -0.060577130212011103 -0.0015952439065775161 0 -0.060735306905845089 -0.0015492395328298365 0 -0.060786678037485178 -0.0017917077669464768 0 -0.061028883013919309 -0.0012079965211990438 0 -0.060425443234077593 -0.0015388796505066001 0 -0.060577130212011103 -0.0015952439065775161 0 -0.060553553698927058 -0.0014617417120847713 0 -0.060592237823010923 -0.0017331126229105786 0 -0.060577130212011103 -0.0015952439065775161 0 -0.060735306905845089 -0.0015492395328298365 0 -0.060577130212011103 -0.0015952439065775161 0 -0.060553553698927058 -0.0014617417120847713 0 -0.060703157404427929 -0.0013966078740833409 0 -0.060577130212011103 -0.0015952439065775161 0 -0.060735306905845089 -0.0015492395328298365 0 -0.060703157404427929 -0.0013966078740833409 0 -0.060592237823010923 -0.0017331126229105786 0 -0.060735306905845089 -0.0015492395328298365 0 -0.060786678037485178 -0.0017917077669464768 0 -0.058777553785291946 -0.0033826377103670746 0 -0.057858341185694023 -0.0036964384765371533 0 -0.058777553785291946 -0.0033826377103670746 0 -0.057908563123616578 -0.0039032307064683939 0 -0.056305998079380019 -0.0038614127352023082 0 -0.056919227832434749 -0.0040016015053091439 0 -0.056082187886416383 -0.004646783417108522 0 -0.057819333078720496 -0.0034431583008451045 0 -0.056082187886416383 -0.004646783417108522 0 -0.056709824907280111 -0.0056199205615021959 0 -0.056305998079380019 -0.0038614127352023082 0 -0.056082187886416383 -0.004646783417108522 0 -0.055501978160889871 -0.0038237072373289087 0 -0.056709824907280111 -0.0056199205615021959 0 -0.055126147046710823 -0.0062383087773085514 0 -0.055614879551170719 -0.0082208840553234571 0 -0.056709824907280111 -0.0056199205615021959 0 -0.055126147046710823 -0.0062383087773085514 0 -0.055577763395963507 -0.0051220730349290202 0 -0.056082187886416383 -0.004646783417108522 0 -0.056709824907280111 -0.0056199205615021959 0 -0.055577763395963507 -0.0051220730349290202 0 -0.061028883013919309 -0.0012079965211990438 0 -0.060807043737701086 -0.0011657505322724645 0 -0.061011559303184366 -0.0011324618038353062 0 -0.060807043737701086 -0.0011657505322724645 0 -0.060522090478596247 -0.0013084932890457461 0 -0.060576068181178784 -0.0010374444327114168 0 -0.060807043737701086 -0.0011657505322724645 0 -0.060522090478596247 -0.0013084932890457461 0 -0.060703157404427929 -0.0013966078740833409 0 -0.060522090478596247 -0.0013084932890457461 0 -0.060553553698927058 -0.0014617417120847713 0 -0.060703157404427929 -0.0013966078740833409 0 -0.060735306905845089 -0.0015492395328298365 0 -0.061028883013919309 -0.0012079965211990438 0 -0.060703157404427929 -0.0013966078740833409 0 -0.061028883013919309 -0.0012079965211990438 0 -0.060807043737701086 -0.0011657505322724645 0 -0.060703157404427929 -0.0013966078740833409 0 -0.052186538738583373 -0.0048031722051809916 0 -0.053570967387339935 -0.0060767954114311516 0 -0.054399509462596973 -0.004540738271443725 0 -0.052186538738583373 -0.0048031722051809916 0 -0.051794666595760888 -0.0065484554679743285 0 -0.053570967387339935 -0.0060767954114311516 0 -0.051794666595760888 -0.0065484554679743285 0 -0.053570967387339935 -0.0060767954114311516 0 -0.053500468929822985 -0.0077248909098166785 0 -0.053570967387339935 -0.0060767954114311516 0 -0.055126147046710823 -0.0062383087773085514 0 -0.053500468929822985 -0.0077248909098166785 0 -0.055126147046710823 -0.0062383087773085514 0 -0.055577763395963507 -0.0051220730349290202 0 -0.054399509462596973 -0.004540738271443725 0 -0.053570967387339935 -0.0060767954114311516 0 -0.055126147046710823 -0.0062383087773085514 0 -0.054399509462596973 -0.004540738271443725 0 -0.054399509462596973 -0.004540738271443725 0 -0.055184981358521575 -0.0040535341976079787 0 -0.055747388560991498 -0.0038013713661524157 0 -0.055577763395963507 -0.0051220730349290202 0 -0.054399509462596973 -0.004540738271443725 0 -0.055184981358521575 -0.0040535341976079787 0 -0.056082187886416383 -0.004646783417108522 0 -0.055577763395963507 -0.0051220730349290202 0 -0.055184981358521575 -0.0040535341976079787 0 -0.056082187886416383 -0.004646783417108522 0 -0.055184981358521575 -0.0040535341976079787 0 -0.055501978160889871 -0.0038237072373289087 0 -0.054455537336999212 -0.0037765326522822846 0 -0.05424404841935989 -0.0031313927086909481 0 -0.054399509462596973 -0.004540738271443725 0 -0.052826310278128751 -0.0013448352688471166 0 -0.051563380798107537 -0.0029235926872052511 0 -0.052186538738583373 -0.0048031722051809916 0 -0.054399509462596973 -0.004540738271443725 0 -0.051563380798107537 -0.0029235926872052511 0 -0.052826310278128751 -0.0013448352688471166 0 -0.051538915994478497 -0.0015796839999735674 0 -0.051563380798107537 -0.0029235926872052511 0 -0.055747388560991498 -0.0038013713661524157 0 -0.055506664675345492 -0.0039146536026944392 0 -0.05593405349161884 -0.0043758813562882228 0 -0.052826310278128751 -0.0013448352688471166 0 -0.051580433833492527 -0.00011303793798312242 0 -0.051538915994478497 -0.0015796839999735674 0 -0.05692128221237544 -0.0039734141518886663 0 -0.057151347533148891 -0.0040582079966047678 0 -0.055501978160889871 -0.0038237072373289087 0 -0.055506664675345492 -0.0039146536026944392 0 -0.055239142542641541 -0.0042869440533921692 0 -0.055184981358521575 -0.0040535341976079787 0 -0.055501978160889871 -0.0038237072373289087 0 -0.055506664675345492 -0.0039146536026944392 0 -0.055184981358521575 -0.0040535341976079787 0 -0.055747388560991498 -0.0038013713661524157 0 -0.055506664675345492 -0.0039146536026944392 0 -0.055239142542641541 -0.0042869440533921692 0 -0.055719292869825417 -0.0048665154574229008 0 -0.05593405349161884 -0.0043758813562882228 0 -0.055506664675345492 -0.0039146536026944392 0 -0.055239142542641541 -0.0042869440533921692 0 -0.05593405349161884 -0.0043758813562882228 0 -0.057151347533148891 -0.0040582079966047678 0 -0.057900634188504017 -0.0047808603857611241 0 -0.055239142542641541 -0.0042869440533921692 0 -0.055719292869825417 -0.0048665154574229008 0 -0.055060236774347515 -0.0054731736998565291 0 -0.055719292869825417 -0.0048665154574229008 0 -0.05593405349161884 -0.0043758813562882228 0 -0.056357037237297354 -0.0049742146518610159 0 -0.055747388560991498 -0.0038013713661524157 0 -0.05593405349161884 -0.0043758813562882228 0 -0.057021216529718116 -0.00471352013133239 0 -0.05424404841935989 -0.0031313927086909481 0 -0.053875735692166707 -0.0023143446434407185 0 -0.052826310278128751 -0.0013448352688471166 0 -0.051629012306962881 0.0011471274251956389 0 -0.051580433833492527 -0.00011303793798312242 0 -0.05593405349161884 -0.0043758813562882228 0 -0.057021216529718116 -0.00471352013133239 0 -0.056357037237297354 -0.0049742146518610159 0 -0.057021216529718116 -0.00471352013133239 0 -0.056357037237297354 -0.0049742146518610159 0 -0.056914760240060369 -0.0055410581282854879 0 -0.056357037237297354 -0.0049742146518610159 0 -0.056211073101409624 -0.0055705122191975886 0 -0.056914760240060369 -0.0055410581282854879 0 -0.056211073101409624 -0.0055705122191975886 0 -0.056914760240060369 -0.0055410581282854879 0 -0.057001801009580126 -0.006214873013096609 0 -0.056914760240060369 -0.0055410581282854879 0 -0.057001801009580126 -0.006214873013096609 0 -0.058035296722685571 -0.0062598400909954499 0 -0.056211073101409624 -0.0055705122191975886 0 -0.057001801009580126 -0.006214873013096609 0 -0.056206952290256448 -0.0068461324918899519 0 -0.057001801009580126 -0.006214873013096609 0 -0.057513760037322684 -0.007047238536956121 0 -0.058035296722685571 -0.0062598400909954499 0 -0.057001801009580126 -0.006214873013096609 0 -0.057513760037322684 -0.007047238536956121 0 -0.056206952290256448 -0.0068461324918899519 0 -0.05796447214291367 -0.0062631151849687206 0 -0.057900634188504017 -0.0047808603857611241 0 -0.058065597095644815 -0.0080370800200153993 0 -0.058119254154237181 -0.008094472734637757 0 -0.058121661535734656 -0.0079663756103719174 0 -0.056211073101409624 -0.0055705122191975886 0 -0.056206952290256448 -0.0068461324918899519 0 -0.055060236774347515 -0.0054731736998565291 0 -0.055719292869825417 -0.0048665154574229008 0 -0.056211073101409624 -0.0055705122191975886 0 -0.055060236774347515 -0.0054731736998565291 0 -0.055719292869825417 -0.0048665154574229008 0 -0.056357037237297354 -0.0049742146518610159 0 -0.056211073101409624 -0.0055705122191975886 0 -0.058415715754638241 -0.0036491323846942177 0 -0.057900634188504017 -0.0047808603857611241 0 -0.060907417906371046 -0.0034070141643531191 0 -0.061016379670005332 -0.0035468782141002777 0 -0.060857182556480781 -0.0035171856764901546 0 -0.061016379670005332 -0.0035468782141002777 0 -0.060857182556480781 -0.0035171856764901546 0 -0.060833880118247377 -0.0036556928841510539 0 -0.060710856898851973 -0.0035088243220801289 0 -0.060795223400041704 -0.0034096143919763143 0 -0.060857182556480781 -0.0035171856764901546 0 -0.060710856898851973 -0.0035088243220801289 0 -0.060857182556480781 -0.0035171856764901546 0 -0.060833880118247377 -0.0036556928841510539 0 -0.061016379670005332 -0.0035468782141002777 0 -0.060924263767391247 -0.0037437456607442355 0 -0.060979942331465475 -0.0038308582940751001 0 -0.061016379670005332 -0.0035468782141002777 0 -0.060833880118247377 -0.0036556928841510539 0 -0.060924263767391247 -0.0037437456607442355 0 -0.057900634188504017 -0.0047808603857611241 0 -0.059150539881923425 -0.0056417382947463188 0 -0.060979942331465475 -0.0038308582940751001 0 -0.061001009156501779 -0.0038189650988227752 0 -0.061078571385925449 -0.0036974511493965048 0 -0.060924263767391247 -0.0037437456607442355 0 -0.060979942331465475 -0.0038308582940751001 0 -0.061001009156501779 -0.0038189650988227752 0 -0.060833880118247377 -0.0036556928841510539 0 -0.060924263767391247 -0.0037437456607442355 0 -0.06078096554326199 -0.0037977745317380449 0 -0.060718733052423646 -0.0037116325803788603 0 -0.060833880118247377 -0.0036556928841510539 0 -0.06078096554326199 -0.0037977745317380449 0 -0.061001009156501779 -0.0038189650988227752 0 -0.06078096554326199 -0.0037977745317380449 0 -0.060722606413042425 -0.0038673813481060713 0 -0.060924263767391247 -0.0037437456607442355 0 -0.061001009156501779 -0.0038189650988227752 0 -0.06078096554326199 -0.0037977745317380449 0 -0.061001009156501779 -0.0038189650988227752 0 -0.060722606413042425 -0.0038673813481060713 0 -0.060669245364147674 -0.0039664173985643732 0 -0.061140863466211691 -0.0036594213865613337 0 -0.061238181621384294 -0.0035497165793622549 0 -0.061001009156501779 -0.0038189650988227752 0 -0.061369591094165045 -0.0036269862635723389 0 -0.061573282259852986 -0.0036652636250505029 0 -0.061162767926523712 -0.0035639729683890598 0 -0.061369591094165045 -0.0036269862635723389 0 -0.061078571385925449 -0.0036974511493965048 0 -0.061014832158279624 -0.0035746407382850052 0 -0.060979942331465475 -0.0038308582940751001 0 -0.061078571385925449 -0.0036974511493965048 0 -0.061001009156501779 -0.0038189650988227752 0 -0.061369591094165045 -0.0036269862635723389 0 -0.061078571385925449 -0.0036974511493965048 0 -0.060160448215851203 -0.0055114063213091364 0 -0.059150539881923425 -0.0056417382947463188 0 -0.061014832158279624 -0.0035746407382850052 0 -0.061162767926523712 -0.0035639729683890598 0 -0.061078571385925449 -0.0036974511493965048 0 -0.058060895670850203 -0.0080236809220822543 0 -0.058121661535734656 -0.0079663756103719174 0 -0.058132668234581499 -0.0079500021248349161 0 -0.058171876262195117 -0.0080189602094245405 0 -0.058060895670850203 -0.0080236809220822543 0 -0.058132668234581499 -0.0079500021248349161 0 -0.058171876262195117 -0.0080189602094245405 0 -0.058132668234581499 -0.0079500021248349161 0 -0.058199528527719563 -0.0079703119183868795 0 -0.058132668234581499 -0.0079500021248349161 0 -0.058199528527719563 -0.0079703119183868795 0 -0.057877884412121855 -0.0079264240867122134 0 -0.058567579625685914 -0.0080468329322995781 0 -0.058199528527719563 -0.0079703119183868795 0 -0.058130190290952573 -0.00806942631926931 0 -0.058199528527719563 -0.0079703119183868795 0 -0.057877884412121855 -0.0079264240867122134 0 -0.058130190290952573 -0.00806942631926931 0 -0.058132668234581499 -0.0079500021248349161 0 -0.057877884412121855 -0.0079264240867122134 0 -0.058075299720941012 -0.0079733182850715949 0 -0.057513760037322684 -0.007047238536956121 0 -0.056206952290256448 -0.0068461324918899519 0 -0.057877884412121855 -0.0079264240867122134 0 -0.058065597095644815 -0.0080370800200153993 0 -0.057877884412121855 -0.0079264240867122134 0 -0.058075299720941012 -0.0079733182850715949 0 -0.05796447214291367 -0.0062631151849687206 0 -0.058050347656188182 -0.0067445026063205739 0 -0.058065597095644815 -0.0080370800200153993 0 -0.058121661535734656 -0.0079663756103719174 0 -0.058075299720941012 -0.0079733182850715949 0 -0.058121661535734656 -0.0079663756103719174 0 -0.058132668234581499 -0.0079500021248349161 0 -0.058075299720941012 -0.0079733182850715949 0 -0.0489142500242137 0.0033022581639558855 0 -0.047667286334548663 0.0038039417912576418 0 -0.047763113102297923 0.0026248089396463774 0 -0.057513760037322684 -0.007047238536956121 0 -0.057877884412121855 -0.0079264240867122134 0 -0.058544718656913623 -0.0076678558766692011 0 -0.054121731963636295 -0.0034211755253194605 0 -0.052164934187131237 -0.00096760122676270595 0 -0.058120593180361432 -0.0081878355310722496 0 -0.058544718656913623 -0.0076678558766692011 0 -0.058130190290952573 -0.00806942631926931 0 -0.057877884412121855 -0.0079264240867122134 0 -0.058544718656913623 -0.0076678558766692011 0 -0.058130190290952573 -0.00806942631926931 0 -0.058120593180361432 -0.0081878355310722496 0 -0.058567579625685914 -0.0080468329322995781 0 -0.058130190290952573 -0.00806942631926931 0 -0.050649266582261189 0.001049327852297358 0 -0.052164934187131237 -0.00096760122676270595 0 -0.052316631574592661 -0.0018336171161307563 0 -0.053132234808453069 -0.0018757203264340939 0 -0.052761466878359788 -0.0029930649231407857 0 -0.048275234663828395 0.004952488258913988 0 -0.0489142500242137 0.0033022581639558855 0 -0.047667286334548663 0.0038039417912576418 0 -0.046526131717268798 0.0050328227869556675 0 -0.048275234663828395 0.004952488258913988 0 -0.047667286334548663 0.0038039417912576418 0 -0.046526131717268798 0.0050328227869556675 0 -0.047667286334548663 0.0038039417912576418 0 -0.046555316603553866 0.0038254939608445993 0 -0.046526131717268798 0.0050328227869556675 0 -0.046555316603553866 0.0038254939608445993 0 -0.04532901767691333 0.0034754900887716249 0 -0.048709030519255424 0.0020339146168978886 0 -0.047368962378896068 0.0017852226234122712 0 -0.046814787561289234 0.0029136493938969332 0 -0.045764520285788687 0.0019087764577527496 0 -0.04532901767691333 0.0034754900887716249 0 -0.046555316603553866 0.0038254939608445993 0 -0.046814787561289234 0.0029136493938969332 0 -0.04532901767691333 0.0034754900887716249 0 -0.047667286334548663 0.0038039417912576418 0 -0.046814787561289234 0.0029136493938969332 0 -0.047763113102297923 0.0026248089396463774 0 -0.047667286334548663 0.0038039417912576418 0 -0.046555316603553866 0.0038254939608445993 0 -0.046814787561289234 0.0029136493938969332 0 -0.047763113102297923 0.0026248089396463774 0 -0.047087831027008017 0.0016604540255062052 0 -0.048323396274408029 0.0014344899705837145 0 -0.046814787561289234 0.0029136493938969332 0 -0.047763113102297923 0.0026248089396463774 0 -0.047087831027008017 0.0016604540255062052 0 -0.046814787561289234 0.0029136493938969332 0 -0.047087831027008017 0.0016604540255062052 0 -0.045764520285788687 0.0019087764577527496 0 -0.047087831027008017 0.0016604540255062052 0 -0.045764520285788687 0.0019087764577527496 0 -0.046076967997400159 0.00048664067009758039 0 -0.047087831027008017 0.0016604540255062052 0 -0.047362947236381826 0.00070862523450488507 0 -0.048323396274408029 0.0014344899705837145 0 -0.047087831027008017 0.0016604540255062052 0 -0.047362947236381826 0.00070862523450488507 0 -0.046076967997400159 0.00048664067009758039 0 -0.048836274284147378 0.0027595323458849126 0 -0.049687491706780045 0.0013243689664601739 0 -0.049073017905084962 0.0006205981625279067 0 -0.048836274284147378 0.0027595323458849126 0 -0.050414402845939642 0.0019641891781376612 0 -0.049687491706780045 0.0013243689664601739 0 -0.049845541897320073 0.0056863964652202371 0 -0.048836274284147378 0.0027595323458849126 0 -0.050703107728462884 0.0034172201995607376 0 -0.0489142500242137 0.0033022581639558855 0 -0.047763113102297923 0.0026248089396463774 0 -0.048323396274408029 0.0014344899705837145 0 -0.052164934187131237 -0.00096760122676270595 0 -0.050458881282866699 0.00096874998806315135 0 -0.052164934187131237 -0.00096760122676270595 0 -0.053305370457104949 -0.001711512229002781 0 -0.057513760037322684 -0.007047238536956121 0 -0.058544718656913623 -0.0076678558766692011 0 -0.058035296722685571 -0.0062598400909954499 0 -0.057021216529718116 -0.00471352013133239 0 -0.056914760240060369 -0.0055410581282854879 0 -0.058035296722685571 -0.0062598400909954499 0 -0.053875735692166707 -0.0023143446434407185 0 -0.053305370457104949 -0.001711512229002781 0 -0.048836274284147378 0.0027595323458849126 0 -0.050703107728462884 0.0034172201995607376 0 -0.050414402845939642 0.0019641891781376612 0 -0.051629012306962881 0.0011471274251956389 0 -0.050703107728462884 0.0034172201995607376 0 -0.050414402845939642 0.0019641891781376612 0 -0.051629012306962881 0.0011471274251956389 0 -0.050414402845939642 0.0019641891781376612 0 -0.050282814140922935 0.00063522793271692446 0 -0.051629012306962881 0.0011471274251956389 0 -0.050282814140922935 0.00063522793271692446 0 -0.051580433833492527 -0.00011303793798312242 0 -0.050282814140922935 0.00063522793271692446 0 -0.051580433833492527 -0.00011303793798312242 0 -0.048367042624342375 -0.0010090261098292073 0 -0.050414402845939642 0.0019641891781376612 0 -0.050282814140922935 0.00063522793271692446 0 -0.049687491706780045 0.0013243689664601739 0 -0.048836274284147378 0.0027595323458849126 0 -0.049073017905084962 0.0006205981625279067 0 -0.047812203153488879 -0.00046491500261872684 0 -0.050458881282866699 0.00096874998806315135 0 -0.04961129050213918 0.00025744443439925318 0 -0.050282814140922935 0.00063522793271692446 0 -0.049073017905084962 0.0006205981625279067 0 -0.048367042624342375 -0.0010090261098292073 0 -0.050282814140922935 0.00063522793271692446 0 -0.049687491706780045 0.0013243689664601739 0 -0.049073017905084962 0.0006205981625279067 0 -0.049073017905084962 0.0006205981625279067 0 -0.048367042624342375 -0.0010090261098292073 0 -0.047812203153488879 -0.00046491500261872684 0 -0.047613537299899852 -0.00092762558079210859 0 -0.049433377428928518 -0.0014310517628070925 0 -0.048311349630896117 -0.0027390669402049365 0 -0.050196734106898559 -0.0020155386528761523 0 -0.049433377428928518 -0.0014310517628070925 0 -0.048311349630896117 -0.0027390669402049365 0 -0.047613537299899852 -0.00092762558079210859 0 -0.048311349630896117 -0.0027390669402049365 0 -0.046256231616546739 -0.0026458250851961762 0 -0.049429137083053021 -0.00019874265124921836 0 -0.047574243712753726 -0.00052278627649832978 0 -0.051580433833492527 -0.00011303793798312242 0 -0.047613537299899852 -0.00092762558079210859 0 -0.049433377428928518 -0.0014310517628070925 0 -0.051580433833492527 -0.00011303793798312242 0 -0.050196734106898559 -0.0020155386528761523 0 -0.051538915994478497 -0.0015796839999735674 0 -0.051580433833492527 -0.00011303793798312242 0 -0.050196734106898559 -0.0020155386528761523 0 -0.049433377428928518 -0.0014310517628070925 0 -0.050196734106898559 -0.0020155386528761523 0 -0.051538915994478497 -0.0015796839999735674 0 -0.051563380798107537 -0.0029235926872052511 0 -0.050196734106898559 -0.0020155386528761523 0 -0.051563380798107537 -0.0029235926872052511 0 -0.050212093120441587 -0.0043211882238494946 0 -0.050196734106898559 -0.0020155386528761523 0 -0.050212093120441587 -0.0043211882238494946 0 -0.048311349630896117 -0.0027390669402049365 0 -0.052186538738583373 -0.0048031722051809916 0 -0.051563380798107537 -0.0029235926872052511 0 -0.050212093120441587 -0.0043211882238494946 0 -0.048311349630896117 -0.0027390669402049365 0 -0.048353226181729769 -0.0049813071712264661 0 -0.046695553011124914 -0.004296798196719998 0 -0.050212093120441587 -0.0043211882238494946 0 -0.048311349630896117 -0.0027390669402049365 0 -0.048353226181729769 -0.0049813071712264661 0 -0.048353226181729769 -0.0049813071712264661 0 -0.049542923914616017 -0.0066067176364964821 0 -0.047016193289339037 -0.0069231484209684273 0 -0.048353226181729769 -0.0049813071712264661 0 -0.046695553011124914 -0.004296798196719998 0 -0.047016193289339037 -0.0069231484209684273 0 -0.051794666595760888 -0.0065484554679743285 0 -0.050212093120441587 -0.0043211882238494946 0 -0.049542923914616017 -0.0066067176364964821 0 -0.050212093120441587 -0.0043211882238494946 0 -0.048353226181729769 -0.0049813071712264661 0 -0.049542923914616017 -0.0066067176364964821 0 -0.052186538738583373 -0.0048031722051809916 0 -0.051794666595760888 -0.0065484554679743285 0 -0.050212093120441587 -0.0043211882238494946 0 -0.044894856262494245 -0.0057596240998948403 0 -0.042326769438379153 -0.0049000790440741253 0 -0.043276652314790304 -0.0080165892041641606 0 -0.044894856262494245 -0.0057596240998948403 0 -0.044834807237940047 -0.0037401713270313031 0 -0.042326769438379153 -0.0049000790440741253 0 -0.044894856262494245 -0.0057596240998948403 0 -0.046695553011124914 -0.004296798196719998 0 -0.047016193289339037 -0.0069231484209684273 0 -0.044894856262494245 -0.0057596240998948403 0 -0.046695553011124914 -0.004296798196719998 0 -0.044834807237940047 -0.0037401713270313031 0 -0.046256231616546739 -0.0026458250851961762 0 -0.044834807237940047 -0.0037401713270313031 0 -0.043633323118111043 -0.0019623193044416712 0 -0.046695553011124914 -0.004296798196719998 0 -0.046256231616546739 -0.0026458250851961762 0 -0.044834807237940047 -0.0037401713270313031 0 -0.048311349630896117 -0.0027390669402049365 0 -0.046695553011124914 -0.004296798196719998 0 -0.046256231616546739 -0.0026458250851961762 0 -0.044834807237940047 -0.0037401713270313031 0 -0.043633323118111043 -0.0019623193044416712 0 -0.042326769438379153 -0.0049000790440741253 0 -0.046105851378873068 -0.001575054468624725 0 -0.046501731395825648 -0.0003763706243991634 0 -0.045076572766638644 -0.0011412461069576761 0 -0.047574243712753726 -0.00052278627649832978 0 -0.044105437677899435 -0.0008576744214962395 0 -0.047613537299899852 -0.00092762558079210859 0 -0.046256231616546739 -0.0026458250851961762 0 -0.043633323118111043 -0.0019623193044416712 0 -0.046105851378873068 -0.001575054468624725 0 -0.047812203153488879 -0.00046491500261872684 0 -0.046501731395825648 -0.0003763706243991634 0 -0.048367042624342375 -0.0010090261098292073 0 -0.046105851378873068 -0.001575054468624725 0 -0.047812203153488879 -0.00046491500261872684 0 -0.047362947236381826 0.00070862523450488507 0 -0.048323396274408029 0.0014344899705837145 0 -0.047812203153488879 -0.00046491500261872684 0 -0.047362947236381826 0.00070862523450488507 0 -0.047812203153488879 -0.00046491500261872684 0 -0.046501731395825648 -0.0003763706243991634 0 -0.047362947236381826 0.00070862523450488507 0 -0.046501731395825648 -0.0003763706243991634 0 -0.046076967997400159 0.00048664067009758039 0 -0.046501731395825648 -0.0003763706243991634 0 -0.046076967997400159 0.00048664067009758039 0 -0.045076572766638644 -0.0011412461069576761 0 -0.046076967997400159 0.00048664067009758039 0 -0.044609215542039893 -0.00038859822271512351 0 -0.044749312156108514 0.00082188375637491943 0 -0.044394378028529219 0.00067547319412901137 0 -0.043488441714254311 0.00045846558272420295 0 -0.046076967997400159 0.00048664067009758039 0 -0.044390749396871071 -0.0002400557462995027 0 -0.045076572766638644 -0.0011412461069576761 0 -0.044609215542039893 -0.00038859822271512351 0 -0.042921447652758363 -0.0012763620244587057 0 -0.042739219828560986 3.4343168827614628e-05 0 -0.044609215542039893 -0.00038859822271512351 0 -0.042739219828560986 3.4343168827614628e-05 0 -0.044749312156108514 0.00082188375637491943 0 -0.043979147153696566 -0.0015127961001669427 0 -0.043270774950623564 -0.001804988784280316 0 -0.042661654058755855 -0.0010434329151623311 0 -0.043488441714254311 0.00045846558272420295 0 -0.041309914946221701 0.00018662095344581644 0 -0.044390749396871071 -0.0002400557462995027 0 -0.043979147153696566 -0.0015127961001669427 0 -0.042661654058755855 -0.0010434329151623311 0 -0.043979147153696566 -0.0015127961001669427 0 -0.043270774950623564 -0.001804988784280316 0 -0.043909834886701256 -0.002224784255916891 0 -0.046105851378873068 -0.001575054468624725 0 -0.045076572766638644 -0.0011412461069576761 0 -0.04391731950951102 -0.0021788109106064095 0 -0.044390749396871071 -0.0002400557462995027 0 -0.043979147153696566 -0.0015127961001669427 0 -0.045076572766638644 -0.0011412461069576761 0 -0.043979147153696566 -0.0015127961001669427 0 -0.045076572766638644 -0.0011412461069576761 0 -0.04391731950951102 -0.0021788109106064095 0 -0.044105437677899435 -0.0008576744214962395 0 -0.038116035961308393 -0.0010383528195672365 0 -0.043633323118111043 -0.0019623193044416712 0 -0.039755436529160124 -0.0029908279143130421 0 -0.042326769438379153 -0.0049000790440741253 0 -0.038278037052183897 -0.0010687094097211038 0 -0.038116035961308393 -0.0010383528195672365 0 -0.043270774950623564 -0.001804988784280316 0 -0.043909834886701256 -0.002224784255916891 0 -0.042591292496026244 -0.0021039911325457629 0 -0.038116035961308393 -0.0010383528195672365 0 -0.035525269017259477 -0.0029842214685811062 0 -0.029936751308606208 -0.0011830463795740316 0 -0.030032265976302455 -5.9621002889458269e-05 0 -0.030538579428997296 -0.00064727068738071531 0 -0.030032265976302455 -5.9621002889458269e-05 0 -0.030746688594386097 3.2772377113242364e-06 0 -0.030538579428997296 -0.00064727068738071531 0 -0.039444759985489852 -0.0062651347759885411 0 -0.042326769438379153 -0.0049000790440741253 0 -0.04096287533612282 -0.0079537540463697869 0 -0.039755436529160124 -0.0029908279143130421 0 -0.039444759985489852 -0.0062651347759885411 0 -0.042326769438379153 -0.0049000790440741253 0 -0.032990162502881705 -6.8811108703335466e-05 0 -0.033016530120090079 1.2688126469707512e-06 0 -0.034119552813203495 -0.00012461644081743019 0 -0.032990162502881705 -6.8811108703335466e-05 0 -0.032009465955601453 2.9239921108683253e-05 0 -0.032588153683395571 -0.00028812227479501121 0 -0.032990162502881705 -6.8811108703335466e-05 0 -0.033016530120090079 1.2688126469707512e-06 0 -0.032009465955601453 2.9239921108683253e-05 0 -0.035588584537351982 0.00040590570769151235 0 -0.036695916335295731 -0.00041898102225516431 0 -0.030746688594386097 3.2772377113242364e-06 0 -0.031224387942276825 -0.00069760017806231461 0 -0.030538579428997296 -0.00064727068738071531 0 -0.032009465955601453 2.9239921108683253e-05 0 -0.030746688594386097 3.2772377113242364e-06 0 -0.032588153683395571 -0.00028812227479501121 0 -0.029936751308606208 -0.0011830463795740316 0 -0.030538579428997296 -0.00064727068738071531 0 -0.031309820270371332 -0.00082592076118061773 0 -0.038116035961308393 -0.0010383528195672365 0 -0.037154237017558607 -0.00076859396910902624 0 -0.043909834886701256 -0.002224784255916891 0 -0.042591292496026244 -0.0021039911325457629 0 -0.041536806366377736 -0.0028597078817629122 0 -0.031224387942276825 -0.00069760017806231461 0 -0.030538579428997296 -0.00064727068738071531 0 -0.031309820270371332 -0.00082592076118061773 0 -0.043270774950623564 -0.001804988784280316 0 -0.042591292496026244 -0.0021039911325457629 0 -0.042534655456221246 -0.0017128827006625026 0 -0.042591292496026244 -0.0021039911325457629 0 -0.041809550220621876 -0.0019740333117482843 0 -0.042534655456221246 -0.0017128827006625026 0 -0.042591292496026244 -0.0021039911325457629 0 -0.041809550220621876 -0.0019740333117482843 0 -0.041536806366377736 -0.0028597078817629122 0 -0.037154237017558607 -0.00076859396910902624 0 -0.037353315060711947 -6.4748171793852362e-05 0 -0.033005546135644333 -0.00028895644866011491 0 -0.034119552813203495 -0.00012461644081743019 0 -0.034609967033562061 -0.00097766376622380503 0 -0.041809550220621876 -0.0019740333117482843 0 -0.041536806366377736 -0.0028597078817629122 0 -0.040892101859393119 -0.001907113775692682 0 -0.033016530120090079 1.2688126469707512e-06 0 -0.034119552813203495 -0.00012461644081743019 0 -0.036061090429685701 -3.3033801322081761e-06 0 -0.032588153683395571 -0.00028812227479501121 0 -0.033005546135644333 -0.00028895644866011491 0 -0.034119552813203495 -0.00012461644081743019 0 -0.032990162502881705 -6.8811108703335466e-05 0 -0.032588153683395571 -0.00028812227479501121 0 -0.034119552813203495 -0.00012461644081743019 0 -0.036695916335295731 -0.00041898102225516431 0 -0.037154237017558607 -0.00076859396910902624 0 -0.034119552813203495 -0.00012461644081743019 0 -0.034609967033562061 -0.00097766376622380503 0 -0.036061090429685701 -3.3033801322081761e-06 0 -0.037353315060711947 -6.4748171793852362e-05 0 -0.036070444808756243 -2.2374943248807846e-06 0 -0.036484531037367943 4.9647091862771758e-07 0 -0.036067681748000562 2.842974502071589e-09 0 -0.03772179097478804 -8.2827521699438327e-10 0 -0.038968692691625513 -0.0021424752061443078 0 -0.037736106416537414 -5.7481628721345142e-06 0 -0.042921447652758363 -0.0012763620244587057 0 -0.037353315060711947 -6.4748171793852362e-05 0 -0.037722825807461703 -5.1883462038769293e-07 0 -0.037736106416537414 -5.7481628721345142e-06 0 -0.042921447652758363 -0.0012763620244587057 0 -0.042739219828560986 3.4343168827614628e-05 0 -0.037353315060711947 -6.4748171793852362e-05 0 -0.041309914946221701 0.00018662095344581644 0 -0.041809550220621876 -0.0019740333117482843 0 -0.040892101859393119 -0.001907113775692682 0 -0.042661654058755855 -0.0010434329151623311 0 -0.043270774950623564 -0.001804988784280316 0 -0.042534655456221246 -0.0017128827006625026 0 -0.042661654058755855 -0.0010434329151623311 0 -0.041809550220621876 -0.0019740333117482843 0 -0.042534655456221246 -0.0017128827006625026 0 -0.042661654058755855 -0.0010434329151623311 0 -0.037736106416537414 -5.7481628721345142e-06 0 -0.042739219828560986 3.4343168827614628e-05 0 -0.047324025815357419 2.9118969309826401e-06 0 -0.042739219828560986 3.4343168827614628e-05 0 -0.04664776639900136 -4.2574908459333167e-05 0 -0.047324025815357419 2.9118969309826401e-06 0 -0.04507878762873601 0.00058528895187531728 0 -0.045969060883294256 0.0011370970100592227 0 -0.042739219828560986 3.4343168827614628e-05 0 -0.044749312156108514 0.00082188375637491943 0 -0.044059904052223667 0.0018446499384009759 0 -0.045764520285788687 0.0019087764577527496 0 -0.046076967997400159 0.00048664067009758039 0 -0.044749312156108514 0.00082188375637491943 0 -0.045764520285788687 0.0019087764577527496 0 -0.044749312156108514 0.00082188375637491943 0 -0.044059904052223667 0.0018446499384009759 0 -0.045969060883294256 0.0011370970100592227 0 -0.047368962378896068 0.0017852226234122712 0 -0.045764520285788687 0.0019087764577527496 0 -0.044059904052223667 0.0018446499384009759 0 -0.04532901767691333 0.0034754900887716249 0 -0.04664776639900136 -4.2574908459333167e-05 0 -0.048214851288800993 0.00011503462018684696 0 -0.049164050354906251 0.00012746262508719241 0 -0.049529074670478013 0.00028599667209101669 0 -0.049164050354906251 0.00012746262508719241 0 -0.049572375840192799 0.00023444196731730555 0 -0.049529074670478013 0.00028599667209101669 0 -0.04974638270633177 0.00024033330098647906 0 -0.049164050354906251 0.00012746262508719241 0 -0.048214851288800993 0.00011503462018684696 0 -0.049164050354906251 0.00012746262508719241 0 -0.049572375840192799 0.00023444196731730555 0 -0.048214851288800993 0.00011503462018684696 0 -0.049572375840192799 0.00023444196731730555 0 -0.049240937043433797 0.00018687620635552199 0 -0.04664776639900136 -4.2574908459333167e-05 0 -0.048214851288800993 0.00011503462018684696 0 -0.047324025815357419 2.9118969309826401e-06 0 -0.051347368754081371 0.00016575447870360299 0 -0.049240937043433797 0.00018687620635552199 0 -0.047324025815357419 2.9118969309826401e-06 0 -0.048214851288800993 0.00011503462018684696 0 -0.049240937043433797 0.00018687620635552199 0 -0.047324025815357419 2.9118969309826401e-06 0 -0.014856701744918568 -0.00073805537362985605 0 -0.015284151836781428 -0.0013171679671235513 0 -0.014688833207878784 -0.0020238627332730208 0 -0.021598204953912972 -0.003085386804793395 0 -0.022334685336393868 -0.0039218391312788444 0 -0.015440070908010696 -0.00089211504953305666 0 -0.016286126937651569 -0.00094729443269166603 0 -0.015366008009480864 -0.00076519625865652436 0 -0.016286126937651569 -0.00094729443269166603 0 -0.01729908953404824 -0.0004412445045484625 0 -0.015366008009480864 -0.00076519625865652436 0 -0.015440070908010696 -0.00089211504953305666 0 -0.014856701744918568 -0.00073805537362985605 0 -0.015284151836781428 -0.0013171679671235513 0 -0.015440070908010696 -0.00089211504953305666 0 -0.014856701744918568 -0.00073805537362985605 0 -0.015366008009480864 -0.00076519625865652436 0 -0.015284151836781428 -0.0013171679671235513 0 -0.015827958408771207 -0.0018754705732758241 0 -0.014688833207878784 -0.0020238627332730208 0 -0.015284151836781428 -0.0013171679671235513 0 -0.016286126937651569 -0.00094729443269166603 0 -0.015827958408771207 -0.0018754705732758241 0 -0.015440070908010696 -0.00089211504953305666 0 -0.015284151836781428 -0.0013171679671235513 0 -0.016286126937651569 -0.00094729443269166603 0 -0.016286126937651569 -0.00094729443269166603 0 -0.016917784556055613 -0.001452279934989894 0 -0.015827958408771207 -0.0018754705732758241 0 -0.016286126937651569 -0.00094729443269166603 0 -0.016917784556055613 -0.001452279934989894 0 -0.01758989325461998 -0.00075530889492526172 0 -0.016917784556055613 -0.001452279934989894 0 -0.01758989325461998 -0.00075530889492526172 0 -0.019550572816225149 -0.00057833977664839206 0 -0.016286126937651569 -0.00094729443269166603 0 -0.01758989325461998 -0.00075530889492526172 0 -0.01729908953404824 -0.0004412445045484625 0 -0.01758989325461998 -0.00075530889492526172 0 -0.019550572816225149 -0.00057833977664839206 0 -0.01729908953404824 -0.0004412445045484625 0 -0.020089503765900414 -1.7349779473092594e-06 0 -0.01729908953404824 -0.0004412445045484625 0 -0.016304354469760272 -1.8269231353779071e-06 0 -0.020089503765900414 -1.7349779473092594e-06 0 -0.019550572816225149 -0.00057833977664839206 0 -0.01729908953404824 -0.0004412445045484625 0 -0.01729908953404824 -0.0004412445045484625 0 -0.016304354469760272 -1.8269231353779071e-06 0 -0.015314806958684599 -0.00071755592821079017 0 -0.01729908953404824 -0.0004412445045484625 0 -0.015314806958684599 -0.00071755592821079017 0 -0.015366008009480864 -0.00076519625865652436 0 -0.015314806958684599 -0.00071755592821079017 0 -0.014050799396934755 -0.0014064499547238154 0 -0.013421310565871274 -0.0012062170895055836 0 -0.014050799396934755 -0.0014064499547238154 0 -0.015051905106282936 -0.00076135139182560328 0 -0.012207795660533838 -0.0029873524018222361 0 -0.015314806958684599 -0.00071755592821079017 0 -0.015366008009480864 -0.00076519625865652436 0 -0.014050799396934755 -0.0014064499547238154 0 -0.014856701744918568 -0.00073805537362985605 0 -0.015366008009480864 -0.00076519625865652436 0 -0.014050799396934755 -0.0014064499547238154 0 -0.014856701744918568 -0.00073805537362985605 0 -0.014050799396934755 -0.0014064499547238154 0 -0.015051905106282936 -0.00076135139182560328 0 -0.0093495744787699085 -0.0057914020530254722 0 -0.011638879158622202 -0.010959740420026984 0 -0.012207795660533838 -0.0029873524018222361 0 -0.017698008778091887 -0.006602628295432701 0 -0.017049774787362908 -0.0053665879462508337 0 -0.0093495744787699085 -0.0057914020530254722 0 -0.0092680002074560178 -0.0093763954778269473 0 -0.007648860519366741 -0.009042833772297771 0 -0.0092680002074560178 -0.0093763954778269473 0 -0.007648860519366741 -0.009042833772297771 0 -0.0085602506533927133 -0.011556852125693094 0 -0.0092680002074560178 -0.0093763954778269473 0 -0.011638879158622202 -0.010959740420026984 0 -0.0085602506533927133 -0.011556852125693094 0 -0.0093495744787699085 -0.0057914020530254722 0 -0.0092680002074560178 -0.0093763954778269473 0 -0.011638879158622202 -0.010959740420026984 0 -0.0093495744787699085 -0.0057914020530254722 0 -0.007648860519366741 -0.009042833772297771 0 -0.0051879258339171961 -0.0067159820413810216 0 -0.007648860519366741 -0.009042833772297771 0 -0.0048526813364770912 -0.010891102966039632 0 -0.0068576243313780453 -0.011184428855183457 0 -0.007648860519366741 -0.009042833772297771 0 -0.0068576243313780453 -0.011184428855183457 0 -0.0085602506533927133 -0.011556852125693094 0 -0.0048526813364770912 -0.010891102966039632 0 -0.0023479670276697244 -0.010008854809979782 0 -0.0051879258339171961 -0.0067159820413810216 0 -0.007648860519366741 -0.009042833772297771 0 -0.0048526813364770912 -0.010891102966039632 0 -0.0051879258339171961 -0.0067159820413810216 0 -0.0048526813364770912 -0.010891102966039632 0 -0.0064649947014653476 -0.013189334428920787 0 -0.0042946679194934556 -0.013598750965212816 0 -0.0064649947014653476 -0.013189334428920787 0 -0.0085602506533927133 -0.011556852125693094 0 -0.0085708355241471777 -0.014192171030172932 0 -0.0048526813364770912 -0.010891102966039632 0 -0.0068576243313780453 -0.011184428855183457 0 -0.0064649947014653476 -0.013189334428920787 0 -0.0068576243313780453 -0.011184428855183457 0 -0.0064649947014653476 -0.013189334428920787 0 -0.0085602506533927133 -0.011556852125693094 0 -0.0064649947014653476 -0.013189334428920787 0 -0.0085708355241471777 -0.014192171030172932 0 -0.0062222719971667239 -0.015673864622995928 0 -0.0042946679194934556 -0.013598750965212816 0 -0.0062222719971667239 -0.015673864622995928 0 -0.0031574198288978682 -0.0161124314096238 0 -0.0064649947014653476 -0.013189334428920787 0 -0.0042946679194934556 -0.013598750965212816 0 -0.0062222719971667239 -0.015673864622995928 0 -0.015051905106282936 -0.00076135139182560328 0 -0.01504519363705896 -0.00060721095860264069 0 -0.015007790159712119 -0.000610651033138084 0 -0.014856701744918568 -0.00073805537362985605 0 -0.015051905106282936 -0.00076135139182560328 0 -0.015007790159712119 -0.000610651033138084 0 -0.017698008778091887 -0.006602628295432701 0 -0.019909269895515107 -0.0087548909682874324 0 -0.011638879158622202 -0.010959740420026984 0 -0.0085708355241471777 -0.014192171030172932 0 -0.01041925529669257 -0.016585788912139098 0 -0.011638879158622202 -0.010959740420026984 0 -0.0085602506533927133 -0.011556852125693094 0 -0.0085708355241471777 -0.014192171030172932 0 -0.01041925529669257 -0.016585788912139098 0 -0.0066672644033402527 -0.018689937134905965 0 -0.0095092239367549087 -0.021803283619946164 0 -0.019909269895515107 -0.0087548909682874324 0 -0.024848616506392463 -0.0098498395894792944 0 -0.01504519363705896 -0.00060721095860264069 0 -0.01506572029813388 -0.00063779523636198329 0 -0.015007790159712119 -0.000610651033138084 0 -0.0085708355241471777 -0.014192171030172932 0 -0.01041925529669257 -0.016585788912139098 0 -0.0079649987907821403 -0.016299531620486449 0 -0.01041925529669257 -0.016585788912139098 0 -0.0079649987907821403 -0.016299531620486449 0 -0.0066672644033402527 -0.018689937134905965 0 -0.0062222719971667239 -0.015673864622995928 0 -0.0066672644033402527 -0.018689937134905965 0 -0.0031574198288978682 -0.0161124314096238 0 -0.0085708355241471777 -0.014192171030172932 0 -0.0079649987907821403 -0.016299531620486449 0 -0.0062222719971667239 -0.015673864622995928 0 -0.0079649987907821403 -0.016299531620486449 0 -0.0062222719971667239 -0.015673864622995928 0 -0.0066672644033402527 -0.018689937134905965 0 -0.025500137087795999 -0.010105980800527171 0 -0.023277075430667631 -0.014151707900639111 0 -0.039401882736458095 -0.016156549367678099 0 -0.04193712115720348 -0.014253365748722803 0 -0.04325223263143544 -0.0161866620821314 0 -0.0066672644033402527 -0.018689937134905965 0 -0.0089916084324990087 -0.022191570122674569 0 -0.0023842434803728763 -0.021923669269886287 0 -0.01504519363705896 -0.00060721095860264069 0 -0.01506572029813388 -0.00063779523636198329 0 -0.015054793863797095 -0.00066458410105765071 0 -0.024703907482401102 -0.0067066244690904423 0 -0.024848616506392463 -0.0098498395894792944 0 -0.024703907482401102 -0.0067066244690904423 0 -0.026457873232337864 -0.0074013648619887761 0 -0.0066672644033402527 -0.018689937134905965 0 -0.0095092239367549087 -0.021803283619946164 0 -0.0089916084324990087 -0.022191570122674569 0 -0.024848616506392463 -0.0098498395894792944 0 -0.025500137087795999 -0.010105980800527171 0 -0.025681281134105199 -0.0085824437208462667 0 -0.025479708525480559 -0.0099044032124312158 0 -0.023990349489147137 -0.0098806991796672565 0 -0.024848616506392463 -0.0098498395894792944 0 -0.02540583785473963 -0.0097950262320792621 0 -0.02540583785473963 -0.0097950262320792621 0 -0.025500137087795999 -0.010105980800527171 0 -0.025194376370124921 -0.0088495122760266637 0 -0.026212003852060753 -0.0080692422915857303 0 -0.025287622485245794 -0.0078781073642814892 0 -0.02540583785473963 -0.0097950262320792621 0 -0.026457873232337864 -0.0074013648619887761 0 -0.026212003852060753 -0.0080692422915857303 0 -0.026238616614833895 -0.00789442408142969 0 -0.025287622485245794 -0.0078781073642814892 0 -0.028987133884989216 -0.0012750554185181958 0 -0.027356596750175207 -0.001262094767019111 0 -0.028320729561837121 -0.00032502912844467174 0 -0.026457873232337864 -0.0074013648619887761 0 -0.024976806309368851 -0.0033991667005225123 0 -0.021250944044837225 -0.00034956558191314455 0 -0.021595062595137781 -0.00037911142062841817 0 -0.021447935681888367 -0.00017546703563562621 0 -0.021283491409791817 -0.00018133174418256121 0 -0.021250944044837225 -0.00034956558191314455 0 -0.021447935681888367 -0.00017546703563562621 0 -0.024703907482401102 -0.0067066244690904423 0 -0.022334685336393868 -0.0039218391312788444 0 -0.024703907482401102 -0.0067066244690904423 0 -0.023088168588704026 -0.0057509596987873612 0 -0.014359830023374676 -0.0049063069364622212 0 -0.016320923803987648 -0.0034293473449892075 0 -0.014688833207878784 -0.0020238627332730208 0 -0.021283491409791817 -0.00018133174418256121 0 -0.021447935681888367 -0.00017546703563562621 0 -0.021463217050213219 -7.3949046086110127e-05 0 -0.021447935681888367 -0.00017546703563562621 0 -0.021463217050213219 -7.3949046086110127e-05 0 -0.021565238717992902 6.136382412929969e-05 0 -0.016917784556055613 -0.001452279934989894 0 -0.016320923803987648 -0.0034293473449892075 0 -0.015827958408771207 -0.0018754705732758241 0 -0.016320923803987648 -0.0034293473449892075 0 -0.015827958408771207 -0.0018754705732758241 0 -0.014688833207878784 -0.0020238627332730208 0 -0.020089503765900414 -1.7349779473092594e-06 0 -0.021565238717992902 6.136382412929969e-05 0 -0.023868550711870898 -6.351063616416056e-07 0 -0.020089503765900414 -1.7349779473092594e-06 0 -0.019550572816225149 -0.00057833977664839206 0 -0.021565238717992902 6.136382412929969e-05 0 -0.019550572816225149 -0.00057833977664839206 0 -0.021463217050213219 -7.3949046086110127e-05 0 -0.021565238717992902 6.136382412929969e-05 0 -0.022776359352598755 -0.005283851457808313 0 -0.023088168588704026 -0.0057509596987873612 0 -0.016917784556055613 -0.001452279934989894 0 -0.019550572816225149 -0.00057833977664839206 0 -0.016320923803987648 -0.0034293473449892075 0 -0.024976806309368851 -0.0033991667005225123 0 -0.023874783439198671 -1.0001870767485835e-05 0 -0.021595062595137781 -0.00037911142062841817 0 -0.021565238717992902 6.136382412929969e-05 0 -0.023868550711870898 -6.351063616416056e-07 0 -0.021595062595137781 -0.00037911142062841817 0 -0.021447935681888367 -0.00017546703563562621 0 -0.021565238717992902 6.136382412929969e-05 0 -0.027356596750175207 -0.001262094767019111 0 -0.023878199909079165 -3.9839352422891947e-06 0 -0.027288360410993581 7.5370018104115637e-05 0 -0.023878199909079165 -3.9839352422891947e-06 0 -0.027288360410993581 7.5370018104115637e-05 0 -0.02692108747854834 1.789182755010752e-06 0 -0.028987133884989216 -0.0012750554185181958 0 -0.028320729561837121 -0.00032502912844467174 0 -0.029214046552999858 0.00035409090346440506 0 -0.027356596750175207 -0.001262094767019111 0 -0.027288360410993581 7.5370018104115637e-05 0 -0.028320729561837121 -0.00032502912844467174 0 -0.027288360410993581 7.5370018104115637e-05 0 -0.028320729561837121 -0.00032502912844467174 0 -0.028576004043959279 0.00030715670192250715 0 -0.028320729561837121 -0.00032502912844467174 0 -0.028576004043959279 0.00030715670192250715 0 -0.029214046552999858 0.00035409090346440506 0 -0.027288360410993581 7.5370018104115637e-05 0 -0.028576004043959279 0.00030715670192250715 0 -0.028659524167008215 0.00038034129015118218 0 -0.028576004043959279 0.00030715670192250715 0 -0.02925405487348167 0.00054237955666523263 0 -0.029214046552999858 0.00035409090346440506 0 -0.028576004043959279 0.00030715670192250715 0 -0.02925405487348167 0.00054237955666523263 0 -0.028659524167008215 0.00038034129015118218 0 -0.02692108747854834 1.789182755010752e-06 0 -0.028659524167008215 0.00038034129015118218 0 -0.029969335789634205 5.5134276229525602e-07 0 -0.027288360410993581 7.5370018104115637e-05 0 -0.02692108747854834 1.789182755010752e-06 0 -0.028659524167008215 0.00038034129015118218 0 -0.028659524167008215 0.00038034129015118218 0 -0.029969335789634205 5.5134276229525602e-07 0 -0.030382649776302943 0.00042197377539190506 0 -0.02925405487348167 0.00054237955666523263 0 -0.030382649776302943 0.00042197377539190506 0 -0.029656379581931298 0.00060828369214381485 0 -0.02925405487348167 0.00054237955666523263 0 -0.028659524167008215 0.00038034129015118218 0 -0.030382649776302943 0.00042197377539190506 0 -0.032009465955601453 2.9239921108683253e-05 0 -0.030746688594386097 3.2772377113242364e-06 0 -0.030382649776302943 0.00042197377539190506 0 -0.030746688594386097 3.2772377113242364e-06 0 -0.030382649776302943 0.00042197377539190506 0 -0.029656379581931298 0.00060828369214381485 0 -0.033016530120090079 1.2688126469707512e-06 0 -0.029969335789634205 5.5134276229525602e-07 0 -0.030382649776302943 0.00042197377539190506 0 -0.033016530120090079 1.2688126469707512e-06 0 -0.032009465955601453 2.9239921108683253e-05 0 -0.030382649776302943 0.00042197377539190506 0 -0.042326769438379153 -0.0049000790440741253 0 -0.04096287533612282 -0.0079537540463697869 0 -0.043276652314790304 -0.0080165892041641606 0 -0.04096287533612282 -0.0079537540463697869 0 -0.041928937796914048 -0.010301908970393738 0 -0.043276652314790304 -0.0080165892041641606 0 -0.035525269017259477 -0.0029842214685811062 0 -0.033373139939908376 -0.004385917753275753 0 -0.039444759985489852 -0.0062651347759885411 0 -0.04096287533612282 -0.0079537540463697869 0 -0.03912946246309109 -0.0095047430393720884 0 -0.030032265976302455 -5.9621002889458269e-05 0 -0.030746688594386097 3.2772377113242364e-06 0 -0.029656379581931298 0.00060828369214381485 0 -0.04096287533612282 -0.0079537540463697869 0 -0.03912946246309109 -0.0095047430393720884 0 -0.041928937796914048 -0.010301908970393738 0 -0.03912946246309109 -0.0095047430393720884 0 -0.041928937796914048 -0.010301908970393738 0 -0.040326990157133424 -0.011625439657930918 0 -0.041928937796914048 -0.010301908970393738 0 -0.041761358555210647 -0.012404839469095796 0 -0.040326990157133424 -0.011625439657930918 0 -0.041761358555210647 -0.012404839469095796 0 -0.040326990157133424 -0.011625439657930918 0 -0.040063396129591387 -0.013021314131793384 0 -0.03912946246309109 -0.0095047430393720884 0 -0.040326990157133424 -0.011625439657930918 0 -0.038816115890962094 -0.012696000850456557 0 -0.02925405487348167 0.00054237955666523263 0 -0.029656379581931298 0.00060828369214381485 0 -0.029214046552999858 0.00035409090346440506 0 -0.033373139939908376 -0.004385917753275753 0 -0.030715051026647483 -0.0059281874044744649 0 -0.040326990157133424 -0.011625439657930918 0 -0.040063396129591387 -0.013021314131793384 0 -0.038816115890962094 -0.012696000850456557 0 -0.039572653328321127 -0.015955623604632239 0 -0.039816454554781229 -0.015960106929605065 0 -0.040063396129591387 -0.013021314131793384 0 -0.02540583785473963 -0.0097950262320792621 0 -0.027680035809638459 -0.011105479337990712 0 -0.038490977355218232 -0.015742780359685366 0 -0.040063396129591387 -0.013021314131793384 0 -0.038816115890962094 -0.012696000850456557 0 -0.039586554686004423 -0.015759518650649718 0 -0.038490977355218232 -0.015742780359685366 0 -0.040063396129591387 -0.013021314131793384 0 -0.026457873232337864 -0.0074013648619887761 0 -0.030715051026647483 -0.0059281874044744649 0 -0.025500137087795999 -0.010105980800527171 0 -0.034313313695528383 -0.0090928771076671609 0 -0.039816454554781229 -0.015960106929605065 0 -0.040063396129591387 -0.013021314131793384 0 -0.042136445129507455 -0.014220654863677117 0 -0.041761358555210647 -0.012404839469095796 0 -0.040063396129591387 -0.013021314131793384 0 -0.042136445129507455 -0.014220654863677117 0 -0.034313313695528383 -0.0090928771076671609 0 -0.036986546665992152 -0.008756994415241354 0 -0.04193712115720348 -0.014253365748722803 0 -0.044737612707056722 -0.014483257780880273 0 -0.04325223263143544 -0.0161866620821314 0 -0.04193712115720348 -0.014253365748722803 0 -0.044737612707056722 -0.014483257780880273 0 -0.04443158491435488 -0.012501767556587953 0 -0.044737612707056722 -0.014483257780880273 0 -0.04443158491435488 -0.012501767556587953 0 -0.047020935666385974 -0.013349549778599692 0 -0.044737612707056722 -0.014483257780880273 0 -0.047020935666385974 -0.013349549778599692 0 -0.046900081411628283 -0.016119782446969756 0 -0.04443158491435488 -0.012501767556587953 0 -0.046967725779742418 -0.010372272817651159 0 -0.047020935666385974 -0.013349549778599692 0 -0.041761358555210647 -0.012404839469095796 0 -0.042136445129507455 -0.014220654863677117 0 -0.04443158491435488 -0.012501767556587953 0 -0.041928937796914048 -0.010301908970393738 0 -0.041761358555210647 -0.012404839469095796 0 -0.04443158491435488 -0.012501767556587953 0 -0.041928937796914048 -0.010301908970393738 0 -0.04443158491435488 -0.012501767556587953 0 -0.044328045526428377 -0.010075829466552909 0 -0.041928937796914048 -0.010301908970393738 0 -0.044328045526428377 -0.010075829466552909 0 -0.043276652314790304 -0.0080165892041641606 0 -0.04443158491435488 -0.012501767556587953 0 -0.044328045526428377 -0.010075829466552909 0 -0.046967725779742418 -0.010372272817651159 0 -0.044328045526428377 -0.010075829466552909 0 -0.046967725779742418 -0.010372272817651159 0 -0.045395042701440416 -0.0083947215729950515 0 -0.044894856262494245 -0.0057596240998948403 0 -0.045395042701440416 -0.0083947215729950515 0 -0.047016193289339037 -0.0069231484209684273 0 -0.046967725779742418 -0.010372272817651159 0 -0.045395042701440416 -0.0083947215729950515 0 -0.047016193289339037 -0.0069231484209684273 0 -0.044894856262494245 -0.0057596240998948403 0 -0.045395042701440416 -0.0083947215729950515 0 -0.043276652314790304 -0.0080165892041641606 0 -0.044328045526428377 -0.010075829466552909 0 -0.045395042701440416 -0.0083947215729950515 0 -0.043276652314790304 -0.0080165892041641606 0 -0.051028508898044021 -0.0082288094311667847 0 -0.048765749438972855 -0.0084763548360975785 0 -0.049852618502940912 -0.010194861208355091 0 -0.049542923914616017 -0.0066067176364964821 0 -0.051028508898044021 -0.0082288094311667847 0 -0.048765749438972855 -0.0084763548360975785 0 -0.051794666595760888 -0.0065484554679743285 0 -0.049542923914616017 -0.0066067176364964821 0 -0.051028508898044021 -0.0082288094311667847 0 -0.049542923914616017 -0.0066067176364964821 0 -0.047016193289339037 -0.0069231484209684273 0 -0.048765749438972855 -0.0084763548360975785 0 -0.046967725779742418 -0.010372272817651159 0 -0.047016193289339037 -0.0069231484209684273 0 -0.048765749438972855 -0.0084763548360975785 0 -0.046967725779742418 -0.010372272817651159 0 -0.049852618502940912 -0.010194861208355091 0 -0.049418142772843857 -0.012307796216350253 0 -0.046967725779742418 -0.010372272817651159 0 -0.048765749438972855 -0.0084763548360975785 0 -0.049852618502940912 -0.010194861208355091 0 -0.049852618502940912 -0.010194861208355091 0 -0.051095559856636857 -0.011319491269735716 0 -0.052349612588220538 -0.0095622973988388361 0 -0.051028508898044021 -0.0082288094311667847 0 -0.049852618502940912 -0.010194861208355091 0 -0.052349612588220538 -0.0095622973988388361 0 -0.049852618502940912 -0.010194861208355091 0 -0.051095559856636857 -0.011319491269735716 0 -0.049418142772843857 -0.012307796216350253 0 -0.051095559856636857 -0.011319491269735716 0 -0.049418142772843857 -0.012307796216350253 0 -0.051825604715968629 -0.012548126166333134 0 -0.049418142772843857 -0.012307796216350253 0 -0.051363420939006421 -0.014166699423302077 0 -0.051825604715968629 -0.012548126166333134 0 -0.046967725779742418 -0.010372272817651159 0 -0.049418142772843857 -0.012307796216350253 0 -0.047020935666385974 -0.013349549778599692 0 -0.047020935666385974 -0.013349549778599692 0 -0.049033779984104187 -0.014382287296483691 0 -0.046900081411628283 -0.016119782446969756 0 -0.049418142772843857 -0.012307796216350253 0 -0.047020935666385974 -0.013349549778599692 0 -0.049033779984104187 -0.014382287296483691 0 -0.049418142772843857 -0.012307796216350253 0 -0.049033779984104187 -0.014382287296483691 0 -0.051363420939006421 -0.014166699423302077 0 -0.049033779984104187 -0.014382287296483691 0 -0.050341832267352359 -0.015983657504358879 0 -0.051363420939006421 -0.014166699423302077 0 0.0086396526470695276 -0.020448640718695114 0 0.0069252435723157419 -0.017640420436115595 0 0.010424684454295298 -0.017702994291674649 0 0.0069252435723157419 -0.017640420436115595 0 0.0096774841677224211 -0.015306271954864819 0 0.0072857075491640742 -0.014967008823050144 0 0.0069252435723157419 -0.017640420436115595 0 0.0096774841677224211 -0.015306271954864819 0 0.010424684454295298 -0.017702994291674649 0 0.0069252435723157419 -0.017640420436115595 0 0.0031500116407977082 -0.017925557179791354 0 0.0046720893549948503 -0.01567652775931597 0 0.0069252435723157419 -0.017640420436115595 0 0.0037422697814326407 -0.021260937784105201 0 0.0031500116407977082 -0.017925557179791354 0 0.0069252435723157419 -0.017640420436115595 0 0.0072857075491640742 -0.014967008823050144 0 0.0046720893549948503 -0.01567652775931597 0 0.0086396526470695276 -0.020448640718695114 0 0.0069252435723157419 -0.017640420436115595 0 0.0037422697814326407 -0.021260937784105201 0 -0.021194858854587554 -0.015069753696750007 0 -0.021987675790158853 -0.015494801582792086 0 -0.049033779984104187 -0.014382287296483691 0 -0.050341832267352359 -0.015983657504358879 0 -0.046900081411628283 -0.016119782446969756 0 -0.021987675790158853 -0.015494801582792086 0 -0.023277075430667631 -0.014151707900639111 0 0.0037422697814326407 -0.021260937784105201 0 -0.00064294098638960871 -0.018692246813459035 0 0.0031500116407977082 -0.017925557179791354 0 -0.044737612707056722 -0.014483257780880273 0 -0.046900081411628283 -0.016119782446969756 0 -0.04325223263143544 -0.0161866620821314 0 0.0037422697814326407 -0.021260937784105201 0 -0.0023842434803728763 -0.021923669269886287 0 -0.00064294098638960871 -0.018692246813459035 0 -0.0066672644033402527 -0.018689937134905965 0 -0.0023842434803728763 -0.021923669269886287 0 -0.00064294098638960871 -0.018692246813459035 0 -0.0066672644033402527 -0.018689937134905965 0 -0.00064294098638960871 -0.018692246813459035 0 -0.0031574198288978682 -0.0161124314096238 0 -0.00064294098638960871 -0.018692246813459035 0 -0.0031574198288978682 -0.0161124314096238 0 0.0010143411427037032 -0.015588592481587551 0 -0.00064294098638960871 -0.018692246813459035 0 0.0031500116407977082 -0.017925557179791354 0 0.0010143411427037032 -0.015588592481587551 0 0.0031500116407977082 -0.017925557179791354 0 0.0010143411427037032 -0.015588592481587551 0 0.0046720893549948503 -0.01567652775931597 0 0.0010143411427037032 -0.015588592481587551 0 0.0031555481727225504 -0.013933774964933084 0 0.0046720893549948503 -0.01567652775931597 0 0.0010143411427037032 -0.015588592481587551 0 0.0011214610889847762 -0.013214828035092743 0 -0.0016828252752441842 -0.012889202152977919 0 0.0010143411427037032 -0.015588592481587551 0 0.0011214610889847762 -0.013214828035092743 0 0.0031555481727225504 -0.013933774964933084 0 0.0011214610889847762 -0.013214828035092743 0 0.0031555481727225504 -0.013933774964933084 0 0.0028774071737653673 -0.011875306559536392 0 -0.0031574198288978682 -0.0161124314096238 0 0.0010143411427037032 -0.015588592481587551 0 -0.0016828252752441842 -0.012889202152977919 0 -0.0042946679194934556 -0.013598750965212816 0 -0.0031574198288978682 -0.0161124314096238 0 -0.0016828252752441842 -0.012889202152977919 0 0.0011214610889847762 -0.013214828035092743 0 -0.0016828252752441842 -0.012889202152977919 0 0.00020179049905240691 -0.010685987055252607 0 -0.0048526813364770912 -0.010891102966039632 0 -0.0042946679194934556 -0.013598750965212816 0 -0.0016828252752441842 -0.012889202152977919 0 -0.0023479670276697244 -0.010008854809979782 0 -0.0012322412460686418 -0.0075067881460778576 0 -0.0051879258339171961 -0.0067159820413810216 0 -0.0048526813364770912 -0.010891102966039632 0 -0.0016828252752441842 -0.012889202152977919 0 -0.0023479670276697244 -0.010008854809979782 0 -0.0016828252752441842 -0.012889202152977919 0 -0.0023479670276697244 -0.010008854809979782 0 0.00020179049905240691 -0.010685987055252607 0 -0.0023479670276697244 -0.010008854809979782 0 0.00020179049905240691 -0.010685987055252607 0 -0.0012322412460686418 -0.0075067881460778576 0 0.0028774071737653673 -0.011875306559536392 0 0.00020179049905240691 -0.010685987055252607 0 0.0024884986044910393 -0.0088385698670378678 0 0.0011214610889847762 -0.013214828035092743 0 0.0028774071737653673 -0.011875306559536392 0 0.00020179049905240691 -0.010685987055252607 0 0.00020179049905240691 -0.010685987055252607 0 0.0024884986044910393 -0.0088385698670378678 0 -0.0012322412460686418 -0.0075067881460778576 0 0.0028774071737653673 -0.011875306559536392 0 0.0024884986044910393 -0.0088385698670378678 0 0.0048251550090734376 -0.011403044927067349 0 0.0076309409390418496 -0.011403201485630314 0 0.0087813137724432229 -0.013109824868129026 0 0.0060242294514994618 -0.013288301781756209 0 0.0024884986044910393 -0.0088385698670378678 0 0.0048251550090734376 -0.011403044927067349 0 0.0076309409390418496 -0.011403201485630314 0 0.0048251550090734376 -0.011403044927067349 0 0.0076309409390418496 -0.011403201485630314 0 0.0060242294514994618 -0.013288301781756209 0 0.0028774071737653673 -0.011875306559536392 0 0.0048251550090734376 -0.011403044927067349 0 0.0060242294514994618 -0.013288301781756209 0 0.0076309409390418496 -0.011403201485630314 0 0.0087813137724432229 -0.013109824868129026 0 0.010143063818670202 -0.01117775686586474 0 0.0076309409390418496 -0.011403201485630314 0 0.010143063818670202 -0.01117775686586474 0 0.0080686913887497956 -0.011591467682849849 0 0.0087813137724432229 -0.013109824868129026 0 0.0072857075491640742 -0.014967008823050144 0 0.0060242294514994618 -0.013288301781756209 0 0.0087813137724432229 -0.013109824868129026 0 0.0096774841677224211 -0.015306271954864819 0 0.0072857075491640742 -0.014967008823050144 0 0.0072857075491640742 -0.014967008823050144 0 0.0046720893549948503 -0.01567652775931597 0 0.0060242294514994618 -0.013288301781756209 0 0.0031555481727225504 -0.013933774964933084 0 0.0046720893549948503 -0.01567652775931597 0 0.0060242294514994618 -0.013288301781756209 0 0.0031555481727225504 -0.013933774964933084 0 0.0028774071737653673 -0.011875306559536392 0 0.0060242294514994618 -0.013288301781756209 0 0.014459225109307566 -0.013990539064728339 0 0.012852243451085281 -0.015723714601713599 0 0.011549875399082926 -0.013490012477190345 0 0.014459225109307566 -0.013990539064728339 0 0.012852243451085281 -0.015723714601713599 0 0.015013215544227305 -0.015719153907881905 0 0.0087813137724432229 -0.013109824868129026 0 0.0096774841677224211 -0.015306271954864819 0 0.011549875399082926 -0.013490012477190345 0 0.0096774841677224211 -0.015306271954864819 0 0.012852243451085281 -0.015723714601713599 0 0.011549875399082926 -0.013490012477190345 0 0.011549875399082926 -0.013490012477190345 0 0.010143063818670202 -0.01117775686586474 0 0.013763774711342332 -0.011685281908955259 0 0.012226931162914364 -0.012568796964227533 0 0.013799441096027248 -0.01283858590360515 0 0.0087813137724432229 -0.013109824868129026 0 0.011549875399082926 -0.013490012477190345 0 0.010143063818670202 -0.01117775686586474 0 0.014459225109307566 -0.013990539064728339 0 0.011549875399082926 -0.013490012477190345 0 0.013763774711342332 -0.011685281908955259 0 0.013799441096027248 -0.01283858590360515 0 0.011394604417852014 -0.012368779018279753 0 0.014459225109307566 -0.013990539064728339 0 0.013763774711342332 -0.011685281908955259 0 0.017311813005084293 -0.012349648746120167 0 0.017732457873103551 -0.01469893495967846 0 0.020512509915096459 -0.014760725408254554 0 0.01895529297635911 -0.012625825152035053 0 0.0206567131214507 -0.013195498708538816 0 0.020586397001040316 -0.013246470679775966 0 0.020637232879332064 -0.013289278522976537 0 0.0206567131214507 -0.013195498708538816 0 0.020637232879332064 -0.013289278522976537 0 0.02096755584281278 -0.012952570430301362 0 0.0206567131214507 -0.013195498708538816 0 0.020586397001040316 -0.013246470679775966 0 0.020555841882189254 -0.013227672020170967 0 0.011394604417852014 -0.012368779018279753 0 0.011921406215890828 -0.012468871630954548 0 0.02036448978278162 -0.013536261303545323 0 0.020637232879332064 -0.013289278522976537 0 0.020291978523359695 -0.013342141155837661 0 0.011394604417852014 -0.012368779018279753 0 0.013524440126493358 -0.012717965950574062 0 0.020291978523359695 -0.013342141155837661 0 0.020121354443110258 -0.013144078757169931 0 0.021136808685345111 -0.01364847422288778 0 0.02036448978278162 -0.013536261303545323 0 0.020291978523359695 -0.013342141155837661 0 0.020637055409899897 -0.012766379460586189 0 0.011394604417852014 -0.012368779018279753 0 -0.00056398613032794195 -0.011373686552884725 0 0.020291978523359695 -0.013342141155837661 0 0.020121354443110258 -0.013144078757169931 0 0.020637055409899897 -0.012766379460586189 0 0.020121354443110258 -0.013144078757169931 0 0.018223632679350798 -0.011882678734585865 0 0.016569632815144206 -0.012880396296816494 0 0.014459225109307566 -0.013990539064728339 0 0.017311813005084293 -0.012349648746120167 0 0.015928313077920749 -0.014539336198649567 0 0.017311813005084293 -0.012349648746120167 0 0.015928313077920749 -0.014539336198649567 0 0.016927726474530919 -0.01609416212304738 0 0.015928313077920749 -0.014539336198649567 0 0.015013215544227305 -0.015719153907881905 0 0.016927726474530919 -0.01609416212304738 0 0.014459225109307566 -0.013990539064728339 0 0.015928313077920749 -0.014539336198649567 0 0.015013215544227305 -0.015719153907881905 0 -0.00056398613032794195 -0.011373686552884725 0 -0.021891930251457414 -0.0078945337977781322 0 0.015013215544227305 -0.015719153907881905 0 0.016927726474530919 -0.01609416212304738 0 0.014733078696557853 -0.01776417174061851 0 0.016927726474530919 -0.01609416212304738 0 0.014733078696557853 -0.01776417174061851 0 0.016501434441160704 -0.019792799057257986 0 0.020637055409899897 -0.012766379460586189 0 0.019479574760056462 -0.009544600059051403 0 0.021474089898502368 -0.0069755141060502505 0 0.018223632679350798 -0.011882678734585865 0 0.018305834555822464 -0.010692746963217994 0 0.016656825089828083 -0.010861878530976546 0 0.020121354443110258 -0.013144078757169931 0 0.018223632679350798 -0.011882678734585865 0 0.019394404668974609 -0.011825477181312752 0 0.018223632679350798 -0.011882678734585865 0 0.019394404668974609 -0.011825477181312752 0 0.018305834555822464 -0.010692746963217994 0 0.020637055409899897 -0.012766379460586189 0 0.019394404668974609 -0.011825477181312752 0 0.019479574760056462 -0.009544600059051403 0 0.020121354443110258 -0.013144078757169931 0 0.020637055409899897 -0.012766379460586189 0 0.019394404668974609 -0.011825477181312752 0 0.018305834555822464 -0.010692746963217994 0 0.016819784544036893 -0.0088095411700560965 0 0.016656825089828083 -0.010861878530976546 0 0.019479574760056462 -0.009544600059051403 0 0.018305834555822464 -0.010692746963217994 0 0.016819784544036893 -0.0088095411700560965 0 0.019394404668974609 -0.011825477181312752 0 0.019479574760056462 -0.009544600059051403 0 0.018305834555822464 -0.010692746963217994 0 -0.023244727266608787 -0.005501409236020981 0 -0.018888972217186318 -0.0032153288181891782 0 0.019479574760056462 -0.009544600059051403 0 0.018603957918642784 -0.0070252584970693548 0 0.016819784544036893 -0.0088095411700560965 0 0.019479574760056462 -0.009544600059051403 0 0.018603957918642784 -0.0070252584970693548 0 0.021474089898502368 -0.0069755141060502505 0 -0.023244727266608787 -0.005501409236020981 0 -0.038843217720820875 -0.0074826033721779898 0 -0.023244727266608787 -0.005501409236020981 0 -0.021891930251457414 -0.0078945337977781322 0 -0.029616808070876938 -0.0018911067569642608 0 -0.032342841685195307 -0.0019389250854289642 0 -0.032599482367770834 -0.004886443700182052 0 -0.021891930251457414 -0.0078945337977781322 0 -0.020904307852358032 -0.012880741760985134 0 -0.056305843030884428 -0.015741370585626604 0 -0.053478570862586991 -0.015809441710972167 0 -0.055709887364870113 -0.014436143532189272 0 0.014733078696557853 -0.01776417174061851 0 0.016501434441160704 -0.019792799057257986 0 0.012649392975270592 -0.019963055965431561 0 -0.021891930251457414 -0.0078945337977781322 0 -0.038843217720820875 -0.0074826033721779898 0 0.012852243451085281 -0.015723714601713599 0 0.014733078696557853 -0.01776417174061851 0 0.012649392975270592 -0.019963055965431561 0 0.012852243451085281 -0.015723714601713599 0 0.015013215544227305 -0.015719153907881905 0 0.014733078696557853 -0.01776417174061851 0 0.0096774841677224211 -0.015306271954864819 0 0.012852243451085281 -0.015723714601713599 0 0.010424684454295298 -0.017702994291674649 0 0.012852243451085281 -0.015723714601713599 0 0.012649392975270592 -0.019963055965431561 0 0.010424684454295298 -0.017702994291674649 0 -0.021194858854587554 -0.015069753696750007 0 -0.020904307852358032 -0.012880741760985134 0 -0.050341832267352359 -0.015983657504358879 0 -0.053478570862586991 -0.015809441710972167 0 -0.051363420939006421 -0.014166699423302077 0 0.0086396526470695276 -0.020448640718695114 0 0.012649392975270592 -0.019963055965431561 0 0.010424684454295298 -0.017702994291674649 0 -0.053478570862586991 -0.015809441710972167 0 -0.051363420939006421 -0.014166699423302077 0 -0.053222094571313272 -0.013570884713359597 0 -0.051363420939006421 -0.014166699423302077 0 -0.053222094571313272 -0.013570884713359597 0 -0.051825604715968629 -0.012548126166333134 0 -0.053478570862586991 -0.015809441710972167 0 -0.054314294322770899 -0.014147752314467034 0 -0.055709887364870113 -0.014436143532189272 0 -0.053478570862586991 -0.015809441710972167 0 -0.054314294322770899 -0.014147752314467034 0 -0.053222094571313272 -0.013570884713359597 0 -0.054314294322770899 -0.014147752314467034 0 -0.053222094571313272 -0.013570884713359597 0 -0.054837900985814911 -0.012782638236895769 0 -0.054837900985814911 -0.012782638236895769 0 -0.053030494366348283 -0.012091204981424986 0 -0.053467534562833791 -0.011284041069741119 0 -0.053222094571313272 -0.013570884713359597 0 -0.054837900985814911 -0.012782638236895769 0 -0.053030494366348283 -0.012091204981424986 0 -0.052094316959241931 -0.0085751062460214661 0 -0.052155073586692711 -0.0083207958549277386 0 -0.060826312952609193 -0.0015177593607120772 0 -0.060712309850808083 -0.0013782793793765931 0 -0.060856161652203457 -0.0013443922728641642 0 -0.048525401693721201 -0.0093346626776531737 0 -0.052155073586692711 -0.0083207958549277386 0 -0.053222094571313272 -0.013570884713359597 0 -0.051825604715968629 -0.012548126166333134 0 -0.053030494366348283 -0.012091204981424986 0 -0.053030494366348283 -0.012091204981424986 0 -0.052363768465027008 -0.011001639638150561 0 -0.053612249837591157 -0.011123956162695474 0 -0.051825604715968629 -0.012548126166333134 0 -0.053030494366348283 -0.012091204981424986 0 -0.052363768465027008 -0.011001639638150561 0 -0.051095559856636857 -0.011319491269735716 0 -0.051825604715968629 -0.012548126166333134 0 -0.052363768465027008 -0.011001639638150561 0 -0.051095559856636857 -0.011319491269735716 0 -0.052349612588220538 -0.0095622973988388361 0 -0.052363768465027008 -0.011001639638150561 0 -0.052349612588220538 -0.0095622973988388361 0 -0.054076346408050896 -0.011230894224580887 0 -0.053893967685951283 -0.0091686448263689543 0 -0.052349612588220538 -0.0095622973988388361 0 -0.052363768465027008 -0.011001639638150561 0 -0.053612249837591157 -0.011123956162695474 0 -0.052476290344719047 -0.0087475710047174877 0 -0.052155073586692711 -0.0083207958549277386 0 -0.060712309850808083 -0.0013782793793765931 0 -0.060856161652203457 -0.0013443922728641642 0 -0.060931297487823832 -0.001152813397177611 0 -0.052155073586692711 -0.0083207958549277386 0 -0.056014452643832612 -0.0049993855049412219 0 -0.054076346408050896 -0.011230894224580887 0 -0.053893967685951283 -0.0091686448263689543 0 -0.055614879551170719 -0.0082208840553234571 0 -0.053893967685951283 -0.0091686448263689543 0 -0.055614879551170719 -0.0082208840553234571 0 -0.053500468929822985 -0.0077248909098166785 0 -0.055126147046710823 -0.0062383087773085514 0 -0.055614879551170719 -0.0082208840553234571 0 -0.053500468929822985 -0.0077248909098166785 0 -0.051794666595760888 -0.0065484554679743285 0 -0.051028508898044021 -0.0082288094311667847 0 -0.053500468929822985 -0.0077248909098166785 0 -0.051028508898044021 -0.0082288094311667847 0 -0.052349612588220538 -0.0095622973988388361 0 -0.053500468929822985 -0.0077248909098166785 0 -0.052349612588220538 -0.0095622973988388361 0 -0.053893967685951283 -0.0091686448263689543 0 -0.053500468929822985 -0.0077248909098166785 0 -0.060806344518868835 -0.00064087418782948118 0 -0.060576068181178784 -0.0010374444327114168 0 -0.059975665223678858 -0.00042948209171711656 0 -0.060806344518868835 -0.00064087418782948118 0 -0.060576068181178784 -0.0010374444327114168 0 -0.06082051901233472 -0.00098894301271154074 0 -0.060807043737701086 -0.0011657505322724645 0 -0.060576068181178784 -0.0010374444327114168 0 -0.06082051901233472 -0.00098894301271154074 0 -0.052209489959212187 -0.0020446811192219409 0 -0.049334709955382819 -0.0027556998474355457 0 -0.060807043737701086 -0.0011657505322724645 0 -0.06082051901233472 -0.00098894301271154074 0 -0.061011559303184366 -0.0011324618038353062 0 -0.057858341185694023 -0.0036964384765371533 0 -0.056014452643832612 -0.0049993855049412219 0 -0.060806344518868835 -0.00064087418782948118 0 -0.06082051901233472 -0.00098894301271154074 0 -0.061011559303184366 -0.0011324618038353062 0 -0.061028883013919309 -0.0012079965211990438 0 -0.060931297487823832 -0.001152813397177611 0 -0.061011559303184366 -0.0011324618038353062 0 -0.060806344518868835 -0.00064087418782948118 0 -0.061011559303184366 -0.0011324618038353062 0 -0.061102056640583442 -0.00010429465754542618 0 -0.060931297487823832 -0.001152813397177611 0 -0.061011559303184366 -0.0011324618038353062 0 -0.060957176393209481 -0.0013392719712895099 0 -0.060856161652203457 -0.0013443922728641642 0 -0.060931297487823832 -0.001152813397177611 0 -0.060957176393209481 -0.0013392719712895099 0 -0.060806344518868835 -0.00064087418782948118 0 -0.060522430934437779 -2.0125246508035197e-05 0 -0.059975665223678858 -0.00042948209171711656 0 -0.060806344518868835 -0.00064087418782948118 0 -0.061102056640583442 -0.00010429465754542618 0 -0.060522430934437779 -2.0125246508035197e-05 0 -0.060522430934437779 -2.0125246508035197e-05 0 -0.060664912971523904 0.00050620222163697145 0 -0.06014513969516623 0.00068830715253125204 0 -0.061102056640583442 -0.00010429465754542618 0 -0.060522430934437779 -2.0125246508035197e-05 0 -0.060664912971523904 0.00050620222163697145 0 -0.061102056640583442 -0.00010429465754542618 0 -0.060664912971523904 0.00050620222163697145 0 -0.060957266609557276 0.00088991312164556069 0 -0.049334709955382819 -0.0027556998474355457 0 -0.038843217720820875 -0.0074826033721779898 0 -0.060826312952609193 -0.0015177593607120772 0 -0.060957176393209481 -0.0013392719712895099 0 -0.060910008752373679 -0.0016741253999794676 0 -0.060826312952609193 -0.0015177593607120772 0 -0.060856161652203457 -0.0013443922728641642 0 -0.060957176393209481 -0.0013392719712895099 0 -0.054837900985814911 -0.012782638236895769 0 -0.056224201459707392 -0.014288157069871738 0 -0.055709887364870113 -0.014436143532189272 0 -0.048525401693721201 -0.0093346626776531737 0 -0.038843217720820875 -0.0074826033721779898 0 -0.054314294322770899 -0.014147752314467034 0 -0.054837900985814911 -0.012782638236895769 0 -0.055709887364870113 -0.014436143532189272 0 -0.056305843030884428 -0.015741370585626604 0 -0.056205725277152896 -0.014293610391698826 0 -0.055709887364870113 -0.014436143532189272 0 -0.038843217720820875 -0.0074826033721779898 0 -0.039364583913447236 -0.0074416530738372049 0 -0.050991810226491359 -0.0028818881998452662 0 -0.04934846508849524 -0.0012769260214340191 0 -0.05242853065283995 -0.00044496878020188759 0 -0.060664912971523904 0.00050620222163697145 0 -0.060957266609557276 0.00088991312164556069 0 -0.06014513969516623 0.00068830715253125204 0 -0.038843217720820875 -0.0074826033721779898 0 -0.052990109905763541 -0.0022047535938610422 0 -0.06014513969516623 0.00068830715253125204 0 -0.059281827942594331 0.00055073185399609449 0 -0.059975665223678858 -0.00042948209171711656 0 -0.060522430934437779 -2.0125246508035197e-05 0 -0.06014513969516623 0.00068830715253125204 0 -0.059975665223678858 -0.00042948209171711656 0 -0.05242853065283995 -0.00044496878020188759 0 -0.055378189483455659 0.00023107045990239478 0 -0.054350746747071355 -0.0028006923782354044 0 -0.055378189483455659 0.00023107045990239478 0 -0.056480830041270302 -0.0012303782473573009 0 -0.054350746747071355 -0.0028006923782354044 0 -0.052990109905763541 -0.0022047535938610422 0 -0.056442549476004633 -0.00068260443727065497 0 -0.059281827942594331 0.00055073185399609449 0 -0.059975665223678858 -0.00042948209171711656 0 -0.058938362362850383 -7.6942038524688346e-05 0 -0.059975665223678858 -0.00042948209171711656 0 -0.059342598366416324 -0.00053240700667249127 0 -0.058938362362850383 -7.6942038524688346e-05 0 -0.059488746202502364 -0.0010781366545463665 0 -0.059975665223678858 -0.00042948209171711656 0 -0.059342598366416324 -0.00053240700667249127 0 -0.059800140085250891 -0.0012532112576176433 0 -0.059970024789340964 -0.00084151501057248064 0 -0.060257665904608661 -0.0012239435473967331 0 -0.059877180545381048 -0.0013146253735250219 0 -0.059975665223678858 -0.00042948209171711656 0 -0.060257665904608661 -0.0012239435473967331 0 -0.060576068181178784 -0.0010374444327114168 0 -0.059975665223678858 -0.00042948209171711656 0 -0.058690744082652367 -0.00087165714539464616 0 -0.058808872373049069 -0.00049770370280329272 0 -0.058172734120226721 -0.00037243206136752913 0 -0.058808872373049069 -0.00049770370280329272 0 -0.058347063122591518 -0.00011237538572242009 0 -0.058172734120226721 -0.00037243206136752913 0 -0.058182838048072623 -0.00091392007845615035 0 -0.058690744082652367 -0.00087165714539464616 0 -0.058172734120226721 -0.00037243206136752913 0 -0.059488746202502364 -0.0010781366545463665 0 -0.059342598366416324 -0.00053240700667249127 0 -0.058808872373049069 -0.00049770370280329272 0 -0.058690744082652367 -0.00087165714539464616 0 -0.059488746202502364 -0.0010781366545463665 0 -0.058808872373049069 -0.00049770370280329272 0 -0.058808872373049069 -0.00049770370280329272 0 -0.058938362362850383 -7.6942038524688346e-05 0 -0.058347063122591518 -0.00011237538572242009 0 -0.059342598366416324 -0.00053240700667249127 0 -0.058808872373049069 -0.00049770370280329272 0 -0.058938362362850383 -7.6942038524688346e-05 0 -0.058347063122591518 -0.00011237538572242009 0 -0.058154536512404091 3.8620039629995154e-05 0 -0.058172734120226721 -0.00037243206136752913 0 -0.058938362362850383 -7.6942038524688346e-05 0 -0.058347063122591518 -0.00011237538572242009 0 -0.058072088179807066 0.00028219822107252178 0 -0.058347063122591518 -0.00011237538572242009 0 -0.058072088179807066 0.00028219822107252178 0 -0.058154536512404091 3.8620039629995154e-05 0 -0.058072088179807066 0.00028219822107252178 0 -0.057794082677439559 -0.000680049349715339 0 -0.058393121159118815 5.0234986033379953e-05 0 -0.058072088179807066 0.00028219822107252178 0 -0.057229141199473317 -0.00053822818011654491 0 -0.057794082677439559 -0.000680049349715339 0 -0.056442549476004633 -0.00068260443727065497 0 -0.057228104982387 -0.00033093353368310628 0 -0.059281827942594331 0.00055073185399609449 0 -0.058938362362850383 -7.6942038524688346e-05 0 -0.058072088179807066 0.00028219822107252178 0 -0.055378189483455659 0.00023107045990239478 0 -0.058072088179807066 0.00028219822107252178 0 -0.057229141199473317 -0.00053822818011654491 0 -0.055378189483455659 0.00023107045990239478 0 -0.057229141199473317 -0.00053822818011654491 0 -0.056480830041270302 -0.0012303782473573009 0 -0.057229141199473317 -0.00053822818011654491 0 -0.056480830041270302 -0.0012303782473573009 0 -0.057326014214209353 -0.0013678464551862028 0 -0.056480830041270302 -0.0012303782473573009 0 -0.057326014214209353 -0.0013678464551862028 0 -0.057292870256339154 -0.0025077373244218638 0 -0.057794082677439559 -0.000680049349715339 0 -0.057721210513329742 -0.0021403181938180393 0 -0.058393121159118815 5.0234986033379953e-05 0 -0.042319294632745495 -0.00053565892766153748 0 -0.050545334078589049 0.0018801618485623423 0 -0.057794082677439559 -0.000680049349715339 0 -0.057326014214209353 -0.0013678464551862028 0 -0.057721210513329742 -0.0021403181938180393 0 -0.042319294632745495 -0.00053565892766153748 0 -0.052856706445659672 0.0023028527430158257 0 -0.057229141199473317 -0.00053822818011654491 0 -0.057794082677439559 -0.000680049349715339 0 -0.057326014214209353 -0.0013678464551862028 0 -0.034655440521305911 -0.0032270205027581053 0 -0.028171147842052213 -0.0032287826722395595 0 0.0061766283166682793 -0.0073736959873000364 0 0.0054098260740090285 -0.0093766509463714346 0 0.00097185911297767642 -0.0076300594156516856 0 -0.052390403161160497 0.00054769115211734129 0 -0.052251999080120667 0.00044423471989097447 0 -0.053064969062319237 0.00053392265047003974 0 -0.057326014214209353 -0.0013678464551862028 0 -0.057721210513329742 -0.0021403181938180393 0 -0.057292870256339154 -0.0025077373244218638 0 -0.042319294632745495 -0.00053565892766153748 0 -0.034655440521305911 -0.0032270205027581053 0 0.0061766283166682793 -0.0073736959873000364 0 0.0054098260740090285 -0.0093766509463714346 0 0.0070797159322610447 -0.0078815878138480348 0 0.0054098260740090285 -0.0093766509463714346 0 0.0072782104376856544 -0.011004213261651141 0 0.0040325689381814044 -0.012921165505839787 0 0.0054098260740090285 -0.0093766509463714346 0 0.0040325689381814044 -0.012921165505839787 0 0.00097185911297767642 -0.0076300594156516856 0 0.0072782104376856544 -0.011004213261651141 0 0.010175288162608979 -0.01119002750096122 0 0.0083360605307568978 -0.01317441512900871 0 0.0054098260740090285 -0.0093766509463714346 0 0.0072782104376856544 -0.011004213261651141 0 0.0070753521835660521 -0.0094489954424677794 0 0.0072782104376856544 -0.011004213261651141 0 0.0070753521835660521 -0.0094489954424677794 0 0.0085240433197811289 -0.0097367901466069214 0 0.0072782104376856544 -0.011004213261651141 0 0.0085240433197811289 -0.0097367901466069214 0 0.010175288162608979 -0.01119002750096122 0 0.0085240433197811289 -0.0097367901466069214 0 0.010544748003361963 -0.0092263837599142404 0 0.010175288162608979 -0.01119002750096122 0 -0.034655440521305911 -0.0032270205027581053 0 -0.023692927321603188 -0.0044441355266178111 0 0.0060745672636526036 -0.0072665004373043338 0 0.0070797159322610447 -0.0078815878138480348 0 0.012287252026444312 -0.007018335820306751 0 0.0085240433197811289 -0.0097367901466069214 0 0.0070797159322610447 -0.0078815878138480348 0 0.010544748003361963 -0.0092263837599142404 0 -0.056480830041270302 -0.0012303782473573009 0 -0.057292870256339154 -0.0025077373244218638 0 -0.054350746747071355 -0.0028006923782354044 0 0.0054098260740090285 -0.0093766509463714346 0 0.0070753521835660521 -0.0094489954424677794 0 0.0070797159322610447 -0.0078815878138480348 0 0.0070753521835660521 -0.0094489954424677794 0 0.0085240433197811289 -0.0097367901466069214 0 0.0070797159322610447 -0.0078815878138480348 0 -0.034655440521305911 -0.0032270205027581053 0 -0.033271258614162753 -0.003883561537562758 0 0.0070797159322610447 -0.0078815878138480348 0 0.012287252026444312 -0.007018335820306751 0 0.010544748003361963 -0.0092263837599142404 0 0.012287252026444312 -0.007018335820306751 0 0.013746035454453614 -0.010537269113400114 0 0.010544748003361963 -0.0092263837599142404 0 -0.023244727266608787 -0.005501409236020981 0 -0.023692927321603188 -0.0044441355266178111 0 0.018621395605724622 -0.0069600934171525006 0 0.012287252026444312 -0.007018335820306751 0 0.016819784544036893 -0.0088095411700560965 0 0.012287252026444312 -0.007018335820306751 0 0.016819784544036893 -0.0088095411700560965 0 0.013746035454453614 -0.010537269113400114 0 -0.050991810226491359 -0.0028818881998452662 0 -0.05242853065283995 -0.00044496878020188759 0 -0.054350746747071355 -0.0028006923782354044 0 0.013746035454453614 -0.010537269113400114 0 0.011735811316455416 -0.01319736078314422 0 0.016569632815144206 -0.012880396296816494 0 0.016819784544036893 -0.0088095411700560965 0 0.013746035454453614 -0.010537269113400114 0 0.016656825089828083 -0.010861878530976546 0 0.013746035454453614 -0.010537269113400114 0 0.016656825089828083 -0.010861878530976546 0 0.016569632815144206 -0.012880396296816494 0 0.018223632679350798 -0.011882678734585865 0 0.016656825089828083 -0.010861878530976546 0 0.016569632815144206 -0.012880396296816494 0 0.013746035454453614 -0.010537269113400114 0 0.010544748003361963 -0.0092263837599142404 0 0.010175288162608979 -0.01119002750096122 0 0.013746035454453614 -0.010537269113400114 0 0.010175288162608979 -0.01119002750096122 0 0.011735811316455416 -0.01319736078314422 0 0.017221992925864717 -0.01337820687866963 0 0.015051332123248655 -0.013350228635143043 0 0.010175288162608979 -0.01119002750096122 0 0.011735811316455416 -0.01319736078314422 0 0.0083360605307568978 -0.01317441512900871 0 0.011735811316455416 -0.01319736078314422 0 0.013837132724403454 -0.014894066195790133 0 0.0082183038515369865 -0.015954687932343951 0 0.011735811316455416 -0.01319736078314422 0 0.013837132724403454 -0.014894066195790133 0 0.016569632815144206 -0.012880396296816494 0 0.018490231534184581 -0.013177134502499698 0 0.017221992925864717 -0.01337820687866963 0 0.020637232879332064 -0.013289278522976537 0 0.020291978523359695 -0.013342141155837661 0 0.021136808685345111 -0.01364847422288778 0 0.020121354443110258 -0.013144078757169931 0 0.013837132724403454 -0.014894066195790133 0 0.016569632815144206 -0.012880396296816494 0 0.020637232879332064 -0.013289278522976537 0 0.021404307396045201 -0.013006980294053118 0 0.02096755584281278 -0.012952570430301362 0 0.020637232879332064 -0.013289278522976537 0 0.021136808685345111 -0.01364847422288778 0 0.021404307396045201 -0.013006980294053118 0 0.021136808685345111 -0.01364847422288778 0 0.021404307396045201 -0.013006980294053118 0 0.022135795893726988 -0.013414830208430617 0 0.021404307396045201 -0.013006980294053118 0 0.022135795893726988 -0.013414830208430617 0 0.022040324947412197 -0.012728810556271999 0 0.015051332123248655 -0.013350228635143043 0 0.013006706538365999 -0.012520990412914315 0 0.022135795893726988 -0.013414830208430617 0 0.022675979247655513 -0.012653785847284917 0 0.022885329419835385 -0.013143899525656479 0 0.0082183038515369865 -0.015954687932343951 0 0.0040325689381814044 -0.012921165505839787 0 0.0031452095450454397 -0.016994740919082544 0 0.0072782104376856544 -0.011004213261651141 0 0.0040325689381814044 -0.012921165505839787 0 0.0083360605307568978 -0.01317441512900871 0 0.0082183038515369865 -0.015954687932343951 0 0.0040325689381814044 -0.012921165505839787 0 0.0083360605307568978 -0.01317441512900871 0 0.011735811316455416 -0.01319736078314422 0 0.0082183038515369865 -0.015954687932343951 0 0.0083360605307568978 -0.01317441512900871 0 0.022393072660185528 -0.012340455710163132 0 0.022091210979284584 -0.012171153554164871 0 0.022040324947412197 -0.012728810556271999 0 0.022393072660185528 -0.012340455710163132 0 0.022091210979284584 -0.012171153554164871 0 0.022413507094396452 -0.011955005371258527 0 0.022393072660185528 -0.012340455710163132 0 0.022713263357002023 -0.012159453525602822 0 0.022675979247655513 -0.012653785847284917 0 0.022393072660185528 -0.012340455710163132 0 0.022713263357002023 -0.012159453525602822 0 0.022413507094396452 -0.011955005371258527 0 0.022713263357002023 -0.012159453525602822 0 0.022675979247655513 -0.012653785847284917 0 0.02304637323666079 -0.012283188445929846 0 0.022135795893726988 -0.013414830208430617 0 0.022675979247655513 -0.012653785847284917 0 0.022040324947412197 -0.012728810556271999 0 0.022393072660185528 -0.012340455710163132 0 0.022675979247655513 -0.012653785847284917 0 0.022040324947412197 -0.012728810556271999 0 0.021404307396045201 -0.013006980294053118 0 0.021324305670123663 -0.012615167487903674 0 0.021692603099789036 -0.012465043683191901 0 0.021404307396045201 -0.013006980294053118 0 0.022040324947412197 -0.012728810556271999 0 0.021692603099789036 -0.012465043683191901 0 0.021404307396045201 -0.013006980294053118 0 0.02096755584281278 -0.012952570430301362 0 0.021324305670123663 -0.012615167487903674 0 0.02096755584281278 -0.012952570430301362 0 0.021324305670123663 -0.012615167487903674 0 0.021041333290314421 -0.012415360989736638 0 0.021324305670123663 -0.012615167487903674 0 0.021041333290314421 -0.012415360989736638 0 0.021466645135835398 -0.012221303833350754 0 0.021324305670123663 -0.012615167487903674 0 0.021466645135835398 -0.012221303833350754 0 0.021692603099789036 -0.012465043683191901 0 0.021466645135835398 -0.012221303833350754 0 0.021823422139917129 -0.012015795698532046 0 0.021620019045892665 -0.011874421809148059 0 0.021041333290314421 -0.012415360989736638 0 0.021466645135835398 -0.012221303833350754 0 0.02121679292854154 -0.011924116677358891 0 0.022091210979284584 -0.012171153554164871 0 0.022040324947412197 -0.012728810556271999 0 0.021692603099789036 -0.012465043683191901 0 0.021466645135835398 -0.012221303833350754 0 0.021692603099789036 -0.012465043683191901 0 0.021823422139917129 -0.012015795698532046 0 0.022091210979284584 -0.012171153554164871 0 0.021692603099789036 -0.012465043683191901 0 0.021823422139917129 -0.012015795698532046 0 0.022091210979284584 -0.012171153554164871 0 0.021823422139917129 -0.012015795698532046 0 0.022124229330654808 -0.011783898359281687 0 0.021823422139917129 -0.012015795698532046 0 0.022124229330654808 -0.011783898359281687 0 0.021909601840263412 -0.01166467588073049 0 0.021823422139917129 -0.012015795698532046 0 0.021909601840263412 -0.01166467588073049 0 0.021620019045892665 -0.011874421809148059 0 0.022124229330654808 -0.011783898359281687 0 0.021909601840263412 -0.01166467588073049 0 0.022043153469800316 -0.011484791710564449 0 0.02121679292854154 -0.011924116677358891 0 0.021665603665767443 -0.011668258918945091 0 0.021071861518710794 -0.011539837937866936 0 0.02121679292854154 -0.011924116677358891 0 0.021620019045892665 -0.011874421809148059 0 0.021665603665767443 -0.011668258918945091 0 0.021466645135835398 -0.012221303833350754 0 0.02121679292854154 -0.011924116677358891 0 0.021620019045892665 -0.011874421809148059 0 0.021909601840263412 -0.01166467588073049 0 0.021620019045892665 -0.011874421809148059 0 0.021665603665767443 -0.011668258918945091 0 0.022749994071909741 -0.0081923683667346966 0 0.021828610108457724 -0.0093414726028144494 0 0.021665603665767443 -0.011668258918945091 0 0.022329798484287101 -0.011361576164073805 0 0.021071861518710794 -0.011539837937866936 0 0.022329798484287101 -0.011361576164073805 0 0.022199270350510582 -0.0098426903602480721 0 0.021071861518710794 -0.011539837937866936 0 0.021909601840263412 -0.01166467588073049 0 0.021665603665767443 -0.011668258918945091 0 0.022329798484287101 -0.011361576164073805 0 0.02400115231289441 -0.012007394649477216 0 0.027319724824097173 -0.011588695309343719 0 0.025306058150683406 -0.0094863938572188611 0 0.021909601840263412 -0.01166467588073049 0 0.022329798484287101 -0.011361576164073805 0 0.022043153469800316 -0.011484791710564449 0 0.024649260539147917 -0.0076551684140196904 0 0.024819277874656858 -0.0075585486111595292 0 0.022329798484287101 -0.011361576164073805 0 0.02400115231289441 -0.012007394649477216 0 0.023747599575912257 -0.010390050006917192 0 0.022124229330654808 -0.011783898359281687 0 0.022043153469800316 -0.011484791710564449 0 0.022433376725254046 -0.011585722319348639 0 0.024819277874656858 -0.0075585486111595292 0 0.026630650807705859 -0.0071222904302754332 0 0.024819277874656858 -0.0075585486111595292 0 0.024927831747346769 -0.0073253668409213549 0 0.025160224241183065 -0.0055943915941713612 0 0.026229514410807276 -0.0054163790169522918 0 0.026404177583575637 -0.0058949843484023675 0 0.022124229330654808 -0.011783898359281687 0 0.022433376725254046 -0.011585722319348639 0 0.022413507094396452 -0.011955005371258527 0 0.022091210979284584 -0.012171153554164871 0 0.022124229330654808 -0.011783898359281687 0 0.022413507094396452 -0.011955005371258527 0 0.022433376725254046 -0.011585722319348639 0 0.022760118209563761 -0.011783523908893083 0 0.023108700208203093 -0.01168947212227258 0 0.024927831747346769 -0.0073253668409213549 0 0.025647601812578639 -0.006324995459677905 0 0.022713263357002023 -0.012159453525602822 0 0.022760118209563761 -0.011783523908893083 0 0.022998860006632465 -0.012002557642254644 0 0.022713263357002023 -0.012159453525602822 0 0.022413507094396452 -0.011955005371258527 0 0.022760118209563761 -0.011783523908893083 0 0.022433376725254046 -0.011585722319348639 0 0.022413507094396452 -0.011955005371258527 0 0.022760118209563761 -0.011783523908893083 0 0.026404177583575637 -0.0058949843484023675 0 0.027298239941993565 -0.0052408776613566185 0 0.027645445849828046 -0.006195309956743068 0 0.026229514410807276 -0.0054163790169522918 0 0.026404177583575637 -0.0058949843484023675 0 0.027298239941993565 -0.0052408776613566185 0 0.026630650807705859 -0.0071222904302754332 0 0.028550986206732066 -0.0060920701879484118 0 0.027319724824097173 -0.011588695309343719 0 0.027877228541498374 -0.0088686361807159414 0 0.030090292026731431 -0.011179129540334769 0 0.027877228541498374 -0.0088686361807159414 0 0.030090292026731431 -0.011179129540334769 0 0.030665729442797374 -0.0091241216735063104 0 0.027319724824097173 -0.011588695309343719 0 0.027877228541498374 -0.0088686361807159414 0 0.025306058150683406 -0.0094863938572188611 0 0.027877228541498374 -0.0088686361807159414 0 0.024668826819947989 -0.0068755669282370684 0 0.025306058150683406 -0.0094863938572188611 0 0.027877228541498374 -0.0088686361807159414 0 0.027334961218720626 -0.0061828466868036162 0 0.024668826819947989 -0.0068755669282370684 0 0.027877228541498374 -0.0088686361807159414 0 0.029522558389242694 -0.0072706399330459892 0 0.027334961218720626 -0.0061828466868036162 0 0.027877228541498374 -0.0088686361807159414 0 0.029522558389242694 -0.0072706399330459892 0 0.030665729442797374 -0.0091241216735063104 0 0.029522558389242694 -0.0072706399330459892 0 0.027334961218720626 -0.0061828466868036162 0 0.029314463902235664 -0.005104741573596798 0 0.027334961218720626 -0.0061828466868036162 0 0.025233330414224094 -0.0054590236760600139 0 0.027621619465008688 -0.0042323642028114332 0 0.027334961218720626 -0.0061828466868036162 0 0.029314463902235664 -0.005104741573596798 0 0.027621619465008688 -0.0042323642028114332 0 0.029314463902235664 -0.005104741573596798 0 0.029354550976184637 -0.0035863890953555188 0 0.027621619465008688 -0.0042323642028114332 0 0.023846260578611073 -0.0049641721297277652 0 0.025233330414224094 -0.0054590236760600139 0 0.025632851436429648 -0.0036180271431391297 0 0.025233330414224094 -0.0054590236760600139 0 0.025632851436429648 -0.0036180271431391297 0 0.027621619465008688 -0.0042323642028114332 0 0.027334961218720626 -0.0061828466868036162 0 0.025233330414224094 -0.0054590236760600139 0 0.024668826819947989 -0.0068755669282370684 0 0.023846260578611073 -0.0049641721297277652 0 0.025233330414224094 -0.0054590236760600139 0 0.023317590401683661 -0.0064575321817157165 0 0.025233330414224094 -0.0054590236760600139 0 0.024668826819947989 -0.0068755669282370684 0 0.023317590401683661 -0.0064575321817157165 0 0.023310017288809541 -0.0075102184438264417 0 0.022749994071909741 -0.0081923683667346966 0 0.024668826819947989 -0.0068755669282370684 0 0.02328981935765562 -0.0067403880858575354 0 0.023317590401683661 -0.0064575321817157165 0 0.024668826819947989 -0.0068755669282370684 0 0.025306058150683406 -0.0094863938572188611 0 0.022199270350510582 -0.0098426903602480721 0 0.025306058150683406 -0.0094863938572188611 0 0.023747599575912257 -0.010390050006917192 0 0.022199270350510582 -0.0098426903602480721 0 0.02400115231289441 -0.012007394649477216 0 0.025306058150683406 -0.0094863938572188611 0 0.023747599575912257 -0.010390050006917192 0 0.022329798484287101 -0.011361576164073805 0 0.023747599575912257 -0.010390050006917192 0 0.022199270350510582 -0.0098426903602480721 0 0.022499093794861882 -0.0065061159290056266 0 0.02255412807094968 -0.0065004165727428238 0 0.021192244211579607 -0.0063434327713715001 0 0.02328981935765562 -0.0067403880858575354 0 0.022499093794861882 -0.0065061159290056266 0 0.023317590401683661 -0.0064575321817157165 0 0.020876793330830746 -0.0015039842919212251 0 0.018220987892491963 -0.0049800454653577157 0 0.021192244211579607 -0.0063434327713715001 0 0.021895902171795011 -0.0042927925547561916 0 0.021752063604268488 -0.005406830480387894 0 0.021895902171795011 -0.0042927925547561916 0 0.022246073719804672 -0.0028653112022609824 0 0.02255412807094968 -0.0065004165727428238 0 0.023317590401683661 -0.0064575321817157165 0 0.022519568474330412 -0.0056049348101627414 0 0.022499093794861882 -0.0065061159290056266 0 0.02255412807094968 -0.0065004165727428238 0 0.023317590401683661 -0.0064575321817157165 0 0.023846260578611073 -0.0049641721297277652 0 0.023317590401683661 -0.0064575321817157165 0 0.022519568474330412 -0.0056049348101627414 0 0.020502785941408516 0.00079537574424195265 0 0.020403277938908868 0.00068985341959878262 0 0.018773342441520652 0.00055455163762733095 0 0.020876793330830746 -0.0015039842919212251 0 0.020502785941408516 0.00079537574424195265 0 0.018773342441520652 0.00055455163762733095 0 0.020502785941408516 0.00079537574424195265 0 0.020403277938908868 0.00068985341959878262 0 0.020905509517685925 -0.00014784981958434562 0 0.022246073719804672 -0.0028653112022609824 0 0.023039099054488695 -0.0025140230782263609 0 0.020502785941408516 0.00079537574424195265 0 0.020905509517685925 -0.00014784981958434562 0 0.020754152286589174 -0.00023488774264250145 0 0.022519568474330412 -0.0056049348101627414 0 0.023119583849539545 -0.0045196314652657631 0 0.02241116858113279 -0.0036040442788776413 0 0.023846260578611073 -0.0049641721297277652 0 0.022519568474330412 -0.0056049348101627414 0 0.023119583849539545 -0.0045196314652657631 0 0.023846260578611073 -0.0049641721297277652 0 0.023119583849539545 -0.0045196314652657631 0 0.023729796515152633 -0.0038215389331436506 0 0.017708454102421188 0.0012512435482266542 0 0.015288295412976804 0.0012738797006009289 0 0.019652126192903088 0.0013223145452830637 0 0.016308048323751059 0.0014270279579847987 0 0.016398477950294223 0.0022098429940251192 0 0.019652126192903088 0.0013223145452830637 0 0.022819516646364255 0.00071258874573887484 0 0.021789887356309448 -0.00039834745131116077 0 0.019652126192903088 0.0013223145452830637 0 0.020403277938908868 0.00068985341959878262 0 0.020817821071380627 -2.7953303046527517e-05 0 0.019652126192903088 0.0013223145452830637 0 0.020403277938908868 0.00068985341959878262 0 0.018773342441520652 0.00055455163762733095 0 0.018773342441520652 0.00055455163762733095 0 0.016308048323751059 0.0014270279579847987 0 0.015255441371681533 -0.00090728761379390112 0 0.019652126192903088 0.0013223145452830637 0 0.018773342441520652 0.00055455163762733095 0 0.016308048323751059 0.0014270279579847987 0 0.018773342441520652 0.00055455163762733095 0 0.015255441371681533 -0.00090728761379390112 0 0.017145861398584931 -0.0024355795356865335 0 0.020876793330830746 -0.0015039842919212251 0 0.018773342441520652 0.00055455163762733095 0 0.017145861398584931 -0.0024355795356865335 0 0.020876793330830746 -0.0015039842919212251 0 0.017145861398584931 -0.0024355795356865335 0 0.018220987892491963 -0.0049800454653577157 0 0.015255441371681533 -0.00090728761379390112 0 0.017145861398584931 -0.0024355795356865335 0 0.013472650484542544 -0.0031550428608769967 0 0.017145861398584931 -0.0024355795356865335 0 0.01519601267563828 -0.0051630474002072654 0 0.013472650484542544 -0.0031550428608769967 0 0.01519601267563828 -0.0051630474002072654 0 0.01350469708202694 -0.0074697799165182209 0 0.012109100705931145 -0.00540392497450132 0 0.01519601267563828 -0.0051630474002072654 0 0.012109100705931145 -0.00540392497450132 0 0.013472650484542544 -0.0031550428608769967 0 0.01519601267563828 -0.0051630474002072654 0 0.01350469708202694 -0.0074697799165182209 0 0.016659134734240105 -0.0074634409226773061 0 0.01350469708202694 -0.0074697799165182209 0 0.016659134734240105 -0.0074634409226773061 0 0.015472436528222206 -0.0099582362373527682 0 0.016659134734240105 -0.0074634409226773061 0 0.018220987892491963 -0.0049800454653577157 0 0.019291402166591681 -0.0078868138523281433 0 0.016659134734240105 -0.0074634409226773061 0 0.019291402166591681 -0.0078868138523281433 0 0.01802731529677748 -0.0099281232287631513 0 0.01519601267563828 -0.0051630474002072654 0 0.016659134734240105 -0.0074634409226773061 0 0.018220987892491963 -0.0049800454653577157 0 0.017145861398584931 -0.0024355795356865335 0 0.01519601267563828 -0.0051630474002072654 0 0.018220987892491963 -0.0049800454653577157 0 0.018220987892491963 -0.0049800454653577157 0 0.021192244211579607 -0.0063434327713715001 0 0.019291402166591681 -0.0078868138523281433 0 0.022499093794861882 -0.0065061159290056266 0 0.021192244211579607 -0.0063434327713715001 0 0.022572330102798022 -0.0067857993688721753 0 0.02328981935765562 -0.0067403880858575354 0 0.022499093794861882 -0.0065061159290056266 0 0.022572330102798022 -0.0067857993688721753 0 0.021192244211579607 -0.0063434327713715001 0 0.022572330102798022 -0.0067857993688721753 0 0.021197413234572547 -0.0091801619335726923 0 0.02121679292854154 -0.011924116677358891 0 0.021071861518710794 -0.011539837937866936 0 0.020396451279399888 -0.011882070035044363 0 0.021828610108457724 -0.0093414726028144494 0 0.020836884430492711 -0.01067287312072417 0 0.021192244211579607 -0.0063434327713715001 0 0.019291402166591681 -0.0078868138523281433 0 0.021197413234572547 -0.0091801619335726923 0 0.019291402166591681 -0.0078868138523281433 0 0.021197413234572547 -0.0091801619335726923 0 0.01802731529677748 -0.0099281232287631513 0 0.020836884430492711 -0.01067287312072417 0 0.02021027112942465 -0.011548693177360819 0 0.020396451279399888 -0.011882070035044363 0 0.020443390559120547 -0.012503662389135984 0 0.01895529297635911 -0.012625825152035053 0 0.021197413234572547 -0.0091801619335726923 0 0.01895529297635911 -0.012625825152035053 0 0.01802731529677748 -0.0099281232287631513 0 0.021041333290314421 -0.012415360989736638 0 0.02121679292854154 -0.011924116677358891 0 0.020396451279399888 -0.011882070035044363 0 0.021041333290314421 -0.012415360989736638 0 0.020396451279399888 -0.011882070035044363 0 0.020443390559120547 -0.012503662389135984 0 0.021041333290314421 -0.012415360989736638 0 0.020788711224868389 -0.012816861215410156 0 0.020443390559120547 -0.012503662389135984 0 0.02096755584281278 -0.012952570430301362 0 0.021041333290314421 -0.012415360989736638 0 0.020788711224868389 -0.012816861215410156 0 0.020788711224868389 -0.012816861215410156 0 0.020443390559120547 -0.012503662389135984 0 0.020555841882189254 -0.013227672020170967 0 0.0206567131214507 -0.013195498708538816 0 0.020788711224868389 -0.012816861215410156 0 0.020555841882189254 -0.013227672020170967 0 0.0206567131214507 -0.013195498708538816 0 0.02096755584281278 -0.012952570430301362 0 0.020788711224868389 -0.012816861215410156 0 0.020443390559120547 -0.012503662389135984 0 0.020555841882189254 -0.013227672020170967 0 0.01895529297635911 -0.012625825152035053 0 0.020512509915096459 -0.014760725408254554 0 0.020555841882189254 -0.013227672020170967 0 0.01895529297635911 -0.012625825152035053 0 0.013265701215330741 -0.014134569263496679 0 0.017732457873103551 -0.01469893495967846 0 0.016400253766168854 -0.012414452220529034 0 0.01895529297635911 -0.012625825152035053 0 0.016400253766168854 -0.012414452220529034 0 0.01802731529677748 -0.0099281232287631513 0 0.017732457873103551 -0.01469893495967846 0 0.01895529297635911 -0.012625825152035053 0 0.016400253766168854 -0.012414452220529034 0 0.013265701215330741 -0.014134569263496679 0 0.016400253766168854 -0.012414452220529034 0 0.013748095240467675 -0.01146246415908839 0 0.013265701215330741 -0.014134569263496679 0 0.013748095240467675 -0.01146246415908839 0 0.010992935517921175 -0.011254808370831386 0 0.013748095240467675 -0.01146246415908839 0 0.015472436528222206 -0.0099582362373527682 0 0.012026815442226396 -0.0096162425915451155 0 0.016400253766168854 -0.012414452220529034 0 0.013748095240467675 -0.01146246415908839 0 0.015472436528222206 -0.0099582362373527682 0 0.01350469708202694 -0.0074697799165182209 0 0.015472436528222206 -0.0099582362373527682 0 0.012026815442226396 -0.0096162425915451155 0 0.016659134734240105 -0.0074634409226773061 0 0.015472436528222206 -0.0099582362373527682 0 0.01802731529677748 -0.0099281232287631513 0 0.016400253766168854 -0.012414452220529034 0 0.015472436528222206 -0.0099582362373527682 0 0.01802731529677748 -0.0099281232287631513 0 0.0085961295945504168 -0.010214329177610636 0 0.0059749515731502799 -0.011441527129241161 0 0.0063282829667682949 -0.0086265170609615364 0 0.0085961295945504168 -0.010214329177610636 0 0.012026815442226396 -0.0096162425915451155 0 0.010992935517921175 -0.011254808370831386 0 0.0085961295945504168 -0.010214329177610636 0 0.012026815442226396 -0.0096162425915451155 0 0.0096429683532208519 -0.007288939512163947 0 0.013748095240467675 -0.01146246415908839 0 0.012026815442226396 -0.0096162425915451155 0 0.010992935517921175 -0.011254808370831386 0 0.013265701215330741 -0.014134569263496679 0 0.010992935517921175 -0.011254808370831386 0 0.0080686913887497956 -0.011591467682849849 0 0.0085961295945504168 -0.010214329177610636 0 0.010992935517921175 -0.011254808370831386 0 0.0080686913887497956 -0.011591467682849849 0 0.012226931162914364 -0.012568796964227533 0 0.010981182925381885 -0.012322486375966729 0 0.0085961295945504168 -0.010214329177610636 0 0.0080686913887497956 -0.011591467682849849 0 0.0059749515731502799 -0.011441527129241161 0 0.0047222859720888553 -0.0093030267769162334 0 0.0027786152665623294 -0.0076018009496014284 0 0.0076309409390418496 -0.011403201485630314 0 0.0080686913887497956 -0.011591467682849849 0 0.0059749515731502799 -0.011441527129241161 0 0.0024884986044910393 -0.0088385698670378678 0 0.0014169789796291176 -0.0038042576339211136 0 -0.0012322412460686418 -0.0075067881460778576 0 0.0024884986044910393 -0.0088385698670378678 0 0.0076309409390418496 -0.011403201485630314 0 0.0014169789796291176 -0.0038042576339211136 0 0.0014169789796291176 -0.0038042576339211136 0 -0.0035128311136810768 -0.003877056379224534 0 -0.0012322412460686418 -0.0075067881460778576 0 -0.0035128311136810768 -0.003877056379224534 0 -0.0012322412460686418 -0.0075067881460778576 0 -0.0051879258339171961 -0.0067159820413810216 0 0.0027786152665623294 -0.0076018009496014284 0 -0.00056950266557354197 -0.0048474134353937593 0 0.0014169789796291176 -0.0038042576339211136 0 -0.0035128311136810768 -0.003877056379224534 0 -0.00440175831636558 -0.0008238099122261052 0 0.0059749515731502799 -0.011441527129241161 0 0.0063282829667682949 -0.0086265170609615364 0 0.001035655539327331 -0.0083697301371726904 0 0.0063282829667682949 -0.0086265170609615364 0 0.001035655539327331 -0.0083697301371726904 0 0.0054630485800856929 -0.0051765510847999862 0 0.001035655539327331 -0.0083697301371726904 0 0.0014352049586790062 -0.0028576915527860282 0 0.0054630485800856929 -0.0051765510847999862 0 0.0014352049586790062 -0.0028576915527860282 0 0.0054630485800856929 -0.0051765510847999862 0 0.0053684603004715012 -0.0011392909806949058 0 0.0054630485800856929 -0.0051765510847999862 0 0.009272586966048749 -0.0038508407778962161 0 0.0096429683532208519 -0.007288939512163947 0 0.0063282829667682949 -0.0086265170609615364 0 0.0054630485800856929 -0.0051765510847999862 0 0.0096429683532208519 -0.007288939512163947 0 0.0085961295945504168 -0.010214329177610636 0 0.0063282829667682949 -0.0086265170609615364 0 0.0096429683532208519 -0.007288939512163947 0 0.01350469708202694 -0.0074697799165182209 0 0.012026815442226396 -0.0096162425915451155 0 0.0096429683532208519 -0.007288939512163947 0 0.01350469708202694 -0.0074697799165182209 0 0.0096429683532208519 -0.007288939512163947 0 0.012109100705931145 -0.00540392497450132 0 0.009272586966048749 -0.0038508407778962161 0 0.0096429683532208519 -0.007288939512163947 0 0.012109100705931145 -0.00540392497450132 0 0.009272586966048749 -0.0038508407778962161 0 0.012109100705931145 -0.00540392497450132 0 0.013472650484542544 -0.0031550428608769967 0 0.015255441371681533 -0.00090728761379390112 0 0.013472650484542544 -0.0031550428608769967 0 0.011217280838918519 -0.00097471980213178794 0 0.009272586966048749 -0.0038508407778962161 0 0.013472650484542544 -0.0031550428608769967 0 0.011217280838918519 -0.00097471980213178794 0 0.009272586966048749 -0.0038508407778962161 0 0.011217280838918519 -0.00097471980213178794 0 0.0053684603004715012 -0.0011392909806949058 0 0.011217280838918519 -0.00097471980213178794 0 0.0083023273807390826 0.0025165206479512473 0 0.0053684603004715012 -0.0011392909806949058 0 0.016308048323751059 0.0014270279579847987 0 0.015255441371681533 -0.00090728761379390112 0 0.011217280838918519 -0.00097471980213178794 0 0.016308048323751059 0.0014270279579847987 0 0.011217280838918519 -0.00097471980213178794 0 0.0083023273807390826 0.0025165206479512473 0 0.016308048323751059 0.0014270279579847987 0 0.0083023273807390826 0.0025165206479512473 0 0.011862668697084123 0.0074015812281243059 0 0.0083023273807390826 0.0025165206479512473 0 0.011862668697084123 0.0074015812281243059 0 0.0052757178850286078 0.0068936013646257906 0 0.015288295412976804 0.0012738797006009289 0 0.0094648835612629809 0.0018629828088460297 0 0.015223291141425538 0.0017053137075449948 0 0.015288295412976804 0.0012738797006009289 0 0.00014415606825104668 0.0054554438333158772 0 0.0052757178850286078 0.0068936013646257906 0 0.0016680041305530973 0.0024203872404980637 0 0.0051821341297615129 0.001800845254712073 0 0.0094648835612629809 0.0018629828088460297 0 0.0083023273807390826 0.0025165206479512473 0 0.0052757178850286078 0.0068936013646257906 0 0.0016680041305530973 0.0024203872404980637 0 0.0016680041305530973 0.0024203872404980637 0 0.0053684603004715012 -0.0011392909806949058 0 0.00020474294383921758 -0.00034068291863599543 0 0.0083023273807390826 0.0025165206479512473 0 0.0016680041305530973 0.0024203872404980637 0 0.0053684603004715012 -0.0011392909806949058 0 0.0054630485800856929 -0.0051765510847999862 0 0.009272586966048749 -0.0038508407778962161 0 0.0053684603004715012 -0.0011392909806949058 0 0.0014352049586790062 -0.0028576915527860282 0 0.0053684603004715012 -0.0011392909806949058 0 0.00020474294383921758 -0.00034068291863599543 0 0.0014352049586790062 -0.0028576915527860282 0 0.00020474294383921758 -0.00034068291863599543 0 -0.0049085929150559631 -0.0016368968647169672 0 -0.0025251106758416467 0.0009073491389202966 0 -0.0057946455301471763 0.00020635133275591916 0 -0.0049085929150559631 -0.0016368968647169672 0 0.00020474294383921758 -0.00034068291863599543 0 -0.0025251106758416467 0.0009073491389202966 0 -0.0049085929150559631 -0.0016368968647169672 0 -0.0025251106758416467 0.0009073491389202966 0 -0.0036998327475509483 0.0012784889292861848 0 -0.0057946455301471763 0.00020635133275591916 0 0.0016680041305530973 0.0024203872404980637 0 0.00020474294383921758 -0.00034068291863599543 0 -0.0025251106758416467 0.0009073491389202966 0 0.00014415606825104668 0.0054554438333158772 0 0.0016680041305530973 0.0024203872404980637 0 -0.0023057984483384041 0.0024908233942037986 0 0.0016680041305530973 0.0024203872404980637 0 -0.0025251106758416467 0.0009073491389202966 0 -0.0023057984483384041 0.0024908233942037986 0 -0.0025251106758416467 0.0009073491389202966 0 -0.0023057984483384041 0.0024908233942037986 0 -0.0036998327475509483 0.0012784889292861848 0 -0.0023057984483384041 0.0024908233942037986 0 -0.0028100935709790206 0.0018719171025651511 0 -0.0036998327475509483 0.0012784889292861848 0 -0.0023057984483384041 0.0024908233942037986 0 -0.0029306072191526834 0.0027218780696525802 0 -0.0028100935709790206 0.0018719171025651511 0 0.00014415606825104668 0.0054554438333158772 0 -0.0023057984483384041 0.0024908233942037986 0 -0.0029306072191526834 0.0027218780696525802 0 0.0051821341297615129 0.001800845254712073 0 0.0022679660200826015 0.0014508303140015519 0 -0.0011744833480338873 9.2668473841426504e-07 0 -0.00054363894308274822 0.00012550326523749341 0 -0.002524322635132263 0.00082392711226058582 0 -0.00054363894308274822 0.00012550326523749341 0 -0.0028100935709790206 0.0018719171025651511 0 -0.002524322635132263 0.00082392711226058582 0 -0.0029306072191526834 0.0027218780696525802 0 -0.00054363894308274822 0.00012550326523749341 0 -0.0028100935709790206 0.0018719171025651511 0 0.0022679660200826015 0.0014508303140015519 0 0.001263993911400589 0.0012468144305647774 0 0.0038390500370158983 -0.00061717870727747922 0 -0.00054363894308274822 0.00012550326523749341 0 0.0016920919799540172 0.0005069527511845632 0 -0.0028100935709790206 0.0018719171025651511 0 -0.0036998327475509483 0.0012784889292861848 0 -0.002524322635132263 0.00082392711226058582 0 -0.0036998327475509483 0.0012784889292861848 0 -0.002524322635132263 0.00082392711226058582 0 -0.0049580838258434425 1.7439311376349314e-06 0 -0.0011744833480338873 9.2668473841426504e-07 0 -0.002524322635132263 0.00082392711226058582 0 -0.0049580838258434425 1.7439311376349314e-06 0 -0.0036998327475509483 0.0012784889292861848 0 -0.0049580838258434425 1.7439311376349314e-06 0 -0.0057946455301471763 0.00020635133275591916 0 -0.0049580838258434425 1.7439311376349314e-06 0 -0.0057946455301471763 0.00020635133275591916 0 -0.0087396290274839947 -4.3612004077294113e-07 0 -0.0057946455301471763 0.00020635133275591916 0 -0.0087396290274839947 -4.3612004077294113e-07 0 -0.0080483009011847479 -0.00046801283221844261 0 -0.0087396290274839947 -4.3612004077294113e-07 0 -0.0080483009011847479 -0.00046801283221844261 0 -0.012522979693226521 -1.0809772564543404e-06 0 -0.0080483009011847479 -0.00046801283221844261 0 -0.012522979693226521 -1.0809772564543404e-06 0 -0.0093965764412275408 -0.00097052587686261948 0 -0.0057946455301471763 0.00020635133275591916 0 -0.0080483009011847479 -0.00046801283221844261 0 -0.0049085929150559631 -0.0016368968647169672 0 -0.0049085929150559631 -0.0016368968647169672 0 -0.0075560634888796122 -0.0018546470070335149 0 -0.0093965764412275408 -0.00097052587686261948 0 -0.00440175831636558 -0.0008238099122261052 0 -0.0049085929150559631 -0.0016368968647169672 0 -0.0075560634888796122 -0.0018546470070335149 0 0.001035655539327331 -0.0083697301371726904 0 0.0014352049586790062 -0.0028576915527860282 0 -0.0049085929150559631 -0.0016368968647169672 0 -0.00056950266557354197 -0.0048474134353937593 0 -0.0023923353743393817 -0.0032779676160017363 0 -0.0080483009011847479 -0.00046801283221844261 0 -0.0049085929150559631 -0.0016368968647169672 0 -0.0093965764412275408 -0.00097052587686261948 0 -0.0075560634888796122 -0.0018546470070335149 0 -0.012207795660533838 -0.0029873524018222361 0 -0.0093965764412275408 -0.00097052587686261948 0 -0.0035128311136810768 -0.003877056379224534 0 -0.00440175831636558 -0.0008238099122261052 0 -0.0075560634888796122 -0.0018546470070335149 0 -0.0093495744787699085 -0.0057914020530254722 0 -0.0075560634888796122 -0.0018546470070335149 0 -0.0051879258339171961 -0.0067159820413810216 0 -0.0035128311136810768 -0.003877056379224534 0 -0.0075560634888796122 -0.0018546470070335149 0 -0.0051879258339171961 -0.0067159820413810216 0 -0.0093495744787699085 -0.0057914020530254722 0 -0.0075560634888796122 -0.0018546470070335149 0 -0.012207795660533838 -0.0029873524018222361 0 -0.014050799396934755 -0.0014064499547238154 0 -0.012207795660533838 -0.0029873524018222361 0 -0.013421310565871274 -0.0012062170895055836 0 -0.012207795660533838 -0.0029873524018222361 0 -0.013421310565871274 -0.0012062170895055836 0 -0.0093965764412275408 -0.00097052587686261948 0 -0.016304354469760272 -1.8269231353779071e-06 0 -0.013421310565871274 -0.0012062170895055836 0 -0.012522979693226521 -1.0809772564543404e-06 0 -0.016304354469760272 -1.8269231353779071e-06 0 -0.015314806958684599 -0.00071755592821079017 0 -0.013421310565871274 -0.0012062170895055836 0 -0.013421310565871274 -0.0012062170895055836 0 -0.012522979693226521 -1.0809772564543404e-06 0 -0.0093965764412275408 -0.00097052587686261948 0 0.026852589547651042 0.010007070929383965 0 0.026767699721404612 0.010029383016290036 0 0.026866945495808869 0.01005512691305299 0 0.026767699721404612 0.010029383016290036 0 0.026866945495808869 0.01005512691305299 0 0.026734931032348606 0.010083733491915711 0 0.026866945495808869 0.01005512691305299 0 0.026734931032348606 0.010083733491915711 0 0.026840552410635182 0.010138849254984995 0 0.026866945495808869 0.01005512691305299 0 0.026938772271433077 0.010013672744848823 0 0.027006301789019416 0.010093470783070857 0 0.026938772271433077 0.010013672744848823 0 0.027006301789019416 0.010093470783070857 0 0.027035921488404859 0.010017481020147514 0 0.026938772271433077 0.010013672744848823 0 0.026976613141907895 0.0099585140159176733 0 0.027035921488404859 0.010017481020147514 0 0.026896371595493272 0.0099823938391795097 0 0.026938772271433077 0.010013672744848823 0 0.026976613141907895 0.0099585140159176733 0 0.026852589547651042 0.010007070929383965 0 0.026896371595493272 0.0099823938391795097 0 0.026938772271433077 0.010013672744848823 0 0.026852589547651042 0.010007070929383965 0 0.026866945495808869 0.01005512691305299 0 0.026938772271433077 0.010013672744848823 0 0.026976613141907895 0.0099585140159176733 0 0.026814694549876363 0.0099521476690377954 0 0.027057192181288225 0.0099284848591896617 0 -0.014132707779998728 0.0086102458076154458 0 -0.013853341741981075 0.0085139886476773476 0 -0.014400303124027401 0.0085161899050899392 0 0.0032961481816626325 0.0067336270077359159 0 0.004954074015503661 0.0093640633708854167 0 0.026896371595493272 0.0099823938391795097 0 0.026976613141907895 0.0099585140159176733 0 0.026814694549876363 0.0099521476690377954 0 -0.014132707779998728 0.0086102458076154458 0 -0.014304065469215544 0.0086917503686334517 0 -0.014196925904646947 0.0087659477109862174 0 -0.014132707779998728 0.0086102458076154458 0 -0.014030158593903573 0.0087922088373145434 0 -0.014196925904646947 0.0087659477109862174 0 -0.014132707779998728 0.0086102458076154458 0 -0.013979846189423306 0.0085927870002819352 0 -0.013853341741981075 0.0085139886476773476 0 -0.014132707779998728 0.0086102458076154458 0 -0.013979846189423306 0.0085927870002819352 0 -0.014030158593903573 0.0087922088373145434 0 -0.013979846189423306 0.0085927870002819352 0 -0.013927636077104857 0.0086951728961293332 0 -0.014030158593903573 0.0087922088373145434 0 -0.013979846189423306 0.0085927870002819352 0 -0.013927636077104857 0.0086951728961293332 0 -0.013902697473497207 0.0085871989696959354 0 -0.013855660614976645 0.0085725538792358162 0 -0.013853341741981075 0.0085139886476773476 0 -0.013641072900894124 0.0084806658538905243 0 -0.013927636077104857 0.0086951728961293332 0 -0.013855660614976645 0.0085725538792358162 0 -0.013902697473497207 0.0085871989696959354 0 -0.013979846189423306 0.0085927870002819352 0 -0.013902697473497207 0.0085871989696959354 0 -0.013853341741981075 0.0085139886476773476 0 -0.013855660614976645 0.0085725538792358162 0 -0.013902697473497207 0.0085871989696959354 0 -0.013853341741981075 0.0085139886476773476 0 0.026852589547651042 0.010007070929383965 0 0.026767699721404612 0.010029383016290036 0 0.026814694549876363 0.0099521476690377954 0 0.026852589547651042 0.010007070929383965 0 0.026896371595493272 0.0099823938391795097 0 0.026814694549876363 0.0099521476690377954 0 0.0032961481816626325 0.0067336270077359159 0 -0.01463236349620331 0.001942524390669475 0 0.026767699721404612 0.010029383016290036 0 0.026814694549876363 0.0099521476690377954 0 0.026603894988036277 0.010081881859708753 0 -0.01463236349620331 0.001942524390669475 0 -0.027290701560593246 0.0059453821946118699 0 -0.013855660614976645 0.0085725538792358162 0 -0.013641072900894124 0.0084806658538905243 0 -0.013792835352262337 0.0086613765448569652 0 -0.051773585331719024 0.0017575394831200325 0 -0.052236665570177983 0.0013079931602315326 0 -0.052600513980273537 0.0016066189440940249 0 -0.01463236349620331 0.001942524390669475 0 -0.030802775553537408 -0.00091652042169385582 0 -0.01463236349620331 0.001942524390669475 0 -0.0019823498836354552 -0.0018492225395613561 0 0.026603894988036277 0.010081881859708753 0 0.026641682406734226 0.010150107401511415 0 0.02670870255188218 0.010233654409808349 0 0.026603894988036277 0.010081881859708753 0 0.026734931032348606 0.010083733491915711 0 0.026641682406734226 0.010150107401511415 0 0.026767699721404612 0.010029383016290036 0 0.026603894988036277 0.010081881859708753 0 0.026734931032348606 0.010083733491915711 0 0.026734931032348606 0.010083733491915711 0 0.026641682406734226 0.010150107401511415 0 0.026840552410635182 0.010138849254984995 0 0.026641682406734226 0.010150107401511415 0 0.026727101259669057 0.010188630544527148 0 0.026840552410635182 0.010138849254984995 0 0.026641682406734226 0.010150107401511415 0 0.026523778619651141 0.010082312067367831 0 0.02676584022675919 0.01013540066731883 0 0.026641682406734226 0.010150107401511415 0 0.02670870255188218 0.010233654409808349 0 0.02676584022675919 0.01013540066731883 0 0.026523778619651141 0.010082312067367831 0 0.02676584022675919 0.01013540066731883 0 0.02698556053297009 0.0097633735014076538 0 0.026523778619651141 0.010082312067367831 0 0.026727101259669057 0.010188630544527148 0 0.026782315334923427 0.010405802748016009 0 0.026641682406734226 0.010150107401511415 0 0.026523778619651141 0.010082312067367831 0 0.026727101259669057 0.010188630544527148 0 0.026727101259669057 0.010188630544527148 0 0.027004512190001183 0.010361443357384715 0 0.026782315334923427 0.010405802748016009 0 0.026727101259669057 0.010188630544527148 0 0.027004512190001183 0.010361443357384715 0 0.026840552410635182 0.010138849254984995 0 0.026866945495808869 0.01005512691305299 0 0.026840552410635182 0.010138849254984995 0 0.027006301789019416 0.010093470783070857 0 0.026840552410635182 0.010138849254984995 0 0.027006301789019416 0.010093470783070857 0 0.027127913032676924 0.010230400439654667 0 0.027004512190001183 0.010361443357384715 0 0.026840552410635182 0.010138849254984995 0 0.027127913032676924 0.010230400439654667 0 0.027004512190001183 0.010361443357384715 0 0.027127913032676924 0.010230400439654667 0 0.027265528091965117 0.010397899648154404 0 0.027127913032676924 0.010230400439654667 0 0.027367956661593838 0.010274557684941635 0 0.027265528091965117 0.010397899648154404 0 0.027688030005326516 0.011795970549114913 0 0.027321973222759092 0.011746614740685521 0 0.027560086658624281 0.011544146912306165 0 0.027688030005326516 0.011795970549114913 0 0.027321973222759092 0.011746614740685521 0 0.027551165289726932 0.012213474470442151 0 0.027367956661593838 0.010274557684941635 0 0.027173245270537553 0.01011294343017155 0 0.027312515946543811 0.010056162185846944 0 0.020456749622566387 0.010357595339511277 0 0.013495585182763455 0.011766364333327861 0 0.027127913032676924 0.010230400439654667 0 0.027367956661593838 0.010274557684941635 0 0.027173245270537553 0.01011294343017155 0 0.027006301789019416 0.010093470783070857 0 0.027127913032676924 0.010230400439654667 0 0.027173245270537553 0.01011294343017155 0 0.004859852311919142 0.0089649377703283524 0 0.0043725290359455599 0.009965990732980436 0 0.027219204688085967 0.011721398431685915 0 0.027321973222759092 0.011746614740685521 0 0.027284782324965801 0.011627457510188358 0 0.027219204688085967 0.011721398431685915 0 0.027321973222759092 0.011746614740685521 0 0.027357994922990705 0.011597388182775297 0 0.027321973222759092 0.011746614740685521 0 0.027284782324965801 0.011627457510188358 0 0.026971991348565941 0.011517134266144232 0 0.019076505015367524 0.014447405231606173 0 0.013495585182763455 0.011766364333327861 0 -0.015096727108424007 0.0052169424187904594 0 -0.014234176521861295 0.0067638768856170843 0 -0.015151568822377649 0.0065293469516268998 0 -0.014234176521861295 0.0067638768856170843 0 -0.015151568822377649 0.0065293469516268998 0 -0.014911628375815692 0.0074342453050190941 0 -0.015610872561737953 0.0071555920850626823 0 -0.015151568822377649 0.0065293469516268998 0 -0.014911628375815692 0.0074342453050190941 0 -0.014234176521861295 0.0067638768856170843 0 -0.014911628375815692 0.0074342453050190941 0 -0.014263123741634888 0.0078271507036196709 0 -0.015593762877521542 0.007768624832292086 0 -0.014911628375815692 0.0074342453050190941 0 -0.014870563108379415 0.0083850999703501961 0 -0.014911628375815692 0.0074342453050190941 0 -0.014263123741634888 0.0078271507036196709 0 -0.014870563108379415 0.0083850999703501961 0 0.0043725290359455599 0.009965990732980436 0 0.0020095853513601427 0.010633854499427633 0 0.027284782324965801 0.011627457510188358 0 0.027055599972403779 0.011255479322110101 0 0.026971991348565941 0.011517134266144232 0 -0.014234176521861295 0.0067638768856170843 0 -0.014263123741634888 0.0078271507036196709 0 -0.013313260238560389 0.0084145993354121217 0 -0.013950569352424967 0.008230643060820322 0 -0.014769834712531325 0.0087466344583333536 0 -0.01524545828154786 0.008227988300774489 0 0.0020095853513601427 0.010633854499427633 0 -0.010445125208165994 0.0096731706962973965 0 -0.014263123741634888 0.0078271507036196709 0 -0.013313260238560389 0.0084145993354121217 0 -0.014870563108379415 0.0083850999703501961 0 -0.013950569352424967 0.008230643060820322 0 -0.013377341449954647 0.0093406364570038907 0 -0.014258128618234171 0.009032945330457837 0 -0.013950569352424967 0.008230643060820322 0 -0.014769834712531325 0.0087466344583333536 0 -0.014258128618234171 0.009032945330457837 0 -0.014769834712531325 0.0087466344583333536 0 -0.015293138941691051 0.0088554326264504712 0 -0.01524545828154786 0.008227988300774489 0 -0.015832024493415617 0.0085525366994962035 0 -0.015293138941691051 0.0088554326264504712 0 -0.01524545828154786 0.008227988300774489 0 0.027173245270537553 0.01011294343017155 0 0.027170039046076167 0.0099945918627887265 0 0.027312515946543811 0.010056162185846944 0 0.027170039046076167 0.0099945918627887265 0 0.027035921488404859 0.010017481020147514 0 0.027119469832975654 0.0098754116328201302 0 0.026976613141907895 0.0099585140159176733 0 0.027035921488404859 0.010017481020147514 0 0.027057192181288225 0.0099284848591896617 0 0.0081511076719325577 0.0074287530941422467 0 0.004954074015503661 0.0093640633708854167 0 0.027173245270537553 0.01011294343017155 0 0.027170039046076167 0.0099945918627887265 0 0.027035921488404859 0.010017481020147514 0 0.027006301789019416 0.010093470783070857 0 0.027173245270537553 0.01011294343017155 0 0.027035921488404859 0.010017481020147514 0 0.013495585182763455 0.011766364333327861 0 0.0066306793374240197 0.010238043065626359 0 0.027170039046076167 0.0099945918627887265 0 0.027312515946543811 0.010056162185846944 0 0.027177267672975135 0.0098785488357481573 0 0.027055599972403779 0.011255479322110101 0 0.026971991348565941 0.011517134266144232 0 0.026983104719071577 0.011253862669797991 0 0.013495585182763455 0.011766364333327861 0 0.0058205494798923216 0.010107920863547707 0 0.01010646377726835 0.010145107196150055 0 0.010082899272297701 0.010215200542389499 0 0.010140869046359068 0.010214571494232829 0 0.0020095853513601427 0.010633854499427633 0 -0.0032744389558739674 0.0095687289106408096 0 0.0011304004568158657 0.010515418829082199 0 0.00079815636259228427 0.010541520927572724 0 0.00088735518540232982 0.01068920105568065 0 0.001561390963275965 0.010708147873792222 0 0.0013895019673902654 0.010704049682373097 0 0.0011799110946706663 0.0099798573904705135 0 0.0013895019673902654 0.010704049682373097 0 0.0011304004568158657 0.010515418829082199 0 0.0011799110946706663 0.0099798573904705135 0 0.0013895019673902654 0.010704049682373097 0 0.0011304004568158657 0.010515418829082199 0 0.00088735518540232982 0.01068920105568065 0 0.0066306793374240197 0.010238043065626359 0 0.0058205494798923216 0.010107920863547707 0 0.0020095853513601427 0.010633854499427633 0 0.0066306793374240197 0.010238043065626359 0 0.0011304004568158657 0.010515418829082199 0 0.00079815636259228427 0.010541520927572724 0 0.0011799110946706663 0.0099798573904705135 0 -0.014456373786763888 0.0085893302278454865 0 -0.014400303124027401 0.0085161899050899392 0 -0.014304065469215544 0.0086917503686334517 0 0.0030184652682068392 0.0092731468119601583 0 0.0058205494798923216 0.010107920863547707 0 0.0058205494798923216 0.010107920863547707 0 0.004954074015503661 0.0093640633708854167 0 0.027170039046076167 0.0099945918627887265 0 0.027177267672975135 0.0098785488357481573 0 0.027119469832975654 0.0098754116328201302 0 0.001707135322435245 0.01103029720940363 0 7.0994872053632748e-05 0.008268506744744393 0 0.0036017225666743762 0.0083228024399662082 0 0.0030184652682068392 0.0092731468119601583 0 0.004954074015503661 0.0093640633708854167 0 -0.014132707779998728 0.0086102458076154458 0 -0.014400303124027401 0.0085161899050899392 0 -0.014304065469215544 0.0086917503686334517 0 -0.014304065469215544 0.0086917503686334517 0 -0.0143207972435982 0.0089805177584474823 0 -0.014196925904646947 0.0087659477109862174 0 -0.014657736599064886 0.0085808538143079763 0 -0.014393803595292083 0.0090769344311512554 0 -0.01468539483267004 0.0090717751330078519 0 -0.014456373786763888 0.0085893302278454865 0 -0.014304065469215544 0.0086917503686334517 0 -0.0143207972435982 0.0089805177584474823 0 0.0030184652682068392 0.0092731468119601583 0 -0.0043570449924956404 0.0065336746777809231 0 -0.014393803595292083 0.0090769344311512554 0 -0.01468539483267004 0.0090717751330078519 0 -0.014562171363054245 0.0093262779427114514 0 -0.014657736599064886 0.0085808538143079763 0 -0.01468539483267004 0.0090717751330078519 0 -0.014986241424019369 0.009014116456430377 0 0.0030184652682068392 0.0092731468119601583 0 -0.0032744389558739674 0.0095687289106408096 0 -0.0032744389558739674 0.0095687289106408096 0 -0.0095218804730023195 0.010847251782533268 0 -0.01468539483267004 0.0090717751330078519 0 -0.014986241424019369 0.009014116456430377 0 -0.0148517055663834 0.0093568063273596156 0 -0.0032744389558739674 0.0095687289106408096 0 -0.0044581201794331666 0.0087227404903763243 0 -0.0148517055663834 0.0093568063273596156 0 -0.015073672601290137 0.0096647759960015334 0 -0.015346242955517191 0.0094464790275219333 0 -0.015021981117294516 0.0090024005052287363 0 -0.0148517055663834 0.0093568063273596156 0 -0.015346242955517191 0.0094464790275219333 0 -0.015073672601290137 0.0096647759960015334 0 -0.015346242955517191 0.0094464790275219333 0 -0.015187019391288125 0.010003649201440205 0 -0.0148517055663834 0.0093568063273596156 0 -0.015073672601290137 0.0096647759960015334 0 -0.014902159202692541 0.0098333686343970335 0 -0.0148517055663834 0.0093568063273596156 0 -0.014552765725488635 0.0096623746476855402 0 -0.014902159202692541 0.0098333686343970335 0 -0.014552765725488635 0.0096623746476855402 0 -0.014397594286376386 0.0094038031157235163 0 -0.014562171363054245 0.0093262779427114514 0 -0.014552765725488635 0.0096623746476855402 0 -0.014397594286376386 0.0094038031157235163 0 -0.014086344738487406 0.0095626053915203041 0 -0.014393803595292083 0.0090769344311512554 0 -0.014397594286376386 0.0094038031157235163 0 -0.014562171363054245 0.0093262779427114514 0 -0.01468539483267004 0.0090717751330078519 0 -0.0148517055663834 0.0093568063273596156 0 -0.014562171363054245 0.0093262779427114514 0 -0.0148517055663834 0.0093568063273596156 0 -0.014552765725488635 0.0096623746476855402 0 -0.014562171363054245 0.0093262779427114514 0 -0.016140940998331459 0.0094936802657284592 0 -0.015089875936469814 0.0093780052238283049 0 -0.015667775762417117 0.0099698343104958308 0 -0.015893869270696012 0.0090500528546208683 0 -0.015293138941691051 0.0088554326264504712 0 -0.015089875936469814 0.0093780052238283049 0 -0.014769834712531325 0.0087466344583333536 0 -0.015293138941691051 0.0088554326264504712 0 -0.015089875936469814 0.0093780052238283049 0 -0.015089875936469814 0.0093780052238283049 0 -0.014366229476122653 0.0096464896282640843 0 -0.015001089857997583 0.010192599860938806 0 -0.013377341449954647 0.0093406364570038907 0 -0.014366229476122653 0.0096464896282640843 0 -0.013952867593464742 0.01014363568487953 0 -0.013377341449954647 0.0093406364570038907 0 -0.014366229476122653 0.0096464896282640843 0 -0.014258128618234171 0.009032945330457837 0 -0.015089875936469814 0.0093780052238283049 0 -0.014366229476122653 0.0096464896282640843 0 -0.014258128618234171 0.009032945330457837 0 -0.014769834712531325 0.0087466344583333536 0 -0.015089875936469814 0.0093780052238283049 0 -0.014258128618234171 0.009032945330457837 0 -0.013952867593464742 0.01014363568487953 0 -0.015001089857997583 0.010192599860938806 0 -0.014524333429392884 0.010959024339460948 0 -0.014366229476122653 0.0096464896282640843 0 -0.013952867593464742 0.01014363568487953 0 -0.015001089857997583 0.010192599860938806 0 -0.0095218804730023195 0.010847251782533268 0 -0.013463189375360425 0.010893743944123031 0 -0.01593209436747996 0.010551289966912437 0 -0.015001089857997583 0.010192599860938806 0 -0.015667775762417117 0.0099698343104958308 0 -0.01593209436747996 0.010551289966912437 0 -0.015001089857997583 0.010192599860938806 0 -0.014524333429392884 0.010959024339460948 0 -0.015089875936469814 0.0093780052238283049 0 -0.015001089857997583 0.010192599860938806 0 -0.015667775762417117 0.0099698343104958308 0 -0.016901247524631333 0.010223553074270007 0 -0.01644477177275663 0.010074508984051741 0 -0.016621007219464818 0.010373223961954616 0 -0.015859480042858302 0.010308274003035923 0 -0.013463189375360425 0.010893743944123031 0 -0.017156151068917557 0.0099924703283674268 0 -0.016901247524631333 0.010223553074270007 0 -0.01644477177275663 0.010074508984051741 0 -0.016288584895771362 0.00985833494297517 0 -0.016029290214616423 0.010591025537858574 0 -0.016621007219464818 0.010373223961954616 0 -0.015346242955517191 0.0094464790275219333 0 -0.015638153178388393 0.0098697086176349254 0 -0.015187019391288125 0.010003649201440205 0 -0.016288584895771362 0.00985833494297517 0 -0.016029290214616423 0.010591025537858574 0 -0.015577401698837529 0.010021284720990059 0 -0.013463189375360425 0.010893743944123031 0 -0.01377172629383081 0.011014646766146384 0 -0.013463189375360425 0.010893743944123031 0 -0.014503930555700578 0.010516623071858272 0 -0.015516786954049986 0.011112029534837009 0 -0.016569835786967618 0.011057167173293194 0 -0.016029290214616423 0.010591025537858574 0 -0.016569835786967618 0.011057167173293194 0 -0.016029290214616423 0.010591025537858574 0 -0.016621007219464818 0.010373223961954616 0 -0.017182258312852351 0.011101711510484707 0 -0.016569835786967618 0.011057167173293194 0 -0.017006109290665546 0.010599603942934511 0 -0.016569835786967618 0.011057167173293194 0 -0.016621007219464818 0.010373223961954616 0 -0.017006109290665546 0.010599603942934511 0 -0.016901247524631333 0.010223553074270007 0 -0.016621007219464818 0.010373223961954616 0 -0.017006109290665546 0.010599603942934511 0 -0.014552765725488635 0.0096623746476855402 0 -0.014526397836786926 0.010172832085485041 0 -0.014086344738487406 0.0095626053915203041 0 -0.014803166139808374 0.010192330064087568 0 -0.014699590741369969 0.0099585658489887447 0 -0.014902159202692541 0.0098333686343970335 0 -0.014803166139808374 0.010192330064087568 0 -0.014526397836786926 0.010172832085485041 0 -0.014699590741369969 0.0099585658489887447 0 -0.014552765725488635 0.0096623746476855402 0 -0.014526397836786926 0.010172832085485041 0 -0.014699590741369969 0.0099585658489887447 0 -0.014552765725488635 0.0096623746476855402 0 -0.014699590741369969 0.0099585658489887447 0 -0.014902159202692541 0.0098333686343970335 0 -0.015073672601290137 0.0096647759960015334 0 -0.014902159202692541 0.0098333686343970335 0 -0.015187019391288125 0.010003649201440205 0 -0.014803166139808374 0.010192330064087568 0 -0.014902159202692541 0.0098333686343970335 0 -0.015187019391288125 0.010003649201440205 0 -0.01466534745742256 0.010446305444126225 0 -0.014503930555700578 0.010516623071858272 0 -0.015516786954049986 0.011112029534837009 0 -0.016029290214616423 0.010591025537858574 0 -0.015577401698837529 0.010021284720990059 0 -0.015516786954049986 0.011112029534837009 0 -0.014803166139808374 0.010192330064087568 0 -0.015577401698837529 0.010021284720990059 0 -0.015516786954049986 0.011112029534837009 0 -0.014803166139808374 0.010192330064087568 0 -0.014526397836786926 0.010172832085485041 0 -0.031916721091864962 0.005492329811292886 0 -0.031986366800876666 0.0054690124607425462 0 -0.048302283241130957 -1.8002530414293048e-05 0 -0.049215801832592512 0.00088885770420787144 0 -0.049321121996033127 0.00013178837619347839 0 -0.049215801832592512 0.00088885770420787144 0 -0.049321121996033127 0.00013178837619347839 0 -0.04983575946879059 0.00066335949075385084 0 -0.049713304376311621 -0.00051530778247529008 0 -0.049321121996033127 0.00013178837619347839 0 -0.04983575946879059 0.00066335949075385084 0 -0.050615977139738179 -0.00054838521846074643 0 -0.050312508293394745 -1.6422698512652555e-05 0 -0.050860809356369059 0.00018339987124629792 0 -0.050615977139738179 -0.00054838521846074643 0 -0.050860809356369059 0.00018339987124629792 0 -0.051259562323038584 -0.00023006787614914337 0 -0.050860809356369059 0.00018339987124629792 0 -0.050572533473254813 0.00080114233445427528 0 -0.051333859278874634 0.00051280079786826039 0 -0.050860809356369059 0.00018339987124629792 0 -0.051333859278874634 0.00051280079786826039 0 -0.051259562323038584 -0.00023006787614914337 0 -0.031986366800876666 0.0054690124607425462 0 -0.032142391245227081 0.0054149171257924806 0 -0.050312508293394745 -1.6422698512652555e-05 0 -0.050860809356369059 0.00018339987124629792 0 -0.050572533473254813 0.00080114233445427528 0 -0.049215801832592512 0.00088885770420787144 0 -0.04983575946879059 0.00066335949075385084 0 -0.049985366428392873 0.0017243096014784198 0 -0.014526397836786926 0.010172832085485041 0 -0.013907845596292774 0.0094606676059806102 0 -0.014086344738487406 0.0095626053915203041 0 -0.041002440459558427 0.0022538023738955248 0 -0.032142391245227081 0.0054149171257924806 0 -0.014393803595292083 0.0090769344311512554 0 -0.014397594286376386 0.0094038031157235163 0 -0.014086344738487406 0.0095626053915203041 0 -0.0143207972435982 0.0089805177584474823 0 -0.01406597717431623 0.0091560691943603466 0 -0.014086344738487406 0.0095626053915203041 0 -0.0043570449924956404 0.0065336746777809231 0 -0.0062209933340679636 0.0062903458888911119 0 -0.032142391245227081 0.0054149171257924806 0 -0.02802059417767758 0.0060531561498685374 0 -0.01406597717431623 0.0091560691943603466 0 -0.013907845596292774 0.0094606676059806102 0 -0.01383984343266363 0.0089826480852018119 0 -0.01406597717431623 0.0091560691943603466 0 -0.013907845596292774 0.0094606676059806102 0 -0.014086344738487406 0.0095626053915203041 0 -0.050572533473254813 0.00080114233445427528 0 -0.051205459751217881 0.001305200188693426 0 -0.051333859278874634 0.00051280079786826039 0 -0.032142391245227081 0.0054149171257924806 0 -0.027290701560593246 0.0059453821946118699 0 -0.014021456994965664 0.0088514634363783609 0 -0.013949747747001329 0.0086903614364037436 0 -0.013792835352262337 0.0086613765448569652 0 -0.013855660614976645 0.0085725538792358162 0 -0.013949747747001329 0.0086903614364037436 0 -0.013792835352262337 0.0086613765448569652 0 -0.013927636077104857 0.0086951728961293332 0 -0.013855660614976645 0.0085725538792358162 0 -0.01383984343266363 0.0089826480852018119 0 -0.026727303743869446 0.0062276869809669375 0 -0.02802059417767758 0.0060531561498685374 0 -0.013927636077104857 0.0086951728961293332 0 -0.01383984343266363 0.0089826480852018119 0 -0.014030158593903573 0.0087922088373145434 0 -0.0143207972435982 0.0089805177584474823 0 -0.014030158593903573 0.0087922088373145434 0 -0.014196925904646947 0.0087659477109862174 0 -0.0143207972435982 0.0089805177584474823 0 -0.01406597717431623 0.0091560691943603466 0 -0.014030158593903573 0.0087922088373145434 0 -0.01406597717431623 0.0091560691943603466 0 -0.01383984343266363 0.0089826480852018119 0 -0.014030158593903573 0.0087922088373145434 0 -0.051773585331719024 0.0017575394831200325 0 -0.052236665570177983 0.0013079931602315326 0 -0.051205459751217881 0.001305200188693426 0 -0.052236665570177983 0.0013079931602315326 0 -0.051205459751217881 0.001305200188693426 0 -0.052063500600832077 0.00083726324022788162 0 -0.051205459751217881 0.001305200188693426 0 -0.052063500600832077 0.00083726324022788162 0 -0.051333859278874634 0.00051280079786826039 0 -0.052063500600832077 0.00083726324022788162 0 -0.052024213931247135 9.5715613868708267e-05 0 -0.0524858655595647 0.00045257754670318805 0 -0.052063500600832077 0.00083726324022788162 0 -0.051333859278874634 0.00051280079786826039 0 -0.052024213931247135 9.5715613868708267e-05 0 -0.051333859278874634 0.00051280079786826039 0 -0.051259562323038584 -0.00023006787614914337 0 -0.052024213931247135 9.5715613868708267e-05 0 -0.051799154574042383 -0.000503288650457737 0 -0.051259562323038584 -0.00023006787614914337 0 -0.052024213931247135 9.5715613868708267e-05 0 -0.052437345131015181 -0.00077236794067432276 0 -0.051799154574042383 -0.000503288650457737 0 -0.052024213931247135 9.5715613868708267e-05 0 -0.052437345131015181 -0.00077236794067432276 0 -0.052024213931247135 9.5715613868708267e-05 0 -0.052919595105458204 0.00010144213954903796 0 -0.052919595105458204 0.00010144213954903796 0 -0.0524858655595647 0.00045257754670318805 0 -0.052901267483238139 0.00074783786203922841 0 -0.052024213931247135 9.5715613868708267e-05 0 -0.052919595105458204 0.00010144213954903796 0 -0.0524858655595647 0.00045257754670318805 0 -0.052919595105458204 0.00010144213954903796 0 -0.053436286526416681 0.00043349690762289504 0 -0.052901267483238139 0.00074783786203922841 0 -0.052919595105458204 0.00010144213954903796 0 -0.05373471576918367 -0.00011786285216977334 0 -0.053436286526416681 0.00043349690762289504 0 -0.053285847653799651 -0.00069872464422918493 0 -0.052919595105458204 0.00010144213954903796 0 -0.05373471576918367 -0.00011786285216977334 0 -0.053781506037276564 0.00050591906207908565 0 -0.05403315391764428 0.00081043866703115668 0 -0.05373471576918367 -0.00011786285216977334 0 -0.05366170082804441 0.00043752697850619679 0 -0.053436286526416681 0.00043349690762289504 0 -0.055258630501442106 -0.0010248413240089493 0 -0.05373471576918367 -0.00011786285216977334 0 -0.055134400013089183 0.00055397307410156725 0 -0.05366170082804441 0.00043752697850619679 0 -0.053508928782750105 0.00084091982472542031 0 -0.053666475811822906 0.00076452757921452138 0 -0.05366170082804441 0.00043752697850619679 0 -0.053436286526416681 0.00043349690762289504 0 -0.053508928782750105 0.00084091982472542031 0 -0.053436286526416681 0.00043349690762289504 0 -0.053508928782750105 0.00084091982472542031 0 -0.052901267483238139 0.00074783786203922841 0 -0.053508928782750105 0.00084091982472542031 0 -0.052945520597721077 0.0011593896201873627 0 -0.053233806082644462 0.0013202395767776907 0 -0.052236665570177983 0.0013079931602315326 0 -0.052945520597721077 0.0011593896201873627 0 -0.052901267483238139 0.00074783786203922841 0 -0.052063500600832077 0.00083726324022788162 0 -0.0524858655595647 0.00045257754670318805 0 -0.052901267483238139 0.00074783786203922841 0 -0.052236665570177983 0.0013079931602315326 0 -0.052063500600832077 0.00083726324022788162 0 -0.052901267483238139 0.00074783786203922841 0 -0.053508928782750105 0.00084091982472542031 0 -0.052945520597721077 0.0011593896201873627 0 -0.052901267483238139 0.00074783786203922841 0 -0.058154536512404091 3.8620039629995154e-05 0 -0.057506600644007047 9.1856052428870357e-06 0 -0.058393121159118815 5.0234986033379953e-05 0 -0.058154536512404091 3.8620039629995154e-05 0 -0.058172734120226721 -0.00037243206136752913 0 -0.057506600644007047 9.1856052428870357e-06 0 -0.057591346406627955 -0.00070506867189430928 0 -0.058182838048072623 -0.00091392007845615035 0 -0.058172734120226721 -0.00037243206136752913 0 -0.056471662803083848 -0.00056643122041469859 0 -0.057591346406627955 -0.00070506867189430928 0 -0.057506600644007047 9.1856052428870357e-06 0 -0.057591346406627955 -0.00070506867189430928 0 -0.058172734120226721 -0.00037243206136752913 0 -0.057506600644007047 9.1856052428870357e-06 0 -0.056471662803083848 -0.00056643122041469859 0 -0.055134400013089183 0.00055397307410156725 0 -0.056242938590357026 0.0011097153554491003 0 -0.056471662803083848 -0.00056643122041469859 0 -0.057158240084171093 0.00066117839092264604 0 -0.056242938590357026 0.0011097153554491003 0 -0.057158240084171093 0.00066117839092264604 0 -0.056242938590357026 0.0011097153554491003 0 -0.057056756846383984 0.0014554729283114075 0 -0.05554571667238193 0.00068638966655768354 0 -0.055284059550907316 0.0013704927622788503 0 -0.05403315391764428 0.00081043866703115668 0 -0.054221620007993139 0.0013804566933508561 0 -0.053508928782750105 0.00084091982472542031 0 -0.053666475811822906 0.00076452757921452138 0 -0.05359187522852546 0.00087648690784969375 0 -0.053508928782750105 0.00084091982472542031 0 -0.05359187522852546 0.00087648690784969375 0 -0.053543924776851666 0.0010339243315568522 0 -0.05359187522852546 0.00087648690784969375 0 -0.05344908280238797 0.00095167241681912238 0 -0.053346143627603579 0.00080814813448906297 0 -0.05359187522852546 0.00087648690784969375 0 -0.053346143627603579 0.00080814813448906297 0 -0.053494498659640843 0.00075182448239731556 0 -0.053666475811822906 0.00076452757921452138 0 -0.05359187522852546 0.00087648690784969375 0 -0.05344908280238797 0.00095167241681912238 0 -0.054221620007993139 0.0013804566933508561 0 -0.053627472947185256 0.0019443529540713242 0 -0.055284059550907316 0.0013704927622788503 0 -0.052856706445659672 0.0023028527430158257 0 -0.057158240084171093 0.00066117839092264604 0 -0.057056756846383984 0.0014554729283114075 0 -0.057512735957037119 0.0014402677193088135 0 -0.053627472947185256 0.0019443529540713242 0 -0.050545334078589049 0.0018801618485623423 0 -0.05344908280238797 0.00095167241681912238 0 -0.053346143627603579 0.00080814813448906297 0 -0.052959304451408826 0.00087416384924167119 0 -0.053346143627603579 0.00080814813448906297 0 -0.052959304451408826 0.00087416384924167119 0 -0.053064969062319237 0.00053392265047003974 0 -0.057056756846383984 0.0014554729283114075 0 -0.057502944393532256 0.0016593053770671 0 -0.057512735957037119 0.0014402677193088135 0 -0.057663802086903776 0.0018242856494512065 0 -0.057502944393532256 0.0016593053770671 0 -0.057512735957037119 0.0014402677193088135 0 -0.058072088179807066 0.00028219822107252178 0 -0.058154536512404091 3.8620039629995154e-05 0 -0.058393121159118815 5.0234986033379953e-05 0 0.0040325689381814044 -0.012921165505839787 0 0.00097185911297767642 -0.0076300594156516856 0 -0.00099407411664607145 -0.013257009432551783 0 -0.052390403161160497 0.00054769115211734129 0 -0.052959304451408826 0.00087416384924167119 0 -0.053064969062319237 0.00053392265047003974 0 0.00097185911297767642 -0.0076300594156516856 0 -0.0034321186829724369 -0.011125566764753344 0 -0.0039432205263712841 -0.0078421932882090147 0 -0.053346143627603579 0.00080814813448906297 0 -0.053064969062319237 0.00053392265047003974 0 -0.053494498659640843 0.00075182448239731556 0 -0.028171147842052213 -0.0032287826722395595 0 -0.028953991562358335 -0.0031504878544939561 0 0.00097185911297767642 -0.0076300594156516856 0 -0.0034321186829724369 -0.011125566764753344 0 -0.00099407411664607145 -0.013257009432551783 0 -0.0034321186829724369 -0.011125566764753344 0 -0.0039432205263712841 -0.0078421932882090147 0 -0.0087395521269989836 -0.0079745792162556877 0 -0.05359187522852546 0.00087648690784969375 0 -0.053494498659640843 0.00075182448239731556 0 -0.053543924776851666 0.0010339243315568522 0 -0.028953991562358335 -0.0031504878544939561 0 -0.030887642433923699 -0.0028680094828306079 0 -0.0034321186829724369 -0.011125566764753344 0 -0.0087395521269989836 -0.0079745792162556877 0 -0.0088423861291562211 -0.011904853703273851 0 -0.0053533417717933135 -0.013773514935403082 0 -0.0088423861291562211 -0.011904853703273851 0 -0.0097376564645325833 -0.015452026624104458 0 -0.0034321186829724369 -0.011125566764753344 0 -0.0053533417717933135 -0.013773514935403082 0 -0.0088423861291562211 -0.011904853703273851 0 -0.0097376564645325833 -0.015452026624104458 0 -0.010187880898192139 -0.018091720361028848 0 -0.0062719233662379987 -0.019187441076544676 0 -0.0053533417717933135 -0.013773514935403082 0 -0.0097376564645325833 -0.015452026624104458 0 -0.0062719233662379987 -0.019187441076544676 0 -0.0053533417717933135 -0.013773514935403082 0 -0.0028554876145148247 -0.016335555269465098 0 -0.0062719233662379987 -0.019187441076544676 0 -0.0028554876145148247 -0.016335555269465098 0 -0.0016286669019765379 -0.018032355221936695 0 -0.0062719233662379987 -0.019187441076544676 0 -0.0034321186829724369 -0.011125566764753344 0 -0.0053533417717933135 -0.013773514935403082 0 -0.00099407411664607145 -0.013257009432551783 0 -0.0053533417717933135 -0.013773514935403082 0 -0.00099407411664607145 -0.013257009432551783 0 -0.0028554876145148247 -0.016335555269465098 0 -0.00099407411664607145 -0.013257009432551783 0 -0.0028554876145148247 -0.016335555269465098 0 -0.0011820841302421158 -0.015804538778069123 0 -0.00099407411664607145 -0.013257009432551783 0 -0.0011820841302421158 -0.015804538778069123 0 0.00048013101232211762 -0.015791446443299519 0 -0.0028554876145148247 -0.016335555269465098 0 -0.0016286669019765379 -0.018032355221936695 0 -0.0011820841302421158 -0.015804538778069123 0 -0.0016286669019765379 -0.018032355221936695 0 -0.0011820841302421158 -0.015804538778069123 0 0.00048013101232211762 -0.015791446443299519 0 -0.0016286669019765379 -0.018032355221936695 0 0.00048013101232211762 -0.015791446443299519 0 0.0031452095450454397 -0.016994740919082544 0 0.012353086317461444 -0.0098726184209148929 0 0.013006706538365999 -0.012520990412914315 0 0.0040325689381814044 -0.012921165505839787 0 -0.00099407411664607145 -0.013257009432551783 0 0.00048013101232211762 -0.015791446443299519 0 0.0040325689381814044 -0.012921165505839787 0 0.00048013101232211762 -0.015791446443299519 0 0.0031452095450454397 -0.016994740919082544 0 -0.015917788062932058 -0.010847378192298172 0 -0.019854331127537529 -0.011185885121955352 0 -0.016888502189151996 -0.014254271006190656 0 -0.015917788062932058 -0.010847378192298172 0 -0.019854331127537529 -0.011185885121955352 0 -0.018148398828138172 -0.0081185376083219556 0 -0.022789073368382217 -0.0081484615654249786 0 -0.019854331127537529 -0.011185885121955352 0 -0.018148398828138172 -0.0081185376083219556 0 -0.052236665570177983 0.0013079931602315326 0 -0.052945520597721077 0.0011593896201873627 0 -0.052600513980273537 0.0016066189440940249 0 -0.015917788062932058 -0.010847378192298172 0 -0.018148398828138172 -0.0081185376083219556 0 -0.013468436605643149 -0.0080591624439659212 0 -0.030802775553537408 -0.00091652042169385582 0 -0.032339959800769542 -0.0022363483502206459 0 -0.052945520597721077 0.0011593896201873627 0 -0.052600513980273537 0.0016066189440940249 0 -0.053233806082644462 0.0013202395767776907 0 -0.053508928782750105 0.00084091982472542031 0 -0.053543924776851666 0.0010339243315568522 0 -0.053233806082644462 0.0013202395767776907 0 -0.030887642433923699 -0.0028680094828306079 0 -0.032339959800769542 -0.0022363483502206459 0 -0.0087395521269989836 -0.0079745792162556877 0 -0.013468436605643149 -0.0080591624439659212 0 -0.0088423861291562211 -0.011904853703273851 0 -0.013468436605643149 -0.0080591624439659212 0 -0.0088423861291562211 -0.011904853703273851 0 -0.012972829829798945 -0.012863816043647254 0 -0.015917788062932058 -0.010847378192298172 0 -0.013468436605643149 -0.0080591624439659212 0 -0.012972829829798945 -0.012863816043647254 0 -0.0088423861291562211 -0.011904853703273851 0 -0.012972829829798945 -0.012863816043647254 0 -0.0097376564645325833 -0.015452026624104458 0 -0.0097376564645325833 -0.015452026624104458 0 -0.013879840479549691 -0.017337323221385374 0 -0.010187880898192139 -0.018091720361028848 0 -0.012972829829798945 -0.012863816043647254 0 -0.0097376564645325833 -0.015452026624104458 0 -0.013879840479549691 -0.017337323221385374 0 0.0090528284076488649 -0.0017895630857966962 0 0.0042070951274495172 -0.0022345825314781646 0 0.027934658673605787 0.0096654493625273341 0 0.027237170136696798 0.010197920320142221 0 0.02757211884879467 0.0094451746050597234 0 -0.015917788062932058 -0.010847378192298172 0 -0.012972829829798945 -0.012863816043647254 0 -0.016888502189151996 -0.014254271006190656 0 -0.012972829829798945 -0.012863816043647254 0 -0.013879840479549691 -0.017337323221385374 0 -0.016888502189151996 -0.014254271006190656 0 0.02670870255188218 0.010233654409808349 0 0.027237170136696798 0.010197920320142221 0 0.02676584022675919 0.01013540066731883 0 -0.0019823498836354552 -0.0018492225395613561 0 0.0042070951274495172 -0.0022345825314781646 0 0.027237170136696798 0.010197920320142221 0 0.02698556053297009 0.0097633735014076538 0 0.02757211884879467 0.0094451746050597234 0 0.027237170136696798 0.010197920320142221 0 0.02676584022675919 0.01013540066731883 0 0.02698556053297009 0.0097633735014076538 0 0.02698556053297009 0.0097633735014076538 0 0.027238899507982309 0.0091987072513587329 0 0.026566450007747672 0.0089053539292352074 0 0.02698556053297009 0.0097633735014076538 0 0.027238899507982309 0.0091987072513587329 0 0.02757211884879467 0.0094451746050597234 0 0.026229488148925034 0.010678029015902884 0 0.026248215814199539 0.010870931241841898 0 0.026274087328670301 0.010793005954896793 0 0.026566450007747672 0.0089053539292352074 0 0.027364432892561373 0.0083542302052407331 0 0.027217672655039091 0.0065152386144994136 0 0.027313926745980471 0.0097314810167309258 0 0.028428760870944161 0.0090578895032796172 0 0.027238899507982309 0.0091987072513587329 0 0.026566450007747672 0.0089053539292352074 0 0.027364432892561373 0.0083542302052407331 0 0.027238899507982309 0.0091987072513587329 0 0.027364432892561373 0.0083542302052407331 0 0.027795830812939671 0.009012304956596183 0 0.029091960624380523 0.0077033500550991512 0 0.027933015403476428 0.0077503653768830642 0 0.027795830812939671 0.009012304956596183 0 0.027364432892561373 0.0083542302052407331 0 0.027933015403476428 0.0077503653768830642 0 0.027795830812939671 0.009012304956596183 0 0.027934658673605787 0.0096654493625273341 0 0.02757211884879467 0.0094451746050597234 0 0.027925102958485406 0.0089893739719552317 0 0.027795830812939671 0.009012304956596183 0 0.02757211884879467 0.0094451746050597234 0 0.027925102958485406 0.0089893739719552317 0 0.027238899507982309 0.0091987072513587329 0 0.027795830812939671 0.009012304956596183 0 0.02757211884879467 0.0094451746050597234 0 -0.013879840479549691 -0.017337323221385374 0 -0.010187880898192139 -0.018091720361028848 0 -0.01085083473105017 -0.020395761813270144 0 0.014781083970480237 -0.00036552426624295953 0 0.020102700283558247 0.0017772861935468247 0 0.0090528284076488649 -0.0017895630857966962 0 0.014781083970480237 -0.00036552426624295953 0 0.027934658673605787 0.0096654493625273341 0 0.028410132354058291 0.0091244410663095417 0 0.027925102958485406 0.0089893739719552317 0 -0.010187880898192139 -0.018091720361028848 0 -0.01085083473105017 -0.020395761813270144 0 -0.0062719233662379987 -0.019187441076544676 0 0.027998057052444934 0.0089259243983029219 0 0.027994136500595096 0.0089162219804961289 0 0.027998631548746985 0.0088557754096577918 0 0.027296957547159585 0.0029728483772932923 0 0.02520982267348169 -0.0010548510567841079 0 0.014781083970480237 -0.00036552426624295953 0 0.02520982267348169 -0.0010548510567841079 0 0.030614151995616311 0.0085755927834880209 0 0.031865519436140466 0.0075788435646357653 0 0.03327087919949382 0.0077681592599982835 0 0.030614151995616311 0.0085755927834880209 0 0.030574860323873 0.0072143208275530692 0 0.031865519436140466 0.0075788435646357653 0 0.029091960624380523 0.0077033500550991512 0 0.027795830812939671 0.009012304956596183 0 0.030614151995616311 0.0085755927834880209 0 0.027795830812939671 0.009012304956596183 0 0.027925102958485406 0.0089893739719552317 0 0.027994136500595096 0.0089162219804961289 0 0.027998057052444934 0.0089259243983029219 0 0.027925102958485406 0.0089893739719552317 0 0.027994136500595096 0.0089162219804961289 0 0.027362220558397782 0.0041576469306395195 0 0.027296957547159585 0.0029728483772932923 0 0.029091960624380523 0.0077033500550991512 0 0.030614151995616311 0.0085755927834880209 0 0.030574860323873 0.0072143208275530692 0 0.029091960624380523 0.0077033500550991512 0 0.030574860323873 0.0072143208275530692 0 0.029587178487375798 0.0066707132953679167 0 0.030574860323873 0.0072143208275530692 0 0.030382082956602403 0.0061290275511813735 0 0.029587178487375798 0.0066707132953679167 0 0.030574860323873 0.0072143208275530692 0 0.030382082956602403 0.0061290275511813735 0 0.031664775467600083 0.0062692474334964197 0 0.030382082956602403 0.0061290275511813735 0 0.029587178487375798 0.0066707132953679167 0 0.029671303636714622 0.0055661316641010426 0 0.032336439367329911 0.006406217475926187 0 0.033970538780585258 0.0078889079177015802 0 0.033783057194549125 0.0054958102055483703 0 0.029789139296864876 0.0035833119057766941 0 0.02520982267348169 -0.0010548510567841079 0 0.031865519436140466 0.0075788435646357653 0 0.031664775467600083 0.0062692474334964197 0 0.03327087919949382 0.0077681592599982835 0 0.030574860323873 0.0072143208275530692 0 0.031865519436140466 0.0075788435646357653 0 0.031664775467600083 0.0062692474334964197 0 0.0331566503049502 0.0042846521541768899 0 0.031475457876018569 0.0049563854116595812 0 0.034367717302470437 0.0050739834118792302 0 0.032336439367329911 0.006406217475926187 0 0.031475457876018569 0.0049563854116595812 0 0.033783057194549125 0.0054958102055483703 0 0.032638225886798426 0.0012911924219330315 0 0.032535421660810769 0.00063117239582468785 0 0.0331566503049502 0.0042846521541768899 0 0.031475457876018569 0.0049563854116595812 0 0.031663435998768641 0.0038953552310818165 0 0.029587178487375798 0.0066707132953679167 0 0.029671303636714622 0.0055661316641010426 0 0.028660380186430946 0.0055470190576701389 0 0.030382082956602403 0.0061290275511813735 0 0.029671303636714622 0.0055661316641010426 0 0.030298817986511895 0.0046911084172040207 0 0.032336439367329911 0.006406217475926187 0 0.031475457876018569 0.0049563854116595812 0 0.030298817986511895 0.0046911084172040207 0 0.030382082956602403 0.0061290275511813735 0 0.031664775467600083 0.0062692474334964197 0 0.030298817986511895 0.0046911084172040207 0 0.029789139296864876 0.0035833119057766941 0 0.030340529299404301 0.0041975439600565219 0 0.031475457876018569 0.0049563854116595812 0 0.03048867883841833 0.0039063635423770508 0 0.031663435998768641 0.0038953552310818165 0 0.031475457876018569 0.0049563854116595812 0 0.030298817986511895 0.0046911084172040207 0 0.03048867883841833 0.0039063635423770508 0 0.030298817986511895 0.0046911084172040207 0 0.029532139143392741 0.0046331293324077781 0 0.03048867883841833 0.0039063635423770508 0 0.029671303636714622 0.0055661316641010426 0 0.030298817986511895 0.0046911084172040207 0 0.029532139143392741 0.0046331293324077781 0 0.028428760870944161 0.0090578895032796172 0 0.030996139910366274 0.0080131848329420101 0 0.029532139143392741 0.0046331293324077781 0 0.028660380186430946 0.0055470190576701389 0 0.028601559127473867 0.0033178900275961901 0 0.028660380186430946 0.0055470190576701389 0 0.027217672655039091 0.0065152386144994136 0 0.028601559127473867 0.0033178900275961901 0 0.026248215814199539 0.010870931241841898 0 0.026272581102144411 0.010861751083599283 0 0.026294123426590654 0.010852172430533867 0 0.029671303636714622 0.0055661316641010426 0 0.029532139143392741 0.0046331293324077781 0 0.028660380186430946 0.0055470190576701389 0 0.026271820499958954 0.010866623740590782 0 0.026248215814199539 0.010870931241841898 0 0.026285951467350355 0.010857167909880514 0 0.026271820499958954 0.010866623740590782 0 0.026248215814199539 0.010870931241841898 0 0.026272581102144411 0.010861751083599283 0 0.026271820499958954 0.010866623740590782 0 0.026272581102144411 0.010861751083599283 0 0.026283454121156225 0.010870221427455556 0 0.026248215814199539 0.010870931241841898 0 0.026285951467350355 0.010857167909880514 0 0.026274087328670301 0.010793005954896793 0 0.027364432892561373 0.0083542302052407331 0 0.027933015403476428 0.0077503653768830642 0 0.027217672655039091 0.0065152386144994136 0 0.027933015403476428 0.0077503653768830642 0 0.027217672655039091 0.0065152386144994136 0 0.028392279052252133 0.0067993077657654685 0 0.029091960624380523 0.0077033500550991512 0 0.029587178487375798 0.0066707132953679167 0 0.028392279052252133 0.0067993077657654685 0 0.029091960624380523 0.0077033500550991512 0 0.027933015403476428 0.0077503653768830642 0 0.028392279052252133 0.0067993077657654685 0 0.029587178487375798 0.0066707132953679167 0 0.028660380186430946 0.0055470190576701389 0 0.028392279052252133 0.0067993077657654685 0 0.028660380186430946 0.0055470190576701389 0 0.027217672655039091 0.0065152386144994136 0 0.028392279052252133 0.0067993077657654685 0 0.02304637323666079 -0.012283188445929846 0 0.02327333153018862 -0.012571296735033209 0 0.023348275881886316 -0.012102819318807131 0 0.022713263357002023 -0.012159453525602822 0 0.022998860006632465 -0.012002557642254644 0 0.02304637323666079 -0.012283188445929846 0 0.022998860006632465 -0.012002557642254644 0 0.02304637323666079 -0.012283188445929846 0 0.023348275881886316 -0.012102819318807131 0 0.022675979247655513 -0.012653785847284917 0 0.02304637323666079 -0.012283188445929846 0 0.02327333153018862 -0.012571296735033209 0 0.022675979247655513 -0.012653785847284917 0 0.022885329419835385 -0.013143899525656479 0 0.02327333153018862 -0.012571296735033209 0 0.023582662519507636 -0.012913126851163335 0 0.022885329419835385 -0.013143899525656479 0 0.02327333153018862 -0.012571296735033209 0 0.02327333153018862 -0.012571296735033209 0 0.023656469888277788 -0.012550399441790159 0 0.02368961945391837 -0.012290677918956059 0 0.023582662519507636 -0.012913126851163335 0 0.023656469888277788 -0.012550399441790159 0 0.0241233116745963 -0.012429707948539887 0 0.023582662519507636 -0.012913126851163335 0 0.02327333153018862 -0.012571296735033209 0 0.023656469888277788 -0.012550399441790159 0 0.02327333153018862 -0.012571296735033209 0 0.02368961945391837 -0.012290677918956059 0 0.023348275881886316 -0.012102819318807131 0 0.02368961945391837 -0.012290677918956059 0 0.023348275881886316 -0.012102819318807131 0 0.023838149762290334 -0.011839669743509687 0 0.025852565219495329 -0.0079001420483217899 0 0.026748790620209267 -0.0054230981133499001 0 0.024059268030224523 -0.012043780272774324 0 0.024772915311496984 -0.011813190216530023 0 0.023866767742522197 -0.011633220599339553 0 0.02368961945391837 -0.012290677918956059 0 0.024059268030224523 -0.012043780272774324 0 0.023866767742522197 -0.011633220599339553 0 0.024059268030224523 -0.012043780272774324 0 0.0241233116745963 -0.012429707948539887 0 0.024772915311496984 -0.011813190216530023 0 0.02368961945391837 -0.012290677918956059 0 0.024059268030224523 -0.012043780272774324 0 0.0241233116745963 -0.012429707948539887 0 0.012353086317461444 -0.0098726184209148929 0 0.0078189400140219554 -0.0079077815787634669 0 0.012686313367596912 -0.0073853265807544239 0 0.015179292088514762 -0.0050086098211706374 0 0.016534164618250795 -0.0062693549722743673 0 0.012353086317461444 -0.0098726184209148929 0 0.01843133145362303 -0.0064836356017242032 0 0.023656469888277788 -0.012550399441790159 0 0.02368961945391837 -0.012290677918956059 0 0.0241233116745963 -0.012429707948539887 0 0.014781083970480237 -0.00036552426624295953 0 0.0078189400140219554 -0.0079077815787634669 0 0.015179292088514762 -0.0050086098211706374 0 0.016534164618250795 -0.0062693549722743673 0 0.017540382824919352 -0.0043685497534037467 0 0.020356946584495664 -0.0051671568724213296 0 0.016534164618250795 -0.0062693549722743673 0 0.017540382824919352 -0.0043685497534037467 0 0.01843133145362303 -0.0064836356017242032 0 0.02520982267348169 -0.0010548510567841079 0 0.015179292088514762 -0.0050086098211706374 0 0.017540382824919352 -0.0043685497534037467 0 0.017780616798952372 -0.0025582951779430864 0 0.020356946584495664 -0.0051671568724213296 0 0.017540382824919352 -0.0043685497534037467 0 0.017780616798952372 -0.0025582951779430864 0 0.02520982267348169 -0.0010548510567841079 0 0.029554574463012052 -0.0020512107953737885 0 0.033970538780585258 0.0078889079177015802 0 0.033783057194549125 0.0054958102055483703 0 0.035897883898062359 0.005911680346660772 0 0.02634861161674067 -0.0018815776525994733 0 0.028797564790649138 -0.0043545037293957643 0 0.02808069700889539 -0.0029843737365458202 0 0.032535421660810769 0.00063117239582468785 0 0.029554574463012052 -0.0020512107953737885 0 0.034367717302470437 0.0050739834118792302 0 0.034621523563136171 0.0045354268701204769 0 0.034571338857100509 0.0045682323120342667 0 0.0331566503049502 0.0042846521541768899 0 0.034367717302470437 0.0050739834118792302 0 0.034825813518268266 0.0043303366147016461 0 0.034367717302470437 0.0050739834118792302 0 0.034825813518268266 0.0043303366147016461 0 0.034571338857100509 0.0045682323120342667 0 0.034825813518268266 0.0043303366147016461 0 0.034571338857100509 0.0045682323120342667 0 0.034155655833621935 0.0047992890081132514 0 0.034571338857100509 0.0045682323120342667 0 0.034607238674744335 0.0045110225573721891 0 0.034155655833621935 0.0047992890081132514 0 0.030452543395003678 -0.0030547160860847754 0 0.030867067818633905 -0.0034756033081528429 0 0.03029193621226112 -0.0035612307477067709 0 0.029612465426380626 -0.0022282254970444593 0 0.03326140991573006 -0.0012099944645268307 0 0.034621523563136171 0.0045354268701204769 0 0.034571338857100509 0.0045682323120342667 0 0.034607238674744335 0.0045110225573721891 0 0.029086935344079214 -0.0057923165159134071 0 0.029051972796392975 -0.005899780134384529 0 0.028364005689328012 -0.0050675317336947318 0 0.029612465426380626 -0.0022282254970444593 0 0.029121480343616529 -0.00257166331200468 0 0.02872267674574306 -0.00064784598230692035 0 0.030928290511731092 -0.0028774431631049522 0 0.031856221561736911 -1.6909739497854211e-05 0 0.029554574463012052 -0.0020512107953737885 0 0.029121480343616529 -0.00257166331200468 0 0.029554574463012052 -0.0020512107953737885 0 0.029612465426380626 -0.0022282254970444593 0 0.029121480343616529 -0.00257166331200468 0 0.026748790620209267 -0.0054230981133499001 0 0.029133370222227697 -0.0042872643159765408 0 0.02808069700889539 -0.0029843737365458202 0 0.029675863650367871 -0.0026104824262495607 0 0.02634861161674067 -0.0018815776525994733 0 0.02808069700889539 -0.0029843737365458202 0 0.029675863650367871 -0.0026104824262495607 0 0.02520982267348169 -0.0010548510567841079 0 0.026748790620209267 -0.0054230981133499001 0 0.028797564790649138 -0.0043545037293957643 0 0.029133370222227697 -0.0042872643159765408 0 0.02808069700889539 -0.0029843737365458202 0 0.029121480343616529 -0.00257166331200468 0 0.025647601812578639 -0.006324995459677905 0 0.026748790620209267 -0.0054230981133499001 0 0.025647601812578639 -0.006324995459677905 0 0.026373559614546929 -0.0053966141816768707 0 0.026439936148309352 -0.0051890770994141022 0 0.026868059544177723 -0.0053048576147620378 0 0.023348275881886316 -0.012102819318807131 0 0.023838149762290334 -0.011839669743509687 0 0.023136992189953402 -0.011683932994644175 0 0.029051972796392975 -0.005899780134384529 0 0.027645445849828046 -0.006195309956743068 0 0.028364005689328012 -0.0050675317336947318 0 0.029612465426380626 -0.0022282254970444593 0 0.030738222057874298 -0.0041365693479375569 0 0.027298239941993565 -0.0052408776613566185 0 0.027645445849828046 -0.006195309956743068 0 0.028364005689328012 -0.0050675317336947318 0 0.024823311284495258 -0.0068222548606037348 0 0.025647601812578639 -0.006324995459677905 0 0.022998860006632465 -0.012002557642254644 0 0.023348275881886316 -0.012102819318807131 0 0.023136992189953402 -0.011683932994644175 0 0.022760118209563761 -0.011783523908893083 0 0.022998860006632465 -0.012002557642254644 0 0.023136992189953402 -0.011683932994644175 0 0.029522558389242694 -0.0072706399330459892 0 0.031689838404965566 -0.0078813526042748848 0 0.030665729442797374 -0.0091241216735063104 0 0.031689838404965566 -0.0078813526042748848 0 0.030665729442797374 -0.0091241216735063104 0 0.032392853831700902 -0.0090974802393955743 0 0.030090292026731431 -0.011179129540334769 0 0.030665729442797374 -0.0091241216735063104 0 0.032089626834728401 -0.010210875813456827 0 0.030090292026731431 -0.011179129540334769 0 0.032089626834728401 -0.010210875813456827 0 0.03265984122172403 -0.010783651554843794 0 0.028550986206732066 -0.0060920701879484118 0 0.030738222057874298 -0.0041365693479375569 0 0.030665729442797374 -0.0091241216735063104 0 0.032089626834728401 -0.010210875813456827 0 0.032392853831700902 -0.0090974802393955743 0 0.032089626834728401 -0.010210875813456827 0 0.033130155910645692 -0.0099225971158409185 0 0.032392853831700902 -0.0090974802393955743 0 0.032089626834728401 -0.010210875813456827 0 0.032638842840681817 -0.010715319355171088 0 0.033130155910645692 -0.0099225971158409185 0 0.030973726014001227 -0.0044627579721934693 0 0.030738222057874298 -0.0041365693479375569 0 0.033130155910645692 -0.0099225971158409185 0 0.032392853831700902 -0.0090974802393955743 0 0.033640897879696346 -0.0092370074687527347 0 0.032392853831700902 -0.0090974802393955743 0 0.033222279522989825 -0.0081884887669418111 0 0.033640897879696346 -0.0092370074687527347 0 0.031689838404965566 -0.0078813526042748848 0 0.032392853831700902 -0.0090974802393955743 0 0.033222279522989825 -0.0081884887669418111 0 0.031689838404965566 -0.0078813526042748848 0 0.033222279522989825 -0.0081884887669418111 0 0.033476349934408949 -0.0070708605390839363 0 0.033222279522989825 -0.0081884887669418111 0 0.033640897879696346 -0.0092370074687527347 0 0.035588769096430557 -0.007788302819735843 0 0.033640897879696346 -0.0092370074687527347 0 0.034790861652837644 -0.010307318824407921 0 0.035588769096430557 -0.007788302819735843 0 0.032638842840681817 -0.010715319355171088 0 0.033130155910645692 -0.0099225971158409185 0 0.034790861652837644 -0.010307318824407921 0 0.030738222057874298 -0.0041365693479375569 0 0.03326140991573006 -0.0012099944645268307 0 0.033130155910645692 -0.0099225971158409185 0 0.033640897879696346 -0.0092370074687527347 0 0.034790861652837644 -0.010307318824407921 0 0.034825813518268266 0.0043303366147016461 0 0.034155655833621935 0.0047992890081132514 0 0.035826737311162961 0.0057711198307642117 0 0.041522011842051371 0.0065102224891619796 0 0.040767976128798386 0.006405968545985804 0 0.041172106136134846 0.0052981908067561397 0 0.03326140991573006 -0.0012099944645268307 0 0.036711705542587125 0.00091172906502862117 0 0.040767976128798386 0.006405968545985804 0 0.041172106136134846 0.0052981908067561397 0 0.040502892982831197 0.0056767518978558347 0 0.03326140991573006 -0.0012099944645268307 0 0.036326503622510976 -0.00080660874142180579 0 0.036326503622510976 -0.00080660874142180579 0 0.037868539007674965 -0.0005928950327971094 0 0.041172106136134846 0.0052981908067561397 0 0.040993470064471453 0.0040950882575364021 0 0.040278832606160532 0.0050411052851992016 0 0.035588769096430557 -0.007788302819735843 0 0.036430031394957832 -0.0059249359703326876 0 0.034741757845487282 -0.0061628936306985065 0 0.036430031394957832 -0.0059249359703326876 0 0.034741757845487282 -0.0061628936306985065 0 0.034774736922995077 -0.0048215122619999591 0 0.034741757845487282 -0.0061628936306985065 0 0.032748325945312892 -0.0055338839832058707 0 0.034774736922995077 -0.0048215122619999591 0 0.033222279522989825 -0.0081884887669418111 0 0.035588769096430557 -0.007788302819735843 0 0.033476349934408949 -0.0070708605390839363 0 0.035588769096430557 -0.007788302819735843 0 0.034741757845487282 -0.0061628936306985065 0 0.033476349934408949 -0.0070708605390839363 0 0.031689838404965566 -0.0078813526042748848 0 0.033476349934408949 -0.0070708605390839363 0 0.031041305969930093 -0.0062735165443660547 0 0.032652824858890095 -0.0059588016812476587 0 0.031996710521212453 -0.0048222821503603949 0 0.033476349934408949 -0.0070708605390839363 0 0.031041305969930093 -0.0062735165443660547 0 0.031465694861410341 -0.0040944734764893501 0 0.034741757845487282 -0.0061628936306985065 0 0.033476349934408949 -0.0070708605390839363 0 0.032748325945312892 -0.0055338839832058707 0 0.029314463902235664 -0.005104741573596798 0 0.031465694861410341 -0.0040944734764893501 0 0.029354550976184637 -0.0035863890953555188 0 0.029314463902235664 -0.005104741573596798 0 0.031041305969930093 -0.0062735165443660547 0 0.031465694861410341 -0.0040944734764893501 0 0.029522558389242694 -0.0072706399330459892 0 0.031689838404965566 -0.0078813526042748848 0 0.031041305969930093 -0.0062735165443660547 0 0.029522558389242694 -0.0072706399330459892 0 0.029314463902235664 -0.005104741573596798 0 0.031041305969930093 -0.0062735165443660547 0 0.039078535949372599 0.0059993436473898595 0 0.03948113991737541 0.005776211975873911 0 0.038962895833540581 0.005418886108083068 0 0.039078535949372599 0.0059993436473898595 0 0.038324893803615041 0.0057422868135977474 0 0.038962895833540581 0.005418886108083068 0 0.03534720051769101 0.0070532745887258528 0 0.036869641819022698 0.0063264450431639516 0 0.035337584696819663 0.0071377869054243485 0 0.03534720051769101 0.0070532745887258528 0 0.033032065240575774 0.007822997416254699 0 0.032978459223935275 0.0078083516945893052 0 0.032998877560098179 0.0078371639198218535 0 0.032978459223935275 0.0078083516945893052 0 0.032998877560098179 0.0078371639198218535 0 0.03297308649251024 0.0078429672661987533 0 0.032998877560098179 0.0078371639198218535 0 0.032993053487630521 0.007867164414986515 0 0.033024574646303644 0.0078412400585225247 0 0.03297308649251024 0.0078429672661987533 0 0.032993053487630521 0.007867164414986515 0 0.03294993387366528 0.0078783262654884816 0 0.03031854404054236 0.0089444673567287553 0 0.030399965386680453 0.0096528534406849706 0 0.032998877560098179 0.0078371639198218535 0 0.03297308649251024 0.0078429672661987533 0 0.032993053487630521 0.007867164414986515 0 0.032993053487630521 0.007867164414986515 0 0.033024574646303644 0.0078412400585225247 0 0.033037717234310461 0.0078539801876647605 0 0.03031854404054236 0.0089444673567287553 0 0.030996139910366274 0.0080131848329420101 0 0.033032065240575774 0.007822997416254699 0 0.032998877560098179 0.0078371639198218535 0 0.033024574646303644 0.0078412400585225247 0 0.033032065240575774 0.007822997416254699 0 0.033024574646303644 0.0078412400585225247 0 0.033043988320505153 0.0078414647945742391 0 0.033024574646303644 0.0078412400585225247 0 0.033043988320505153 0.0078414647945742391 0 0.033037717234310461 0.0078539801876647605 0 0.031021596761732721 0.0079912873969915817 0 0.030996139910366274 0.0080131848329420101 0 0.028601559127473867 0.0033178900275961901 0 0.03048867883841833 0.0039063635423770508 0 0.03121838714834017 0.0026264654999660808 0 0.033043988320505153 0.0078414647945742391 0 0.033037942873543051 0.0078517892929191573 0 0.033090275878805288 0.0078340674442382331 0 0.033032065240575774 0.007822997416254699 0 0.033043988320505153 0.0078414647945742391 0 0.033090275878805288 0.0078340674442382331 0 0.035337584696819663 0.0071377869054243485 0 0.034058489626109634 0.0069658010558873319 0 0.030996139910366274 0.0080131848329420101 0 0.034058489626109634 0.0069658010558873319 0 0.029532139143392741 0.0046331293324077781 0 0.028601559127473867 0.0033178900275961901 0 0.03048867883841833 0.0039063635423770508 0 0.03048867883841833 0.0039063635423770508 0 0.03121838714834017 0.0026264654999660808 0 0.031663435998768641 0.0038953552310818165 0 0.039919328874230373 0.0061597606212810616 0 0.039899468444224567 0.0060320097555769956 0 0.03948113991737541 0.005776211975873911 0 0.040085337026195447 0.0061008570258756951 0 0.039919328874230373 0.0061597606212810616 0 0.039899468444224567 0.0060320097555769956 0 0.034103592374136793 0.0069571276670258647 0 0.034058489626109634 0.0069658010558873319 0 0.040767976128798386 0.006405968545985804 0 0.039668802947315208 0.0062087407834123158 0 0.040109117273191976 0.0059715139248595218 0 0.034825813518268266 0.0043303366147016461 0 0.035826737311162961 0.0057711198307642117 0 0.039668802947315208 0.0062087407834123158 0 0.034825813518268266 0.0043303366147016461 0 0.040085337026195447 0.0061008570258756951 0 0.039668802947315208 0.0062087407834123158 0 0.0331566503049502 0.0042846521541768899 0 0.034825813518268266 0.0043303366147016461 0 0.03121838714834017 0.0026264654999660808 0 0.034825813518268266 0.0043303366147016461 0 0.040085337026195447 0.0061008570258756951 0 0.040569304226584314 0.0059726894796033421 0 0.036711705542587125 0.00091172906502862117 0 0.037710484602761739 0.0015595318641960874 0 0.034402026999975195 0.0063452628558994381 0 0.034058489626109634 0.0069658010558873319 0 0.0331566503049502 0.0042846521541768899 0 0.03121838714834017 0.0026264654999660808 0 0.031663435998768641 0.0038953552310818165 0 0.040085337026195447 0.0061008570258756951 0 0.039899468444224567 0.0060320097555769956 0 0.039668802947315208 0.0062087407834123158 0 0.039899468444224567 0.0060320097555769956 0 0.039668802947315208 0.0062087407834123158 0 0.040109117273191976 0.0059715139248595218 0 0.040767976128798386 0.006405968545985804 0 0.040109117273191976 0.0059715139248595218 0 0.040502892982831197 0.0056767518978558347 0 0.041172106136134846 0.0052981908067561397 0 0.040502892982831197 0.0056767518978558347 0 0.040278832606160532 0.0050411052851992016 0 0.040109117273191976 0.0059715139248595218 0 0.040502892982831197 0.0056767518978558347 0 0.040034868398612061 0.0057002605746661493 0 0.039899468444224567 0.0060320097555769956 0 0.040109117273191976 0.0059715139248595218 0 0.040034868398612061 0.0057002605746661493 0 0.040034868398612061 0.0057002605746661493 0 0.039846464044819237 0.0054136648859779589 0 0.040278832606160532 0.0050411052851992016 0 0.040502892982831197 0.0056767518978558347 0 0.040034868398612061 0.0057002605746661493 0 0.040278832606160532 0.0050411052851992016 0 0.039078535949372599 0.0059993436473898595 0 0.039919328874230373 0.0061597606212810616 0 0.03948113991737541 0.005776211975873911 0 0.03948113991737541 0.005776211975873911 0 0.039846464044819237 0.0054136648859779589 0 0.039555423214818981 0.0050719934934129679 0 0.039899468444224567 0.0060320097555769956 0 0.040034868398612061 0.0057002605746661493 0 0.03948113991737541 0.005776211975873911 0 0.040034868398612061 0.0057002605746661493 0 0.03948113991737541 0.005776211975873911 0 0.039846464044819237 0.0054136648859779589 0 0.039846464044819237 0.0054136648859779589 0 0.039555423214818981 0.0050719934934129679 0 0.040278832606160532 0.0050411052851992016 0 0.039555423214818981 0.0050719934934129679 0 0.040278832606160532 0.0050411052851992016 0 0.039787452619679982 0.0040637741419991625 0 0.040993470064471453 0.0040950882575364021 0 0.040278832606160532 0.0050411052851992016 0 0.039787452619679982 0.0040637741419991625 0 0.039787452619679982 0.0040637741419991625 0 0.038787944075678524 0.0044033231228298268 0 0.038382692768057357 0.003096949518988595 0 0.039555423214818981 0.0050719934934129679 0 0.039787452619679982 0.0040637741419991625 0 0.038787944075678524 0.0044033231228298268 0 0.03948113991737541 0.005776211975873911 0 0.039555423214818981 0.0050719934934129679 0 0.038962895833540581 0.005418886108083068 0 0.039555423214818981 0.0050719934934129679 0 0.038787944075678524 0.0044033231228298268 0 0.038962895833540581 0.005418886108083068 0 0.037581258352059617 0.0064712076265652438 0 0.037893432881372535 0.0049786908740002619 0 0.036993120910498105 0.005561355372616727 0 0.038787944075678524 0.0044033231228298268 0 0.038962895833540581 0.005418886108083068 0 0.037893432881372535 0.0049786908740002619 0 0.037581258352059617 0.0064712076265652438 0 0.038962895833540581 0.005418886108083068 0 0.037893432881372535 0.0049786908740002619 0 0.037979528096238981 0.0041095465047631457 0 0.036773125533144255 0.0040317028462510352 0 0.038382692768057357 0.003096949518988595 0 0.038787944075678524 0.0044033231228298268 0 0.037979528096238981 0.0041095465047631457 0 0.038382692768057357 0.003096949518988595 0 0.037893432881372535 0.0049786908740002619 0 0.037979528096238981 0.0041095465047631457 0 0.036773125533144255 0.0040317028462510352 0 0.038787944075678524 0.0044033231228298268 0 0.037893432881372535 0.0049786908740002619 0 0.037979528096238981 0.0041095465047631457 0 0.038604868529633268 0.0039115655601811876 0 0.037736494546410967 0.0037829931009970503 0 0.037594487768462172 0.0042487252450384766 0 0.038604868529633268 0.0039115655601811876 0 0.037736494546410967 0.0037829931009970503 0 0.038182315650341622 0.0034682495547102687 0 0.038604868529633268 0.0039115655601811876 0 0.037594487768462172 0.0042487252450384766 0 0.03769813484581705 0.0048249053686562323 0 0.034775362652482253 0.0066139375239987275 0 0.036128261410440114 0.0054267829791491192 0 0.034850877255288161 0.0078891758354967916 0 0.037270030989500692 0.004270923998643452 0 0.035249672510232477 0.0059625151271786043 0 0.036773125533144255 0.0040317028462510352 0 0.034287720975709444 0.0058678956322510255 0 0.034994164163192926 0.0057622660881603118 0 0.034010436628023534 0.0059958401029276366 0 0.034775362652482253 0.0066139375239987275 0 0.033876389662934291 0.0075204585359728094 0 0.034010436628023534 0.0059958401029276366 0 0.034775362652482253 0.0066139375239987275 0 0.034994164163192926 0.0057622660881603118 0 0.035249672510232477 0.0059625151271786043 0 0.035226535334316085 0.005964040589549015 0 0.034775362652482253 0.0066139375239987275 0 0.034994164163192926 0.0057622660881603118 0 0.036128261410440114 0.0054267829791491192 0 0.036993120910498105 0.005561355372616727 0 0.036128261410440114 0.0054267829791491192 0 0.036445741497440953 0.0062010157543493493 0 0.036773125533144255 0.0040317028462510352 0 0.034994164163192926 0.0057622660881603118 0 0.036128261410440114 0.0054267829791491192 0 0.037893432881372535 0.0049786908740002619 0 0.036773125533144255 0.0040317028462510352 0 0.036993120910498105 0.005561355372616727 0 0.036773125533144255 0.0040317028462510352 0 0.036993120910498105 0.005561355372616727 0 0.036128261410440114 0.0054267829791491192 0 0.035370228273992443 0.0068489598382495019 0 0.033187043412342764 0.0078615688056578505 0 0.033823959028543481 0.0066794484368732391 0 0.034443688702224376 0.0060908130719421506 0 0.035370228273992443 0.0068489598382495019 0 0.035041811350836886 0.0051817499268894491 0 0.034443688702224376 0.0060908130719421506 0 0.033823959028543481 0.0066794484368732391 0 0.03348875353832035 0.0056451705713181123 0 0.034443688702224376 0.0060908130719421506 0 0.035370228273992443 0.0068489598382495019 0 0.033823959028543481 0.0066794484368732391 0 0.037736494546410967 0.0037829931009970503 0 0.036697114916636617 0.0041225789250347892 0 0.03756275179382116 0.0030467456080309164 0 0.037736494546410967 0.0037829931009970503 0 0.037594487768462172 0.0042487252450384766 0 0.036697114916636617 0.0041225789250347892 0 0.037594487768462172 0.0042487252450384766 0 0.036697114916636617 0.0041225789250347892 0 0.037191410527430004 0.0045911815459114538 0 0.03769813484581705 0.0048249053686562323 0 0.037191410527430004 0.0045911815459114538 0 0.036771656641790142 0.0050521823660102921 0 0.03343421276320753 0.0068643748381535591 0 0.031600810154294959 0.007318639218486341 0 0.032299976173809537 0.0079363766450498731 0 0.036697114916636617 0.0041225789250347892 0 0.037191410527430004 0.0045911815459114538 0 0.036771656641790142 0.0050521823660102921 0 0.035249672510232477 0.0059625151271786043 0 0.03410929701282276 0.0065690730016134367 0 0.037594487768462172 0.0042487252450384766 0 0.03769813484581705 0.0048249053686562323 0 0.037191410527430004 0.0045911815459114538 0 0.035249672510232477 0.0059625151271786043 0 0.034552435929963425 0.0065370345237233179 0 0.035355476036358642 0.0053869923568920239 0 0.03270912845752949 0.0073403834135595388 0 0.036697114916636617 0.0041225789250347892 0 0.036771656641790142 0.0050521823660102921 0 0.035817488189658908 0.005270273059142086 0 0.035370228273992443 0.0068489598382495019 0 0.033301928410744468 0.0095375389519263675 0 0.033187043412342764 0.0078615688056578505 0 0.03410929701282276 0.0065690730016134367 0 0.03270912845752949 0.0073403834135595388 0 0.031600810154294959 0.007318639218486341 0 0.030465679322265279 0.0082594543159945025 0 0.029667147468789418 0.008075460494786706 0 0.030136517528662924 0.0089358925998095709 0 0.030465679322265279 0.0082594543159945025 0 0.031063653716280476 0.0083203698565957503 0 0.030136517528662924 0.0089358925998095709 0 0.031063653716280476 0.0083203698565957503 0 0.030785379611932118 0.0091471770017091929 0 0.030136517528662924 0.0089358925998095709 0 0.030465679322265279 0.0082594543159945025 0 0.029869194429460847 0.0086100702180602149 0 0.031600810154294959 0.007318639218486341 0 0.030465679322265279 0.0082594543159945025 0 0.031063653716280476 0.0083203698565957503 0 0.031063653716280476 0.0083203698565957503 0 0.030785379611932118 0.0091471770017091929 0 0.03154298505392527 0.0088239010271845535 0 0.031063653716280476 0.0083203698565957503 0 0.03154298505392527 0.0088239010271845535 0 0.032299976173809537 0.0079363766450498731 0 0.03154298505392527 0.0088239010271845535 0 0.032299976173809537 0.0079363766450498731 0 0.032286767722501122 0.0091749547081963114 0 0.031600810154294959 0.007318639218486341 0 0.031063653716280476 0.0083203698565957503 0 0.032299976173809537 0.0079363766450498731 0 0.034010436628023534 0.0059958401029276366 0 0.032299976173809537 0.0079363766450498731 0 0.033876389662934291 0.0075204585359728094 0 0.032299976173809537 0.0079363766450498731 0 0.033574263297295591 0.0087687040414499377 0 0.033876389662934291 0.0075204585359728094 0 0.032299976173809537 0.0079363766450498731 0 0.033574263297295591 0.0087687040414499377 0 0.032286767722501122 0.0091749547081963114 0 0.033574263297295591 0.0087687040414499377 0 0.032712879532353578 0.010425504797329494 0 0.032286767722501122 0.0091749547081963114 0 0.032712879532353578 0.010425504797329494 0 0.032286767722501122 0.0091749547081963114 0 0.031462177918705418 0.0098781346249111127 0 0.03154298505392527 0.0088239010271845535 0 0.032286767722501122 0.0091749547081963114 0 0.031462177918705418 0.0098781346249111127 0 0.031462177918705418 0.0098781346249111127 0 0.029824112505288991 0.011099781108480198 0 0.02990982348341905 0.010295516893257294 0 0.032712879532353578 0.010425504797329494 0 0.031462177918705418 0.0098781346249111127 0 0.029824112505288991 0.011099781108480198 0 0.030785379611932118 0.0091471770017091929 0 0.03154298505392527 0.0088239010271845535 0 0.031462177918705418 0.0098781346249111127 0 0.030785379611932118 0.0091471770017091929 0 0.031462177918705418 0.0098781346249111127 0 0.030639931498088052 0.0097517219876383752 0 0.031462177918705418 0.0098781346249111127 0 0.030639931498088052 0.0097517219876383752 0 0.02990982348341905 0.010295516893257294 0 0.030639931498088052 0.0097517219876383752 0 0.029992694345509805 0.0097247243561965103 0 0.02990982348341905 0.010295516893257294 0 0.030785379611932118 0.0091471770017091929 0 0.030639931498088052 0.0097517219876383752 0 0.029992694345509805 0.0097247243561965103 0 0.030136517528662924 0.0089358925998095709 0 0.030785379611932118 0.0091471770017091929 0 0.029992694345509805 0.0097247243561965103 0 0.033680759852904633 0.0073734862509938007 0 0.033223689666845628 0.0082736820116048326 0 0.036128261410440114 0.0054267829791491192 0 0.036554428817129954 0.0070010033491524808 0 0.036445741497440953 0.0062010157543493493 0 0.032978459223935275 0.0078083516945893052 0 0.03297308649251024 0.0078429672661987533 0 0.032945394206999282 0.0078255425322683904 0 0.03534720051769101 0.0070532745887258528 0 0.033223689666845628 0.0082736820116048326 0 0.03534720051769101 0.0070532745887258528 0 0.035635987657429313 0.0070629266923504805 0 0.037407062283635925 0.0065536513442071591 0 0.036554428817129954 0.0070010033491524808 0 0.036445741497440953 0.0062010157543493493 0 0.037581258352059617 0.0064712076265652438 0 0.036993120910498105 0.005561355372616727 0 0.036445741497440953 0.0062010157543493493 0 0.036128261410440114 0.0054267829791491192 0 0.036637822907232331 0.0087844113863822185 0 0.034850877255288161 0.0078891758354967916 0 0.033574263297295591 0.0087687040414499377 0 0.036637822907232331 0.0087844113863822185 0 0.034850877255288161 0.0078891758354967916 0 0.033574263297295591 0.0087687040414499377 0 0.034850877255288161 0.0078891758354967916 0 0.033876389662934291 0.0075204585359728094 0 0.034775362652482253 0.0066139375239987275 0 0.034850877255288161 0.0078891758354967916 0 0.033876389662934291 0.0075204585359728094 0 0.033574263297295591 0.0087687040414499377 0 0.032712879532353578 0.010425504797329494 0 0.036637822907232331 0.0087844113863822185 0 0.031981640500217831 0.0096318515359128179 0 0.033223689666845628 0.0082736820116048326 0 0.031336088010016035 0.010364458840213574 0 0.032749241544058852 0.0096557470718086 0 0.032195712150609214 0.010314935508568109 0 0.032195712150609214 0.010314935508568109 0 0.032000770365309725 0.010617791199092992 0 0.03294115764973559 0.010737298655735673 0 0.031336088010016035 0.010364458840213574 0 0.032195712150609214 0.010314935508568109 0 0.032000770365309725 0.010617791199092992 0 0.033223689666845628 0.0082736820116048326 0 0.030399965386680453 0.0096528534406849706 0 0.03297308649251024 0.0078429672661987533 0 0.032945394206999282 0.0078255425322683904 0 0.03294993387366528 0.0078783262654884816 0 0.032749241544058852 0.0096557470718086 0 0.032195712150609214 0.010314935508568109 0 0.03294115764973559 0.010737298655735673 0 0.026271820499958954 0.010866623740590782 0 0.026283454121156225 0.010870221427455556 0 0.026285951467350355 0.010857167909880514 0 0.026370910469354733 0.011468916683752103 0 0.026309677375788817 0.011160042857376097 0 0.026592641848494934 0.011267365979142227 0 0.030399965386680453 0.0096528534406849706 0 0.029421853746178613 0.010163678258804577 0 0.029421853746178613 0.010163678258804577 0 0.029109858456390858 0.010270233496536491 0 0.026309677375788817 0.011160042857376097 0 0.026479503567439638 0.010908671751059048 0 0.026274087328670301 0.010793005954896793 0 0.026309677375788817 0.011160042857376097 0 0.026515878312454378 0.011091151859956301 0 0.026479503567439638 0.010908671751059048 0 0.026309677375788817 0.011160042857376097 0 0.026515878312454378 0.011091151859956301 0 0.026592641848494934 0.011267365979142227 0 0.026674682867360154 0.01102858007049376 0 0.02680460726304288 0.011151371966034749 0 0.026848894561128139 0.010948174075867425 0 0.026515878312454378 0.011091151859956301 0 0.026479503567439638 0.010908671751059048 0 0.026674682867360154 0.01102858007049376 0 0.026515878312454378 0.011091151859956301 0 0.026674682867360154 0.01102858007049376 0 0.026592641848494934 0.011267365979142227 0 0.026674682867360154 0.01102858007049376 0 0.02680460726304288 0.011151371966034749 0 0.026592641848494934 0.011267365979142227 0 0.030399965386680453 0.0096528534406849706 0 0.029263019716086691 0.010582579761025468 0 0.02680460726304288 0.011151371966034749 0 0.026592641848494934 0.011267365979142227 0 0.026852254267698179 0.011395298261330632 0 0.026370910469354733 0.011468916683752103 0 0.026592641848494934 0.011267365979142227 0 0.026852254267698179 0.011395298261330632 0 0.032000770365309725 0.010617791199092992 0 0.03294115764973559 0.010737298655735673 0 0.031527003908653095 0.011049661670245171 0 0.031336088010016035 0.010364458840213574 0 0.032000770365309725 0.010617791199092992 0 0.031527003908653095 0.011049661670245171 0 0.029263019716086691 0.010582579761025468 0 0.028772322904138708 0.010968479529500225 0 0.031336088010016035 0.010364458840213574 0 0.031527003908653095 0.011049661670245171 0 0.030686582562742599 0.01098032769977794 0 0.031527003908653095 0.011049661670245171 0 0.030686582562742599 0.01098032769977794 0 0.030045324461057236 0.011404869209013084 0 0.031336088010016035 0.010364458840213574 0 0.030686582562742599 0.01098032769977794 0 0.029824112505288991 0.011099781108480198 0 0.026852254267698179 0.011395298261330632 0 0.027410105680537977 0.011388494505437365 0 0.027220510358667308 0.011234796175256523 0 0.031981640500217831 0.0096318515359128179 0 0.030954283980114065 0.010294767197658984 0 0.030686582562742599 0.01098032769977794 0 0.030045324461057236 0.011404869209013084 0 0.029824112505288991 0.011099781108480198 0 0.027318819398979819 0.011045277620096381 0 0.027037072128196175 0.011104081413862758 0 0.02697301112817312 0.010723997096945366 0 0.027220510358667308 0.011234796175256523 0 0.027318819398979819 0.011045277620096381 0 0.027553443538091634 0.011216075465705692 0 0.027410105680537977 0.011388494505437365 0 0.027220510358667308 0.011234796175256523 0 0.027553443538091634 0.011216075465705692 0 0.027220510358667308 0.011234796175256523 0 0.027318819398979819 0.011045277620096381 0 0.027037072128196175 0.011104081413862758 0 0.026852254267698179 0.011395298261330632 0 0.027220510358667308 0.011234796175256523 0 0.027037072128196175 0.011104081413862758 0 0.02680460726304288 0.011151371966034749 0 0.026852254267698179 0.011395298261330632 0 0.027037072128196175 0.011104081413862758 0 0.02680460726304288 0.011151371966034749 0 0.027037072128196175 0.011104081413862758 0 0.026848894561128139 0.010948174075867425 0 0.026848894561128139 0.010948174075867425 0 0.02697301112817312 0.010723997096945366 0 0.02667770450834641 0.010705344289555207 0 0.027037072128196175 0.011104081413862758 0 0.026848894561128139 0.010948174075867425 0 0.02697301112817312 0.010723997096945366 0 0.02697301112817312 0.010723997096945366 0 0.026782315334923427 0.010405802748016009 0 0.02667770450834641 0.010705344289555207 0 0.027318819398979819 0.011045277620096381 0 0.02697301112817312 0.010723997096945366 0 0.027283043726929516 0.010658671303082339 0 0.027004512190001183 0.010361443357384715 0 0.02697301112817312 0.010723997096945366 0 0.027283043726929516 0.010658671303082339 0 0.027004512190001183 0.010361443357384715 0 0.027283043726929516 0.010658671303082339 0 0.027265528091965117 0.010397899648154404 0 0.027004512190001183 0.010361443357384715 0 0.02697301112817312 0.010723997096945366 0 0.026782315334923427 0.010405802748016009 0 0.026523778619651141 0.010082312067367831 0 0.026782315334923427 0.010405802748016009 0 0.02667770450834641 0.010705344289555207 0 0.026523778619651141 0.010082312067367831 0 0.02698556053297009 0.0097633735014076538 0 0.026566450007747672 0.0089053539292352074 0 0.026523778619651141 0.010082312067367831 0 0.026229488148925034 0.010678029015902884 0 0.026427891809113247 0.010661421470460853 0 0.026523778619651141 0.010082312067367831 0 0.026427891809113247 0.010661421470460853 0 0.02667770450834641 0.010705344289555207 0 0.02702314458156032 0.0099538195961282709 0 0.027313926745980471 0.0097314810167309258 0 0.026229488148925034 0.010678029015902884 0 0.026427891809113247 0.010661421470460853 0 0.026274087328670301 0.010793005954896793 0 0.026479503567439638 0.010908671751059048 0 0.026427891809113247 0.010661421470460853 0 0.026274087328670301 0.010793005954896793 0 0.026479503567439638 0.010908671751059048 0 0.026427891809113247 0.010661421470460853 0 0.02667770450834641 0.010705344289555207 0 0.026479503567439638 0.010908671751059048 0 0.026674682867360154 0.01102858007049376 0 0.02667770450834641 0.010705344289555207 0 0.026674682867360154 0.01102858007049376 0 0.026848894561128139 0.010948174075867425 0 0.02667770450834641 0.010705344289555207 0 0.027483394084123133 0.01139872554360603 0 0.027775514450808756 0.011274925129203965 0 0.027664620796641365 0.011167847920529399 0 0.027483394084123133 0.01139872554360603 0 0.027664620796641365 0.011167847920529399 0 0.027224317220932038 0.011233441894448923 0 0.027483394084123133 0.01139872554360603 0 0.027560086658624281 0.011544146912306165 0 0.027775514450808756 0.011274925129203965 0 0.027483394084123133 0.01139872554360603 0 0.027232633045400838 0.011496653262515068 0 0.027224317220932038 0.011233441894448923 0 0.026887840535291269 0.011444824875912869 0 0.027232633045400838 0.011496653262515068 0 0.027224317220932038 0.011233441894448923 0 0.027483394084123133 0.01139872554360603 0 0.027232633045400838 0.011496653262515068 0 0.027357994922990705 0.011597388182775297 0 0.026887840535291269 0.011444824875912869 0 0.027219204688085967 0.011721398431685915 0 0.027232633045400838 0.011496653262515068 0 0.027219204688085967 0.011721398431685915 0 0.027232633045400838 0.011496653262515068 0 0.027357994922990705 0.011597388182775297 0 0.027321973222759092 0.011746614740685521 0 0.027357994922990705 0.011597388182775297 0 0.027560086658624281 0.011544146912306165 0 0.027483394084123133 0.01139872554360603 0 0.027357994922990705 0.011597388182775297 0 0.027560086658624281 0.011544146912306165 0 0.027560086658624281 0.011544146912306165 0 0.027823547888641581 0.011427998249227581 0 0.027775514450808756 0.011274925129203965 0 0.020456749622566387 0.010357595339511277 0 0.023482499636418103 0.010386544306065329 0 0.027688030005326516 0.011795970549114913 0 0.027560086658624281 0.011544146912306165 0 0.027823547888641581 0.011427998249227581 0 0.027367956661593838 0.010274557684941635 0 0.027524566456014882 0.010569852668349434 0 0.027265528091965117 0.010397899648154404 0 0.027283043726929516 0.010658671303082339 0 0.027524566456014882 0.010569852668349434 0 0.027265528091965117 0.010397899648154404 0 0.023482499636418103 0.010386544306065329 0 0.024332457832113349 0.010499849680749447 0 0.027318819398979819 0.011045277620096381 0 0.027283043726929516 0.010658671303082339 0 0.02772803988894168 0.011108998244529957 0 0.027283043726929516 0.010658671303082339 0 0.027524566456014882 0.010569852668349434 0 0.02772803988894168 0.011108998244529957 0 0.027823547888641581 0.011427998249227581 0 0.027775514450808756 0.011274925129203965 0 0.02772803988894168 0.011108998244529957 0 0.027775514450808756 0.011274925129203965 0 0.028083165800119294 0.011233069993878001 0 0.027664620796641365 0.011167847920529399 0 0.027775514450808756 0.011274925129203965 0 0.028083165800119294 0.011233069993878001 0 0.02772803988894168 0.011108998244529957 0 0.028083165800119294 0.011233069993878001 0 0.02772803988894168 0.011108998244529957 0 0.027553443538091634 0.011216075465705692 0 0.027410105680537977 0.011388494505437365 0 0.028083165800119294 0.011233069993878001 0 0.027553443538091634 0.011216075465705692 0 0.027318819398979819 0.011045277620096381 0 0.02772803988894168 0.011108998244529957 0 0.027553443538091634 0.011216075465705692 0 0.030045324461057236 0.011404869209013084 0 0.028083165800119294 0.011233069993878001 0 0.029189870938864715 0.010982781316064033 0 0.028772322904138708 0.010968479529500225 0 0.02852585082291352 0.011073644364863989 0 0.030045324461057236 0.011404869209013084 0 0.029824112505288991 0.011099781108480198 0 0.029189870938864715 0.010982781316064033 0 0.029189870938864715 0.010982781316064033 0 0.029346803314954418 0.010614682440681993 0 0.028691968444074824 0.010570249527575066 0 0.029824112505288991 0.011099781108480198 0 0.029189870938864715 0.010982781316064033 0 0.029346803314954418 0.010614682440681993 0 0.029824112505288991 0.011099781108480198 0 0.029346803314954418 0.010614682440681993 0 0.02990982348341905 0.010295516893257294 0 0.028083165800119294 0.011233069993878001 0 0.028691968444074824 0.010570249527575066 0 0.028075225617341722 0.010432553561860633 0 0.028083165800119294 0.011233069993878001 0 0.028075225617341722 0.010432553561860633 0 0.027775378303139805 0.010837466112037539 0 0.028083165800119294 0.011233069993878001 0 0.029189870938864715 0.010982781316064033 0 0.028691968444074824 0.010570249527575066 0 0.028075225617341722 0.010432553561860633 0 0.027775378303139805 0.010837466112037539 0 0.027683007049699559 0.010423916362900481 0 0.027775378303139805 0.010837466112037539 0 0.027382874218159395 0.010908832975694045 0 0.027683007049699559 0.010423916362900481 0 0.028083165800119294 0.011233069993878001 0 0.027775378303139805 0.010837466112037539 0 0.027664620796641365 0.011167847920529399 0 0.027775378303139805 0.010837466112037539 0 0.027664620796641365 0.011167847920529399 0 0.027382874218159395 0.010908832975694045 0 0.027664620796641365 0.011167847920529399 0 0.027224317220932038 0.011233441894448923 0 0.027382874218159395 0.010908832975694045 0 0.027224317220932038 0.011233441894448923 0 0.027061148198492702 0.010944114236671368 0 0.027382874218159395 0.010908832975694045 0 0.026884605374194275 0.011102042773606336 0 0.027224317220932038 0.011233441894448923 0 0.027061148198492702 0.010944114236671368 0 0.027061148198492702 0.010944114236671368 0 0.027382874218159395 0.010908832975694045 0 0.027114735405083239 0.010660135955723097 0 0.027114735405083239 0.010660135955723097 0 0.027263638361229529 0.010312260370527421 0 0.027683007049699559 0.010423916362900481 0 0.027382874218159395 0.010908832975694045 0 0.027114735405083239 0.010660135955723097 0 0.027683007049699559 0.010423916362900481 0 0.027263638361229529 0.010312260370527421 0 0.027683007049699559 0.010423916362900481 0 0.028045907738289067 0.0097849449457588569 0 0.027263638361229529 0.010312260370527421 0 0.028045907738289067 0.0097849449457588569 0 0.027201416523318814 0.0097588948295799557 0 0.028075225617341722 0.010432553561860633 0 0.028045907738289067 0.0097849449457588569 0 0.028472587363743744 0.0098577758646306614 0 0.028075225617341722 0.010432553561860633 0 0.027683007049699559 0.010423916362900481 0 0.028045907738289067 0.0097849449457588569 0 0.029762380932626113 0.0086252551430475635 0 0.030573009398043197 0.0083024292171890342 0 0.028045907738289067 0.0097849449457588569 0 0.030733629832819281 0.0099218559681940183 0 0.029601344200626465 0.0086253933766112182 0 0.028045907738289067 0.0097849449457588569 0 0.028277910260106429 0.008632002344359643 0 0.029601344200626465 0.0086253933766112182 0 0.028045907738289067 0.0097849449457588569 0 0.027471818460303745 0.0090057940358621476 0 0.028277910260106429 0.008632002344359643 0 0.027471818460303745 0.0090057940358621476 0 0.026990613161332451 0.0092378533829243891 0 0.027201416523318814 0.0097588948295799557 0 0.026832168209362538 0.0087231208619941384 0 0.027471818460303745 0.0090057940358621476 0 0.026990613161332451 0.0092378533829243891 0 0.028045907738289067 0.0097849449457588569 0 0.027471818460303745 0.0090057940358621476 0 0.027201416523318814 0.0097588948295799557 0 0.030136517528662924 0.0089358925998095709 0 0.029518353064801408 0.0094371856651176006 0 0.029992694345509805 0.0097247243561965103 0 0.029518353064801408 0.0094371856651176006 0 0.029992694345509805 0.0097247243561965103 0 0.029155677657994022 0.010010870571197391 0 0.029346803314954418 0.010614682440681993 0 0.02990982348341905 0.010295516893257294 0 0.029155677657994022 0.010010870571197391 0 0.029992694345509805 0.0097247243561965103 0 0.02990982348341905 0.010295516893257294 0 0.029155677657994022 0.010010870571197391 0 0.029346803314954418 0.010614682440681993 0 0.028691968444074824 0.010570249527575066 0 0.029155677657994022 0.010010870571197391 0 0.029518353064801408 0.0094371856651176006 0 0.029155677657994022 0.010010870571197391 0 0.029073489127227608 0.0094011882883859553 0 0.029155677657994022 0.010010870571197391 0 0.028472587363743744 0.0098577758646306614 0 0.029073489127227608 0.0094011882883859553 0 0.028691968444074824 0.010570249527575066 0 0.029155677657994022 0.010010870571197391 0 0.028472587363743744 0.0098577758646306614 0 0.028691968444074824 0.010570249527575066 0 0.028075225617341722 0.010432553561860633 0 0.028472587363743744 0.0098577758646306614 0 0.028045907738289067 0.0097849449457588569 0 0.028472587363743744 0.0098577758646306614 0 0.028497958305331271 0.0091899619980540768 0 0.028472587363743744 0.0098577758646306614 0 0.028497958305331271 0.0091899619980540768 0 0.029073489127227608 0.0094011882883859553 0 0.030573009398043197 0.0083024292171890342 0 0.03270912845752949 0.0073403834135595388 0 0.028497958305331271 0.0091899619980540768 0 0.029388721457439732 0.0087503422058762739 0 0.029582609154760391 0.008399928340798753 0 0.028497958305331271 0.0091899619980540768 0 0.029073489127227608 0.0094011882883859553 0 0.029388721457439732 0.0087503422058762739 0 0.030733629832819281 0.0099218559681940183 0 0.033301928410744468 0.0095375389519263675 0 0.032190950193882149 0.0088982125710354732 0 0.029073489127227608 0.0094011882883859553 0 0.029388721457439732 0.0087503422058762739 0 0.02960507148094544 0.0090269501283170329 0 0.030465679322265279 0.0082594543159945025 0 0.029667147468789418 0.008075460494786706 0 0.029869194429460847 0.0086100702180602149 0 0.032600634049938335 0.0074434816574651085 0 0.03270912845752949 0.0073403834135595388 0 0.029388721457439732 0.0087503422058762739 0 0.029667147468789418 0.008075460494786706 0 0.029869194429460847 0.0086100702180602149 0 0.030136517528662924 0.0089358925998095709 0 0.029869194429460847 0.0086100702180602149 0 0.02960507148094544 0.0090269501283170329 0 0.029388721457439732 0.0087503422058762739 0 0.029869194429460847 0.0086100702180602149 0 0.02960507148094544 0.0090269501283170329 0 0.029518353064801408 0.0094371856651176006 0 0.029073489127227608 0.0094011882883859553 0 0.02960507148094544 0.0090269501283170329 0 0.030136517528662924 0.0089358925998095709 0 0.029518353064801408 0.0094371856651176006 0 0.02960507148094544 0.0090269501283170329 0 0.033301928410744468 0.0095375389519263675 0 0.033187043412342764 0.0078615688056578505 0 0.032190950193882149 0.0088982125710354732 0 0.033187043412342764 0.0078615688056578505 0 0.032190950193882149 0.0088982125710354732 0 0.031542730330379645 0.0082630533297381823 0 0.033187043412342764 0.0078615688056578505 0 0.031542730330379645 0.0082630533297381823 0 0.032340690536196898 0.0070224711891153958 0 0.031542730330379645 0.0082630533297381823 0 0.030488327688122617 0.0072878497459942099 0 0.032340690536196898 0.0070224711891153958 0 0.030733629832819281 0.0099218559681940183 0 0.032190950193882149 0.0088982125710354732 0 0.031542730330379645 0.0082630533297381823 0 0.030733629832819281 0.0099218559681940183 0 0.031542730330379645 0.0082630533297381823 0 0.029601344200626465 0.0086253933766112182 0 0.031542730330379645 0.0082630533297381823 0 0.030488327688122617 0.0072878497459942099 0 0.029601344200626465 0.0086253933766112182 0 0.030488327688122617 0.0072878497459942099 0 0.031786361034640963 0.0059233656227476936 0 0.029697119890123129 0.0054851645827661876 0 0.030488327688122617 0.0072878497459942099 0 0.031786361034640963 0.0059233656227476936 0 0.032340690536196898 0.0070224711891153958 0 0.031786361034640963 0.0059233656227476936 0 0.032340690536196898 0.0070224711891153958 0 0.03348875353832035 0.0056451705713181123 0 0.032340690536196898 0.0070224711891153958 0 0.033823959028543481 0.0066794484368732391 0 0.03348875353832035 0.0056451705713181123 0 0.033187043412342764 0.0078615688056578505 0 0.032340690536196898 0.0070224711891153958 0 0.033823959028543481 0.0066794484368732391 0 0.027726234047275242 0.0080726893808314663 0 0.027101292234335633 0.008010503577774393 0 0.0278595473323697 0.0068862678832898672 0 0.027726234047275242 0.0080726893808314663 0 0.028633815226008472 0.0075390783825954209 0 0.0278595473323697 0.0068862678832898672 0 0.027726234047275242 0.0080726893808314663 0 0.027101292234335633 0.008010503577774393 0 0.027263442545290846 0.0084526663669020861 0 0.026832168209362538 0.0087231208619941384 0 0.027101292234335633 0.008010503577774393 0 0.027263442545290846 0.0084526663669020861 0 0.026832168209362538 0.0087231208619941384 0 0.027471818460303745 0.0090057940358621476 0 0.027263442545290846 0.0084526663669020861 0 0.027471818460303745 0.0090057940358621476 0 0.027726234047275242 0.0080726893808314663 0 0.027263442545290846 0.0084526663669020861 0 0.027471818460303745 0.0090057940358621476 0 0.027726234047275242 0.0080726893808314663 0 0.028277910260106429 0.008632002344359643 0 0.028277910260106429 0.008632002344359643 0 0.029601344200626465 0.0086253933766112182 0 0.028633815226008472 0.0075390783825954209 0 0.030488327688122617 0.0072878497459942099 0 0.029601344200626465 0.0086253933766112182 0 0.028633815226008472 0.0075390783825954209 0 0.027726234047275242 0.0080726893808314663 0 0.028277910260106429 0.008632002344359643 0 0.028633815226008472 0.0075390783825954209 0 0.028778891861667481 0.0089978173009959417 0 0.028333070229384767 0.010259746654945206 0 0.020879550872090435 0.024801634036719696 0 0.021099370482496424 0.021871793491609653 0 0.024463642675184992 0.022955559218552458 0 0.030488327688122617 0.0072878497459942099 0 0.028633815226008472 0.0075390783825954209 0 0.029697119890123129 0.0054851645827661876 0 0.023657233153437755 0.013176906205912374 0 0.028333070229384767 0.010259746654945206 0 0.028633815226008472 0.0075390783825954209 0 0.0278595473323697 0.0068862678832898672 0 0.02924383094525275 0.0061549995934778072 0 0.017602229723826704 0.024518175783126966 0 0.020879550872090435 0.024801634036719696 0 0.01822056852258247 0.022875932704666702 0 0.017602229723826704 0.024518175783126966 0 0.017965809957213998 0.025755539773740812 0 0.020879550872090435 0.024801634036719696 0 0.019324316709288709 0.014983579505349124 0 0.023657233153437755 0.013176906205912374 0 0.01736602435263189 0.02648517110867683 0 0.017965809957213998 0.025755539773740812 0 0.020879550872090435 0.024801634036719696 0 0.020879550872090435 0.024801634036719696 0 0.021099370482496424 0.021871793491609653 0 0.01822056852258247 0.022875932704666702 0 0.026495115537747541 0.0076964435519314501 0 0.027101292234335633 0.008010503577774393 0 0.0278595473323697 0.0068862678832898672 0 0.021099370482496424 0.021871793491609653 0 0.01822056852258247 0.022875932704666702 0 0.016227396186724349 0.020674601746426012 0 0.021099370482496424 0.021871793491609653 0 0.021489913273197037 0.018900034361409641 0 0.016227396186724349 0.020674601746426012 0 0.024463642675184992 0.022955559218552458 0 0.023504704323658358 0.019831038566789944 0 0.026537260862242493 0.018381920307438231 0 0.021099370482496424 0.021871793491609653 0 0.024463642675184992 0.022955559218552458 0 0.023504704323658358 0.019831038566789944 0 0.021099370482496424 0.021871793491609653 0 0.023504704323658358 0.019831038566789944 0 0.021489913273197037 0.018900034361409641 0 0.023504704323658358 0.019831038566789944 0 0.023903871416874122 0.01708267269383654 0 0.021489913273197037 0.018900034361409641 0 0.023504704323658358 0.019831038566789944 0 0.023903871416874122 0.01708267269383654 0 0.026537260862242493 0.018381920307438231 0 0.021489913273197037 0.018900034361409641 0 0.019860587234471833 0.015785920327663069 0 0.016227396186724349 0.020674601746426012 0 0.023903871416874122 0.01708267269383654 0 0.021489913273197037 0.018900034361409641 0 0.019860587234471833 0.015785920327663069 0 0.03348875353832035 0.0056451705713181123 0 0.0328595071714151 0.0042051506764876328 0 0.035041811350836886 0.0051817499268894491 0 0.031786361034640963 0.0059233656227476936 0 0.03348875353832035 0.0056451705713181123 0 0.0328595071714151 0.0042051506764876328 0 0.034904452908160438 0.0046319727167408835 0 0.035611382220939569 0.0042614669006816458 0 0.03524845634121148 0.003933097183504008 0 0.028333070229384767 0.010259746654945206 0 0.029759718262595596 0.0102853842112498 0 0.031786361034640963 0.0059233656227476936 0 0.029697119890123129 0.0054851645827661876 0 0.0328595071714151 0.0042051506764876328 0 0.028333070229384767 0.010259746654945206 0 0.033539934926286839 0.0061636280392843943 0 0.023903871416874122 0.01708267269383654 0 0.026537260862242493 0.018381920307438231 0 0.02555585958187161 0.01535343150986462 0 0.035611382220939569 0.0042614669006816458 0 0.03524845634121148 0.003933097183504008 0 0.03558085784390938 0.0040234206323165704 0 0.03524845634121148 0.003933097183504008 0 0.03558085784390938 0.0040234206323165704 0 0.035263285654995855 0.0038506764980366969 0 0.03558085784390938 0.0040234206323165704 0 0.035896280639611047 0.0037486138214700053 0 0.035961842982886551 0.0040013670586228275 0 0.035611382220939569 0.0042614669006816458 0 0.03558085784390938 0.0040234206323165704 0 0.035961842982886551 0.0040013670586228275 0 0.035263285654995855 0.0038506764980366969 0 0.035234940742600571 0.0042828938874515093 0 0.033721876637380216 0.0053245468462260817 0 0.035263285654995855 0.0038506764980366969 0 0.036453575590984638 0.001942347595181455 0 0.036278076072820235 0.0030813094896754104 0 0.035896280639611047 0.0037486138214700053 0 0.035263285654995855 0.0038506764980366969 0 0.036278076072820235 0.0030813094896754104 0 0.03558085784390938 0.0040234206323165704 0 0.035896280639611047 0.0037486138214700053 0 0.035263285654995855 0.0038506764980366969 0 0.029759718262595596 0.0102853842112498 0 0.03105108863115404 0.0089097672512441044 0 0.03524845634121148 0.003933097183504008 0 0.035263285654995855 0.0038506764980366969 0 0.035234940742600571 0.0042828938874515093 0 0.026537260862242493 0.018381920307438231 0 0.028491921954510387 0.013998968758624488 0 0.02555585958187161 0.01535343150986462 0 0.028491921954510387 0.013998968758624488 0 0.02555585958187161 0.01535343150986462 0 0.025693369112030257 0.013228503668705503 0 0.025693369112030257 0.013228503668705503 0 0.026522022147666482 0.010912280675898021 0 0.027411476819898219 0.012613320962011676 0 0.025693369112030257 0.013228503668705503 0 0.026522022147666482 0.010912280675898021 0 0.023538197189400482 0.011365269074595055 0 0.026522022147666482 0.010912280675898021 0 0.027411476819898219 0.012613320962011676 0 0.028390114682713869 0.01118214368678094 0 0.028491921954510387 0.013998968758624488 0 0.027411476819898219 0.012613320962011676 0 0.028390114682713869 0.01118214368678094 0 0.028491921954510387 0.013998968758624488 0 0.025693369112030257 0.013228503668705503 0 0.027411476819898219 0.012613320962011676 0 0.035234940742600571 0.0042828938874515093 0 0.033884609970442986 0.0056540890896022346 0 0.033721876637380216 0.0053245468462260817 0 0.035310039342110765 0.0039556859274128223 0 0.03547411261421695 0.0037424494302157811 0 0.03105108863115404 0.0089097672512441044 0 0.031915906469113291 0.0075332814899540749 0 0.028491921954510387 0.013998968758624488 0 0.028390114682713869 0.01118214368678094 0 0.030484387052888969 0.0099620679654063363 0 0.019860587234471833 0.015785920327663069 0 0.020527780060496326 0.012103327590035009 0 0.015925170433326828 0.013939994709678971 0 0.019860587234471833 0.015785920327663069 0 0.02309086940758057 0.014104558612404566 0 0.020527780060496326 0.012103327590035009 0 0.023903871416874122 0.01708267269383654 0 0.019860587234471833 0.015785920327663069 0 0.02309086940758057 0.014104558612404566 0 0.023903871416874122 0.01708267269383654 0 0.02555585958187161 0.01535343150986462 0 0.02309086940758057 0.014104558612404566 0 0.02555585958187161 0.01535343150986462 0 0.025693369112030257 0.013228503668705503 0 0.02309086940758057 0.014104558612404566 0 0.023538197189400482 0.011365269074595055 0 0.020527780060496326 0.012103327590035009 0 0.022204010585686596 0.0086234352476685996 0 0.02309086940758057 0.014104558612404566 0 0.023538197189400482 0.011365269074595055 0 0.020527780060496326 0.012103327590035009 0 0.025693369112030257 0.013228503668705503 0 0.02309086940758057 0.014104558612404566 0 0.023538197189400482 0.011365269074595055 0 0.020527780060496326 0.012103327590035009 0 0.022204010585686596 0.0086234352476685996 0 0.018298745324440747 0.0090958409265191349 0 0.020067875217310596 0.0063098291603643697 0 0.022204010585686596 0.0086234352476685996 0 0.018298745324440747 0.0090958409265191349 0 0.020067875217310596 0.0063098291603643697 0 0.019585646769930905 0.0037353285567578607 0 0.023339125188254942 0.0045022385065831456 0 0.020067875217310596 0.0063098291603643697 0 0.022204010585686596 0.0086234352476685996 0 0.023339125188254942 0.0045022385065831456 0 0.022204010585686596 0.0086234352476685996 0 0.025451870855708277 0.0082807478783365907 0 0.023339125188254942 0.0045022385065831456 0 0.025451870855708277 0.0082807478783365907 0 0.026612264090172547 0.0060139665039986257 0 0.023339125188254942 0.0045022385065831456 0 0.023538197189400482 0.011365269074595055 0 0.022204010585686596 0.0086234352476685996 0 0.025451870855708277 0.0082807478783365907 0 0.026522022147666482 0.010912280675898021 0 0.023538197189400482 0.011365269074595055 0 0.025451870855708277 0.0082807478783365907 0 0.026522022147666482 0.010912280675898021 0 0.027944692775387719 0.0093763130431802084 0 0.025451870855708277 0.0082807478783365907 0 0.026522022147666482 0.010912280675898021 0 0.028390114682713869 0.01118214368678094 0 0.027944692775387719 0.0093763130431802084 0 0.027944692775387719 0.0093763130431802084 0 0.025451870855708277 0.0082807478783365907 0 0.027994851020621523 0.0074286070329302057 0 0.028390114682713869 0.01118214368678094 0 0.027944692775387719 0.0093763130431802084 0 0.029042130840634877 0.009751646734210407 0 0.028390114682713869 0.01118214368678094 0 0.030484387052888969 0.0099620679654063363 0 0.029042130840634877 0.009751646734210407 0 0.030484387052888969 0.0099620679654063363 0 0.029042130840634877 0.009751646734210407 0 0.029338844782648293 0.0084824055422645008 0 0.027944692775387719 0.0093763130431802084 0 0.029042130840634877 0.009751646734210407 0 0.029338844782648293 0.0084824055422645008 0 0.027944692775387719 0.0093763130431802084 0 0.029338844782648293 0.0084824055422645008 0 0.027994851020621523 0.0074286070329302057 0 0.030484387052888969 0.0099620679654063363 0 0.029338844782648293 0.0084824055422645008 0 0.030735915533956437 0.0073456344030494915 0 0.030484387052888969 0.0099620679654063363 0 0.030735915533956437 0.0073456344030494915 0 0.032855061263375458 0.0058408126381512705 0 0.030735915533956437 0.0073456344030494915 0 0.029775995265186043 0.0068018951178323763 0 0.030822617920720038 0.0055313512658407863 0 0.029338844782648293 0.0084824055422645008 0 0.029775995265186043 0.0068018951178323763 0 0.027994851020621523 0.0074286070329302057 0 0.029775995265186043 0.0068018951178323763 0 0.028872800900050934 0.0056216538673127588 0 0.027994851020621523 0.0074286070329302057 0 0.029338844782648293 0.0084824055422645008 0 0.030735915533956437 0.0073456344030494915 0 0.029775995265186043 0.0068018951178323763 0 0.029775995265186043 0.0068018951178323763 0 0.028872800900050934 0.0056216538673127588 0 0.030822617920720038 0.0055313512658407863 0 0.028872800900050934 0.0056216538673127588 0 0.030822617920720038 0.0055313512658407863 0 0.03033477444785233 0.0039803864661493967 0 0.030735915533956437 0.0073456344030494915 0 0.030822617920720038 0.0055313512658407863 0 0.032855061263375458 0.0058408126381512705 0 0.026612264090172547 0.0060139665039986257 0 0.027569594927496624 0.0039513682874328026 0 0.023339125188254942 0.0045022385065831456 0 0.025451870855708277 0.0082807478783365907 0 0.027994851020621523 0.0074286070329302057 0 0.026612264090172547 0.0060139665039986257 0 0.028872800900050934 0.0056216538673127588 0 0.027994851020621523 0.0074286070329302057 0 0.026612264090172547 0.0060139665039986257 0 0.028872800900050934 0.0056216538673127588 0 0.026612264090172547 0.0060139665039986257 0 0.027569594927496624 0.0039513682874328026 0 0.025815314905157552 0.0020983126176173593 0 0.027569594927496624 0.0039513682874328026 0 0.030134430805024797 0.0011658950021790756 0 0.025815314905157552 0.0020983126176173593 0 0.027569594927496624 0.0039513682874328026 0 0.023339125188254942 0.0045022385065831456 0 0.027569594927496624 0.0039513682874328026 0 0.03033477444785233 0.0039803864661493967 0 0.030134430805024797 0.0011658950021790756 0 0.03033477444785233 0.0039803864661493967 0 0.030134430805024797 0.0011658950021790756 0 0.033163758966320019 0.0031276393981577882 0 0.030822617920720038 0.0055313512658407863 0 0.03033477444785233 0.0039803864661493967 0 0.032267340952274716 0.0047054966712500477 0 0.028872800900050934 0.0056216538673127588 0 0.027569594927496624 0.0039513682874328026 0 0.03033477444785233 0.0039803864661493967 0 0.025815314905157552 0.0020983126176173593 0 0.023740302400782735 0.00010087965249065887 0 0.027027393340775717 -0.0016442080002100933 0 0.025815314905157552 0.0020983126176173593 0 0.030134430805024797 0.0011658950021790756 0 0.027027393340775717 -0.0016442080002100933 0 0.023740302400782735 0.00010087965249065887 0 0.020406018529228215 0.00070422087248524993 0 0.023339125188254942 0.0045022385065831456 0 0.023740302400782735 0.00010087965249065887 0 0.020406018529228215 0.00070422087248524993 0 0.023521711768625671 -0.0034680545626223462 0 0.020406018529228215 0.00070422087248524993 0 0.019585646769930905 0.0037353285567578607 0 0.023339125188254942 0.0045022385065831456 0 0.025815314905157552 0.0020983126176173593 0 0.023740302400782735 0.00010087965249065887 0 0.023339125188254942 0.0045022385065831456 0 0.039685025638818684 0.00012558809249291669 0 0.04012099264764276 -0.00039785684195759379 0 0.039143543566875549 -0.00046454013069835681 0 0.040400418820778224 3.0350302043963519e-05 0 0.040735692618025315 -0.00045120625764907097 0 0.04012099264764276 -0.00039785684195759379 0 0.039685025638818684 0.00012558809249291669 0 0.040400418820778224 3.0350302043963519e-05 0 0.04012099264764276 -0.00039785684195759379 0 0.039685025638818684 0.00012558809249291669 0 0.040400418820778224 3.0350302043963519e-05 0 0.040120602025393887 0.00073595597923046554 0 0.040400418820778224 3.0350302043963519e-05 0 0.040937636342494477 0.00013206012443953567 0 0.040120602025393887 0.00073595597923046554 0 0.040400418820778224 3.0350302043963519e-05 0 0.040937636342494477 0.00013206012443953567 0 0.041144569412299534 -0.00030586207044974587 0 0.040937636342494477 0.00013206012443953567 0 0.041144569412299534 -0.00030586207044974587 0 0.041614106179386476 -0.00031913771776198905 0 0.040400418820778224 3.0350302043963519e-05 0 0.041144569412299534 -0.00030586207044974587 0 0.040735692618025315 -0.00045120625764907097 0 0.041144569412299534 -0.00030586207044974587 0 0.040735692618025315 -0.00045120625764907097 0 0.041301404186026673 -0.00073262708842291874 0 0.040735692618025315 -0.00045120625764907097 0 0.041301404186026673 -0.00073262708842291874 0 0.040785340605493346 -0.00077637755315300037 0 0.041144569412299534 -0.00030586207044974587 0 0.041301404186026673 -0.00073262708842291874 0 0.041609266226695973 -0.00061935741245128294 0 0.041301404186026673 -0.00073262708842291874 0 0.041699479330533612 -0.001035606501622411 0 0.041284778112272318 -0.0010198031123938424 0 0.041301404186026673 -0.00073262708842291874 0 0.041717182007580754 -0.00083630664290851959 0 0.041699479330533612 -0.001035606501622411 0 0.041301404186026673 -0.00073262708842291874 0 0.041717182007580754 -0.00083630664290851959 0 0.041609266226695973 -0.00061935741245128294 0 0.041301404186026673 -0.00073262708842291874 0 0.040785340605493346 -0.00077637755315300037 0 0.041284778112272318 -0.0010198031123938424 0 0.040306393135846212 -0.00088153824527300488 0 0.04012099264764276 -0.00039785684195759379 0 0.039143543566875549 -0.00046454013069835681 0 0.040785340605493346 -0.00077637755315300037 0 0.040306393135846212 -0.00088153824527300488 0 0.040913499516195342 -0.0012575655514905778 0 0.040306393135846212 -0.00088153824527300488 0 0.039143543566875549 -0.00046454013069835681 0 0.040041851527552921 -0.001764067923961075 0 0.040785340605493346 -0.00077637755315300037 0 0.040306393135846212 -0.00088153824527300488 0 0.04012099264764276 -0.00039785684195759379 0 0.040735692618025315 -0.00045120625764907097 0 0.040785340605493346 -0.00077637755315300037 0 0.04012099264764276 -0.00039785684195759379 0 0.036307645016390389 0.0023718484449897839 0 0.03417134389936885 0.00055671474948535402 0 0.036443274217237497 -0.00093794518939095174 0 0.037564219123079515 0.00077261071842505487 0 0.038487281759485771 -0.000691938922647884 0 0.036307645016390389 0.0023718484449897839 0 0.03417134389936885 0.00055671474948535402 0 0.033163758966320019 0.0031276393981577882 0 0.030134430805024797 0.0011658950021790756 0 0.03417134389936885 0.00055671474948535402 0 0.033125512293610743 -0.0017451074914368631 0 0.030134430805024797 0.0011658950021790756 0 0.03417134389936885 0.00055671474948535402 0 0.033163758966320019 0.0031276393981577882 0 0.036307645016390389 0.0023718484449897839 0 0.033163758966320019 0.0031276393981577882 0 0.033393152469616438 0.0061338062760536343 0 0.033163758966320019 0.0031276393981577882 0 0.032267340952274716 0.0047054966712500477 0 0.033393152469616438 0.0061338062760536343 0 0.03033477444785233 0.0039803864661493967 0 0.033163758966320019 0.0031276393981577882 0 0.032267340952274716 0.0047054966712500477 0 0.037564219123079515 0.00077261071842505487 0 0.036184390251748612 0.0028298761438045827 0 0.039143543566875549 -0.00046454013069835681 0 0.0388432953466833 0.00039753118029417744 0 0.037917834615890808 0.00055900198382759345 0 0.039685025638818684 0.00012558809249291669 0 0.039143543566875549 -0.00046454013069835681 0 0.0388432953466833 0.00039753118029417744 0 0.039685025638818684 0.00012558809249291669 0 0.0388432953466833 0.00039753118029417744 0 0.039049335503458106 0.00092133527262498619 0 0.0388432953466833 0.00039753118029417744 0 0.038399211321231051 0.00096559954690009719 0 0.037917834615890808 0.00055900198382759345 0 0.0388432953466833 0.00039753118029417744 0 0.038399211321231051 0.00096559954690009719 0 0.039049335503458106 0.00092133527262498619 0 0.033884609970442986 0.0056540890896022346 0 0.032855061263375458 0.0058408126381512705 0 0.033393152469616438 0.0061338062760536343 0 0.032267340952274716 0.0047054966712500477 0 0.032855061263375458 0.0058408126381512705 0 0.033393152469616438 0.0061338062760536343 0 0.030822617920720038 0.0055313512658407863 0 0.032267340952274716 0.0047054966712500477 0 0.032855061263375458 0.0058408126381512705 0 0.033884609970442986 0.0056540890896022346 0 0.033393152469616438 0.0061338062760536343 0 0.033721876637380216 0.0053245468462260817 0 0.031915906469113291 0.0075332814899540749 0 0.032327224290988492 0.0067245118183897439 0 0.037917834615890808 0.00055900198382759345 0 0.037794813396467709 0.0014959602879186862 0 0.036453575590984638 0.001942347595181455 0 0.036184390251748612 0.0028298761438045827 0 0.03547411261421695 0.0037424494302157811 0 0.038399211321231051 0.00096559954690009719 0 0.037917834615890808 0.00055900198382759345 0 0.037794813396467709 0.0014959602879186862 0 0.039049335503458106 0.00092133527262498619 0 0.038511481406008893 0.0014620173519336763 0 0.038992811583003328 0.001526863618557271 0 0.038399211321231051 0.00096559954690009719 0 0.039049335503458106 0.00092133527262498619 0 0.038511481406008893 0.0014620173519336763 0 0.038399211321231051 0.00096559954690009719 0 0.037794813396467709 0.0014959602879186862 0 0.038511481406008893 0.0014620173519336763 0 0.037794813396467709 0.0014959602879186862 0 0.038511481406008893 0.0014620173519336763 0 0.03808763254874814 0.0019878691797765653 0 0.038511481406008893 0.0014620173519336763 0 0.038829282755679005 0.001913243436224135 0 0.03808763254874814 0.0019878691797765653 0 0.038511481406008893 0.0014620173519336763 0 0.038992811583003328 0.001526863618557271 0 0.038829282755679005 0.001913243436224135 0 0.038992811583003328 0.001526863618557271 0 0.039451509538011104 0.001384684954415048 0 0.039361118779189325 0.0018514772387916885 0 0.038992811583003328 0.001526863618557271 0 0.039361118779189325 0.0018514772387916885 0 0.038829282755679005 0.001913243436224135 0 0.039451509538011104 0.001384684954415048 0 0.039975808761632675 0.0013388598752687869 0 0.039855341660947091 0.0017782544238113872 0 0.039451509538011104 0.001384684954415048 0 0.039855341660947091 0.0017782544238113872 0 0.039361118779189325 0.0018514772387916885 0 0.039451509538011104 0.001384684954415048 0 0.040120602025393887 0.00073595597923046554 0 0.039975808761632675 0.0013388598752687869 0 0.039049335503458106 0.00092133527262498619 0 0.038992811583003328 0.001526863618557271 0 0.039451509538011104 0.001384684954415048 0 0.039685025638818684 0.00012558809249291669 0 0.039049335503458106 0.00092133527262498619 0 0.040120602025393887 0.00073595597923046554 0 0.039049335503458106 0.00092133527262498619 0 0.039451509538011104 0.001384684954415048 0 0.040120602025393887 0.00073595597923046554 0 0.040120602025393887 0.00073595597923046554 0 0.040455170173397823 0.0013008166247736954 0 0.041016730353880669 0.00059863165801036459 0 0.040937636342494477 0.00013206012443953567 0 0.040120602025393887 0.00073595597923046554 0 0.041016730353880669 0.00059863165801036459 0 0.040120602025393887 0.00073595597923046554 0 0.040455170173397823 0.0013008166247736954 0 0.039975808761632675 0.0013388598752687869 0 0.040455170173397823 0.0013008166247736954 0 0.039975808761632675 0.0013388598752687869 0 0.039855341660947091 0.0017782544238113872 0 0.040455170173397823 0.0013008166247736954 0 0.039855341660947091 0.0017782544238113872 0 0.040223878522410987 0.0019425027373805974 0 0.040455170173397823 0.0013008166247736954 0 0.040223878522410987 0.0019425027373805974 0 0.040431582583733243 0.0019386961862403946 0 0.040223878522410987 0.0019425027373805974 0 0.040405587141050262 0.0021315844393044745 0 0.039933122123015273 0.002200879783948772 0 0.040223878522410987 0.0019425027373805974 0 0.040405587141050262 0.0021315844393044745 0 0.040431582583733243 0.0019386961862403946 0 0.040405587141050262 0.0021315844393044745 0 0.039933122123015273 0.002200879783948772 0 0.0397145239336728 0.0027085478655047316 0 0.039855341660947091 0.0017782544238113872 0 0.040223878522410987 0.0019425027373805974 0 0.039933122123015273 0.002200879783948772 0 0.039855341660947091 0.0017782544238113872 0 0.039361118779189325 0.0018514772387916885 0 0.03938079792007005 0.0023259760140974268 0 0.039855341660947091 0.0017782544238113872 0 0.039933122123015273 0.002200879783948772 0 0.03938079792007005 0.0023259760140974268 0 0.038829282755679005 0.001913243436224135 0 0.03938079792007005 0.0023259760140974268 0 0.038476091923295146 0.0024969881343530034 0 0.039361118779189325 0.0018514772387916885 0 0.038829282755679005 0.001913243436224135 0 0.03938079792007005 0.0023259760140974268 0 0.03938079792007005 0.0023259760140974268 0 0.038929017713703433 0.0030423684267845141 0 0.038476091923295146 0.0024969881343530034 0 0.03938079792007005 0.0023259760140974268 0 0.0397145239336728 0.0027085478655047316 0 0.038929017713703433 0.0030423684267845141 0 0.039933122123015273 0.002200879783948772 0 0.03938079792007005 0.0023259760140974268 0 0.0397145239336728 0.0027085478655047316 0 0.0397145239336728 0.0027085478655047316 0 0.038929017713703433 0.0030423684267845141 0 0.039823814564597854 0.003581523265421052 0 0.038929017713703433 0.0030423684267845141 0 0.039823814564597854 0.003581523265421052 0 0.038240396658981338 0.0040345846591967492 0 0.038572185813300373 0.0028096128911396494 0 0.037576725034424233 0.0032469011881214845 0 0.040405587141050262 0.0021315844393044745 0 0.0397145239336728 0.0027085478655047316 0 0.039823814564597854 0.003581523265421052 0 0.038367983748234434 0.0020831140047377133 0 0.038936965427219812 0.0024845105386110925 0 0.039100561352532093 0.0020062845592566467 0 0.040405587141050262 0.0021315844393044745 0 0.040743916629034933 0.0016641864506238364 0 0.040307723717177557 0.0017370961426891325 0 0.038572185813300373 0.0028096128911396494 0 0.039316593145118935 0.0024922073393754633 0 0.039175230814348601 0.0023461165841123567 0 0.038572185813300373 0.0028096128911396494 0 0.036453575590984638 0.001942347595181455 0 0.03690204593182863 0.0025490675819525893 0 0.036278076072820235 0.0030813094896754104 0 0.03690204593182863 0.0025490675819525893 0 0.036868797078196153 0.0029745802667560163 0 0.036278076072820235 0.0030813094896754104 0 0.036453575590984638 0.001942347595181455 0 0.037322787920182794 0.0021092858995848261 0 0.03690204593182863 0.0025490675819525893 0 0.037794813396467709 0.0014959602879186862 0 0.036453575590984638 0.001942347595181455 0 0.037322787920182794 0.0021092858995848261 0 0.03690204593182863 0.0025490675819525893 0 0.037542589707372551 0.0026510522932014272 0 0.036868797078196153 0.0029745802667560163 0 0.037322787920182794 0.0021092858995848261 0 0.03690204593182863 0.0025490675819525893 0 0.037542589707372551 0.0026510522932014272 0 0.037542589707372551 0.0026510522932014272 0 0.038476091923295146 0.0024969881343530034 0 0.037980193084245453 0.0031506468340592245 0 0.037542589707372551 0.0026510522932014272 0 0.03808763254874814 0.0019878691797765653 0 0.038476091923295146 0.0024969881343530034 0 0.037794813396467709 0.0014959602879186862 0 0.037322787920182794 0.0021092858995848261 0 0.03808763254874814 0.0019878691797765653 0 0.037322787920182794 0.0021092858995848261 0 0.037542589707372551 0.0026510522932014272 0 0.03808763254874814 0.0019878691797765653 0 0.038829282755679005 0.001913243436224135 0 0.03808763254874814 0.0019878691797765653 0 0.038476091923295146 0.0024969881343530034 0 0.038929017713703433 0.0030423684267845141 0 0.038476091923295146 0.0024969881343530034 0 0.037980193084245453 0.0031506468340592245 0 0.038929017713703433 0.0030423684267845141 0 0.037980193084245453 0.0031506468340592245 0 0.038240396658981338 0.0040345846591967492 0 0.037980193084245453 0.0031506468340592245 0 0.036929417270159144 0.003437515883653481 0 0.038240396658981338 0.0040345846591967492 0 0.037542589707372551 0.0026510522932014272 0 0.037980193084245453 0.0031506468340592245 0 0.036929417270159144 0.003437515883653481 0 0.036929417270159144 0.003437515883653481 0 0.035961842982886551 0.0040013670586228275 0 0.038240396658981338 0.0040345846591967492 0 0.037542589707372551 0.0026510522932014272 0 0.036868797078196153 0.0029745802667560163 0 0.036929417270159144 0.003437515883653481 0 0.036868797078196153 0.0029745802667560163 0 0.036929417270159144 0.003437515883653481 0 0.036388861193977058 0.003478287693262817 0 0.035896280639611047 0.0037486138214700053 0 0.036388861193977058 0.003478287693262817 0 0.035961842982886551 0.0040013670586228275 0 0.036929417270159144 0.003437515883653481 0 0.036388861193977058 0.003478287693262817 0 0.035961842982886551 0.0040013670586228275 0 0.035896280639611047 0.0037486138214700053 0 0.036388861193977058 0.003478287693262817 0 0.036278076072820235 0.0030813094896754104 0 0.036868797078196153 0.0029745802667560163 0 0.036388861193977058 0.003478287693262817 0 0.036278076072820235 0.0030813094896754104 0 0.03707912078563131 0.0034122058295733139 0 0.037576725034424233 0.0032469011881214845 0 0.033539934926286839 0.0061636280392843943 0 0.034804733409458735 0.0051838478227845142 0 0.035611382220939569 0.0042614669006816458 0 0.035961842982886551 0.0040013670586228275 0 0.036009927403940642 0.0038074951754642323 0 0.035961842982886551 0.0040013670586228275 0 0.036009927403940642 0.0038074951754642323 0 0.036293334751785158 0.003534326240565135 0 0.0328595071714151 0.0042051506764876328 0 0.036009927403940642 0.0038074951754642323 0 0.035027059054592136 0.0043659921158974314 0 0.036009927403940642 0.0038074951754642323 0 0.035027059054592136 0.0043659921158974314 0 0.035915677979072559 0.004271816369468503 0 0.035915677979072559 0.004271816369468503 0 0.036293334751785158 0.003534326240565135 0 0.036752884365532132 0.0047154049086036093 0 0.036009927403940642 0.0038074951754642323 0 0.035915677979072559 0.004271816369468503 0 0.036293334751785158 0.003534326240565135 0 0.035915677979072559 0.004271816369468503 0 0.036752884365532132 0.0047154049086036093 0 0.035041811350836886 0.0051817499268894491 0 0.035370228273992443 0.0068489598382495019 0 0.036752884365532132 0.0047154049086036093 0 0.035041811350836886 0.0051817499268894491 0 0.035355476036358642 0.0053869923568920239 0 0.037039007840412544 0.0040117764719649045 0 0.0328595071714151 0.0042051506764876328 0 0.035027059054592136 0.0043659921158974314 0 0.035041811350836886 0.0051817499268894491 0 0.035027059054592136 0.0043659921158974314 0 0.035915677979072559 0.004271816369468503 0 0.035041811350836886 0.0051817499268894491 0 0.034443688702224376 0.0060908130719421506 0 0.03348875353832035 0.0056451705713181123 0 0.035041811350836886 0.0051817499268894491 0 0.038367983748234434 0.0020831140047377133 0 0.038936965427219812 0.0024845105386110925 0 0.038517902549500223 0.0029667255626360444 0 0.038936965427219812 0.0024845105386110925 0 0.038517902549500223 0.0029667255626360444 0 0.039428141808959927 0.0030149709365853588 0 0.038367983748234434 0.0020831140047377133 0 0.03756275179382116 0.0030467456080309164 0 0.038517902549500223 0.0029667255626360444 0 0.038572185813300373 0.0028096128911396494 0 0.037039007840412544 0.0040117764719649045 0 0.037672938144435848 0.0032936755142139664 0 0.036293334751785158 0.003534326240565135 0 0.036752884365532132 0.0047154049086036093 0 0.037736494546410967 0.0037829931009970503 0 0.03756275179382116 0.0030467456080309164 0 0.038182315650341622 0.0034682495547102687 0 0.03756275179382116 0.0030467456080309164 0 0.038182315650341622 0.0034682495547102687 0 0.038517902549500223 0.0029667255626360444 0 0.038604868529633268 0.0039115655601811876 0 0.038182315650341622 0.0034682495547102687 0 0.038517902549500223 0.0029667255626360444 0 0.038604868529633268 0.0039115655601811876 0 0.038517902549500223 0.0029667255626360444 0 0.039428141808959927 0.0030149709365853588 0 0.037270030989500692 0.004270923998643452 0 0.038500374417203664 0.003267465627373841 0 0.038936965427219812 0.0024845105386110925 0 0.039428141808959927 0.0030149709365853588 0 0.039463135193567207 0.0023721693792664198 0 0.038936965427219812 0.0024845105386110925 0 0.039463135193567207 0.0023721693792664198 0 0.039100561352532093 0.0020062845592566467 0 0.038382692768057357 0.003096949518988595 0 0.039842299140660474 0.0023206358648035848 0 0.040035111841699007 0.0030713957849413378 0 0.039428141808959927 0.0030149709365853588 0 0.039463135193567207 0.0023721693792664198 0 0.039842299140660474 0.0023206358648035848 0 0.038500374417203664 0.003267465627373841 0 0.039034698233902321 0.0028257506554919352 0 0.039787452619679982 0.0040637741419991625 0 0.038382692768057357 0.003096949518988595 0 0.040035111841699007 0.0030713957849413378 0 0.040993470064471453 0.0040950882575364021 0 0.039787452619679982 0.0040637741419991625 0 0.040035111841699007 0.0030713957849413378 0 0.040993470064471453 0.0040950882575364021 0 0.040035111841699007 0.0030713957849413378 0 0.040730786705162551 0.0027930238154799175 0 0.037868539007674965 -0.0005928950327971094 0 0.038820503143029199 -0.00023296587219901759 0 0.039842299140660474 0.0023206358648035848 0 0.040035111841699007 0.0030713957849413378 0 0.040730786705162551 0.0027930238154799175 0 0.039842299140660474 0.0023206358648035848 0 0.04045565342147759 0.0019298661401069164 0 0.040097261380787265 0.0019116443579615722 0 0.039842299140660474 0.0023206358648035848 0 0.040730786705162551 0.0027930238154799175 0 0.04045565342147759 0.0019298661401069164 0 0.038820503143029199 -0.00023296587219901759 0 0.039521740780688659 0.00033713782809203228 0 0.037658740042861232 -0.0039786079487657104 0 0.039118960044937742 -0.0016462138103552463 0 0.036954349619581377 -0.0020177757441980811 0 0.039118960044937742 -0.0016462138103552463 0 0.03880070276671535 -0.00026443270889308935 0 0.036954349619581377 -0.0020177757441980811 0 0.039521740780688659 0.00033713782809203228 0 0.039984755832569087 0.00081143164595696407 0 0.039118960044937742 -0.0016462138103552463 0 0.03880070276671535 -0.00026443270889308935 0 0.040279990727503774 0.00075130897390923907 0 0.04045565342147759 0.0019298661401069164 0 0.040289291633307113 0.0017643601368341191 0 0.040097261380787265 0.0019116443579615722 0 0.04045565342147759 0.0019298661401069164 0 0.040289291633307113 0.0017643601368341191 0 0.040515134890679427 0.0015793503695066978 0 0.040289291633307113 0.0017643601368341191 0 0.040097261380787265 0.0019116443579615722 0 0.040134784760204413 0.0017940339724449245 0 0.040097261380787265 0.0019116443579615722 0 0.040043781609847513 0.0019069503816881827 0 0.040134784760204413 0.0017940339724449245 0 0.040043781609847513 0.0019069503816881827 0 0.040134784760204413 0.0017940339724449245 0 0.040132733087644652 0.0019384858348380526 0 0.040043781609847513 0.0019069503816881827 0 0.040132733087644652 0.0019384858348380526 0 0.03985610393696945 0.0019773379375634969 0 0.040134784760204413 0.0017940339724449245 0 0.040192632094078237 0.0018306015257772261 0 0.040132733087644652 0.0019384858348380526 0 0.040192632094078237 0.0018306015257772261 0 0.040293682856311699 0.0019825565491881879 0 0.040132733087644652 0.0019384858348380526 0 0.040405587141050262 0.0021315844393044745 0 0.040293682856311699 0.0019825565491881879 0 0.040431582583733243 0.0019386961862403946 0 0.040192632094078237 0.0018306015257772261 0 0.040293682856311699 0.0019825565491881879 0 0.040431582583733243 0.0019386961862403946 0 0.040405587141050262 0.0021315844393044745 0 0.040293682856311699 0.0019825565491881879 0 0.040211943877567151 0.0019482684476287105 0 0.040293682856311699 0.0019825565491881879 0 0.040132733087644652 0.0019384858348380526 0 0.040211943877567151 0.0019482684476287105 0 0.039316593145118935 0.0024922073393754633 0 0.039524433673525143 0.0024037513408359159 0 0.040211943877567151 0.0019482684476287105 0 0.040307723717177557 0.0017370961426891325 0 0.03985610393696945 0.0019773379375634969 0 0.039463135193567207 0.0023721693792664198 0 0.039100561352532093 0.0020062845592566467 0 0.03985610393696945 0.0019773379375634969 0 0.040132733087644652 0.0019384858348380526 0 0.040211943877567151 0.0019482684476287105 0 0.03985610393696945 0.0019773379375634969 0 0.040405587141050262 0.0021315844393044745 0 0.040211943877567151 0.0019482684476287105 0 0.040307723717177557 0.0017370961426891325 0 0.039463135193567207 0.0023721693792664198 0 0.039842299140660474 0.0023206358648035848 0 0.03985610393696945 0.0019773379375634969 0 0.039842299140660474 0.0023206358648035848 0 0.040097261380787265 0.0019116443579615722 0 0.03985610393696945 0.0019773379375634969 0 0.040097261380787265 0.0019116443579615722 0 0.040043781609847513 0.0019069503816881827 0 0.03985610393696945 0.0019773379375634969 0 0.03135833358319199 -0.0035462280064321814 0 0.032748325945312892 -0.0055338839832058707 0 0.033398051383155831 -0.0038031846423339736 0 0.03097079158196794 -0.0030799910795229883 0 0.031996710521212453 -0.0048222821503603949 0 0.030033884722983489 -0.0022942734471576858 0 0.031465694861410341 -0.0040944734764893501 0 0.029354550976184637 -0.0035863890953555188 0 0.032748325945312892 -0.0055338839832058707 0 0.033398051383155831 -0.0038031846423339736 0 0.034774736922995077 -0.0048215122619999591 0 0.03135833358319199 -0.0035462280064321814 0 0.033398051383155831 -0.0038031846423339736 0 0.033135166269061232 -0.0022014989951263794 0 0.033398051383155831 -0.0038031846423339736 0 0.034774736922995077 -0.0048215122619999591 0 0.035006152192126182 -0.0026899396044706681 0 0.034774736922995077 -0.0048215122619999591 0 0.036029447442797922 -0.0038189952687115733 0 0.035006152192126182 -0.0026899396044706681 0 0.036430031394957832 -0.0059249359703326876 0 0.034774736922995077 -0.0048215122619999591 0 0.036029447442797922 -0.0038189952687115733 0 0.036430031394957832 -0.0059249359703326876 0 0.037658740042861232 -0.0039786079487657104 0 0.036029447442797922 -0.0038189952687115733 0 0.037658740042861232 -0.0039786079487657104 0 0.036029447442797922 -0.0038189952687115733 0 0.036954349619581377 -0.0020177757441980811 0 0.036029447442797922 -0.0038189952687115733 0 0.036954349619581377 -0.0020177757441980811 0 0.035006152192126182 -0.0026899396044706681 0 0.036954349619581377 -0.0020177757441980811 0 0.036672858627321808 -0.00042315168653099777 0 0.035262067149464289 -0.0011707764410403276 0 0.03880070276671535 -0.00026443270889308935 0 0.036954349619581377 -0.0020177757441980811 0 0.036672858627321808 -0.00042315168653099777 0 0.036396696864180303 -0.0011982411841886672 0 0.036812939902238169 -0.00082877830231877446 0 0.036672858627321808 -0.00042315168653099777 0 0.035262067149464289 -0.0011707764410403276 0 0.035357417125964526 0.00049531767566048644 0 0.035014052299334165 -0.0011134017268431761 0 0.032827631525132774 -5.7901432745265024e-05 0 0.03505015341429412 0.00050971201950423943 0 0.035014052299334165 -0.0011134017268431761 0 0.035006152192126182 -0.0026899396044706681 0 0.033135166269061232 -0.0022014989951263794 0 0.036396696864180303 -0.0011982411841886672 0 0.036258059992049542 -0.001557752081810748 0 0.036954349619581377 -0.0020177757441980811 0 0.035262067149464289 -0.0011707764410403276 0 0.035006152192126182 -0.0026899396044706681 0 0.033398051383155831 -0.0038031846423339736 0 0.035006152192126182 -0.0026899396044706681 0 0.033135166269061232 -0.0022014989951263794 0 0.033135166269061232 -0.0022014989951263794 0 0.032827631525132774 -5.7901432745265024e-05 0 0.031406898489332181 -0.0017530785955353046 0 0.035014052299334165 -0.0011134017268431761 0 0.033135166269061232 -0.0022014989951263794 0 0.032827631525132774 -5.7901432745265024e-05 0 0.034225701158210178 -0.0012745182992148654 0 0.032489108628385187 -0.001612644917654672 0 0.034872628439545875 -0.0022081917889510642 0 0.032838001411176071 -0.0025983168871382377 0 0.032847399702240397 -0.0015934502479524025 0 0.032827631525132774 -5.7901432745265024e-05 0 0.031406898489332181 -0.0017530785955353046 0 0.030358077359169126 -0.00081869878748066615 0 0.03135833358319199 -0.0035462280064321814 0 0.033135166269061232 -0.0022014989951263794 0 0.031406898489332181 -0.0017530785955353046 0 0.034342831708851489 -0.00033174917885791692 0 0.033694371067497245 -0.00098747079150381611 0 0.033112980053075232 -0.00010043575005351747 0 0.034342831708851489 -0.00033174917885791692 0 0.033694371067497245 -0.00098747079150381611 0 0.03528525526000284 -0.00092532844675438013 0 0.034872628439545875 -0.0022081917889510642 0 0.033694371067497245 -0.00098747079150381611 0 0.032847399702240397 -0.0015934502479524025 0 0.034872628439545875 -0.0022081917889510642 0 0.033694371067497245 -0.00098747079150381611 0 0.03528525526000284 -0.00092532844675438013 0 0.034872628439545875 -0.0022081917889510642 0 0.03528525526000284 -0.00092532844675438013 0 0.036229035078334131 -0.0018141228642437721 0 0.034225701158210178 -0.0012745182992148654 0 0.036812939902238169 -0.00082877830231877446 0 0.03528525526000284 -0.00092532844675438013 0 0.036224466646349547 -0.00049921375723503681 0 0.036229035078334131 -0.0018141228642437721 0 0.037950451118801444 -0.0002119828269266635 0 0.036812939902238169 -0.00082877830231877446 0 0.04165643414071913 0.00016496476796797112 0 0.041721296151402493 0.0011986067407304176 0 0.041052543210845047 0.00104784723937997 0 0.03880070276671535 -0.00026443270889308935 0 0.036672858627321808 -0.00042315168653099777 0 0.037427388768302629 0.00090745968733013888 0 0.036812939902238169 -0.00082877830231877446 0 0.038421398340375258 -0.00010530545596708802 0 0.036672858627321808 -0.00042315168653099777 0 0.035357417125964526 0.00049531767566048644 0 0.037427388768302629 0.00090745968733013888 0 0.04165643414071913 0.00016496476796797112 0 0.041052543210845047 0.00104784723937997 0 0.040905645230963364 0.00042940119266032453 0 0.04165643414071913 0.00016496476796797112 0 0.040905645230963364 0.00042940119266032453 0 0.041107000305343734 -0.00015263254978972678 0 0.04165643414071913 0.00016496476796797112 0 0.041372032766923535 -0.00063695554401043536 0 0.041107000305343734 -0.00015263254978972678 0 0.041372032766923535 -0.00063695554401043536 0 0.041107000305343734 -0.00015263254978972678 0 0.04132126070877129 -0.00077227245909149925 0 0.037950451118801444 -0.0002119828269266635 0 0.038519704132265679 0.00010574676756655198 0 0.036224466646349547 -0.00049921375723503681 0 0.036495884766045553 0.00018030439624524536 0 0.03542558384901999 0.00014287105682912114 0 0.034342831708851489 -0.00033174917885791692 0 0.03528525526000284 -0.00092532844675438013 0 0.03542558384901999 0.00014287105682912114 0 0.03528525526000284 -0.00092532844675438013 0 0.036224466646349547 -0.00049921375723503681 0 0.03542558384901999 0.00014287105682912114 0 0.036495884766045553 0.00018030439624524536 0 0.03542558384901999 0.00014287105682912114 0 0.036376625450965934 0.00043509677795285979 0 0.03542558384901999 0.00014287105682912114 0 0.035039423832276331 0.00055729412035332513 0 0.03393627933891203 0.00046688500814795144 0 0.034342831708851489 -0.00033174917885791692 0 0.03542558384901999 0.00014287105682912114 0 0.03393627933891203 0.00046688500814795144 0 0.040245058223159422 0.0011935042281030637 0 0.039841991866335129 0.0012125048000210773 0 0.040394938887401241 0.00035957349764218036 0 0.040245058223159422 0.0011935042281030637 0 0.039841991866335129 0.0012125048000210773 0 0.040232439472410758 0.0015605444969535517 0 0.040455170173397823 0.0013008166247736954 0 0.041016730353880669 0.00059863165801036459 0 0.041831686782131061 0.0007576705848327701 0 0.041016730353880669 0.00059863165801036459 0 0.041831686782131061 0.0007576705848327701 0 0.041698983468580704 4.1637047449010651e-06 0 0.040192632094078237 0.0018306015257772261 0 0.040431582583733243 0.0019386961862403946 0 0.039841991866335129 0.0012125048000210773 0 0.040455170173397823 0.0013008166247736954 0 0.040431582583733243 0.0019386961862403946 0 0.041831686782131061 0.0007576705848327701 0 0.040771874200305855 0.0010578666824674961 0 0.040955692029577863 0.00067769895107197401 0 0.040192632094078237 0.0018306015257772261 0 0.039841991866335129 0.0012125048000210773 0 0.040112417160997206 0.0016268688520822176 0 0.040134784760204413 0.0017940339724449245 0 0.040192632094078237 0.0018306015257772261 0 0.040112417160997206 0.0016268688520822176 0 0.040134784760204413 0.0017940339724449245 0 0.040112417160997206 0.0016268688520822176 0 0.040232439472410758 0.0015605444969535517 0 0.039841991866335129 0.0012125048000210773 0 0.040112417160997206 0.0016268688520822176 0 0.040232439472410758 0.0015605444969535517 0 0.040289291633307113 0.0017643601368341191 0 0.040134784760204413 0.0017940339724449245 0 0.040232439472410758 0.0015605444969535517 0 0.040289291633307113 0.0017643601368341191 0 0.040232439472410758 0.0015605444969535517 0 0.040515134890679427 0.0015793503695066978 0 0.040245058223159422 0.0011935042281030637 0 0.040232439472410758 0.0015605444969535517 0 0.040515134890679427 0.0015793503695066978 0 0.041052543210845047 0.00104784723937997 0 0.0400291098843083 0.00086918409399756738 0 0.040905645230963364 0.00042940119266032453 0 0.03880070276671535 -0.00026443270889308935 0 0.037427388768302629 0.00090745968733013888 0 0.0400291098843083 0.00086918409399756738 0 0.038421398340375258 -0.00010530545596708802 0 0.03890456773224725 9.9434749053506081e-05 0 0.03880070276671535 -0.00026443270889308935 0 0.040279990727503774 0.00075130897390923907 0 0.0400291098843083 0.00086918409399756738 0 0.040905645230963364 0.00042940119266032453 0 0.04049952441390707 0.00043529049592479408 0 0.041107000305343734 -0.00015263254978972678 0 0.0400291098843083 0.00086918409399756738 0 0.040905645230963364 0.00042940119266032453 0 0.04049952441390707 0.00043529049592479408 0 0.040245058223159422 0.0011935042281030637 0 0.040515134890679427 0.0015793503695066978 0 0.040394938887401241 0.00035957349764218036 0 0.040279990727503774 0.00075130897390923907 0 0.04049952441390707 0.00043529049592479408 0 0.040394938887401241 0.00035957349764218036 0 0.040279990727503774 0.00075130897390923907 0 0.0400291098843083 0.00086918409399756738 0 0.04049952441390707 0.00043529049592479408 0 0.039984755832569087 0.00081143164595696407 0 0.040078595080170379 0.0007429188671208536 0 0.04049952441390707 0.00043529049592479408 0 0.040888134044382657 -0.00016863335263162744 0 0.040394938887401241 0.00035957349764218036 0 0.040888134044382657 -0.00016863335263162744 0 0.040319818440621276 -0.0001161292665549212 0 0.040394938887401241 0.00035957349764218036 0 0.04049952441390707 0.00043529049592479408 0 0.040888134044382657 -0.00016863335263162744 0 0.041107000305343734 -0.00015263254978972678 0 0.040888134044382657 -0.00016863335263162744 0 0.041688929018796519 -0.00083653672532830873 0 0.04132126070877129 -0.00077227245909149925 0 0.040888134044382657 -0.00016863335263162744 0 0.041107000305343734 -0.00015263254978972678 0 0.04132126070877129 -0.00077227245909149925 0 0.040888134044382657 -0.00016863335263162744 0 0.040319818440621276 -0.0001161292665549212 0 0.041688929018796519 -0.00083653672532830873 0 0.042431659583748511 -0.00059273339278257504 0 0.042210567916061904 -0.00084197327460198035 0 0.041688929018796519 -0.00083653672532830873 0 0.041246031118730278 6.7214057073506115e-05 0 0.041370347778443638 -0.00018422051232999217 0 0.042245823939672328 -0.00070909870901588856 0 0.042431659583748511 -0.00059273339278257504 0 0.042210567916061904 -0.00084197327460198035 0 0.042173637795405089 -0.00077237339492182194 0 0.042245823939672328 -0.00070909870901588856 0 0.042210567916061904 -0.00084197327460198035 0 0.042173637795405089 -0.00077237339492182194 0 0.042274323021015532 -0.00090492683899548476 0 0.042210567916061904 -0.00084197327460198035 0 0.042245823939672328 -0.00070909870901588856 0 0.042431659583748511 -0.00059273339278257504 0 0.042060113015713559 -0.00049746872039279711 0 0.042173637795405089 -0.00077237339492182194 0 0.042245823939672328 -0.00070909870901588856 0 0.042060113015713559 -0.00049746872039279711 0 0.040955692029577863 0.00067769895107197401 0 0.041246031118730278 6.7214057073506115e-05 0 0.042431659583748511 -0.00059273339278257504 0 0.042060113015713559 -0.00049746872039279711 0 0.041698983468580704 4.1637047449010651e-06 0 0.041831686782131061 0.0007576705848327701 0 0.042431659583748511 -0.00059273339278257504 0 0.041698983468580704 4.1637047449010651e-06 0 0.039841991866335129 0.0012125048000210773 0 0.040319818440621276 -0.0001161292665549212 0 0.040394938887401241 0.00035957349764218036 0 0.040937636342494477 0.00013206012443953567 0 0.041698983468580704 4.1637047449010651e-06 0 0.041614106179386476 -0.00031913771776198905 0 0.040937636342494477 0.00013206012443953567 0 0.041016730353880669 0.00059863165801036459 0 0.041698983468580704 4.1637047449010651e-06 0 0.042060113015713559 -0.00049746872039279711 0 0.041698983468580704 4.1637047449010651e-06 0 0.041614106179386476 -0.00031913771776198905 0 0.042060113015713559 -0.00049746872039279711 0 0.041614106179386476 -0.00031913771776198905 0 0.041914930444955305 -0.00060597709827875346 0 0.041144569412299534 -0.00030586207044974587 0 0.041614106179386476 -0.00031913771776198905 0 0.041609266226695973 -0.00061935741245128294 0 0.041614106179386476 -0.00031913771776198905 0 0.041609266226695973 -0.00061935741245128294 0 0.041914930444955305 -0.00060597709827875346 0 0.041609266226695973 -0.00061935741245128294 0 0.041914930444955305 -0.00060597709827875346 0 0.041980196199280354 -0.00078806473141061902 0 0.042173637795405089 -0.00077237339492182194 0 0.042060113015713559 -0.00049746872039279711 0 0.041914930444955305 -0.00060597709827875346 0 0.042173637795405089 -0.00077237339492182194 0 0.041980196199280354 -0.00078806473141061902 0 0.042274323021015532 -0.00090492683899548476 0 0.042173637795405089 -0.00077237339492182194 0 0.041914930444955305 -0.00060597709827875346 0 0.041980196199280354 -0.00078806473141061902 0 0.041717182007580754 -0.00083630664290851959 0 0.041609266226695973 -0.00061935741245128294 0 0.041980196199280354 -0.00078806473141061902 0 0.041717182007580754 -0.00083630664290851959 0 0.041980196199280354 -0.00078806473141061902 0 0.042041112763175278 -0.00096405818981334847 0 0.042041112763175278 -0.00096405818981334847 0 0.042117487806953152 -0.0011154949634965415 0 0.041699479330533612 -0.001035606501622411 0 0.042041112763175278 -0.00096405818981334847 0 0.04231260499446534 -0.0010317168107674003 0 0.042117487806953152 -0.0011154949634965415 0 0.042041112763175278 -0.00096405818981334847 0 0.042274323021015532 -0.00090492683899548476 0 0.04231260499446534 -0.0010317168107674003 0 0.041980196199280354 -0.00078806473141061902 0 0.042041112763175278 -0.00096405818981334847 0 0.042274323021015532 -0.00090492683899548476 0 0.04231260499446534 -0.0010317168107674003 0 0.042524076971829597 -0.0011619886027974785 0 0.04253054778538902 -0.00092815330195003445 0 0.042274323021015532 -0.00090492683899548476 0 0.04231260499446534 -0.0010317168107674003 0 0.04253054778538902 -0.00092815330195003445 0 0.04231260499446534 -0.0010317168107674003 0 0.042117487806953152 -0.0011154949634965415 0 0.042524076971829597 -0.0011619886027974785 0 0.042524076971829597 -0.0011619886027974785 0 0.043167875377939056 -0.00072811402685176438 0 0.042895537188518247 -0.001185263160964758 0 0.042524076971829597 -0.0011619886027974785 0 0.04253054778538902 -0.00092815330195003445 0 0.043167875377939056 -0.00072811402685176438 0 0.04253054778538902 -0.00092815330195003445 0 0.042399966015298572 -0.00067293374966758345 0 0.043167875377939056 -0.00072811402685176438 0 0.042399966015298572 -0.00067293374966758345 0 0.042719694730241772 -0.00021589598095858562 0 0.043167875377939056 -0.00072811402685176438 0 0.04253054778538902 -0.00092815330195003445 0 0.042210567916061904 -0.00084197327460198035 0 0.042399966015298572 -0.00067293374966758345 0 0.042274323021015532 -0.00090492683899548476 0 0.04253054778538902 -0.00092815330195003445 0 0.042210567916061904 -0.00084197327460198035 0 0.042210567916061904 -0.00084197327460198035 0 0.041688929018796519 -0.00083653672532830873 0 0.042399966015298572 -0.00067293374966758345 0 0.041688929018796519 -0.00083653672532830873 0 0.04132126070877129 -0.00077227245909149925 0 0.041719886294333548 -0.00038887218091891636 0 0.041688929018796519 -0.00083653672532830873 0 0.041719886294333548 -0.00038887218091891636 0 0.042399966015298572 -0.00067293374966758345 0 0.041719886294333548 -0.00038887218091891636 0 0.042399966015298572 -0.00067293374966758345 0 0.042719694730241772 -0.00021589598095858562 0 0.042719694730241772 -0.00021589598095858562 0 0.042609336889808773 0.00052955482144279161 0 0.043573909793134649 0.00025047808320040078 0 0.041719886294333548 -0.00038887218091891636 0 0.042719694730241772 -0.00021589598095858562 0 0.042609336889808773 0.00052955482144279161 0 0.041719886294333548 -0.00038887218091891636 0 0.042609336889808773 0.00052955482144279161 0 0.041825457128993632 0.0014283025503306619 0 0.042609336889808773 0.00052955482144279161 0 0.041825457128993632 0.0014283025503306619 0 0.043606657646428452 0.0016963409610250032 0 0.042609336889808773 0.00052955482144279161 0 0.043573909793134649 0.00025047808320040078 0 0.043606657646428452 0.0016963409610250032 0 0.043573909793134649 0.00025047808320040078 0 0.044622963876743818 0.0015531691049653327 0 0.043606657646428452 0.0016963409610250032 0 0.043573909793134649 0.00025047808320040078 0 0.044670954401478009 0.00065998090196712871 0 0.044622963876743818 0.0015531691049653327 0 0.043573909793134649 0.00025047808320040078 0 0.044670954401478009 0.00065998090196712871 0 0.043707958226586033 -0.0010372367633194736 0 0.043167875377939056 -0.00072811402685176438 0 0.043707958226586033 -0.0010372367633194736 0 0.042895537188518247 -0.001185263160964758 0 0.043573909793134649 0.00025047808320040078 0 0.043167875377939056 -0.00072811402685176438 0 0.043707958226586033 -0.0010372367633194736 0 0.042719694730241772 -0.00021589598095858562 0 0.043573909793134649 0.00025047808320040078 0 0.043167875377939056 -0.00072811402685176438 0 0.035465797090177338 0.00068038367799247933 0 0.036376625450965934 0.00043509677795285979 0 0.036979593822102093 0.00055006972182787604 0 0.035465797090177338 0.00068038367799247933 0 0.035039423832276331 0.00055729412035332513 0 0.036376625450965934 0.00043509677795285979 0 0.03542558384901999 0.00014287105682912114 0 0.035039423832276331 0.00055729412035332513 0 0.036376625450965934 0.00043509677795285979 0 0.036376625450965934 0.00043509677795285979 0 0.037464084564041225 0.00030957822956601802 0 0.036979593822102093 0.00055006972182787604 0 0.038841094529718859 0.00053511790163533399 0 0.038985763883085819 0.00090528253127459581 0 0.036495884766045553 0.00018030439624524536 0 0.036376625450965934 0.00043509677795285979 0 0.037464084564041225 0.00030957822956601802 0 0.038519704132265679 0.00010574676756655198 0 0.038841094529718859 0.00053511790163533399 0 0.041372032766923535 -0.00063695554401043536 0 0.04132126070877129 -0.00077227245909149925 0 0.040657059849187861 -0.00065653185016408086 0 0.041719886294333548 -0.00038887218091891636 0 0.040657059849187861 -0.00065653185016408086 0 0.039651213978534654 0.00059727994663302038 0 0.04132126070877129 -0.00077227245909149925 0 0.041719886294333548 -0.00038887218091891636 0 0.040657059849187861 -0.00065653185016408086 0 0.041719886294333548 -0.00038887218091891636 0 0.041825457128993632 0.0014283025503306619 0 0.039651213978534654 0.00059727994663302038 0 0.041825457128993632 0.0014283025503306619 0 0.039651213978534654 0.00059727994663302038 0 0.040247345087591091 0.0017100623053473833 0 0.039651213978534654 0.00059727994663302038 0 0.037570325847011768 0.0012084147620891738 0 0.040247345087591091 0.0017100623053473833 0 0.037464084564041225 0.00030957822956601802 0 0.039651213978534654 0.00059727994663302038 0 0.036979593822102093 0.00055006972182787604 0 0.039651213978534654 0.00059727994663302038 0 0.036979593822102093 0.00055006972182787604 0 0.037570325847011768 0.0012084147620891738 0 0.037570325847011768 0.0012084147620891738 0 0.038835860590949609 0.0020860472698768714 0 0.040247345087591091 0.0017100623053473833 0 0.037570325847011768 0.0012084147620891738 0 0.03645843215784729 0.0015303250679271777 0 0.037660754105647225 0.002080915218157414 0 0.037570325847011768 0.0012084147620891738 0 0.03645843215784729 0.0015303250679271777 0 0.036071929882089369 0.00088709248865559203 0 0.036979593822102093 0.00055006972182787604 0 0.037570325847011768 0.0012084147620891738 0 0.036071929882089369 0.00088709248865559203 0 0.035465797090177338 0.00068038367799247933 0 0.036979593822102093 0.00055006972182787604 0 0.036071929882089369 0.00088709248865559203 0 0.036794930943939146 0.0038506201019269039 0 0.036968906990822295 0.0027791915641818292 0 0.037816073092057492 0.0050771960401566497 0 0.040886292951662705 0.0026359807925350818 0 0.042485617576921673 0.0030886829525227774 0 0.036794930943939146 0.0038506201019269039 0 0.036968906990822295 0.0027791915641818292 0 0.035786654843478698 0.002630402963062212 0 0.03645843215784729 0.0015303250679271777 0 0.036968906990822295 0.0027791915641818292 0 0.035786654843478698 0.002630402963062212 0 0.03645843215784729 0.0015303250679271777 0 0.037660754105647225 0.002080915218157414 0 0.036968906990822295 0.0027791915641818292 0 0.037570325847011768 0.0012084147620891738 0 0.037660754105647225 0.002080915218157414 0 0.038835860590949609 0.0020860472698768714 0 0.037660754105647225 0.002080915218157414 0 0.036968906990822295 0.0027791915641818292 0 0.038994844283835331 0.0031994067505810315 0 0.037660754105647225 0.002080915218157414 0 0.038835860590949609 0.0020860472698768714 0 0.038994844283835331 0.0031994067505810315 0 0.036968906990822295 0.0027791915641818292 0 0.038994844283835331 0.0031994067505810315 0 0.038319268379241267 0.0051442863704192938 0 0.038835860590949609 0.0020860472698768714 0 0.038994844283835331 0.0031994067505810315 0 0.04099242107183651 0.0029826387264509343 0 0.038994844283835331 0.0031994067505810315 0 0.04099242107183651 0.0029826387264509343 0 0.041458178101949628 0.004620391681391639 0 0.038835860590949609 0.0020860472698768714 0 0.04099242107183651 0.0029826387264509343 0 0.040247345087591091 0.0017100623053473833 0 0.041825457128993632 0.0014283025503306619 0 0.040247345087591091 0.0017100623053473833 0 0.042682427913744839 0.0026720765362079125 0 0.04099242107183651 0.0029826387264509343 0 0.040247345087591091 0.0017100623053473833 0 0.042682427913744839 0.0026720765362079125 0 0.04099242107183651 0.0029826387264509343 0 0.042682427913744839 0.0026720765362079125 0 0.043970777271149626 0.0040113371023720746 0 0.04099242107183651 0.0029826387264509343 0 0.041458178101949628 0.004620391681391639 0 0.043970777271149626 0.0040113371023720746 0 0.045711695492480824 0.0061348735219688283 0 0.041458178101949628 0.004620391681391639 0 0.043970777271149626 0.0040113371023720746 0 0.045411591607995197 0.0050101957623678332 0 0.045490121546317729 0.0045580511771663211 0 0.045711695492480824 0.0061348735219688283 0 0.041458178101949628 0.004620391681391639 0 0.040905462697486357 0.0080093675674022362 0 0.038994844283835331 0.0031994067505810315 0 0.041458178101949628 0.004620391681391639 0 0.038319268379241267 0.0051442863704192938 0 0.042485617576921673 0.0030886829525227774 0 0.045490121546317729 0.0045580511771663211 0 0.043764446892982423 0.0030236139483212758 0 0.044553779353922511 0.0052628127033429138 0 0.045382490536808928 0.0050234962354347981 0 0.042485617576921673 0.0030886829525227774 0 0.046473198065802392 0.0040289685207847165 0 0.043226910409395101 0.001359669789336827 0 0.043222350958440042 0.001379350290428516 0 0.043249554209165035 0.0013971959052898892 0 0.041458178101949628 0.004620391681391639 0 0.038319268379241267 0.0051442863704192938 0 0.040905462697486357 0.0080093675674022362 0 0.043222350958440042 0.001379350290428516 0 0.043196995723271105 0.0013642250217966233 0 0.043216650779590318 0.0013964347179034468 0 0.043226910409395101 0.001359669789336827 0 0.043222350958440042 0.001379350290428516 0 0.043196995723271105 0.0013642250217966233 0 0.043204550956234954 0.001341232252320614 0 0.043226910409395101 0.001359669789336827 0 0.043196995723271105 0.0013642250217966233 0 0.040801204424205567 0.0022493077044384822 0 0.042485617576921673 0.0030886829525227774 0 0.045273607241449076 0.0030334598684064545 0 0.046611590430517408 0.0038360657422970386 0 0.046038179243174979 0.0023067133993235566 0 0.044670954401478009 0.00065998090196712871 0 0.044622963876743818 0.0015531691049653327 0 0.046038179243174979 0.0023067133993235566 0 0.045273607241449076 0.0030334598684064545 0 0.044622963876743818 0.0015531691049653327 0 0.046038179243174979 0.0023067133993235566 0 0.045273607241449076 0.0030334598684064545 0 0.044622963876743818 0.0015531691049653327 0 0.043606657646428452 0.0016963409610250032 0 0.041825457128993632 0.0014283025503306619 0 0.042682427913744839 0.0026720765362079125 0 0.043606657646428452 0.0016963409610250032 0 0.042682427913744839 0.0026720765362079125 0 0.043606657646428452 0.0016963409610250032 0 0.044203569417854034 0.0030786132764337665 0 0.042682427913744839 0.0026720765362079125 0 0.044203569417854034 0.0030786132764337665 0 0.043970777271149626 0.0040113371023720746 0 0.045273607241449076 0.0030334598684064545 0 0.044203569417854034 0.0030786132764337665 0 0.04545746832294173 0.0041000356622387761 0 0.045273607241449076 0.0030334598684064545 0 0.043606657646428452 0.0016963409610250032 0 0.044203569417854034 0.0030786132764337665 0 0.044203569417854034 0.0030786132764337665 0 0.04545746832294173 0.0041000356622387761 0 0.043970777271149626 0.0040113371023720746 0 0.04545746832294173 0.0041000356622387761 0 0.043970777271149626 0.0040113371023720746 0 0.045724423859142542 0.0050043562185970603 0 0.045711695492480824 0.0061348735219688283 0 0.043970777271149626 0.0040113371023720746 0 0.045724423859142542 0.0050043562185970603 0 0.045711695492480824 0.0061348735219688283 0 0.045724423859142542 0.0050043562185970603 0 0.046763610041586259 0.0054100599981456322 0 0.04545746832294173 0.0041000356622387761 0 0.046715997154893357 0.0050328150029170524 0 0.046574261286493411 0.00447826547594122 0 0.045724423859142542 0.0050043562185970603 0 0.046715997154893357 0.0050328150029170524 0 0.046763610041586259 0.0054100599981456322 0 0.04545746832294173 0.0041000356622387761 0 0.045724423859142542 0.0050043562185970603 0 0.046715997154893357 0.0050328150029170524 0 0.046715997154893357 0.0050328150029170524 0 0.047138393013040819 0.0049004399232298315 0 0.046574261286493411 0.00447826547594122 0 0.047138393013040819 0.0049004399232298315 0 0.046574261286493411 0.00447826547594122 0 0.047257643425102455 0.0048087654203259542 0 0.045273607241449076 0.0030334598684064545 0 0.04545746832294173 0.0041000356622387761 0 0.046574261286493411 0.00447826547594122 0 0.045273607241449076 0.0030334598684064545 0 0.046574261286493411 0.00447826547594122 0 0.046611590430517408 0.0038360657422970386 0 0.045446106070090024 0.00030792585948742374 0 0.046570417175546559 0.0012140948948429367 0 0.046574261286493411 0.00447826547594122 0 0.046611590430517408 0.0038360657422970386 0 0.047223910879194961 0.0048313192792578006 0 0.046574261286493411 0.00447826547594122 0 0.047257643425102455 0.0048087654203259542 0 0.047223910879194961 0.0048313192792578006 0 0.044499949831333353 -0.00322223143907287 0 0.044635591497827976 -0.0030754603694411174 0 0.044408319183110202 -0.0029012140405539418 0 0.044635591497827976 -0.0030754603694411174 0 0.044621358251756629 -0.0028979540132438308 0 0.044408319183110202 -0.0029012140405539418 0 0.044635591497827976 -0.0030754603694411174 0 0.044833457005668743 -0.0028915718949789043 0 0.044621358251756629 -0.0028979540132438308 0 0.044635591497827976 -0.0030754603694411174 0 0.044817208177777533 -0.0031533676916363517 0 0.044833457005668743 -0.0028915718949789043 0 0.044817208177777533 -0.0031533676916363517 0 0.044697233200098649 -0.0033202942939705681 0 0.044892903616405806 -0.0033232121160508194 0 0.044635591497827976 -0.0030754603694411174 0 0.044817208177777533 -0.0031533676916363517 0 0.044697233200098649 -0.0033202942939705681 0 0.044499949831333353 -0.00322223143907287 0 0.044635591497827976 -0.0030754603694411174 0 0.044697233200098649 -0.0033202942939705681 0 0.044697233200098649 -0.0033202942939705681 0 0.04472412225516393 -0.0035572874662667068 0 0.044617305488176266 -0.0035208388827892567 0 0.044499949831333353 -0.00322223143907287 0 0.044697233200098649 -0.0033202942939705681 0 0.044617305488176266 -0.0035208388827892567 0 0.045446106070090024 0.00030792585948742374 0 0.04441458261465947 -0.0011122798815521593 0 0.04472412225516393 -0.0035572874662667068 0 0.044642611694955141 -0.0036598943529388907 0 0.044676617525753727 -0.0038261220194329517 0 0.046146310568132828 -0.003830556123547651 0 0.046577157855136296 -0.0036044396530241539 0 0.044697233200098649 -0.0033202942939705681 0 0.04472412225516393 -0.0035572874662667068 0 0.044892903616405806 -0.0033232121160508194 0 0.04472412225516393 -0.0035572874662667068 0 0.04464098575602745 -0.0035352411365342194 0 0.044707171354956741 -0.0035813498331068935 0 0.04441458261465947 -0.0011122798815521593 0 0.043146153187063399 -0.0039651094907613062 0 0.04472412225516393 -0.0035572874662667068 0 0.044617305488176266 -0.0035208388827892567 0 0.044707171354956741 -0.0035813498331068935 0 0.040446529773287429 -0.0072038815910226766 0 0.038695148610972528 -0.0081645871341962419 0 0.03260613912992192 -0.014131785479498725 0 0.037629697579356684 -0.014402706905468321 0 0.032726988620188094 -0.017971002876625123 0 0.04464098575602745 -0.0035352411365342194 0 0.04452178182004559 -0.0037481524936441753 0 0.044642611694955141 -0.0036598943529388907 0 0.04472412225516393 -0.0035572874662667068 0 0.04464098575602745 -0.0035352411365342194 0 0.044642611694955141 -0.0036598943529388907 0 0.04464098575602745 -0.0035352411365342194 0 0.04452178182004559 -0.0037481524936441753 0 0.044313235621987579 -0.0037177183129715346 0 0.04452178182004559 -0.0037481524936441753 0 0.044642611694955141 -0.0036598943529388907 0 0.044676617525753727 -0.0038261220194329517 0 0.04452178182004559 -0.0037481524936441753 0 0.044676617525753727 -0.0038261220194329517 0 0.044460539978778364 -0.0039631818387313974 0 0.04452178182004559 -0.0037481524936441753 0 0.044313235621987579 -0.0037177183129715346 0 0.044460539978778364 -0.0039631818387313974 0 0.038695148610972528 -0.0081645871341962419 0 0.039528283189047796 -0.0073282983063093186 0 0.044235099132786081 -0.0036365694199303666 0 0.044328044938380586 -0.0039618404294920178 0 0.044078231934064356 -0.0037518928520835493 0 0.046229255092712522 -0.0043050465856225295 0 0.041566903177081699 -0.0057270430709827364 0 0.044235099132786081 -0.0036365694199303666 0 0.044328044938380586 -0.0039618404294920178 0 0.044460539978778364 -0.0039631818387313974 0 0.058150256872496427 -3.9386247149804662e-05 0 0.058308881023194606 -5.5703251372133841e-05 0 0.058309367183299425 -0.0001684376600403043 0 0.044328044938380586 -0.0039618404294920178 0 0.044460539978778364 -0.0039631818387313974 0 0.044553085882814779 -0.0041409137136648906 0 0.058150256872496427 -3.9386247149804662e-05 0 0.057732038878665376 0.00030512915808828108 0 0.05814950668589957 0.0003272786189496035 0 0.046229255092712522 -0.0043050465856225295 0 0.048323868387074288 -0.002219343105639906 0 0.058150256872496427 -3.9386247149804662e-05 0 0.058296840981149151 0.00017340220861981152 0 0.058308881023194606 -5.5703251372133841e-05 0 0.058150256872496427 -3.9386247149804662e-05 0 0.058296840981149151 0.00017340220861981152 0 0.05814950668589957 0.0003272786189496035 0 0.044817208177777533 -0.0031533676916363517 0 0.044892903616405806 -0.0033232121160508194 0 0.045026189315984871 -0.0030703290688594287 0 0.044676617525753727 -0.0038261220194329517 0 0.044460539978778364 -0.0039631818387313974 0 0.044553085882814779 -0.0041409137136648906 0 0.046577157855136296 -0.0036044396530241539 0 0.048323868387074288 -0.002219343105639906 0 0.048323868387074288 -0.002219343105639906 0 0.048718066759276792 0.00064693774021244862 0 0.048889297953239513 0.0005290645701711619 0 0.048305081535725512 -0.00071838934653227244 0 0.050194008308782699 -0.00064952706711924864 0 0.044817208177777533 -0.0031533676916363517 0 0.045026189315984871 -0.0030703290688594287 0 0.044833457005668743 -0.0028915718949789043 0 0.048323868387074288 -0.002219343105639906 0 0.052691127706640924 0.00093694773881532059 0 0.05832266269883167 0.00037921471520083942 0 0.05814950668589957 0.0003272786189496035 0 0.058304668164656868 0.00056094474204275706 0 0.058296840981149151 0.00017340220861981152 0 0.05832266269883167 0.00037921471520083942 0 0.058445863605339703 0.00032894826871447328 0 0.058296840981149151 0.00017340220861981152 0 0.05832266269883167 0.00037921471520083942 0 0.05814950668589957 0.0003272786189496035 0 0.057732038878665376 0.00030512915808828108 0 0.05814950668589957 0.0003272786189496035 0 0.05807532559821707 0.00053442281752757558 0 0.05807532559821707 0.00053442281752757558 0 0.05820696709936804 0.00067318500838768527 0 0.057964751564484301 0.00080721721389627129 0 0.057732038878665376 0.00030512915808828108 0 0.05807532559821707 0.00053442281752757558 0 0.057964751564484301 0.00080721721389627129 0 0.05820696709936804 0.00067318500838768527 0 0.058409392331899603 0.00067558959940272893 0 0.058271606730319413 0.0008234200880473286 0 0.05814950668589957 0.0003272786189496035 0 0.05807532559821707 0.00053442281752757558 0 0.058304668164656868 0.00056094474204275706 0 0.05807532559821707 0.00053442281752757558 0 0.05820696709936804 0.00067318500838768527 0 0.058304668164656868 0.00056094474204275706 0 0.05832266269883167 0.00037921471520083942 0 0.058304668164656868 0.00056094474204275706 0 0.058415498241126754 0.00051004795673752267 0 0.058304668164656868 0.00056094474204275706 0 0.058417598905554924 0.0006064920044408016 0 0.058415498241126754 0.00051004795673752267 0 0.058304668164656868 0.00056094474204275706 0 0.058417598905554924 0.0006064920044408016 0 0.058409392331899603 0.00067558959940272893 0 0.05820696709936804 0.00067318500838768527 0 0.058304668164656868 0.00056094474204275706 0 0.058409392331899603 0.00067558959940272893 0 0.058545032182907637 0.000677502988432007 0 0.058415498241126754 0.00051004795673752267 0 0.058445863605339703 0.00032894826871447328 0 0.058545032182907637 0.000677502988432007 0 0.058514222669672877 0.00074029659510938439 0 0.058512230762489931 0.00083560714239044019 0 0.058545032182907637 0.000677502988432007 0 0.058445863605339703 0.00032894826871447328 0 0.058586956089193058 0.00011431146584880738 0 0.049836821305635867 -0.0032882104019556681 0 0.048784231597597462 -0.0040241211289271219 0 0.058409392331899603 0.00067558959940272893 0 0.058545032182907637 0.000677502988432007 0 0.058591369862917568 0.00076161553563619468 0 0.058417598905554924 0.0006064920044408016 0 0.058409392331899603 0.00067558959940272893 0 0.058545032182907637 0.000677502988432007 0 0.058417598905554924 0.0006064920044408016 0 0.058545032182907637 0.000677502988432007 0 0.058415498241126754 0.00051004795673752267 0 0.05832266269883167 0.00037921471520083942 0 0.058415498241126754 0.00051004795673752267 0 0.058445863605339703 0.00032894826871447328 0 0.058514222669672877 0.00074029659510938439 0 0.058427029157261383 0.00078935782979209959 0 0.058512230762489931 0.00083560714239044019 0 0.058545032182907637 0.000677502988432007 0 0.058514222669672877 0.00074029659510938439 0 0.058562944037964637 0.00072192048536707078 0 0.058514222669672877 0.00074029659510938439 0 0.05849515561617015 0.00071494131614232778 0 0.058562944037964637 0.00072192048536707078 0 0.058427029157261383 0.00078935782979209959 0 0.058263517597311132 0.00085209184669675364 0 0.05838060064229985 0.00072132101265172019 0 0.058427029157261383 0.00078935782979209959 0 0.05838060064229985 0.00072132101265172019 0 0.05849515561617015 0.00071494131614232778 0 0.058514222669672877 0.00074029659510938439 0 0.058427029157261383 0.00078935782979209959 0 0.05849515561617015 0.00071494131614232778 0 0.058397199416163684 0.0008771638071274297 0 0.058263517597311132 0.00085209184669675364 0 0.058381202792027728 0.0009775451319786973 0 0.058427029157261383 0.00078935782979209959 0 0.058397199416163684 0.0008771638071274297 0 0.058263517597311132 0.00085209184669675364 0 0.058397199416163684 0.0008771638071274297 0 0.058512230762489931 0.00083560714239044019 0 0.058435312872514841 0.00094853659794337151 0 0.058427029157261383 0.00078935782979209959 0 0.058397199416163684 0.0008771638071274297 0 0.058512230762489931 0.00083560714239044019 0 0.048784231597597462 -0.0040241211289271219 0 0.045393317626786812 -0.0065033596530155325 0 0.058308881023194606 -5.5703251372133841e-05 0 0.058586956089193058 0.00011431146584880738 0 0.058736739828079892 -0.00039206173235690231 0 0.048553035977301047 -0.0068083926199864692 0 0.045393317626786812 -0.0065033596530155325 0 0.058296840981149151 0.00017340220861981152 0 0.058308881023194606 -5.5703251372133841e-05 0 0.05841493514789145 0.00013232751489113316 0 0.058308881023194606 -5.5703251372133841e-05 0 0.05841493514789145 0.00013232751489113316 0 0.058586956089193058 0.00011431146584880738 0 0.058296840981149151 0.00017340220861981152 0 0.058445863605339703 0.00032894826871447328 0 0.05841493514789145 0.00013232751489113316 0 0.058445863605339703 0.00032894826871447328 0 0.05841493514789145 0.00013232751489113316 0 0.058586956089193058 0.00011431146584880738 0 0.044676541424645 -0.0066802463303623841 0 0.044999566021679621 -0.0067228148131263351 0 0.045028302171668498 -0.0062315263115919894 0 0.058263517597311132 0.00085209184669675364 0 0.058243492135619475 0.00064281649234860399 0 0.058090115846374649 0.00069022627019300908 0 0.044999566021679621 -0.0067228148131263351 0 0.045028302171668498 -0.0062315263115919894 0 0.045195633874460218 -0.0064941696020919789 0 0.049056315291564796 -0.0020592306026313077 0 0.051003395602728901 0.00028694865239108118 0 0.058263517597311132 0.00085209184669675364 0 0.058243492135619475 0.00064281649234860399 0 0.05838060064229985 0.00072132101265172019 0 0.049056315291564796 -0.0020592306026313077 0 0.043102031668809035 -0.0064569156431715661 0 0.044999566021679621 -0.0067228148131263351 0 0.044887745768810883 -0.0070372486992838256 0 0.045099229645220437 -0.0070435650017270455 0 0.044676541424645 -0.0066802463303623841 0 0.044999566021679621 -0.0067228148131263351 0 0.044887745768810883 -0.0070372486992838256 0 0.044887745768810883 -0.0070372486992838256 0 0.045002360669614466 -0.0072833453850029818 0 0.045099229645220437 -0.0070435650017270455 0 0.044887745768810883 -0.0070372486992838256 0 0.044829324161907033 -0.0072117389566298418 0 0.044651001830331764 -0.0071292676485565278 0 0.044887745768810883 -0.0070372486992838256 0 0.044829324161907033 -0.0072117389566298418 0 0.045002360669614466 -0.0072833453850029818 0 0.044676541424645 -0.0066802463303623841 0 0.044651001830331764 -0.0071292676485565278 0 0.044334623538165724 -0.0071058539726646342 0 0.044676541424645 -0.0066802463303623841 0 0.044887745768810883 -0.0070372486992838256 0 0.044651001830331764 -0.0071292676485565278 0 0.044651001830331764 -0.0071292676485565278 0 0.044776048103052211 -0.0073959005392595029 0 0.044334623538165724 -0.0071058539726646342 0 0.022392218568009256 -0.013516580110390411 0 0.027274207118451833 -0.014584788991433381 0 0.023180355500323113 -0.011041754950086736 0 0.039161173944819903 -0.0076181823679153512 0 0.033042837106779951 -0.0065926623162374303 0 0.036056948284452085 -0.0076600310905373557 0 0.043102031668809035 -0.0064569156431715661 0 0.044829324161907033 -0.0072117389566298418 0 0.044651001830331764 -0.0071292676485565278 0 0.044776048103052211 -0.0073959005392595029 0 0.044776048103052211 -0.0073959005392595029 0 0.045002360669614466 -0.0072833453850029818 0 0.045219176692372819 -0.0076093420655188142 0 0.044829324161907033 -0.0072117389566298418 0 0.044776048103052211 -0.0073959005392595029 0 0.045002360669614466 -0.0072833453850029818 0 0.041566903177081699 -0.0057270430709827364 0 0.041391450166534879 -0.0079170071036822609 0 0.030074968419568554 -0.016782258628937785 0 0.027812013948305677 -0.014760442546075111 0 0.029319802325959637 -0.014611532272337566 0 0.058309367183299425 -0.0001684376600403043 0 0.058326929142966576 -0.00018213341878931856 0 0.058306633186764989 -0.00021028508144407606 0 0.031554515670845197 -0.015677590338448334 0 0.030074968419568554 -0.016782258628937785 0 0.029319802325959637 -0.014611532272337566 0 0.058308881023194606 -5.5703251372133841e-05 0 0.058309367183299425 -0.0001684376600403043 0 0.058326929142966576 -0.00018213341878931856 0 0.038695148610972528 -0.0081645871341962419 0 0.041566903177081699 -0.0057270430709827364 0 0.058397199416163684 0.0008771638071274297 0 0.058435312872514841 0.00094853659794337151 0 0.058381202792027728 0.0009775451319786973 0 0.045393317626786812 -0.0065033596530155325 0 0.043102031668809035 -0.0064569156431715661 0 0.058326929142966576 -0.00018213341878931856 0 0.05831119139048184 -0.00020589777481946507 0 0.058306633186764989 -0.00021028508144407606 0 0.027091356645423295 -0.016675170033783049 0 0.027779177866917127 -0.015826268048596749 0 0.027274207118451833 -0.014584788991433381 0 0.045393317626786812 -0.0065033596530155325 0 0.041864205127511413 -0.0074166877833676953 0 0.043833468234351421 -0.0060774703230778646 0 0.042809499964629072 -0.0053764778028597797 0 0.04330937387140809 -0.0047619547238065734 0 0.043102031668809035 -0.0064569156431715661 0 0.041864205127511413 -0.0074166877833676953 0 0.041864205127511413 -0.0074166877833676953 0 0.041391450166534879 -0.0079170071036822609 0 0.039161173944819903 -0.0076181823679153512 0 0.033280037969269295 -0.0075173751578273733 0 0.027806426047986398 -0.014765672850560563 0 0.027019109990987989 -0.014068209393141943 0 0.028268123873388583 -0.014196122459830818 0 0.027019109990987989 -0.014068209393141943 0 0.027831445959213583 -0.012729107908944343 0 0.028268123873388583 -0.014196122459830818 0 0.041391450166534879 -0.0079170071036822609 0 0.041126134401254344 -0.008174534383940512 0 0.022392218568009256 -0.013516580110390411 0 0.027091356645423295 -0.016675170033783049 0 0.027274207118451833 -0.014584788991433381 0 0.027019109990987989 -0.014068209393141943 0 0.027831445959213583 -0.012729107908944343 0 0.027063679053691312 -0.011266459727413811 0 0.040461569872463701 -0.0091021795389639309 0 0.040525018084374635 -0.0090236601315308983 0 0.04037423307739936 -0.0088891491808187253 0 0.041864205127511413 -0.0074166877833676953 0 0.039161173944819903 -0.0076181823679153512 0 0.041391450166534879 -0.0079170071036822609 0 0.039161173944819903 -0.0076181823679153512 0 0.038695148610972528 -0.0081645871341962419 0 0.032757674708396183 -0.0092883060550609069 0 0.029319802325959637 -0.014611532272337566 0 0.028268123873388583 -0.014196122459830818 0 0.02889438524560704 -0.011638923518971889 0 0.031554515670845197 -0.015677590338448334 0 0.029319802325959637 -0.014611532272337566 0 0.02889438524560704 -0.011638923518971889 0 0.03260613912992192 -0.014131785479498725 0 0.032726988620188094 -0.017971002876625123 0 0.02947960316258505 -0.012885031251181052 0 0.027831445959213583 -0.012729107908944343 0 0.028268123873388583 -0.014196122459830818 0 0.02889438524560704 -0.011638923518971889 0 0.027812013948305677 -0.014760442546075111 0 0.029319802325959637 -0.014611532272337566 0 0.028268123873388583 -0.014196122459830818 0 0.031546635158487352 -0.011214549934497661 0 0.02947960316258505 -0.012885031251181052 0 0.029869157793769068 -0.0090436489671367904 0 0.03260613912992192 -0.014131785479498725 0 0.031546635158487352 -0.011214549934497661 0 0.02947960316258505 -0.012885031251181052 0 0.027063679053691312 -0.011266459727413811 0 0.025428634998180873 -0.010302570603027137 0 0.026148702123286606 -0.0075579548305519445 0 0.027831445959213583 -0.012729107908944343 0 0.02889438524560704 -0.011638923518971889 0 0.027063679053691312 -0.011266459727413811 0 0.02889438524560704 -0.011638923518971889 0 0.027063679053691312 -0.011266459727413811 0 0.026148702123286606 -0.0075579548305519445 0 0.027019109990987989 -0.014068209393141943 0 0.027063679053691312 -0.011266459727413811 0 0.025428634998180873 -0.010302570603027137 0 0.032757674708396183 -0.0092883060550609069 0 0.028086594207140173 -0.0066644333391578641 0 0.026433813214437607 -0.0079230479966034602 0 0.029869157793769068 -0.0090436489671367904 0 0.028587019553330293 -0.0065837831146178562 0 0.02947960316258505 -0.012885031251181052 0 0.026433813214437607 -0.0079230479966034602 0 0.029869157793769068 -0.0090436489671367904 0 0.029869157793769068 -0.0090436489671367904 0 0.030898907157779171 -0.0064553678547574168 0 0.028587019553330293 -0.0065837831146178562 0 0.029869157793769068 -0.0090436489671367904 0 0.030898907157779171 -0.0064553678547574168 0 0.032984442755568645 -0.0086181990450093279 0 0.031546635158487352 -0.011214549934497661 0 0.029869157793769068 -0.0090436489671367904 0 0.032984442755568645 -0.0086181990450093279 0 0.023180355500323113 -0.011041754950086736 0 0.020944821327236574 -0.0082882427304909988 0 0.017886153785016637 -0.010411076573319489 0 0.036056948284452085 -0.0076600310905373557 0 0.032340153633406372 -0.0078277125449128532 0 0.022392218568009256 -0.013516580110390411 0 0.023180355500323113 -0.011041754950086736 0 0.017886153785016637 -0.010411076573319489 0 0.027052293743802164 -0.014460441814979958 0 0.025415739580392414 -0.010473811966784605 0 0.023180355500323113 -0.011041754950086736 0 0.025415739580392414 -0.010473811966784605 0 0.023180355500323113 -0.011041754950086736 0 0.023264272328681241 -0.0089680436465717668 0 0.033280037969269295 -0.0075173751578273733 0 0.031194926838833851 -0.0065411049574946737 0 0.025428634998180873 -0.010302570603027137 0 0.026148702123286606 -0.0075579548305519445 0 0.023737353172423651 -0.0064787737632240328 0 0.025415739580392414 -0.010473811966784605 0 0.023264272328681241 -0.0089680436465717668 0 0.023737353172423651 -0.0064787737632240328 0 0.023264272328681241 -0.0089680436465717668 0 0.020944821327236574 -0.0082882427304909988 0 0.023737353172423651 -0.0064787737632240328 0 0.023180355500323113 -0.011041754950086736 0 0.023264272328681241 -0.0089680436465717668 0 0.020944821327236574 -0.0082882427304909988 0 0.020944821327236574 -0.0082882427304909988 0 0.021386238054516917 -0.0051870903048411836 0 0.019133246933535335 -0.0062768217403029458 0 0.020944821327236574 -0.0082882427304909988 0 0.021386238054516917 -0.0051870903048411836 0 0.023737353172423651 -0.0064787737632240328 0 0.021386238054516917 -0.0051870903048411836 0 0.01941171169723439 -0.0026349473365834962 0 0.019133246933535335 -0.0062768217403029458 0 0.021386238054516917 -0.0051870903048411836 0 0.023259276627391252 -0.0033818718567711461 0 0.01941171169723439 -0.0026349473365834962 0 0.028086594207140173 -0.0066644333391578641 0 0.024606740910678129 -0.00327086882131777 0 0.021386238054516917 -0.0051870903048411836 0 0.023737353172423651 -0.0064787737632240328 0 0.023259276627391252 -0.0033818718567711461 0 0.026148702123286606 -0.0075579548305519445 0 0.023737353172423651 -0.0064787737632240328 0 0.023259276627391252 -0.0033818718567711461 0 0.023740302400782735 0.00010087965249065887 0 0.023521711768625671 -0.0034680545626223462 0 0.027027393340775717 -0.0016442080002100933 0 0.022898434097973007 -0.0012184723894297874 0 0.024606740910678129 -0.00327086882131777 0 0.020406018529228215 0.00070422087248524993 0 0.023259276627391252 -0.0033818718567711461 0 0.01941171169723439 -0.0026349473365834962 0 0.02891550003913864 -0.0040455797944335941 0 0.031758150038053302 -0.0039049433512989506 0 0.030898907157779171 -0.0064553678547574168 0 0.02891550003913864 -0.0040455797944335941 0 0.030898907157779171 -0.0064553678547574168 0 0.028587019553330293 -0.0065837831146178562 0 0.026433813214437607 -0.0079230479966034602 0 0.023521711768625671 -0.0034680545626223462 0 0.026888278362431177 -0.0047138030848888667 0 0.026433813214437607 -0.0079230479966034602 0 0.028587019553330293 -0.0065837831146178562 0 0.026888278362431177 -0.0047138030848888667 0 0.02891550003913864 -0.0040455797944335941 0 0.028587019553330293 -0.0065837831146178562 0 0.026888278362431177 -0.0047138030848888667 0 0.02891550003913864 -0.0040455797944335941 0 0.026888278362431177 -0.0047138030848888667 0 0.027027393340775717 -0.0016442080002100933 0 0.023521711768625671 -0.0034680545626223462 0 0.026888278362431177 -0.0047138030848888667 0 0.027027393340775717 -0.0016442080002100933 0 0.030134430805024797 0.0011658950021790756 0 0.027027393340775717 -0.0016442080002100933 0 0.030184053245498839 -0.0020127888853879918 0 0.030134430805024797 0.0011658950021790756 0 0.030184053245498839 -0.0020127888853879918 0 0.033125512293610743 -0.0017451074914368631 0 0.02891550003913864 -0.0040455797944335941 0 0.027027393340775717 -0.0016442080002100933 0 0.030184053245498839 -0.0020127888853879918 0 0.02891550003913864 -0.0040455797944335941 0 0.031758150038053302 -0.0039049433512989506 0 0.030184053245498839 -0.0020127888853879918 0 0.031758150038053302 -0.0039049433512989506 0 0.030184053245498839 -0.0020127888853879918 0 0.033125512293610743 -0.0017451074914368631 0 0.03417134389936885 0.00055671474948535402 0 0.033125512293610743 -0.0017451074914368631 0 0.035056865956615751 -0.0021893213657839835 0 0.033125512293610743 -0.0017451074914368631 0 0.035056865956615751 -0.0021893213657839835 0 0.034107382472342691 -0.0037808144106906143 0 0.031758150038053302 -0.0039049433512989506 0 0.033125512293610743 -0.0017451074914368631 0 0.034107382472342691 -0.0037808144106906143 0 0.031758150038053302 -0.0039049433512989506 0 0.034107382472342691 -0.0037808144106906143 0 0.033305448772547784 -0.00584315537573465 0 0.034107382472342691 -0.0037808144106906143 0 0.034916359090416751 -0.0051337363504691475 0 0.036381506089480417 -0.0041193151693822054 0 0.035056865956615751 -0.0021893213657839835 0 0.034107382472342691 -0.0037808144106906143 0 0.036381506089480417 -0.0041193151693822054 0 0.034107382472342691 -0.0037808144106906143 0 0.034916359090416751 -0.0051337363504691475 0 0.033305448772547784 -0.00584315537573465 0 0.034916359090416751 -0.0051337363504691475 0 0.033305448772547784 -0.00584315537573465 0 0.035761252384916398 -0.0066631117269061683 0 0.031758150038053302 -0.0039049433512989506 0 0.030898907157779171 -0.0064553678547574168 0 0.033305448772547784 -0.00584315537573465 0 0.037608275032007477 -0.0051628419470743057 0 0.039390615633459969 -0.0045090020723269099 0 0.038588048156410884 -0.0068447818885357973 0 0.037608275032007477 -0.0051628419470743057 0 0.035761252384916398 -0.0066631117269061683 0 0.038588048156410884 -0.0068447818885357973 0 0.034916359090416751 -0.0051337363504691475 0 0.036381506089480417 -0.0041193151693822054 0 0.035761252384916398 -0.0066631117269061683 0 0.037608275032007477 -0.0051628419470743057 0 0.036381506089480417 -0.0041193151693822054 0 0.035761252384916398 -0.0066631117269061683 0 0.036381506089480417 -0.0041193151693822054 0 0.038055193373356402 -0.0036572363417256858 0 0.0375487625586634 -0.0025412681630743949 0 0.037608275032007477 -0.0051628419470743057 0 0.036381506089480417 -0.0041193151693822054 0 0.038055193373356402 -0.0036572363417256858 0 0.038055193373356402 -0.0036572363417256858 0 0.039150620618902218 -0.0029042976703590206 0 0.039390615633459969 -0.0045090020723269099 0 0.037608275032007477 -0.0051628419470743057 0 0.038055193373356402 -0.0036572363417256858 0 0.039390615633459969 -0.0045090020723269099 0 0.038055193373356402 -0.0036572363417256858 0 0.0375487625586634 -0.0025412681630743949 0 0.039150620618902218 -0.0029042976703590206 0 0.0375487625586634 -0.0025412681630743949 0 0.040041851527552921 -0.001764067923961075 0 0.039150620618902218 -0.0029042976703590206 0 0.0375487625586634 -0.0025412681630743949 0 0.036443274217237497 -0.00093794518939095174 0 0.040041851527552921 -0.001764067923961075 0 0.036307645016390389 0.0023718484449897839 0 0.036443274217237497 -0.00093794518939095174 0 0.040041851527552921 -0.001764067923961075 0 0.035056865956615751 -0.0021893213657839835 0 0.0375487625586634 -0.0025412681630743949 0 0.036443274217237497 -0.00093794518939095174 0 0.035056865956615751 -0.0021893213657839835 0 0.036381506089480417 -0.0041193151693822054 0 0.0375487625586634 -0.0025412681630743949 0 0.03417134389936885 0.00055671474948535402 0 0.035056865956615751 -0.0021893213657839835 0 0.036443274217237497 -0.00093794518939095174 0 0.040306393135846212 -0.00088153824527300488 0 0.040913499516195342 -0.0012575655514905778 0 0.040041851527552921 -0.001764067923961075 0 0.040913499516195342 -0.0012575655514905778 0 0.040911461713930723 -0.0017744841731152209 0 0.040041851527552921 -0.001764067923961075 0 0.040913499516195342 -0.0012575655514905778 0 0.041217988963412347 -0.0015464637103272281 0 0.040911461713930723 -0.0017744841731152209 0 0.041217988963412347 -0.0015464637103272281 0 0.040911461713930723 -0.0017744841731152209 0 0.041383296141602945 -0.0018714731917875709 0 0.040911461713930723 -0.0017744841731152209 0 0.040041851527552921 -0.001764067923961075 0 0.040732093492105506 -0.0023745743115313133 0 0.040041851527552921 -0.001764067923961075 0 0.039150620618902218 -0.0029042976703590206 0 0.040732093492105506 -0.0023745743115313133 0 0.041699479330533612 -0.001035606501622411 0 0.041429065625125196 -0.0012752663221477247 0 0.041902692504059265 -0.0013005971246724014 0 0.041717182007580754 -0.00083630664290851959 0 0.042041112763175278 -0.00096405818981334847 0 0.041699479330533612 -0.001035606501622411 0 0.040785340605493346 -0.00077637755315300037 0 0.040913499516195342 -0.0012575655514905778 0 0.041284778112272318 -0.0010198031123938424 0 0.041699479330533612 -0.001035606501622411 0 0.041284778112272318 -0.0010198031123938424 0 0.041429065625125196 -0.0012752663221477247 0 0.040913499516195342 -0.0012575655514905778 0 0.041284778112272318 -0.0010198031123938424 0 0.041429065625125196 -0.0012752663221477247 0 0.04160039148727921 -0.0015196997567542923 0 0.041902692504059265 -0.0013005971246724014 0 0.042041366818855938 -0.0014829813063395401 0 0.041217988963412347 -0.0015464637103272281 0 0.041429065625125196 -0.0012752663221477247 0 0.04160039148727921 -0.0015196997567542923 0 0.040913499516195342 -0.0012575655514905778 0 0.041217988963412347 -0.0015464637103272281 0 0.041429065625125196 -0.0012752663221477247 0 0.041217988963412347 -0.0015464637103272281 0 0.04160039148727921 -0.0015196997567542923 0 0.041383296141602945 -0.0018714731917875709 0 0.041429065625125196 -0.0012752663221477247 0 0.04160039148727921 -0.0015196997567542923 0 0.041902692504059265 -0.0013005971246724014 0 0.042117487806953152 -0.0011154949634965415 0 0.042524076971829597 -0.0011619886027974785 0 0.041902692504059265 -0.0013005971246724014 0 0.042117487806953152 -0.0011154949634965415 0 0.041699479330533612 -0.001035606501622411 0 0.041902692504059265 -0.0013005971246724014 0 0.042041366818855938 -0.0014829813063395401 0 0.042895537188518247 -0.001185263160964758 0 0.041940048614290633 -0.0014850192199442563 0 0.042524076971829597 -0.0011619886027974785 0 0.041902692504059265 -0.0013005971246724014 0 0.042041366818855938 -0.0014829813063395401 0 0.042524076971829597 -0.0011619886027974785 0 0.042041366818855938 -0.0014829813063395401 0 0.042895537188518247 -0.001185263160964758 0 0.04160039148727921 -0.0015196997567542923 0 0.042041366818855938 -0.0014829813063395401 0 0.041383296141602945 -0.0018714731917875709 0 0.042041366818855938 -0.0014829813063395401 0 0.041383296141602945 -0.0018714731917875709 0 0.041940048614290633 -0.0014850192199442563 0 0.042305477885063163 -0.0030519711063293074 0 0.042615540766857349 -0.0035857338321982819 0 0.040732093492105506 -0.0023745743115313133 0 0.041383296141602945 -0.0018714731917875709 0 0.041940048614290633 -0.0014850192199442563 0 0.040732093492105506 -0.0023745743115313133 0 0.039390615633459969 -0.0045090020723269099 0 0.041727486532596683 -0.0070079648991781488 0 0.039150620618902218 -0.0029042976703590206 0 0.040732093492105506 -0.0023745743115313133 0 0.039390615633459969 -0.0045090020723269099 0 0.040911461713930723 -0.0017744841731152209 0 0.040732093492105506 -0.0023745743115313133 0 0.041383296141602945 -0.0018714731917875709 0 0.039390615633459969 -0.0045090020723269099 0 0.041727486532596683 -0.0070079648991781488 0 0.038588048156410884 -0.0068447818885357973 0 0.042615540766857349 -0.0035857338321982819 0 0.043146153187063399 -0.0039651094907613062 0 0.041727486532596683 -0.0070079648991781488 0 0.039402077494642702 -0.0097547000220297581 0 0.038588048156410884 -0.0068447818885357973 0 0.041727486532596683 -0.0070079648991781488 0 0.039402077494642702 -0.0097547000220297581 0 0.042721372700790711 -0.010764026152546582 0 0.043707958226586033 -0.0010372367633194736 0 0.041940048614290633 -0.0014850192199442563 0 0.042447826999544726 -0.0023531782400451839 0 0.043707958226586033 -0.0010372367633194736 0 0.042895537188518247 -0.001185263160964758 0 0.041940048614290633 -0.0014850192199442563 0 0.043756534944585167 -0.0032243859591202483 0 0.043146153187063399 -0.0039651094907613062 0 0.044670954401478009 0.00065998090196712871 0 0.043707958226586033 -0.0010372367633194736 0 0.046072470611426899 0.00016599622248431102 0 0.044670954401478009 0.00065998090196712871 0 0.046038179243174979 0.0023067133993235566 0 0.046072470611426899 0.00016599622248431102 0 0.037629697579356684 -0.014402706905468321 0 0.039402077494642702 -0.0097547000220297581 0 0.042721372700790711 -0.010764026152546582 0 0.040446529773287429 -0.0072038815910226766 0 0.043146153187063399 -0.0039651094907613062 0 0.037629697579356684 -0.014402706905468321 0 0.033868091117408676 -0.011668940607170289 0 0.03639063974680741 -0.0095929721032871392 0 0.037629697579356684 -0.014402706905468321 0 0.039402077494642702 -0.0097547000220297581 0 0.03639063974680741 -0.0095929721032871392 0 0.03260613912992192 -0.014131785479498725 0 0.037629697579356684 -0.014402706905468321 0 0.033868091117408676 -0.011668940607170289 0 0.03260613912992192 -0.014131785479498725 0 0.031546635158487352 -0.011214549934497661 0 0.033868091117408676 -0.011668940607170289 0 0.031546635158487352 -0.011214549934497661 0 0.033868091117408676 -0.011668940607170289 0 0.032984442755568645 -0.0086181990450093279 0 0.033868091117408676 -0.011668940607170289 0 0.032984442755568645 -0.0086181990450093279 0 0.03639063974680741 -0.0095929721032871392 0 0.030898907157779171 -0.0064553678547574168 0 0.033305448772547784 -0.00584315537573465 0 0.032984442755568645 -0.0086181990450093279 0 0.033305448772547784 -0.00584315537573465 0 0.032984442755568645 -0.0086181990450093279 0 0.035761252384916398 -0.0066631117269061683 0 0.032984442755568645 -0.0086181990450093279 0 0.035761252384916398 -0.0066631117269061683 0 0.03639063974680741 -0.0095929721032871392 0 0.035761252384916398 -0.0066631117269061683 0 0.038588048156410884 -0.0068447818885357973 0 0.03639063974680741 -0.0095929721032871392 0 0.039402077494642702 -0.0097547000220297581 0 0.038588048156410884 -0.0068447818885357973 0 0.03639063974680741 -0.0095929721032871392 0 0.015241375723725322 0.00032746292086216765 0 0.015978805897237366 0.00066512484924354941 0 0.017689552563307828 0.00095251726452803896 0 0.015241375723725322 0.00032746292086216765 0 0.017689552563307828 0.00095251726452803896 0 0.017313224593516099 7.5146032787811544e-05 0 0.015241375723725322 0.00032746292086216765 0 0.014016194573222018 3.8132185472749963e-06 0 0.010183772078161832 -6.613311470516869e-06 0 0.015241375723725322 0.00032746292086216765 0 0.014016194573222018 3.8132185472749963e-06 0 0.015978805897237366 0.00066512484924354941 0 0.014016194573222018 3.8132185472749963e-06 0 0.015962811463470752 0.0004741057576005892 0 0.015978805897237366 0.00066512484924354941 0 0.015962811463470752 0.0004741057576005892 0 0.015978805897237366 0.00066512484924354941 0 0.017318526884199815 0.0014134368794499503 0 0.014016194573222018 3.8132185472749963e-06 0 0.015962811463470752 0.0004741057576005892 0 0.017860084088144931 4.1113311619692524e-07 0 0.015978805897237366 0.00066512484924354941 0 0.017689552563307828 0.00095251726452803896 0 0.017318526884199815 0.0014134368794499503 0 0.017689552563307828 0.00095251726452803896 0 0.018715489826563701 0.0017762253402255799 0 0.017318526884199815 0.0014134368794499503 0 0.017689552563307828 0.00095251726452803896 0 0.019938528387782248 0.0016773658345566064 0 0.019403985910963678 0.00027295901082222731 0 0.017689552563307828 0.00095251726452803896 0 0.019938528387782248 0.0016773658345566064 0 0.018715489826563701 0.0017762253402255799 0 0.019938528387782248 0.0016773658345566064 0 0.019403985910963678 0.00027295901082222731 0 0.02189851323071057 0.0018921698166009164 0 0.019403985910963678 0.00027295901082222731 0 0.017313224593516099 7.5146032787811544e-05 0 0.018062496041877995 -0.00083678498246318603 0 0.017689552563307828 0.00095251726452803896 0 0.019403985910963678 0.00027295901082222731 0 0.017313224593516099 7.5146032787811544e-05 0 0.018062496041877995 -0.00083678498246318603 0 0.016618616376121383 -0.0022774712621544731 0 0.015616617659501892 -0.00073400017130083219 0 0.017313224593516099 7.5146032787811544e-05 0 0.018062496041877995 -0.00083678498246318603 0 0.015616617659501892 -0.00073400017130083219 0 0.018062496041877995 -0.00083678498246318603 0 0.019945830077185613 -0.00083038886542095066 0 0.018667781688918243 -0.0020369560271391186 0 0.019403985910963678 0.00027295901082222731 0 0.018062496041877995 -0.00083678498246318603 0 0.019945830077185613 -0.00083038886542095066 0 0.019403985910963678 0.00027295901082222731 0 0.019945830077185613 -0.00083038886542095066 0 0.021154600263789094 8.1789976902965503e-05 0 0.018667781688918243 -0.0020369560271391186 0 0.019291759038427954 -0.0032213397677196632 0 0.020265073513575715 -0.0019736987722983631 0 0.019945830077185613 -0.00083038886542095066 0 0.018667781688918243 -0.0020369560271391186 0 0.020265073513575715 -0.0019736987722983631 0 0.018667781688918243 -0.0020369560271391186 0 0.016618616376121383 -0.0022774712621544731 0 0.017669581416230203 -0.0034158656324067534 0 0.018062496041877995 -0.00083678498246318603 0 0.018667781688918243 -0.0020369560271391186 0 0.016618616376121383 -0.0022774712621544731 0 0.016618616376121383 -0.0022774712621544731 0 0.015616617659501892 -0.00073400017130083219 0 0.014504806633733693 -0.00358406860828474 0 0.016618616376121383 -0.0022774712621544731 0 0.014504806633733693 -0.00358406860828474 0 0.017669581416230203 -0.0034158656324067534 0 0.015241375723725322 0.00032746292086216765 0 0.017313224593516099 7.5146032787811544e-05 0 0.015616617659501892 -0.00073400017130083219 0 0.015241375723725322 0.00032746292086216765 0 0.015616617659501892 -0.00073400017130083219 0 0.010183772078161832 -6.613311470516869e-06 0 0.010170503102541546 -2.7960528608803111e-06 0 0.0063910753973626128 9.8327981112903393e-07 0 0.0056123714607512797 -0.00046764472501738529 0 0.015616617659501892 -0.00073400017130083219 0 0.010183772078161832 -6.613311470516869e-06 0 0.014504806633733693 -0.00358406860828474 0 0.0101739711403651 -4.2866419063606905e-07 0 0.010230049251505301 -0.00052034313479545501 0 0.0063910753973626128 9.8327981112903393e-07 0 0.0056123714607512797 -0.00046764472501738529 0 0.0040198688103755559 0.00034870798640825235 0 0.014504806633733693 -0.00358406860828474 0 0.016897758665759658 -0.0048634155912102 0 0.017669581416230203 -0.0034158656324067534 0 0.010230049251505301 -0.00052034313479545501 0 0.010684619326824482 -0.00076383866573563727 0 0.0056123714607512797 -0.00046764472501738529 0 0.0040198688103755559 0.00034870798640825235 0 0.0032807601730218757 0.00011141784975583694 0 0.0040198688103755559 0.00034870798640825235 0 0.0031011310130282504 0.0004596857812175963 0 0.0032807601730218757 0.00011141784975583694 0 0.0063910753973626128 9.8327981112903393e-07 0 0.0040198688103755559 0.00034870798640825235 0 0.0026081559203027915 6.1637186537801624e-07 0 0.0040198688103755559 0.00034870798640825235 0 0.0026081559203027915 6.1637186537801624e-07 0 0.0024464875680301752 0.00034954391766060436 0 0.0040198688103755559 0.00034870798640825235 0 0.0031011310130282504 0.0004596857812175963 0 0.0024464875680301752 0.00034954391766060436 0 0.0031011310130282504 0.0004596857812175963 0 0.0024464875680301752 0.00034954391766060436 0 0.0028999271323087365 0.00029673249648650476 0 0.0024464875680301752 0.00034954391766060436 0 0.00045810397042288958 0.00031978292885039803 0 0.0028999271323087365 0.00029673249648650476 0 0.0048211764270122493 -0.00075174115714334358 0 0.0062640260594075568 -0.00041940475524791088 0 0.0016920919799540172 0.0005069527511845632 0 0.00045810397042288958 0.00031978292885039803 0 0.0030076124896942086 0.0023915921840516777 0 -0.00054363894308274822 0.00012550326523749341 0 0.0016920919799540172 0.0005069527511845632 0 0.00045810397042288958 0.00031978292885039803 0 0.0026081559203027915 6.1637186537801624e-07 0 0.0024464875680301752 0.00034954391766060436 0 0.00045810397042288958 0.00031978292885039803 0 -0.0011744833480338873 9.2668473841426504e-07 0 -0.00054363894308274822 0.00012550326523749341 0 0.0026081559203027915 6.1637186537801624e-07 0 -0.00054363894308274822 0.00012550326523749341 0 0.0026081559203027915 6.1637186537801624e-07 0 0.00045810397042288958 0.00031978292885039803 0 0.0079374013737561148 -0.00066687880808482256 0 0.0038390500370158983 -0.00061717870727747922 0 0.0055276986081283135 0.0015088906319684263 0 0.0079374013737561148 -0.00066687880808482256 0 0.0055276986081283135 0.0015088906319684263 0 0.0075397705146655024 0.0027021004281808491 0 0.0038390500370158983 -0.00061717870727747922 0 0.0055276986081283135 0.0015088906319684263 0 0.0030076124896942086 0.0023915921840516777 0 0.0038390500370158983 -0.00061717870727747922 0 0.0016920919799540172 0.0005069527511845632 0 0.0030076124896942086 0.0023915921840516777 0 0.0055276986081283135 0.0015088906319684263 0 0.0030076124896942086 0.0023915921840516777 0 0.0058311133474304401 0.0044348635365814579 0 0.0031011310130282504 0.0004596857812175963 0 0.0028999271323087365 0.00029673249648650476 0 0.0029797567290857263 0.00043601682019538124 0 0.0062640260594075568 -0.00041940475524791088 0 0.010658134237665141 0.00050617785783934493 0 0.0055276986081283135 0.0015088906319684263 0 0.0058311133474304401 0.0044348635365814579 0 0.0075397705146655024 0.0027021004281808491 0 0.0059611704652129038 0.0042786931360469151 0 0.0075397705146655024 0.0027021004281808491 0 0.008000995271519571 0.0058073990903226968 0 0.010658134237665141 0.00050617785783934493 0 0.0097276742757574051 0.0013557101851745452 0 0.018730575522656903 -0.0064171742506233045 0 0.018797450273351193 -0.0045326103500796079 0 0.020155814786085191 -0.0053104294912943266 0 0.010658134237665141 0.00050617785783934493 0 0.01304805846834995 0.00042137175031119802 0 0.018797450273351193 -0.0045326103500796079 0 0.020153234605235108 -0.003917552786719969 0 0.020155814786085191 -0.0053104294912943266 0 0.0031011310130282504 0.0004596857812175963 0 0.0029797567290857263 0.00043601682019538124 0 0.0032807601730218757 0.00011141784975583694 0 0.018730575522656903 -0.0064171742506233045 0 0.018797450273351193 -0.0045326103500796079 0 0.016897758665759658 -0.0048634155912102 0 0.010658134237665141 0.00050617785783934493 0 0.010684619326824482 -0.00076383866573563727 0 0.018797450273351193 -0.0045326103500796079 0 0.016897758665759658 -0.0048634155912102 0 0.017669581416230203 -0.0034158656324067534 0 0.018797450273351193 -0.0045326103500796079 0 0.019291759038427954 -0.0032213397677196632 0 0.020153234605235108 -0.003917552786719969 0 0.018797450273351193 -0.0045326103500796079 0 0.017669581416230203 -0.0034158656324067534 0 0.019291759038427954 -0.0032213397677196632 0 0.018667781688918243 -0.0020369560271391186 0 0.017669581416230203 -0.0034158656324067534 0 0.019291759038427954 -0.0032213397677196632 0 0.019291759038427954 -0.0032213397677196632 0 0.020320956125686546 -0.0028930101928725457 0 0.020265073513575715 -0.0019736987722983631 0 0.019291759038427954 -0.0032213397677196632 0 0.020320956125686546 -0.0028930101928725457 0 0.020153234605235108 -0.003917552786719969 0 0.020320956125686546 -0.0028930101928725457 0 0.021138799630345539 -0.0030690980771769277 0 0.021442655398570737 -0.0020563368591941982 0 0.021138799630345539 -0.0030690980771769277 0 0.021721951808980747 -0.0039811885698838043 0 0.020153234605235108 -0.003917552786719969 0 0.01514736688499543 -0.00037192824682709305 0 0.014762839052787552 3.9784546188997144e-05 0 0.020320956125686546 -0.0028930101928725457 0 0.021138799630345539 -0.0030690980771769277 0 0.020153234605235108 -0.003917552786719969 0 0.022802438006737275 -0.001931851967444225 0 0.022394016586588392 -0.002194623093118288 0 0.022644076331409694 -0.0018081670309733156 0 0.022394016586588392 -0.002194623093118288 0 0.022627344386689896 -0.0017435287289462101 0 0.022371649340219586 -0.0014254248822702625 0 0.021138799630345539 -0.0030690980771769277 0 0.022394016586588392 -0.002194623093118288 0 0.021442655398570737 -0.0020563368591941982 0 0.014762839052787552 3.9784546188997144e-05 0 0.015751148058493765 0.00029509222244257304 0 0.021138799630345539 -0.0030690980771769277 0 0.021518591146710238 -0.0034402307174361286 0 0.022394016586588392 -0.002194623093118288 0 0.022394016586588392 -0.002194623093118288 0 0.022644076331409694 -0.0018081670309733156 0 0.022627344386689896 -0.0017435287289462101 0 0.022802438006737275 -0.001931851967444225 0 0.022913242898749617 -0.0015064697290465047 0 0.022644076331409694 -0.0018081670309733156 0 0.010056569503921461 0.0073415244457727177 0 0.0098621677101557934 0.0054497965185968406 0 0.011968514876560445 0.0046263745224852017 0 0.014762839052787552 3.9784546188997144e-05 0 0.015815214618553078 0.00050103207707585817 0 0.021721951808980747 -0.0039811885698838043 0 0.020153234605235108 -0.003917552786719969 0 0.020155814786085191 -0.0053104294912943266 0 0.014762839052787552 3.9784546188997144e-05 0 0.01304805846834995 0.00042137175031119802 0 0.010056569503921461 0.0073415244457727177 0 0.0098621677101557934 0.0054497965185968406 0 0.008000995271519571 0.0058073990903226968 0 0.0098621677101557934 0.0054497965185968406 0 0.008000995271519571 0.0058073990903226968 0 0.0094292577759886101 0.0040230939256000586 0 0.0075397705146655024 0.0027021004281808491 0 0.0094292577759886101 0.0040230939256000586 0 0.010495665164958016 0.0019761550771003034 0 0.0075397705146655024 0.0027021004281808491 0 0.008000995271519571 0.0058073990903226968 0 0.0094292577759886101 0.0040230939256000586 0 0.011968514876560445 0.0046263745224852017 0 0.010495665164958016 0.0019761550771003034 0 0.013889371348632667 0.0018899478192637312 0 0.0094292577759886101 0.0040230939256000586 0 0.011968514876560445 0.0046263745224852017 0 0.010495665164958016 0.0019761550771003034 0 0.0098621677101557934 0.0054497965185968406 0 0.0094292577759886101 0.0040230939256000586 0 0.011968514876560445 0.0046263745224852017 0 0.011885262506950703 -0.00073892025677050656 0 0.010495665164958016 0.0019761550771003034 0 0.013889371348632667 0.0018899478192637312 0 0.0079374013737561148 -0.00066687880808482256 0 0.0075397705146655024 0.0027021004281808491 0 0.010495665164958016 0.0019761550771003034 0 0.0079374013737561148 -0.00066687880808482256 0 0.011885262506950703 -0.00073892025677050656 0 0.010495665164958016 0.0019761550771003034 0 0.022819516646364255 0.00071258874573887484 0 0.023174887229644968 -0.00081684860867249696 0 0.021789887356309448 -0.00039834745131116077 0 0.023174887229644968 -0.00081684860867249696 0 0.022449047495530051 -0.0013219052396657657 0 0.021789887356309448 -0.00039834745131116077 0 0.015288295412976804 0.0012738797006009289 0 0.016335205746232768 0.00039988750718117653 0 0.015799809356529561 -0.00083828592636417799 0 0.011885262506950703 -0.00073892025677050656 0 0.013889371348632667 0.0018899478192637312 0 0.015815214618553078 0.00050103207707585817 0 0.016335205746232768 0.00039988750718117653 0 0.022913242898749617 -0.0015064697290465047 0 0.023174887229644968 -0.00081684860867249696 0 0.022800779154167953 -0.0014522742986205197 0 0.023174887229644968 -0.00081684860867249696 0 0.022800779154167953 -0.0014522742986205197 0 0.022449047495530051 -0.0013219052396657657 0 0.022449047495530051 -0.0013219052396657657 0 0.022724854602985203 -0.0017203434531695063 0 0.022868007321929333 -0.0015974334698760054 0 0.022800779154167953 -0.0014522742986205197 0 0.022449047495530051 -0.0013219052396657657 0 0.022724854602985203 -0.0017203434531695063 0 0.022913242898749617 -0.0015064697290465047 0 0.022800779154167953 -0.0014522742986205197 0 0.022644076331409694 -0.0018081670309733156 0 0.022800779154167953 -0.0014522742986205197 0 0.022724854602985203 -0.0017203434531695063 0 0.022644076331409694 -0.0018081670309733156 0 0.022724854602985203 -0.0017203434531695063 0 0.022627344386689896 -0.0017435287289462101 0 0.022904380162256301 -0.0013239932593254252 0 0.022724854602985203 -0.0017203434531695063 0 0.022644076331409694 -0.0018081670309733156 0 0.022627344386689896 -0.0017435287289462101 0 0.022724854602985203 -0.0017203434531695063 0 0.022904380162256301 -0.0013239932593254252 0 0.022868007321929333 -0.0015974334698760054 0 0.022904380162256301 -0.0013239932593254252 0 0.023675892002670961 -0.00097242224753985853 0 0.022868007321929333 -0.0015974334698760054 0 0.022904380162256301 -0.0013239932593254252 0 0.023731000818277767 -6.2506555151698985e-05 0 0.023675892002670961 -0.00097242224753985853 0 0.023268790084402181 0.0002487977332481338 0 0.023728029937081844 0.00078431388655946606 0 0.023731000818277767 -6.2506555151698985e-05 0 0.022904380162256301 -0.0013239932593254252 0 0.022637753592277168 -0.00019359893632232088 0 0.023731000818277767 -6.2506555151698985e-05 0 0.022671998559589401 -5.2975362400104616e-06 0 0.023233492645356891 -8.2175010580491295e-05 0 0.022904380162256301 -0.0013239932593254252 0 0.022637753592277168 -0.00019359893632232088 0 0.022371649340219586 -0.0014254248822702625 0 0.022627344386689896 -0.0017435287289462101 0 0.022904380162256301 -0.0013239932593254252 0 0.022371649340219586 -0.0014254248822702625 0 0.022394016586588392 -0.002194623093118288 0 0.022371649340219586 -0.0014254248822702625 0 0.021442655398570737 -0.0020563368591941982 0 0.022371649340219586 -0.0014254248822702625 0 0.021450992852626711 -0.0010804246102402997 0 0.021442655398570737 -0.0020563368591941982 0 0.019945830077185613 -0.00083038886542095066 0 0.021450992852626711 -0.0010804246102402997 0 0.020265073513575715 -0.0019736987722983631 0 0.020320956125686546 -0.0028930101928725457 0 0.020265073513575715 -0.0019736987722983631 0 0.021442655398570737 -0.0020563368591941982 0 0.021450992852626711 -0.0010804246102402997 0 0.020265073513575715 -0.0019736987722983631 0 0.021442655398570737 -0.0020563368591941982 0 0.019945830077185613 -0.00083038886542095066 0 0.021450992852626711 -0.0010804246102402997 0 0.021154600263789094 8.1789976902965503e-05 0 0.022637753592277168 -0.00019359893632232088 0 0.022371649340219586 -0.0014254248822702625 0 0.021450992852626711 -0.0010804246102402997 0 0.022671998559589401 -5.2975362400104616e-06 0 0.021492592620739808 0.00014917300169702455 0 0.022637753592277168 -0.00019359893632232088 0 0.021450992852626711 -0.0010804246102402997 0 0.021154600263789094 8.1789976902965503e-05 0 0.023268790084402181 0.0002487977332481338 0 0.022010737663140809 0.00012292887941924179 0 0.023291802675275454 0.0014568860618549677 0 0.019403985910963678 0.00027295901082222731 0 0.022010737663140809 0.00012292887941924179 0 0.02189851323071057 0.0018921698166009164 0 0.02064419332683538 0.00026479418858501235 0 0.021492592620739808 0.00014917300169702455 0 0.022010737663140809 0.00012292887941924179 0 0.02189851323071057 0.0018921698166009164 0 0.023291802675275454 0.0014568860618549677 0 0.023291802675275454 0.0014568860618549677 0 0.024038653380072252 0.0017067355677193149 0 0.024013012053489536 0.002641436265006996 0 0.024038653380072252 0.0017067355677193149 0 0.023728029937081844 0.00078431388655946606 0 0.024498089746199048 0.0011833473320796368 0 0.023291802675275454 0.0014568860618549677 0 0.024038653380072252 0.0017067355677193149 0 0.023728029937081844 0.00078431388655946606 0 0.023728029937081844 0.00078431388655946606 0 0.024498089746199048 0.0011833473320796368 0 0.023731000818277767 -6.2506555151698985e-05 0 0.023268790084402181 0.0002487977332481338 0 0.023291802675275454 0.0014568860618549677 0 0.023728029937081844 0.00078431388655946606 0 0.024498089746199048 0.0011833473320796368 0 0.025789003877462382 0.0019068696070961412 0 0.024997507938625853 0.00032913965463191784 0 0.024498089746199048 0.0011833473320796368 0 0.024997507938625853 0.00032913965463191784 0 0.023731000818277767 -6.2506555151698985e-05 0 0.024038653380072252 0.0017067355677193149 0 0.024498089746199048 0.0011833473320796368 0 0.02488102535230035 0.0024394373800826754 0 0.024498089746199048 0.0011833473320796368 0 0.025789003877462382 0.0019068696070961412 0 0.02488102535230035 0.0024394373800826754 0 0.025789003877462382 0.0019068696070961412 0 0.027606991887205209 0.0014374109910735297 0 0.026943273045523228 0.0031575387968264292 0 0.025789003877462382 0.0019068696070961412 0 0.026222721854712673 0.00089856840578328358 0 0.027606991887205209 0.0014374109910735297 0 0.026222721854712673 0.00089856840578328358 0 0.02648448933632969 -0.00022763404904612694 0 0.027606991887205209 0.0014374109910735297 0 0.025789003877462382 0.0019068696070961412 0 0.026222721854712673 0.00089856840578328358 0 0.024997507938625853 0.00032913965463191784 0 0.02648448933632969 -0.00022763404904612694 0 0.024957392748188079 -0.00060257622921601039 0 0.024997507938625853 0.00032913965463191784 0 0.026222721854712673 0.00089856840578328358 0 0.02648448933632969 -0.00022763404904612694 0 0.024997507938625853 0.00032913965463191784 0 0.02648448933632969 -0.00022763404904612694 0 0.025909590928025847 -0.001000749042232757 0 0.027916863484501911 -0.00084849430364407937 0 0.02648448933632969 -0.00022763404904612694 0 0.025909590928025847 -0.001000749042232757 0 0.024957392748188079 -0.00060257622921601039 0 0.025909590928025847 -0.001000749042232757 0 0.024957392748188079 -0.00060257622921601039 0 0.024102132971931509 -0.0012632822538782792 0 0.024957392748188079 -0.00060257622921601039 0 0.023675892002670961 -0.00097242224753985853 0 0.024102132971931509 -0.0012632822538782792 0 0.024957392748188079 -0.00060257622921601039 0 0.024997507938625853 0.00032913965463191784 0 0.023675892002670961 -0.00097242224753985853 0 0.024997507938625853 0.00032913965463191784 0 0.023731000818277767 -6.2506555151698985e-05 0 0.023675892002670961 -0.00097242224753985853 0 0.023675892002670961 -0.00097242224753985853 0 0.023099982354210721 -0.0015577358682453541 0 0.022868007321929333 -0.0015974334698760054 0 0.023675892002670961 -0.00097242224753985853 0 0.023099982354210721 -0.0015577358682453541 0 0.024102132971931509 -0.0012632822538782792 0 0.023099982354210721 -0.0015577358682453541 0 0.02198959013302482 -0.0012574463144053982 0 0.023083900174530745 -0.0018231353697578687 0 0.023099982354210721 -0.0015577358682453541 0 0.023083900174530745 -0.0018231353697578687 0 0.024102132971931509 -0.0012632822538782792 0 0.023099982354210721 -0.0015577358682453541 0 0.022868007321929333 -0.0015974334698760054 0 0.02198959013302482 -0.0012574463144053982 0 0.022449047495530051 -0.0013219052396657657 0 0.02198959013302482 -0.0012574463144053982 0 0.021789887356309448 -0.00039834745131116077 0 0.022449047495530051 -0.0013219052396657657 0 0.022868007321929333 -0.0015974334698760054 0 0.02198959013302482 -0.0012574463144053982 0 0.02198959013302482 -0.0012574463144053982 0 0.021988262443805733 -0.0014139745032440251 0 0.023083900174530745 -0.0018231353697578687 0 0.02198959013302482 -0.0012574463144053982 0 0.02131415545263942 -0.00046065130766748059 0 0.021988262443805733 -0.0014139745032440251 0 0.02198959013302482 -0.0012574463144053982 0 0.02131415545263942 -0.00046065130766748059 0 0.020817821071380627 -2.7953303046527517e-05 0 0.020403277938908868 0.00068985341959878262 0 0.02131415545263942 -0.00046065130766748059 0 0.020817821071380627 -2.7953303046527517e-05 0 0.02198959013302482 -0.0012574463144053982 0 0.020817821071380627 -2.7953303046527517e-05 0 0.021789887356309448 -0.00039834745131116077 0 0.019652126192903088 0.0013223145452830637 0 0.020817821071380627 -2.7953303046527517e-05 0 0.021789887356309448 -0.00039834745131116077 0 0.023039099054488695 -0.0025140230782263609 0 0.02509270511414782 -0.0024847216688872352 0 0.023729796515152633 -0.0038215389331436506 0 0.02241116858113279 -0.0036040442788776413 0 0.024286146645666341 -0.0025480611680289019 0 0.023119583849539545 -0.0045196314652657631 0 0.023729796515152633 -0.0038215389331436506 0 0.02241116858113279 -0.0036040442788776413 0 0.023010982872762119 -0.0024969462754572294 0 0.023039099054488695 -0.0025140230782263609 0 0.020403277938908868 0.00068985341959878262 0 0.02131415545263942 -0.00046065130766748059 0 0.020905509517685925 -0.00014784981958434562 0 0.02131415545263942 -0.00046065130766748059 0 0.020905509517685925 -0.00014784981958434562 0 0.021988262443805733 -0.0014139745032440251 0 0.020905509517685925 -0.00014784981958434562 0 0.020827677728058488 -0.00053923941610139569 0 0.021988262443805733 -0.0014139745032440251 0 0.020827677728058488 -0.00053923941610139569 0 0.023164279210072317 -0.0023725222143133181 0 0.021988262443805733 -0.0014139745032440251 0 0.023039099054488695 -0.0025140230782263609 0 0.023015311536439625 -0.0022206553844514067 0 0.023164279210072317 -0.0023725222143133181 0 0.021988262443805733 -0.0014139745032440251 0 0.023083900174530745 -0.0018231353697578687 0 0.023102177422242871 -0.005172024242745597 0 0.023164279210072317 -0.0023725222143133181 0 0.026602460544342496 -0.0038025629874929175 0 0.023164279210072317 -0.0023725222143133181 0 0.026928028435674749 -0.0022980906617027144 0 0.026602460544342496 -0.0038025629874929175 0 0.023164279210072317 -0.0023725222143133181 0 0.025102911385563104 -0.0016416589750575836 0 0.026928028435674749 -0.0022980906617027144 0 0.023164279210072317 -0.0023725222143133181 0 0.025102911385563104 -0.0016416589750575836 0 0.023083900174530745 -0.0018231353697578687 0 0.025102911385563104 -0.0016416589750575836 0 0.023083900174530745 -0.0018231353697578687 0 0.024102132971931509 -0.0012632822538782792 0 0.025909590928025847 -0.001000749042232757 0 0.025102911385563104 -0.0016416589750575836 0 0.024102132971931509 -0.0012632822538782792 0 0.025909590928025847 -0.001000749042232757 0 0.025102911385563104 -0.0016416589750575836 0 0.027341742782450187 -0.0014877860611459115 0 0.027341742782450187 -0.0014877860611459115 0 0.028721466186452851 -0.002027787622900362 0 0.026928028435674749 -0.0022980906617027144 0 0.027341742782450187 -0.0014877860611459115 0 0.028721466186452851 -0.002027787622900362 0 0.029483052771139658 -0.0012734055069612161 0 0.028721466186452851 -0.002027787622900362 0 0.029821483796042145 -0.0020690761732880111 0 0.029483052771139658 -0.0012734055069612161 0 0.028721466186452851 -0.002027787622900362 0 0.029053732629990746 -0.002875387667859245 0 0.026928028435674749 -0.0022980906617027144 0 0.028721466186452851 -0.002027787622900362 0 0.029053732629990746 -0.002875387667859245 0 0.029821483796042145 -0.0020690761732880111 0 0.025102911385563104 -0.0016416589750575836 0 0.027341742782450187 -0.0014877860611459115 0 0.026928028435674749 -0.0022980906617027144 0 0.029053732629990746 -0.002875387667859245 0 0.026928028435674749 -0.0022980906617027144 0 0.026602460544342496 -0.0038025629874929175 0 0.02696777205809453 -0.0020529850565645493 0 0.02509270511414782 -0.0024847216688872352 0 0.026766743498064047 -0.0016361439219197056 0 0.024286146645666341 -0.0025480611680289019 0 0.025632851436429648 -0.0036180271431391297 0 0.026766743498064047 -0.0016361439219197056 0 0.025632851436429648 -0.0036180271431391297 0 0.028459038742022262 -0.0026033656217184058 0 0.023846260578611073 -0.0049641721297277652 0 0.023729796515152633 -0.0038215389331436506 0 0.025632851436429648 -0.0036180271431391297 0 0.023729796515152633 -0.0038215389331436506 0 0.024286146645666341 -0.0025480611680289019 0 0.025632851436429648 -0.0036180271431391297 0 0.029354550976184637 -0.0035863890953555188 0 0.027621619465008688 -0.0042323642028114332 0 0.028459038742022262 -0.0026033656217184058 0 0.025632851436429648 -0.0036180271431391297 0 0.027621619465008688 -0.0042323642028114332 0 0.028459038742022262 -0.0026033656217184058 0 0.030033884722983489 -0.0022942734471576858 0 0.029354550976184637 -0.0035863890953555188 0 0.028459038742022262 -0.0026033656217184058 0 0.030033884722983489 -0.0022942734471576858 0 0.028459038742022262 -0.0026033656217184058 0 0.02961822218404506 -0.0015975886732417059 0 0.03135833358319199 -0.0035462280064321814 0 0.031406898489332181 -0.0017530785955353046 0 0.029955219292705285 -0.0013798005015195998 0 0.03097079158196794 -0.0030799910795229883 0 0.030449979274762062 -0.0021561718128741943 0 0.030033884722983489 -0.0022942734471576858 0 0.02961822218404506 -0.0015975886732417059 0 0.029955219292705285 -0.0013798005015195998 0 0.02696777205809453 -0.0020529850565645493 0 0.027795958021414293 -0.0018018405055385629 0 0.026766743498064047 -0.0016361439219197056 0 0.028459038742022262 -0.0026033656217184058 0 0.02961822218404506 -0.0015975886732417059 0 0.029053732629990746 -0.002875387667859245 0 0.02961822218404506 -0.0015975886732417059 0 0.029821483796042145 -0.0020690761732880111 0 0.029821483796042145 -0.0020690761732880111 0 0.031125688478890634 -0.0016050132380016771 0 0.029483052771139658 -0.0012734055069612161 0 0.02961822218404506 -0.0015975886732417059 0 0.029821483796042145 -0.0020690761732880111 0 0.029955219292705285 -0.0013798005015195998 0 0.029821483796042145 -0.0020690761732880111 0 0.032838001411176071 -0.0025983168871382377 0 0.031125688478890634 -0.0016050132380016771 0 0.029821483796042145 -0.0020690761732880111 0 0.029955219292705285 -0.0013798005015195998 0 0.030358077359169126 -0.00081869878748066615 0 0.031406898489332181 -0.0017530785955353046 0 0.029955219292705285 -0.0013798005015195998 0 0.030358077359169126 -0.00081869878748066615 0 0.031736730174841292 -0.0017677007676809354 0 0.032489108628385187 -0.001612644917654672 0 0.033694371067497245 -0.00098747079150381611 0 0.032847399702240397 -0.0015934502479524025 0 0.031504872155770185 -0.00074216237356016272 0 0.032847399702240397 -0.0015934502479524025 0 0.031504872155770185 -0.00074216237356016272 0 0.031125688478890634 -0.0016050132380016771 0 0.032838001411176071 -0.0025983168871382377 0 0.032847399702240397 -0.0015934502479524025 0 0.031125688478890634 -0.0016050132380016771 0 0.033694371067497245 -0.00098747079150381611 0 0.031504872155770185 -0.00074216237356016272 0 0.033112980053075232 -0.00010043575005351747 0 0.031504872155770185 -0.00074216237356016272 0 0.031125688478890634 -0.0016050132380016771 0 0.029483052771139658 -0.0012734055069612161 0 0.031504872155770185 -0.00074216237356016272 0 0.029483052771139658 -0.0012734055069612161 0 0.028798942992543985 -0.00013576904638168028 0 0.029483052771139658 -0.0012734055069612161 0 0.027916863484501911 -0.00084849430364407937 0 0.028798942992543985 -0.00013576904638168028 0 0.027341742782450187 -0.0014877860611459115 0 0.029483052771139658 -0.0012734055069612161 0 0.027916863484501911 -0.00084849430364407937 0 0.025909590928025847 -0.001000749042232757 0 0.027341742782450187 -0.0014877860611459115 0 0.027916863484501911 -0.00084849430364407937 0 0.02648448933632969 -0.00022763404904612694 0 0.028798942992543985 -0.00013576904638168028 0 0.027606991887205209 0.0014374109910735297 0 0.02648448933632969 -0.00022763404904612694 0 0.027916863484501911 -0.00084849430364407937 0 0.028798942992543985 -0.00013576904638168028 0 0.031504872155770185 -0.00074216237356016272 0 0.028798942992543985 -0.00013576904638168028 0 0.03196892223638801 0.00093225235765354117 0 0.028798942992543985 -0.00013576904638168028 0 0.027606991887205209 0.0014374109910735297 0 0.03196892223638801 0.00093225235765354117 0 0.027606991887205209 0.0014374109910735297 0 0.03196892223638801 0.00093225235765354117 0 0.029317776974503124 0.0031345623326876214 0 0.032220316316819132 0.00094819163845912457 0 0.031973239229695652 0.0014616973565510273 0 0.03393627933891203 0.00046688500814795144 0 0.03196892223638801 0.00093225235765354117 0 0.034109167852200438 0.00088907264358403749 0 0.035039423832276331 0.00055729412035332513 0 0.03393627933891203 0.00046688500814795144 0 0.034109167852200438 0.00088907264358403749 0 0.034342831708851489 -0.00033174917885791692 0 0.03393627933891203 0.00046688500814795144 0 0.033112980053075232 -0.00010043575005351747 0 0.03393627933891203 0.00046688500814795144 0 0.033112980053075232 -0.00010043575005351747 0 0.03196892223638801 0.00093225235765354117 0 0.031504872155770185 -0.00074216237356016272 0 0.033112980053075232 -0.00010043575005351747 0 0.03196892223638801 0.00093225235765354117 0 0.034109167852200438 0.00088907264358403749 0 0.034743725397964588 0.00094542858369175747 0 0.035041811016872135 0.00087014669078213259 0 0.035465797090177338 0.00068038367799247933 0 0.034109167852200438 0.00088907264358403749 0 0.035041811016872135 0.00087014669078213259 0 0.035465797090177338 0.00068038367799247933 0 0.035039423832276331 0.00055729412035332513 0 0.034109167852200438 0.00088907264358403749 0 0.03196892223638801 0.00093225235765354117 0 0.034109167852200438 0.00088907264358403749 0 0.034251217225413508 0.00098896319145719063 0 0.027606991887205209 0.0014374109910735297 0 0.029317776974503124 0.0031345623326876214 0 0.026943273045523228 0.0031575387968264292 0 0.029317776974503124 0.0031345623326876214 0 0.027712181786333757 0.0039864804144854552 0 0.026943273045523228 0.0031575387968264292 0 0.031973239229695652 0.0014616973565510273 0 0.031668294376384763 0.0019755992563416816 0 0.034251217225413508 0.00098896319145719063 0 0.034743725397964588 0.00094542858369175747 0 0.035252344461774915 0.0011036451172580319 0 0.034109167852200438 0.00088907264358403749 0 0.034251217225413508 0.00098896319145719063 0 0.034743725397964588 0.00094542858369175747 0 0.034743725397964588 0.00094542858369175747 0 0.03500130889251242 0.0008705978870316225 0 0.035252344461774915 0.0011036451172580319 0 0.034743725397964588 0.00094542858369175747 0 0.03500130889251242 0.0008705978870316225 0 0.03506363084918377 0.00093751394767488535 0 0.03500130889251242 0.0008705978870316225 0 0.035252344461774915 0.0011036451172580319 0 0.035281088396144931 0.00069993615043839412 0 0.035252344461774915 0.0011036451172580319 0 0.035281088396144931 0.00069993615043839412 0 0.035965090531815298 0.00015511253286252529 0 0.035281088396144931 0.00069993615043839412 0 0.035519374564208839 0.00045795777704707251 0 0.035339939075970127 0.0006453955217907431 0 0.035281088396144931 0.00069993615043839412 0 0.035519374564208839 0.00045795777704707251 0 0.035965090531815298 0.00015511253286252529 0 0.03500130889251242 0.0008705978870316225 0 0.035143345839991132 0.00082273047944804152 0 0.03506363084918377 0.00093751394767488535 0 0.03500130889251242 0.0008705978870316225 0 0.035281088396144931 0.00069993615043839412 0 0.035143345839991132 0.00082273047944804152 0 0.035281088396144931 0.00069993615043839412 0 0.035143345839991132 0.00082273047944804152 0 0.035339939075970127 0.0006453955217907431 0 0.035143345839991132 0.00082273047944804152 0 0.035226966506425345 0.00095649037666002104 0 0.035339939075970127 0.0006453955217907431 0 0.035229558827965517 0.0010650540025708452 0 0.03506363084918377 0.00093751394767488535 0 0.035226966506425345 0.00095649037666002104 0 0.035143345839991132 0.00082273047944804152 0 0.03506363084918377 0.00093751394767488535 0 0.035226966506425345 0.00095649037666002104 0 0.035229558827965517 0.0010650540025708452 0 0.03506363084918377 0.00093751394767488535 0 0.035459717664622137 0.0010544394641779126 0 0.03506363084918377 0.00093751394767488535 0 0.035041811016872135 0.00087014669078213259 0 0.035459717664622137 0.0010544394641779126 0 0.034743725397964588 0.00094542858369175747 0 0.03506363084918377 0.00093751394767488535 0 0.035041811016872135 0.00087014669078213259 0 0.036071929882089369 0.00088709248865559203 0 0.035041811016872135 0.00087014669078213259 0 0.035459717664622137 0.0010544394641779126 0 0.035465797090177338 0.00068038367799247933 0 0.036071929882089369 0.00088709248865559203 0 0.035041811016872135 0.00087014669078213259 0 0.03645843215784729 0.0015303250679271777 0 0.036071929882089369 0.00088709248865559203 0 0.035459717664622137 0.0010544394641779126 0 0.03645843215784729 0.0015303250679271777 0 0.035459717664622137 0.0010544394641779126 0 0.03525948137036318 0.0012790261306682054 0 0.035229558827965517 0.0010650540025708452 0 0.035459717664622137 0.0010544394641779126 0 0.03525948137036318 0.0012790261306682054 0 0.03645843215784729 0.0015303250679271777 0 0.03525948137036318 0.0012790261306682054 0 0.035692980048728375 0.0018889740515958525 0 0.038777681360429014 0.0019588097190428549 0 0.039510906113114697 0.0015082185142354604 0 0.03525948137036318 0.0012790261306682054 0 0.03498240669964494 0.00091166878863971476 0 0.035266950396098701 0.00088400628731359762 0 0.03908959360517901 0.0012275968664209489 0 0.039510906113114697 0.0015082185142354604 0 0.03525948137036318 0.0012790261306682054 0 0.035226966506425345 0.00095649037666002104 0 0.035266950396098701 0.00088400628731359762 0 0.035229558827965517 0.0010650540025708452 0 0.03525948137036318 0.0012790261306682054 0 0.035226966506425345 0.00095649037666002104 0 0.035226966506425345 0.00095649037666002104 0 0.035266950396098701 0.00088400628731359762 0 0.035363678994604429 0.00069437792470009594 0 0.035266950396098701 0.00088400628731359762 0 0.035263350840289392 0.00051703691634679794 0 0.035363678994604429 0.00069437792470009594 0 0.035263350840289392 0.00051703691634679794 0 0.035363678994604429 0.00069437792470009594 0 0.035451522461480339 0.00049395960998936835 0 0.043204550956234954 0.001341232252320614 0 0.04318500764538493 0.0013250840824804158 0 0.043174388964601226 0.0013434579918350344 0 0.039510906113114697 0.0015082185142354604 0 0.039337952987587146 0.00098472980868764349 0 0.03498240669964494 0.00091166878863971476 0 0.035266950396098701 0.00088400628731359762 0 0.035263350840289392 0.00051703691634679794 0 0.040801204424205567 0.0022493077044384822 0 0.039510906113114697 0.0015082185142354604 0 0.043204550956234954 0.001341232252320614 0 0.043174388964601226 0.0013434579918350344 0 0.043196995723271105 0.0013642250217966233 0 0.043174388964601226 0.0013434579918350344 0 0.043196995723271105 0.0013642250217966233 0 0.043163712318585269 0.0013593052393536171 0 0.035263350840289392 0.00051703691634679794 0 0.035404125448468285 0.00035637545681641014 0 0.035451522461480339 0.00049395960998936835 0 0.039337952987587146 0.00098472980868764349 0 0.03926471253856572 0.00041428911965112714 0 0.043196995723271105 0.0013642250217966233 0 0.043163712318585269 0.0013593052393536171 0 0.043185391630217708 0.0013768954861776534 0 0.043163712318585269 0.0013593052393536171 0 0.043171007325854473 0.0013806594249176798 0 0.043185391630217708 0.0013768954861776534 0 0.043196995723271105 0.0013642250217966233 0 0.043185391630217708 0.0013768954861776534 0 0.043216650779590318 0.0013964347179034468 0 0.03802971413461631 -0.00083810861746155178 0 0.039515683721243311 -0.00074333732212594587 0 0.037818770794478707 -0.0021890137450928143 0 0.037356437891097397 -0.0022560437393815457 0 0.037514014316671167 -0.0021677096486896791 0 0.037818770794478707 -0.0021890137450928143 0 0.037356437891097397 -0.0022560437393815457 0 0.037792158803995772 -0.0021974802946772361 0 0.035404125448468285 0.00035637545681641014 0 0.035534555599401815 0.00039893039285821376 0 0.035507270082510978 0.00023563603354749733 0 0.03926471253856572 0.00041428911965112714 0 0.039515683721243311 -0.00074333732212594587 0 0.043163712318585269 0.0013593052393536171 0 0.043171007325854473 0.0013806594249176798 0 0.043154318858258017 0.0013713082226196559 0 0.035404125448468285 0.00035637545681641014 0 0.035534555599401815 0.00039893039285821376 0 0.035451522461480339 0.00049395960998936835 0 0.03802971413461631 -0.00083810861746155178 0 0.037327267986784957 -0.00052900908897171996 0 0.037356437891097397 -0.0022560437393815457 0 0.036409922640578275 -0.0018885966416787841 0 0.03705630678772516 -0.0023237770553017432 0 0.035537324022309545 0.00046617313502813089 0 0.035451522461480339 0.00049395960998936835 0 0.035471703338326152 0.00053070999331297926 0 0.035534555599401815 0.00039893039285821376 0 0.035537324022309545 0.00046617313502813089 0 0.035451522461480339 0.00049395960998936835 0 0.035363678994604429 0.00069437792470009594 0 0.035451522461480339 0.00049395960998936835 0 0.035471703338326152 0.00053070999331297926 0 0.035363678994604429 0.00069437792470009594 0 0.035471703338326152 0.00053070999331297926 0 0.035339939075970127 0.0006453955217907431 0 0.035471703338326152 0.00053070999331297926 0 0.035339939075970127 0.0006453955217907431 0 0.035559477050990614 0.00041413897618802753 0 0.035226966506425345 0.00095649037666002104 0 0.035363678994604429 0.00069437792470009594 0 0.035339939075970127 0.0006453955217907431 0 0.037327267986784957 -0.00052900908897171996 0 0.037147205490825765 -0.00024470567126549567 0 0.035537324022309545 0.00046617313502813089 0 0.035559477050990614 0.00041413897618802753 0 0.035965090531815298 0.00015511253286252529 0 0.035537324022309545 0.00046617313502813089 0 0.035471703338326152 0.00053070999331297926 0 0.035559477050990614 0.00041413897618802753 0 0.035519374564208839 0.00045795777704707251 0 0.035339939075970127 0.0006453955217907431 0 0.035559477050990614 0.00041413897618802753 0 0.035519374564208839 0.00045795777704707251 0 0.035559477050990614 0.00041413897618802753 0 0.035965090531815298 0.00015511253286252529 0 0.036672307516978642 -0.0013444723372479474 0 0.035965090531815298 0.00015511253286252529 0 0.036629172340728613 0.0001487460652244555 0 0.036409922640578275 -0.0018885966416787841 0 0.036672307516978642 -0.0013444723372479474 0 0.035965090531815298 0.00015511253286252529 0 0.036672307516978642 -0.0013444723372479474 0 0.037486685764861701 -0.0025278634275252665 0 0.036629172340728613 0.0001487460652244555 0 0.03132307020966308 0.0017577590517244774 0 0.031547526795102504 0.0019488208664962712 0 0.026132598060214691 0.004486193644108143 0 0.026258987978135691 0.0048371422072768051 0 0.026706162083736398 0.0044744127230690401 0 0.036409922640578275 -0.0018885966416787841 0 0.036672307516978642 -0.0013444723372479474 0 0.03705630678772516 -0.0023237770553017432 0 0.036672307516978642 -0.0013444723372479474 0 0.037486685764861701 -0.0025278634275252665 0 0.03705630678772516 -0.0023237770553017432 0 0.03705630678772516 -0.0023237770553017432 0 0.037137957514737495 -0.0023600566434789725 0 0.037514014316671167 -0.0021677096486896791 0 0.037356437891097397 -0.0022560437393815457 0 0.03705630678772516 -0.0023237770553017432 0 0.037514014316671167 -0.0021677096486896791 0 0.037486685764861701 -0.0025278634275252665 0 0.03705630678772516 -0.0023237770553017432 0 0.037137957514737495 -0.0023600566434789725 0 0.037486685764861701 -0.0025278634275252665 0 0.036570171320726721 -0.0023551496043973707 0 0.037137957514737495 -0.0023600566434789725 0 0.037486685764861701 -0.0025278634275252665 0 0.036570171320726721 -0.0023551496043973707 0 0.034434153951713821 -0.002279407859805088 0 0.036570171320726721 -0.0023551496043973707 0 0.037137957514737495 -0.0023600566434789725 0 0.037373341246906222 -0.0018161850153613215 0 0.036570171320726721 -0.0023551496043973707 0 0.037373341246906222 -0.0018161850153613215 0 0.034434153951713821 -0.002279407859805088 0 0.037818770794478707 -0.0021890137450928143 0 0.037514014316671167 -0.0021677096486896791 0 0.037917855571082598 -0.0021884232547918769 0 0.037373341246906222 -0.0018161850153613215 0 0.037514014316671167 -0.0021677096486896791 0 0.037917855571082598 -0.0021884232547918769 0 0.037137957514737495 -0.0023600566434789725 0 0.037373341246906222 -0.0018161850153613215 0 0.037514014316671167 -0.0021677096486896791 0 0.026665264692742639 0.0041958780745887068 0 0.026707053707259797 0.0039977465439427831 0 0.027875298214743716 0.0043190447459346987 0 0.026761943089635809 0.0050719638264359948 0 0.029547223751097692 0.0042126044046868994 0 0.028876451385818534 0.00377660232098272 0 0.027875298214743716 0.0043190447459346987 0 0.029547223751097692 0.0042126044046868994 0 0.028876451385818534 0.00377660232098272 0 0.029547223751097692 0.0042126044046868994 0 0.029497872039102726 0.0034995966369301412 0 0.027875298214743716 0.0043190447459346987 0 0.026566674221874444 0.0048628966839211561 0 0.03023575899513865 0.0028781276129241822 0 0.037373341246906222 -0.0018161850153613215 0 0.034434153951713821 -0.002279407859805088 0 0.031864048332866005 0.0025592490813229588 0 0.027875298214743716 0.0043190447459346987 0 0.026566674221874444 0.0048628966839211561 0 0.026761943089635809 0.0050719638264359948 0 0.026258987978135691 0.0048371422072768051 0 0.026566674221874444 0.0048628966839211561 0 0.026211468601512793 0.0048708114679128049 0 0.026566674221874444 0.0048628966839211561 0 0.026761943089635809 0.0050719638264359948 0 0.026211468601512793 0.0048708114679128049 0 0.03132307020966308 0.0017577590517244774 0 0.030659872946141593 0.0022440567303219782 0 0.026761943089635809 0.0050719638264359948 0 0.025697691794312329 0.0049587509915961364 0 0.025154933643238269 0.0057923928145593492 0 0.026761943089635809 0.0050719638264359948 0 0.025697691794312329 0.0049587509915961364 0 0.026211468601512793 0.0048708114679128049 0 0.025697691794312329 0.0049587509915961364 0 0.025414426178035542 0.00457349416205639 0 0.024873515940893397 0.004735730330162515 0 0.025697691794312329 0.0049587509915961364 0 0.025414426178035542 0.00457349416205639 0 0.026211468601512793 0.0048708114679128049 0 0.025414426178035542 0.00457349416205639 0 0.026211468601512793 0.0048708114679128049 0 0.025884646996872662 0.0045786718270685225 0 0.026258987978135691 0.0048371422072768051 0 0.026211468601512793 0.0048708114679128049 0 0.025884646996872662 0.0045786718270685225 0 0.026132598060214691 0.004486193644108143 0 0.025884646996872662 0.0045786718270685225 0 0.025572426623161913 0.0041932597540933854 0 0.026132598060214691 0.004486193644108143 0 0.026258987978135691 0.0048371422072768051 0 0.025884646996872662 0.0045786718270685225 0 0.025414426178035542 0.00457349416205639 0 0.025884646996872662 0.0045786718270685225 0 0.025139970134047309 0.0042776791245262352 0 0.025414426178035542 0.00457349416205639 0 0.025139970134047309 0.0042776791245262352 0 0.024608307165912693 0.0043003129332603507 0 0.025884646996872662 0.0045786718270685225 0 0.025139970134047309 0.0042776791245262352 0 0.025572426623161913 0.0041932597540933854 0 0.025139970134047309 0.0042776791245262352 0 0.024982184983585346 0.0038975494559236336 0 0.025572426623161913 0.0041932597540933854 0 0.024982184983585346 0.0038975494559236336 0 0.025649944841925749 0.0038647178527313215 0 0.025572426623161913 0.0041932597540933854 0 0.024982184983585346 0.0038975494559236336 0 0.025649944841925749 0.0038647178527313215 0 0.025377332880166345 0.0032962757332338894 0 0.024982184983585346 0.0038975494559236336 0 0.025377332880166345 0.0032962757332338894 0 0.024580796180502584 0.0032680073507450028 0 0.025649944841925749 0.0038647178527313215 0 0.026128960013641862 0.0036207900353007554 0 0.025377332880166345 0.0032962757332338894 0 0.025649944841925749 0.0038647178527313215 0 0.025572426623161913 0.0041932597540933854 0 0.026184556212933807 0.0042092340379256904 0 0.026132598060214691 0.004486193644108143 0 0.025572426623161913 0.0041932597540933854 0 0.026184556212933807 0.0042092340379256904 0 0.026184556212933807 0.0042092340379256904 0 0.026706162083736398 0.0044744127230690401 0 0.026722162554112309 0.0039979633261464287 0 0.026132598060214691 0.004486193644108143 0 0.026184556212933807 0.0042092340379256904 0 0.026706162083736398 0.0044744127230690401 0 0.031668294376384763 0.0019755992563416816 0 0.031547526795102504 0.0019488208664962712 0 0.035252344461774915 0.0011036451172580319 0 0.035965090531815298 0.00015511253286252529 0 0.036629172340728613 0.0001487460652244555 0 0.027712181786333757 0.0039864804144854552 0 0.026706162083736398 0.0044744127230690401 0 0.026722162554112309 0.0039979633261464287 0 0.026184556212933807 0.0042092340379256904 0 0.026722162554112309 0.0039979633261464287 0 0.026128960013641862 0.0036207900353007554 0 0.025649944841925749 0.0038647178527313215 0 0.026184556212933807 0.0042092340379256904 0 0.026128960013641862 0.0036207900353007554 0 0.026722162554112309 0.0039979633261464287 0 0.026128960013641862 0.0036207900353007554 0 0.026943273045523228 0.0031575387968264292 0 0.026128960013641862 0.0036207900353007554 0 0.026943273045523228 0.0031575387968264292 0 0.025833307340974405 0.0028931669373152094 0 0.027712181786333757 0.0039864804144854552 0 0.026722162554112309 0.0039979633261464287 0 0.026943273045523228 0.0031575387968264292 0 0.025789003877462382 0.0019068696070961412 0 0.026943273045523228 0.0031575387968264292 0 0.025833307340974405 0.0028931669373152094 0 0.025789003877462382 0.0019068696070961412 0 0.025833307340974405 0.0028931669373152094 0 0.02488102535230035 0.0024394373800826754 0 0.02488102535230035 0.0024394373800826754 0 0.025377332880166345 0.0032962757332338894 0 0.024580796180502584 0.0032680073507450028 0 0.025833307340974405 0.0028931669373152094 0 0.02488102535230035 0.0024394373800826754 0 0.025377332880166345 0.0032962757332338894 0 0.026128960013641862 0.0036207900353007554 0 0.025833307340974405 0.0028931669373152094 0 0.025377332880166345 0.0032962757332338894 0 0.023804035083774294 0.0034822233315997143 0 0.024013012053489536 0.002641436265006996 0 0.023343268752645197 0.0028914352154765441 0 0.023804035083774294 0.0034822233315997143 0 0.024580796180502584 0.0032680073507450028 0 0.024013012053489536 0.002641436265006996 0 0.02488102535230035 0.0024394373800826754 0 0.024580796180502584 0.0032680073507450028 0 0.024013012053489536 0.002641436265006996 0 0.024038653380072252 0.0017067355677193149 0 0.02488102535230035 0.0024394373800826754 0 0.024013012053489536 0.002641436265006996 0 0.023291802675275454 0.0014568860618549677 0 0.024013012053489536 0.002641436265006996 0 0.023343268752645197 0.0028914352154765441 0 0.02189851323071057 0.0018921698166009164 0 0.023343268752645197 0.0028914352154765441 0 0.022565155644540407 0.0032032135530443871 0 0.02189851323071057 0.0018921698166009164 0 0.023291802675275454 0.0014568860618549677 0 0.023343268752645197 0.0028914352154765441 0 0.02189851323071057 0.0018921698166009164 0 0.022565155644540407 0.0032032135530443871 0 0.021354560341072706 0.0026467131076072215 0 0.022565155644540407 0.0032032135530443871 0 0.023245821623833974 0.0044718078005679552 0 0.021969560654944965 0.0037560273464585792 0 0.022565155644540407 0.0032032135530443871 0 0.023361086148813284 0.0037484389084330369 0 0.023245821623833974 0.0044718078005679552 0 0.022565155644540407 0.0032032135530443871 0 0.021969560654944965 0.0037560273464585792 0 0.021354560341072706 0.0026467131076072215 0 0.023343268752645197 0.0028914352154765441 0 0.022565155644540407 0.0032032135530443871 0 0.023361086148813284 0.0037484389084330369 0 0.023804035083774294 0.0034822233315997143 0 0.023343268752645197 0.0028914352154765441 0 0.023361086148813284 0.0037484389084330369 0 0.023361086148813284 0.0037484389084330369 0 0.023709620077634816 0.0041960390801787685 0 0.023245821623833974 0.0044718078005679552 0 0.023804035083774294 0.0034822233315997143 0 0.023361086148813284 0.0037484389084330369 0 0.023709620077634816 0.0041960390801787685 0 0.023245821623833974 0.0044718078005679552 0 0.023708452016399217 0.0049391878460605188 0 0.022922936357691517 0.0048577744097300767 0 0.023245821623833974 0.0044718078005679552 0 0.023793316319191567 0.0045083794981587875 0 0.023708452016399217 0.0049391878460605188 0 0.023709620077634816 0.0041960390801787685 0 0.023245821623833974 0.0044718078005679552 0 0.023793316319191567 0.0045083794981587875 0 0.023709620077634816 0.0041960390801787685 0 0.023793316319191567 0.0045083794981587875 0 0.023990126630343028 0.0042372724086019286 0 0.023709620077634816 0.0041960390801787685 0 0.023990126630343028 0.0042372724086019286 0 0.02420850845993347 0.0039064071340589182 0 0.023990126630343028 0.0042372724086019286 0 0.02420850845993347 0.0039064071340589182 0 0.02445169478782034 0.004154219274616195 0 0.023804035083774294 0.0034822233315997143 0 0.023709620077634816 0.0041960390801787685 0 0.02420850845993347 0.0039064071340589182 0 0.023804035083774294 0.0034822233315997143 0 0.024580796180502584 0.0032680073507450028 0 0.02420850845993347 0.0039064071340589182 0 0.024982184983585346 0.0038975494559236336 0 0.024580796180502584 0.0032680073507450028 0 0.02420850845993347 0.0039064071340589182 0 0.024982184983585346 0.0038975494559236336 0 0.02420850845993347 0.0039064071340589182 0 0.02445169478782034 0.004154219274616195 0 0.025139970134047309 0.0042776791245262352 0 0.024982184983585346 0.0038975494559236336 0 0.02445169478782034 0.004154219274616195 0 0.02445169478782034 0.004154219274616195 0 0.024608307165912693 0.0043003129332603507 0 0.024126371500872452 0.0042201611761837985 0 0.025139970134047309 0.0042776791245262352 0 0.02445169478782034 0.004154219274616195 0 0.024608307165912693 0.0043003129332603507 0 0.024126371500872452 0.0042201611761837985 0 0.023912638535692653 0.0041807853400943323 0 0.023958482013168924 0.004191913294625366 0 0.023990126630343028 0.0042372724086019286 0 0.024126371500872452 0.0042201611761837985 0 0.023958482013168924 0.004191913294625366 0 0.023990126630343028 0.0042372724086019286 0 0.02445169478782034 0.004154219274616195 0 0.024126371500872452 0.0042201611761837985 0 0.024608307165912693 0.0043003129332603507 0 0.024126371500872452 0.0042201611761837985 0 0.023912638535692653 0.0041807853400943323 0 0.025414426178035542 0.00457349416205639 0 0.024608307165912693 0.0043003129332603507 0 0.024873515940893397 0.004735730330162515 0 0.024608307165912693 0.0043003129332603507 0 0.023912638535692653 0.0041807853400943323 0 0.024873515940893397 0.004735730330162515 0 0.025697691794312329 0.0049587509915961364 0 0.024873515940893397 0.004735730330162515 0 0.025154933643238269 0.0057923928145593492 0 0.024873515940893397 0.004735730330162515 0 0.024181766992114696 0.0052020923443143081 0 0.025154933643238269 0.0057923928145593492 0 0.023912638535692653 0.0041807853400943323 0 0.024873515940893397 0.004735730330162515 0 0.024181766992114696 0.0052020923443143081 0 0.023912638535692653 0.0041807853400943323 0 0.024181766992114696 0.0052020923443143081 0 0.023196501762328143 0.0052726455316420527 0 0.024844213269101512 0.003860113559918197 0 0.025217095429056358 0.0035689573571373668 0 0.024181766992114696 0.0052020923443143081 0 0.023833506749317317 0.0060641306303508124 0 0.023196501762328143 0.0052726455316420527 0 0.026570165951562568 0.0033859218091445045 0 0.026707053707259797 0.0039977465439427831 0 0.024181766992114696 0.0052020923443143081 0 0.023833506749317317 0.0060641306303508124 0 0.025154933643238269 0.0057923928145593492 0 0.029429979106613473 0.0036606373868367328 0 0.029547223751097692 0.0042126044046868994 0 0.029440785378214936 0.0035882698367755792 0 0.029547223751097692 0.0042126044046868994 0 0.029497872039102726 0.0034995966369301412 0 0.029440785378214936 0.0035882698367755792 0 0.027020439466886113 0.0019932727735226326 0 0.026587279823322998 0.0017542613519806094 0 0.02642174760209752 0.00060773813145710239 0 0.025938542804696728 0.00073521685667186215 0 0.026322835777678199 0.0019593012781491284 0 0.024527800741632126 0.0011497614010968326 0 0.024732548489368577 0.0025366762452080065 0 0.026322835777678199 0.0019593012781491284 0 0.026935991481776125 0.0019479717511458846 0 0.027020439466886113 0.0019932727735226326 0 0.026570165951562568 0.0033859218091445045 0 0.027020439466886113 0.0019932727735226326 0 0.024527800741632126 0.0011497614010968326 0 0.023858192024571623 0.0026362131183879857 0 0.024732548489368577 0.0025366762452080065 0 0.027020439466886113 0.0019932727735226326 0 0.025217095429056358 0.0035689573571373668 0 0.023833506749317317 0.0060641306303508124 0 0.022484949822445189 0.0062587245459408839 0 0.023196501762328143 0.0052726455316420527 0 0.023912638535692653 0.0041807853400943323 0 0.023858192024571623 0.0026362131183879857 0 0.024245258539523654 0.0036005562444615872 0 0.023858192024571623 0.0026362131183879857 0 0.024732548489368577 0.0025366762452080065 0 0.024245258539523654 0.0036005562444615872 0 0.024732548489368577 0.0025366762452080065 0 0.025052370051559466 0.0031007267310634258 0 0.026322835777678199 0.0019593012781491284 0 0.024732548489368577 0.0025366762452080065 0 0.025052370051559466 0.0031007267310634258 0 0.024245258539523654 0.0036005562444615872 0 0.025052370051559466 0.0031007267310634258 0 0.024378451926764487 0.0040733327351888402 0 0.025609769990058165 0.0032681679697795438 0 0.025052370051559466 0.0031007267310634258 0 0.024245258539523654 0.0036005562444615872 0 0.024378451926764487 0.0040733327351888402 0 0.024245258539523654 0.0036005562444615872 0 0.023958482013168924 0.004191913294625366 0 0.024378451926764487 0.0040733327351888402 0 0.023912638535692653 0.0041807853400943323 0 0.024245258539523654 0.0036005562444615872 0 0.023958482013168924 0.004191913294625366 0 0.023793316319191567 0.0045083794981587875 0 0.023958482013168924 0.004191913294625366 0 0.024378451926764487 0.0040733327351888402 0 0.023793316319191567 0.0045083794981587875 0 0.023990126630343028 0.0042372724086019286 0 0.023958482013168924 0.004191913294625366 0 0.023793316319191567 0.0045083794981587875 0 0.024378451926764487 0.0040733327351888402 0 0.023708452016399217 0.0049391878460605188 0 0.024378451926764487 0.0040733327351888402 0 0.02538064571341405 0.0041926334035467189 0 0.025609769990058165 0.0032681679697795438 0 0.024378451926764487 0.0040733327351888402 0 0.02538064571341405 0.0041926334035467189 0 0.023708452016399217 0.0049391878460605188 0 0.02538064571341405 0.0041926334035467189 0 0.027108619914421508 0.0027711571873300402 0 0.028154543410040596 0.0043048498337996954 0 0.02538064571341405 0.0041926334035467189 0 0.028154543410040596 0.0043048498337996954 0 0.02576812686571614 0.0050359259340542178 0 0.027108619914421508 0.0027711571873300402 0 0.025609769990058165 0.0032681679697795438 0 0.026322835777678199 0.0019593012781491284 0 0.02538064571341405 0.0041926334035467189 0 0.027108619914421508 0.0027711571873300402 0 0.025609769990058165 0.0032681679697795438 0 0.025052370051559466 0.0031007267310634258 0 0.025609769990058165 0.0032681679697795438 0 0.026322835777678199 0.0019593012781491284 0 0.026322835777678199 0.0019593012781491284 0 0.028127967102920402 0.0016892866970494654 0 0.028000070459447236 0.00097711445871278006 0 0.027108619914421508 0.0027711571873300402 0 0.028127967102920402 0.0016892866970494654 0 0.028979051807460552 0.0018766626110903776 0 0.027108619914421508 0.0027711571873300402 0 0.026322835777678199 0.0019593012781491284 0 0.028127967102920402 0.0016892866970494654 0 0.028000070459447236 0.00097711445871278006 0 0.029615532220424443 0.0010111415342616147 0 0.029597488697843611 0.00037957934854878863 0 0.028127967102920402 0.0016892866970494654 0 0.028000070459447236 0.00097711445871278006 0 0.029615532220424443 0.0010111415342616147 0 0.028000070459447236 0.00097711445871278006 0 0.029597488697843611 0.00037957934854878863 0 0.028620251285935736 0.00010017902030312992 0 0.028000070459447236 0.00097711445871278006 0 0.027768243890786446 0.00027725177868658852 0 0.028620251285935736 0.00010017902030312992 0 0.026322835777678199 0.0019593012781491284 0 0.028000070459447236 0.00097711445871278006 0 0.027128139981888223 0.00078346577903518587 0 0.02642174760209752 0.00060773813145710239 0 0.026322835777678199 0.0019593012781491284 0 0.027128139981888223 0.00078346577903518587 0 0.028000070459447236 0.00097711445871278006 0 0.027128139981888223 0.00078346577903518587 0 0.027768243890786446 0.00027725177868658852 0 0.031119538755885211 0.00043925255161888897 0 0.029615532220424443 0.0010111415342616147 0 0.030363619156758778 3.514638132057007e-06 0 0.031119538755885211 0.00043925255161888897 0 0.030363619156758778 3.514638132057007e-06 0 0.032734537169492206 9.3686434726893892e-07 0 0.031119538755885211 0.00043925255161888897 0 0.029615532220424443 0.0010111415342616147 0 0.029597488697843611 0.00037957934854878863 0 0.029615532220424443 0.0010111415342616147 0 0.028979051807460552 0.0018766626110903776 0 0.030363619156758778 3.514638132057007e-06 0 0.028127967102920402 0.0016892866970494654 0 0.029615532220424443 0.0010111415342616147 0 0.028979051807460552 0.0018766626110903776 0 0.030357115936687547 -7.5556262513310124e-07 0 0.02724262235602035 0.00016125885366475798 0 0.028212846157776174 6.9857544668813142e-07 0 0.030354894719117183 1.3111473175584355e-06 0 0.028291103151448262 0.0011060038800470946 0 0.028979051807460552 0.0018766626110903776 0 0.030363619156758778 3.514638132057007e-06 0 0.029798658365942161 0.0024907639972935047 0 0.02724262235602035 0.00016125885366475798 0 0.028212846157776174 6.9857544668813142e-07 0 0.026072278141764289 -6.0482492487484454e-07 0 0.027108619914421508 0.0027711571873300402 0 0.028979051807460552 0.0018766626110903776 0 0.028154543410040596 0.0043048498337996954 0 0.028979051807460552 0.0018766626110903776 0 0.029798658365942161 0.0024907639972935047 0 0.028154543410040596 0.0043048498337996954 0 0.028291103151448262 0.0011060038800470946 0 0.026415973462144214 0.0014564051075955198 0 0.02724262235602035 0.00016125885366475798 0 0.026072278141764289 -6.0482492487484454e-07 0 0.026756340077704496 -0.00048187407765106546 0 0.02724262235602035 0.00016125885366475798 0 0.027248379893497897 -0.00052774805527453839 0 0.026756340077704496 -0.00048187407765106546 0 0.026062685751433383 6.446983573571122e-06 0 0.02427455690719664 0.00022431965684621596 0 0.026072278141764289 -6.0482492487484454e-07 0 0.026756340077704496 -0.00048187407765106546 0 0.026317067093443971 -0.00093458150975731327 0 0.027248379893497897 -0.00052774805527453839 0 0.026756340077704496 -0.00048187407765106546 0 0.02691840916518691 -0.0010327047184385603 0 0.026317067093443971 -0.00093458150975731327 0 0.02691840916518691 -0.0010327047184385603 0 0.026386811898067308 -0.0016501772582140624 0 0.02427455690719664 0.00022431965684621596 0 0.022291916914114838 0.00022820101677701349 0 0.02390890250230045 8.5254872008032761e-08 0 0.021703610275874367 -8.3428408979495131e-08 0 0.021809677096351579 -2.2737584518014883e-06 0 0.026756340077704496 -0.00048187407765106546 0 0.026317067093443971 -0.00093458150975731327 0 0.02691840916518691 -0.0010327047184385603 0 0.02691840916518691 -0.0010327047184385603 0 0.026386811898067308 -0.0016501772582140624 0 0.027072966239723557 -0.0015448964110619328 0 0.01556283299270728 0.0056615476692673484 0 0.016943903890193977 0.0044883014905838983 0 0.015745950296319328 0.0031420009956003255 0 0.022291916914114838 0.00022820101677701349 0 0.02033627526350483 0.0017953742203333273 0 0.021700907545982875 -5.6760952680435679e-07 0 0.02160126843780447 -1.6281432464025005e-05 0 0.018870616913523014 -5.319783172630101e-05 0 0.021707590522977938 3.2907196319160177e-06 0 0.022291916914114838 0.00022820101677701349 0 0.022291916914114838 0.00022820101677701349 0 0.022777631166731465 0.0012856224034091957 0 0.01556283299270728 0.0056615476692673484 0 0.016943903890193977 0.0044883014905838983 0 0.017445908125850694 0.0059544403793491069 0 0.018647891850476425 0.0051655867707008528 0 0.019590460181904641 0.0043911861947525414 0 0.018280270359617688 0.0039058104700530919 0 0.016943903890193977 0.0044883014905838983 0 0.018647891850476425 0.0051655867707008528 0 0.018280270359617688 0.0039058104700530919 0 0.016943903890193977 0.0044883014905838983 0 0.018647891850476425 0.0051655867707008528 0 0.017445908125850694 0.0059544403793491069 0 0.022777631166731465 0.0012856224034091957 0 0.02359180834666335 0.002196269285671452 0 0.018647891850476425 0.0051655867707008528 0 0.017445908125850694 0.0059544403793491069 0 0.019727018069997711 0.0062623054393583857 0 0.02691840916518691 -0.0010327047184385603 0 0.027072966239723557 -0.0015448964110619328 0 0.027735383005348453 -0.0014459204874506619 0 0.027248379893497897 -0.00052774805527453839 0 0.02691840916518691 -0.0010327047184385603 0 0.027735383005348453 -0.0014459204874506619 0 0.026415973462144214 0.0014564051075955198 0 0.02359180834666335 0.002196269285671452 0 0.02538064571341405 0.0041926334035467189 0 0.02576812686571614 0.0050359259340542178 0 0.023392473127065719 0.0057708116756067856 0 0.028154543410040596 0.0043048498337996954 0 0.02576812686571614 0.0050359259340542178 0 0.026399329192217352 0.0066153360052412444 0 0.02576812686571614 0.0050359259340542178 0 0.023392473127065719 0.0057708116756067856 0 0.026399329192217352 0.0066153360052412444 0 0.023536189103847648 0.0025188826069402772 0 0.02359180834666335 0.002196269285671452 0 0.02538064571341405 0.0041926334035467189 0 0.023708452016399217 0.0049391878460605188 0 0.023392473127065719 0.0057708116756067856 0 0.023708452016399217 0.0049391878460605188 0 0.023392473127065719 0.0057708116756067856 0 0.022922936357691517 0.0048577744097300767 0 0.023392473127065719 0.0057708116756067856 0 0.022922936357691517 0.0048577744097300767 0 0.021924122529245232 0.0044405211291459008 0 0.022922936357691517 0.0048577744097300767 0 0.021924122529245232 0.0044405211291459008 0 0.021969560654944965 0.0037560273464585792 0 0.023245821623833974 0.0044718078005679552 0 0.022922936357691517 0.0048577744097300767 0 0.021969560654944965 0.0037560273464585792 0 0.018647891850476425 0.0051655867707008528 0 0.02035443032463144 0.0051412144545897554 0 0.019727018069997711 0.0062623054393583857 0 0.02340514576243331 0.0024846998567148492 0 0.02359180834666335 0.002196269285671452 0 0.023392473127065719 0.0057708116756067856 0 0.02035443032463144 0.0051412144545897554 0 0.019740574304497046 0.0063153716532224694 0 0.023392473127065719 0.0057708116756067856 0 0.021924122529245232 0.0044405211291459008 0 0.02035443032463144 0.0051412144545897554 0 0.021924122529245232 0.0044405211291459008 0 0.02035443032463144 0.0051412144545897554 0 0.020612517367665131 0.0043827307946911814 0 0.018647891850476425 0.0051655867707008528 0 0.02035443032463144 0.0051412144545897554 0 0.019590460181904641 0.0043911861947525414 0 0.02035443032463144 0.0051412144545897554 0 0.020612517367665131 0.0043827307946911814 0 0.019590460181904641 0.0043911861947525414 0 0.019961533881670088 0.0035664663151391534 0 0.021969560654944965 0.0037560273464585792 0 0.020108905475651605 0.0025837048885554771 0 0.020612517367665131 0.0043827307946911814 0 0.019590460181904641 0.0043911861947525414 0 0.019961533881670088 0.0035664663151391534 0 0.019590460181904641 0.0043911861947525414 0 0.019961533881670088 0.0035664663151391534 0 0.018280270359617688 0.0039058104700530919 0 0.021924122529245232 0.0044405211291459008 0 0.020612517367665131 0.0043827307946911814 0 0.019961533881670088 0.0035664663151391534 0 0.019961533881670088 0.0035664663151391534 0 0.020108905475651605 0.0025837048885554771 0 0.018540780122688505 0.002396597430951749 0 0.021924122529245232 0.0044405211291459008 0 0.019961533881670088 0.0035664663151391534 0 0.021969560654944965 0.0037560273464585792 0 0.021969560654944965 0.0037560273464585792 0 0.021354560341072706 0.0026467131076072215 0 0.020108905475651605 0.0025837048885554771 0 0.019938528387782248 0.0016773658345566064 0 0.02189851323071057 0.0018921698166009164 0 0.021354560341072706 0.0026467131076072215 0 0.019938528387782248 0.0016773658345566064 0 0.021354560341072706 0.0026467131076072215 0 0.020108905475651605 0.0025837048885554771 0 0.020108905475651605 0.0025837048885554771 0 0.018715489826563701 0.0017762253402255799 0 0.018540780122688505 0.002396597430951749 0 0.019938528387782248 0.0016773658345566064 0 0.020108905475651605 0.0025837048885554771 0 0.018715489826563701 0.0017762253402255799 0 0.018715489826563701 0.0017762253402255799 0 0.017318526884199815 0.0014134368794499503 0 0.018540780122688505 0.002396597430951749 0 0.017318526884199815 0.0014134368794499503 0 0.018540780122688505 0.002396597430951749 0 0.017010202482536655 0.0020600775150790983 0 0.018540780122688505 0.002396597430951749 0 0.017010202482536655 0.0020600775150790983 0 0.018034509978136715 0.0029164653369762859 0 0.015962811463470752 0.0004741057576005892 0 0.017010202482536655 0.0020600775150790983 0 0.015745950296319328 0.0031420009956003255 0 0.019685646471842722 0.0018400563895568927 0 0.02033627526350483 0.0017953742203333273 0 0.015962811463470752 0.0004741057576005892 0 0.017318526884199815 0.0014134368794499503 0 0.017010202482536655 0.0020600775150790983 0 0.015962811463470752 0.0004741057576005892 0 0.017860084088144931 4.1113311619692524e-07 0 0.018870616913523014 -5.319783172630101e-05 0 0.017010202482536655 0.0020600775150790983 0 0.015745950296319328 0.0031420009956003255 0 0.017173491796280884 0.003266282586804 0 0.021700907545982875 -5.6760952680435679e-07 0 0.017860084088144931 4.1113311619692524e-07 0 0.018870616913523014 -5.319783172630101e-05 0 0.016943903890193977 0.0044883014905838983 0 0.015745950296319328 0.0031420009956003255 0 0.017173491796280884 0.003266282586804 0 0.016943903890193977 0.0044883014905838983 0 0.018280270359617688 0.0039058104700530919 0 0.017173491796280884 0.003266282586804 0 0.019961533881670088 0.0035664663151391534 0 0.018280270359617688 0.0039058104700530919 0 0.018034509978136715 0.0029164653369762859 0 0.019961533881670088 0.0035664663151391534 0 0.018540780122688505 0.002396597430951749 0 0.018034509978136715 0.0029164653369762859 0 0.017010202482536655 0.0020600775150790983 0 0.018034509978136715 0.0029164653369762859 0 0.017173491796280884 0.003266282586804 0 0.018280270359617688 0.0039058104700530919 0 0.018034509978136715 0.0029164653369762859 0 0.017173491796280884 0.003266282586804 0 0.047042514862212628 0.00027296521718658584 0 0.046440787055901607 0.00018985709943023733 0 0.044720010831761865 0.00018902547931054582 0 0.047042514862212628 0.00027296521718658584 0 0.046605929553457714 5.9171108634143513e-07 0 0.044720010831761865 0.00018902547931054582 0 0.046605929553457714 5.9171108634143513e-07 0 0.048933908815616732 0.00047177585391222133 0 0.050435592357825125 9.1249503097600432e-07 0 0.047042514862212628 0.00027296521718658584 0 0.046605929553457714 5.9171108634143513e-07 0 0.048933908815616732 0.00047177585391222133 0 0.047042514862212628 0.00027296521718658584 0 0.048755413003871567 0.00057907073549884097 0 0.048933908815616732 0.00047177585391222133 0 0.048755413003871567 0.00057907073549884097 0 0.048687969668804239 0.00082422745060875178 0 0.048764967953154825 0.00059504176759962713 0 0.047042514862212628 0.00027296521718658584 0 0.048755413003871567 0.00057907073549884097 0 0.046440787055901607 0.00018985709943023733 0 0.048755413003871567 0.00057907073549884097 0 0.048687969668804239 0.00082422745060875178 0 0.048834043491649645 0.00081751538625162801 0 0.046369535335181199 0.0014351349013138803 0 0.045782447774453325 0.0013519865666584043 0 0.048834043491649645 0.00081751538625162801 0 0.048745323995120778 0.00095227297032460072 0 0.048852976920032327 0.0010334334799785123 0 0.048687969668804239 0.00082422745060875178 0 0.048834043491649645 0.00081751538625162801 0 0.048745323995120778 0.00095227297032460072 0 0.045782447774453325 0.0013519865666584043 0 0.044089297503255812 0.00097045072365429055 0 0.048687969668804239 0.00082422745060875178 0 0.048745323995120778 0.00095227297032460072 0 0.048610340685192557 0.0010313917842334739 0 0.048687969668804239 0.00082422745060875178 0 0.048610340685192557 0.0010313917842334739 0 0.048536328942885267 0.00095917230689039135 0 0.039319805297862206 0.00016814222127933573 0 0.037556868414080589 0.001418854327376772 0 0.048745323995120778 0.00095227297032460072 0 0.048610340685192557 0.0010313917842334739 0 0.04869211192967119 0.001136385033359217 0 0.048610340685192557 0.0010313917842334739 0 0.04869211192967119 0.001136385033359217 0 0.048434480299090761 0.00106167454585635 0 0.048745323995120778 0.00095227297032460072 0 0.048852976920032327 0.0010334334799785123 0 0.04869211192967119 0.001136385033359217 0 0.043942177332435023 0.00011444505083895775 0 0.044720010831761865 0.00018902547931054582 0 0.041784149528042082 5.3006983319944479e-05 0 0.046440787055901607 0.00018985709943023733 0 0.043942177332435023 0.00011444505083895775 0 0.044720010831761865 0.00018902547931054582 0 0.046605929553457714 5.9171108634143513e-07 0 0.044720010831761865 0.00018902547931054582 0 0.04277657000928798 9.9277269557312261e-07 0 0.04277657000928798 9.9277269557312261e-07 0 0.041784149528042082 5.3006983319944479e-05 0 0.038943801024952304 -2.3901532074255309e-06 0 0.044720010831761865 0.00018902547931054582 0 0.04277657000928798 9.9277269557312261e-07 0 0.041784149528042082 5.3006983319944479e-05 0 0.041784149528042082 5.3006983319944479e-05 0 0.040298356851010936 -0.00024711249187046262 0 0.038943801024952304 -2.3901532074255309e-06 0 0.041784149528042082 5.3006983319944479e-05 0 0.040298356851010936 -0.00024711249187046262 0 0.042038071849078568 -0.00076524210436654553 0 0.040298356851010936 -0.00024711249187046262 0 0.038943801024952304 -2.3901532074255309e-06 0 0.037638384712176121 -0.00033750877701899909 0 0.044089297503255812 0.00097045072365429055 0 0.040833746357657068 -0.00071582853313204887 0 0.043942177332435023 0.00011444505083895775 0 0.041784149528042082 5.3006983319944479e-05 0 0.042038071849078568 -0.00076524210436654553 0 0.034516258005887132 -0.0021149169162922137 0 0.035022270190734048 0.00017987614032589019 0 0.037638384712176121 -0.00033750877701899909 0 0.033353765922790803 -0.0026926964768866084 0 0.03260920031294165 -0.0010275062457754363 0 0.030685656469457465 -0.0019298174769731659 0 0.033353765922790803 -0.0026926964768866084 0 0.03260920031294165 -0.0010275062457754363 0 0.035022270190734048 0.00017987614032589019 0 0.040833746357657068 -0.00071582853313204887 0 0.040266021317149181 -0.00086599340739392829 0 0.03260920031294165 -0.0010275062457754363 0 0.035022270190734048 0.00017987614032589019 0 0.034702700026269656 0.00067666774203122275 0 0.035022270190734048 0.00017987614032589019 0 0.037638384712176121 -0.00033750877701899909 0 0.035118377971974618 1.746576540205542e-06 0 0.038943801024952304 -2.3901532074255309e-06 0 0.037638384712176121 -0.00033750877701899909 0 0.035118377971974618 1.746576540205542e-06 0 0.040298356851010936 -0.00024711249187046262 0 0.042038071849078568 -0.00076524210436654553 0 0.037638384712176121 -0.00033750877701899909 0 0.040833746357657068 -0.00071582853313204887 0 0.039855779481252754 -0.00095907008101160749 0 0.035022270190734048 0.00017987614032589019 0 0.035118377971974618 1.746576540205542e-06 0 0.034702700026269656 0.00067666774203122275 0 0.035109323193923438 -3.8067793818182997e-06 0 0.031599705133392421 -0.00058597305979012906 0 0.032660515972405664 6.926165535332975e-05 0 0.035109323193923438 -3.8067793818182997e-06 0 0.03042121856106025 -0.0020408046488506449 0 0.031599705133392421 -0.00058597305979012906 0 0.035111107201126708 -5.9588714402807696e-07 0 0.032930748154127505 -0.00066748813435038384 0 0.03042121856106025 -0.0020408046488506449 0 0.030431454794604698 -0.0012450252984953329 0 0.031599705133392421 -0.00058597305979012906 0 0.03042121856106025 -0.0020408046488506449 0 0.030431454794604698 -0.0012450252984953329 0 0.029753615197287531 -0.0014003099388472746 0 0.030166388108515838 -0.00077824695115199811 0 0.030431454794604698 -0.0012450252984953329 0 0.029753615197287531 -0.0014003099388472746 0 0.030166388108515838 -0.00077824695115199811 0 0.031599705133392421 -0.00058597305979012906 0 0.030785391042667795 -4.9780394520261764e-05 0 0.030166388108515838 -0.00077824695115199811 0 0.030431454794604698 -0.0012450252984953329 0 0.031599705133392421 -0.00058597305979012906 0 0.031119538755885211 0.00043925255161888897 0 0.030785391042667795 -4.9780394520261764e-05 0 0.029597488697843611 0.00037957934854878863 0 0.030166388108515838 -0.00077824695115199811 0 0.030785391042667795 -4.9780394520261764e-05 0 0.029404402514545205 -0.00034095239837887616 0 0.030785391042667795 -4.9780394520261764e-05 0 0.029597488697843611 0.00037957934854878863 0 0.029404402514545205 -0.00034095239837887616 0 0.035109323193923438 -3.8067793818182997e-06 0 0.032734537169492206 9.3686434726893892e-07 0 0.032660515972405664 6.926165535332975e-05 0 0.031119538755885211 0.00043925255161888897 0 0.030785391042667795 -4.9780394520261764e-05 0 0.032660515972405664 6.926165535332975e-05 0 0.031119538755885211 0.00043925255161888897 0 0.032734537169492206 9.3686434726893892e-07 0 0.032660515972405664 6.926165535332975e-05 0 0.031599705133392421 -0.00058597305979012906 0 0.030785391042667795 -4.9780394520261764e-05 0 0.032660515972405664 6.926165535332975e-05 0 0.028409742546598386 -0.00056613566017648569 0 0.027185194319029674 0.0001365736785201893 0 0.026816183788311802 -0.0004723685607674362 0 0.02642174760209752 0.00060773813145710239 0 0.027128139981888223 0.00078346577903518587 0 0.027185194319029674 0.0001365736785201893 0 0.027128139981888223 0.00078346577903518587 0 0.027185194319029674 0.0001365736785201893 0 0.027768243890786446 0.00027725177868658852 0 0.028409742546598386 -0.00056613566017648569 0 0.027185194319029674 0.0001365736785201893 0 0.027768243890786446 0.00027725177868658852 0 0.028409742546598386 -0.00056613566017648569 0 0.027768243890786446 0.00027725177868658852 0 0.028620251285935736 0.00010017902030312992 0 0.029597488697843611 0.00037957934854878863 0 0.028620251285935736 0.00010017902030312992 0 0.029404402514545205 -0.00034095239837887616 0 0.028409742546598386 -0.00056613566017648569 0 0.028620251285935736 0.00010017902030312992 0 0.029404402514545205 -0.00034095239837887616 0 0.028409742546598386 -0.00056613566017648569 0 0.029366142283672483 -0.0010094642122882487 0 0.029149756034803877 -0.0011972475700435053 0 0.028409742546598386 -0.00056613566017648569 0 0.029404402514545205 -0.00034095239837887616 0 0.029366142283672483 -0.0010094642122882487 0 0.030166388108515838 -0.00077824695115199811 0 0.029366142283672483 -0.0010094642122882487 0 0.029753615197287531 -0.0014003099388472746 0 0.030166388108515838 -0.00077824695115199811 0 0.029404402514545205 -0.00034095239837887616 0 0.029366142283672483 -0.0010094642122882487 0 0.029366142283672483 -0.0010094642122882487 0 0.029753615197287531 -0.0014003099388472746 0 0.029149756034803877 -0.0011972475700435053 0 0.029753615197287531 -0.0014003099388472746 0 0.029149756034803877 -0.0011972475700435053 0 0.029480955412725815 -0.0011440722175458439 0 0.028160935768687449 -0.00026002692960651916 0 0.027913726259330873 0.000189821405467874 0 0.028409742546598386 -0.00056613566017648569 0 0.02866505914801333 -0.0013586287389720415 0 0.026816183788311802 -0.0004723685607674362 0 0.028409742546598386 -0.00056613566017648569 0 0.029149756034803877 -0.0011972475700435053 0 0.02866505914801333 -0.0013586287389720415 0 0.02866505914801333 -0.0013586287389720415 0 0.028897180603682068 -0.0014386148048694282 0 0.028936315878639089 -0.0014551161404864159 0 0.029149756034803877 -0.0011972475700435053 0 0.02866505914801333 -0.0013586287389720415 0 0.029480955412725815 -0.0011440722175458439 0 0.02866505914801333 -0.0013586287389720415 0 0.028897180603682068 -0.0014386148048694282 0 0.029480955412725815 -0.0011440722175458439 0 0.028897180603682068 -0.0014386148048694282 0 0.029480955412725815 -0.0011440722175458439 0 0.029354694741333967 -0.0017538088582996437 0 0.03042121856106025 -0.0020408046488506449 0 0.029753615197287531 -0.0014003099388472746 0 0.029480955412725815 -0.0011440722175458439 0 0.03260920031294165 -0.0010275062457754363 0 0.034702700026269656 0.00067666774203122275 0 0.029480955412725815 -0.0011440722175458439 0 0.032930748154127505 -0.00066748813435038384 0 0.031773324168520113 -0.0010135235909022695 0 0.029480955412725815 -0.0011440722175458439 0 0.030685656469457465 -0.0019298174769731659 0 0.029354694741333967 -0.0017538088582996437 0 0.03260920031294165 -0.0010275062457754363 0 0.029480955412725815 -0.0011440722175458439 0 0.030685656469457465 -0.0019298174769731659 0 0.033353765922790803 -0.0026926964768866084 0 0.030685656469457465 -0.0019298174769731659 0 0.029197900264632228 -0.002454444806404615 0 0.040833746357657068 -0.00071582853313204887 0 0.039319805297862206 0.00016814222127933573 0 0.048852976920032327 0.0010334334799785123 0 0.04886559417740146 0.0012023424139645251 0 0.04869211192967119 0.001136385033359217 0 0.030685656469457465 -0.0019298174769731659 0 0.029354694741333967 -0.0017538088582996437 0 0.029197900264632228 -0.002454444806404615 0 0.028979847276086417 -0.0017303885465357323 0 0.029197900264632228 -0.002454444806404615 0 0.028927462533534239 -0.0015614103189124052 0 0.028897180603682068 -0.0014386148048694282 0 0.028979847276086417 -0.0017303885465357323 0 0.02891402693004775 -0.0014738679844075655 0 0.028897180603682068 -0.0014386148048694282 0 0.028979847276086417 -0.0017303885465357323 0 0.029354694741333967 -0.0017538088582996437 0 0.028979847276086417 -0.0017303885465357323 0 0.029354694741333967 -0.0017538088582996437 0 0.029197900264632228 -0.002454444806404615 0 0.028927462533534239 -0.0015614103189124052 0 0.02891402693004775 -0.0014738679844075655 0 0.02904364841762402 -0.0011800145625811287 0 0.02891402693004775 -0.0014738679844075655 0 0.02904364841762402 -0.0011800145625811287 0 0.029100196790667641 -0.0013788660139927578 0 0.028979847276086417 -0.0017303885465357323 0 0.028927462533534239 -0.0015614103189124052 0 0.02891402693004775 -0.0014738679844075655 0 0.02904364841762402 -0.0011800145625811287 0 0.029412395133281546 -0.0011434231920016543 0 0.029700286407645778 -0.00013978768026624288 0 0.02904364841762402 -0.0011800145625811287 0 0.029412395133281546 -0.0011434231920016543 0 0.029100196790667641 -0.0013788660139927578 0 0.029412395133281546 -0.0011434231920016543 0 0.02933415296425276 -0.0013942358039906433 0 0.029100196790667641 -0.0013788660139927578 0 0.02933415296425276 -0.0013942358039906433 0 0.029100196790667641 -0.0013788660139927578 0 0.029181849785543855 -0.0014898398332271428 0 0.029100196790667641 -0.0013788660139927578 0 0.029181849785543855 -0.0014898398332271428 0 0.028936315878639089 -0.0014551161404864159 0 0.02933415296425276 -0.0013942358039906433 0 0.029181849785543855 -0.0014898398332271428 0 0.029397325054993449 -0.0015327269801911968 0 0.02891402693004775 -0.0014738679844075655 0 0.029100196790667641 -0.0013788660139927578 0 0.028936315878639089 -0.0014551161404864159 0 0.028897180603682068 -0.0014386148048694282 0 0.02891402693004775 -0.0014738679844075655 0 0.028936315878639089 -0.0014551161404864159 0 0.028936315878639089 -0.0014551161404864159 0 0.029146526210193317 -0.0016585852269300598 0 0.02886571790995518 -0.0017500556384138506 0 0.02866505914801333 -0.0013586287389720415 0 0.028936315878639089 -0.0014551161404864159 0 0.02886571790995518 -0.0017500556384138506 0 0.029146526210193317 -0.0016585852269300598 0 0.02941458661809045 -0.0017647274879174976 0 0.029397325054993449 -0.0015327269801911968 0 0.029181849785543855 -0.0014898398332271428 0 0.028936315878639089 -0.0014551161404864159 0 0.029146526210193317 -0.0016585852269300598 0 0.029181849785543855 -0.0014898398332271428 0 0.029146526210193317 -0.0016585852269300598 0 0.029397325054993449 -0.0015327269801911968 0 0.02906599275579462 -0.0020267455443913267 0 0.029092662912661625 -0.0018941214170527599 0 0.02941458661809045 -0.0017647274879174976 0 0.029146526210193317 -0.0016585852269300598 0 0.029092662912661625 -0.0018941214170527599 0 0.02941458661809045 -0.0017647274879174976 0 0.027020439466886113 0.0019932727735226326 0 0.029384517014259665 0.00093845601513731919 0 0.029429979106613473 0.0036606373868367328 0 0.029484671605442207 0.0036340230874068336 0 0.029278860034367308 0.0035499082893884139 0 0.02642174760209752 0.00060773813145710239 0 0.025525845120355287 0.00083794313792335976 0 0.026816183788311802 -0.0004723685607674362 0 0.02906599275579462 -0.0020267455443913267 0 0.029092662912661625 -0.0018941214170527599 0 0.02886571790995518 -0.0017500556384138506 0 0.027020439466886113 0.0019932727735226326 0 0.027913726259330873 0.000189821405467874 0 0.029146526210193317 -0.0016585852269300598 0 0.029092662912661625 -0.0018941214170527599 0 0.02886571790995518 -0.0017500556384138506 0 0.02642174760209752 0.00060773813145710239 0 0.027185194319029674 0.0001365736785201893 0 0.026816183788311802 -0.0004723685607674362 0 0.029326731704395703 0.003466006843566986 0 0.029440785378214936 0.0035882698367755792 0 0.029278860034367308 0.0035499082893884139 0 0.029326731704395703 0.003466006843566986 0 0.029497872039102726 0.0034995966369301412 0 0.02958340064938601 0.0032861442489542157 0 0.029326731704395703 0.003466006843566986 0 0.029497872039102726 0.0034995966369301412 0 0.029440785378214936 0.0035882698367755792 0 0.029429979106613473 0.0036606373868367328 0 0.029440785378214936 0.0035882698367755792 0 0.029278860034367308 0.0035499082893884139 0 0.02941458661809045 -0.0017647274879174976 0 0.029397325054993449 -0.0015327269801911968 0 0.029727772438933906 -0.0015272347208849322 0 0.029326731704395703 0.003466006843566986 0 0.028834938667787649 0.0044705325498263313 0 0.03023575899513865 0.0028781276129241822 0 0.029384517014259665 0.00093845601513731919 0 0.031333655020579033 -0.00035000370046957936 0 0.029326731704395703 0.003466006843566986 0 0.029278860034367308 0.0035499082893884139 0 0.028834938667787649 0.0044705325498263313 0 0.03188190506601999 -0.0033420973586580412 0 0.030426267250138493 -0.0019937386939643054 0 0.031896433448441522 -0.0012138150103099901 0 0.031333655020579033 -0.00035000370046957936 0 0.030870508192543354 -0.00064011129772991761 0 0.029397325054993449 -0.0015327269801911968 0 0.029727772438933906 -0.0015272347208849322 0 0.02953352204014846 -0.0013678696031246408 0 0.02933415296425276 -0.0013942358039906433 0 0.029397325054993449 -0.0015327269801911968 0 0.02953352204014846 -0.0013678696031246408 0 0.029412395133281546 -0.0011434231920016543 0 0.02933415296425276 -0.0013942358039906433 0 0.02953352204014846 -0.0013678696031246408 0 0.029412395133281546 -0.0011434231920016543 0 0.030567405686018987 -0.0006772366353267051 0 0.029700286407645778 -0.00013978768026624288 0 0.030603512059669838 -0.00062184409485437824 0 0.030870508192543354 -0.00064011129772991761 0 0.029412395133281546 -0.0011434231920016543 0 0.030426267250138493 -0.0019937386939643054 0 0.030567405686018987 -0.0006772366353267051 0 0.030567405686018987 -0.0006772366353267051 0 0.031896433448441522 -0.0012138150103099901 0 0.03184748422725095 0.00075597889284918123 0 0.030426267250138493 -0.0019937386939643054 0 0.030567405686018987 -0.0006772366353267051 0 0.031896433448441522 -0.0012138150103099901 0 0.030536600514030267 0.0024807705612833893 0 0.028922010591841154 0.0047532348256653168 0 0.026467181270571061 0.0031579074095039786 0 0.030536600514030267 0.0024807705612833893 0 0.028922010591841154 0.0047532348256653168 0 0.032987210696198199 0.0056801266827750403 0 0.028922010591841154 0.0047532348256653168 0 0.029636651990313727 0.0072310713152684272 0 0.032987210696198199 0.0056801266827750403 0 0.028922010591841154 0.0047532348256653168 0 0.029636651990313727 0.0072310713152684272 0 0.026034974828589998 0.0053415495540452751 0 0.039310569731048343 0.003134970148739244 0 0.037923759392793209 0.002333175358945548 0 0.047710101363029951 0.00097028387639284345 0 0.048140641756196804 0.00108221347277326 0 0.048195065848064746 0.0008605484608540184 0 0.031950810976250285 0.0016919243019763747 0 0.031271071398501639 0.0018298250698581145 0 0.028922010591841154 0.0047532348256653168 0 0.026034974828589998 0.0053415495540452751 0 0.026467181270571061 0.0031579074095039786 0 0.030567405686018987 -0.0006772366353267051 0 0.03184748422725095 0.00075597889284918123 0 0.029700286407645778 -0.00013978768026624288 0 0.031271071398501639 0.0018298250698581145 0 0.037556868414080589 0.001418854327376772 0 0.02904364841762402 -0.0011800145625811287 0 0.029700286407645778 -0.00013978768026624288 0 0.028889256166377351 -0.00096801003754155596 0 0.026034974828589998 0.0053415495540452751 0 0.026467181270571061 0.0031579074095039786 0 0.022664602086800947 0.0036712299460582259 0 0.037923759392793209 0.002333175358945548 0 0.037556868414080589 0.001418854327376772 0 0.041083800983769021 0.0010635188948528833 0 0.037556868414080589 0.001418854327376772 0 0.029197900264632228 -0.002454444806404615 0 0.028927462533534239 -0.0015614103189124052 0 0.028889256166377351 -0.00096801003754155596 0 0.048610340685192557 0.0010313917842334739 0 0.048458171706208669 0.0011158119983287074 0 0.048536328942885267 0.00095917230689039135 0 0.028927462533534239 -0.0015614103189124052 0 0.02904364841762402 -0.0011800145625811287 0 0.028889256166377351 -0.00096801003754155596 0 0.048687969668804239 0.00082422745060875178 0 0.048536328942885267 0.00095917230689039135 0 0.048498312320267835 0.00083049492024559791 0 0.048458171706208669 0.0011158119983287074 0 0.048536328942885267 0.00095917230689039135 0 0.048384114311077274 0.00097941571712705931 0 0.048536328942885267 0.00095917230689039135 0 0.048384114311077274 0.00097941571712705931 0 0.048498312320267835 0.00083049492024559791 0 0.048140641756196804 0.00108221347277326 0 0.048458171706208669 0.0011158119983287074 0 0.048384114311077274 0.00097941571712705931 0 0.048140641756196804 0.00108221347277326 0 0.048384114311077274 0.00097941571712705931 0 0.048195065848064746 0.0008605484608540184 0 0.048384114311077274 0.00097941571712705931 0 0.048195065848064746 0.0008605484608540184 0 0.048498312320267835 0.00083049492024559791 0 0.048195065848064746 0.0008605484608540184 0 0.048498312320267835 0.00083049492024559791 0 0.04832538449927349 0.00060648330168892883 0 0.048195065848064746 0.0008605484608540184 0 0.04832538449927349 0.00060648330168892883 0 0.04801155814630572 0.00069410835886539078 0 0.048687969668804239 0.00082422745060875178 0 0.048498312320267835 0.00083049492024559791 0 0.048764967953154825 0.00059504176759962713 0 0.048498312320267835 0.00083049492024559791 0 0.048764967953154825 0.00059504176759962713 0 0.04832538449927349 0.00060648330168892883 0 0.048764967953154825 0.00059504176759962713 0 0.04832538449927349 0.00060648330168892883 0 0.048250018023326062 0.00013203861047293995 0 0.04832538449927349 0.00060648330168892883 0 0.047897175654177608 0.00036066547766277585 0 0.048250018023326062 0.00013203861047293995 0 0.047897175654177608 0.00036066547766277585 0 0.047636392762350079 0.00062751415264592869 0 0.04801155814630572 0.00069410835886539078 0 0.04832538449927349 0.00060648330168892883 0 0.047897175654177608 0.00036066547766277585 0 0.04801155814630572 0.00069410835886539078 0 0.047897175654177608 0.00036066547766277585 0 0.047636392762350079 0.00062751415264592869 0 0.047363974130088353 0.00033320995030789824 0 0.047710101363029951 0.00097028387639284345 0 0.047636392762350079 0.00062751415264592869 0 0.04801155814630572 0.00069410835886539078 0 0.047710101363029951 0.00097028387639284345 0 0.047636392762350079 0.00062751415264592869 0 0.047243601349871489 0.00078540784673059613 0 0.047710101363029951 0.00097028387639284345 0 0.048195065848064746 0.0008605484608540184 0 0.04801155814630572 0.00069410835886539078 0 0.041195917365489415 0.0035855255876056191 0 0.043686255040068546 0.0034745793073875783 0 0.035573764361793804 0.0088367969954877019 0 0.033419061711539758 0.0091993319462696042 0 0.037158485422515215 0.011257637268553373 0 0.035573764361793804 0.0088367969954877019 0 0.036849740785047651 0.0091111835035434189 0 0.037158485422515215 0.011257637268553373 0 0.035573764361793804 0.0088367969954877019 0 0.036849740785047651 0.0091111835035434189 0 0.036741819009246092 0.0074213028379347392 0 0.035573764361793804 0.0088367969954877019 0 0.033419061711539758 0.0091993319462696042 0 0.032987210696198199 0.0056801266827750403 0 0.039310569731048343 0.003134970148739244 0 0.041195917365489415 0.0035855255876056191 0 0.047636392762350079 0.00062751415264592869 0 0.047243601349871489 0.00078540784673059613 0 0.047363974130088353 0.00033320995030789824 0 0.047243601349871489 0.00078540784673059613 0 0.047363974130088353 0.00033320995030789824 0 0.047088985399410734 0.00056447310879182777 0 0.047363974130088353 0.00033320995030789824 0 0.04705955251454591 0.0003671445867485996 0 0.047088985399410734 0.00056447310879182777 0 0.047243601349871489 0.00078540784673059613 0 0.047088985399410734 0.00056447310879182777 0 0.046795927980698801 0.00056798489091814948 0 0.04705955251454591 0.0003671445867485996 0 0.047088985399410734 0.00056447310879182777 0 0.046890566305786897 0.00044668104582977047 0 0.047088985399410734 0.00056447310879182777 0 0.046890566305786897 0.00044668104582977047 0 0.046795927980698801 0.00056798489091814948 0 0.046890566305786897 0.00044668104582977047 0 0.046795927980698801 0.00056798489091814948 0 0.046808086686387342 0.00049988719129917297 0 0.04705955251454591 0.0003671445867485996 0 0.046890566305786897 0.00044668104582977047 0 0.046896443161174355 0.00030976939194708318 0 0.046896443161174355 0.00030976939194708318 0 0.046815591888125632 0.00035768960415843623 0 0.046789957891064347 0.00026973121585316206 0 0.046890566305786897 0.00044668104582977047 0 0.046896443161174355 0.00030976939194708318 0 0.046815591888125632 0.00035768960415843623 0 0.038472238547888227 0.011082328939131098 0 0.037158485422515215 0.011257637268553373 0 0.040151017284534248 0.011774618057505768 0 0.046815591888125632 0.00035768960415843623 0 0.046781996087381136 0.00042967280799299237 0 0.046720087214336889 0.00033299647787334301 0 0.046815591888125632 0.00035768960415843623 0 0.046720087214336889 0.00033299647787334301 0 0.046789957891064347 0.00026973121585316206 0 0.043686255040068546 0.0034745793073875783 0 0.045922803979724612 0.0038897299609163146 0 0.046678243749981072 0.00045985819388561546 0 0.046795927980698801 0.00056798489091814948 0 0.046331442125693796 0.00032943366078677026 0 0.046678243749981072 0.00045985819388561546 0 0.04661316458097077 0.00041352902761430119 0 0.046331442125693796 0.00032943366078677026 0 0.043686255040068546 0.0034745793073875783 0 0.044725940209070697 0.0029846095352584518 0 0.037158485422515215 0.011257637268553373 0 0.042029326144716321 0.013118329433164514 0 0.040151017284534248 0.011774618057505768 0 0.046890566305786897 0.00044668104582977047 0 0.046781996087381136 0.00042967280799299237 0 0.046808086686387342 0.00049988719129917297 0 0.046890566305786897 0.00044668104582977047 0 0.046815591888125632 0.00035768960415843623 0 0.046781996087381136 0.00042967280799299237 0 0.046781996087381136 0.00042967280799299237 0 0.046808086686387342 0.00049988719129917297 0 0.046750422322133743 0.00047368684479507284 0 0.046781996087381136 0.00042967280799299237 0 0.046699617373345527 0.00040911988709754635 0 0.046750422322133743 0.00047368684479507284 0 0.046781996087381136 0.00042967280799299237 0 0.046699617373345527 0.00040911988709754635 0 0.046720087214336889 0.00033299647787334301 0 0.046678243749981072 0.00045985819388561546 0 0.046699617373345527 0.00040911988709754635 0 0.046750422322133743 0.00047368684479507284 0 0.046699617373345527 0.00040911988709754635 0 0.046720087214336889 0.00033299647787334301 0 0.046636650542739085 0.00036242254969699137 0 0.046636650542739085 0.00036242254969699137 0 0.04653582811072704 0.0003575462696004195 0 0.046614898775219862 0.00029886577156531223 0 0.046720087214336889 0.00033299647787334301 0 0.046636650542739085 0.00036242254969699137 0 0.046614898775219862 0.00029886577156531223 0 0.046636650542739085 0.00036242254969699137 0 0.04653582811072704 0.0003575462696004195 0 0.04661316458097077 0.00041352902761430119 0 0.04653582811072704 0.0003575462696004195 0 0.046509590742562563 0.0002871258897361192 0 0.046614898775219862 0.00029886577156531223 0 0.046699617373345527 0.00040911988709754635 0 0.046636650542739085 0.00036242254969699137 0 0.04661316458097077 0.00041352902761430119 0 0.046678243749981072 0.00045985819388561546 0 0.046699617373345527 0.00040911988709754635 0 0.04661316458097077 0.00041352902761430119 0 0.039236259203980176 0.011145781620876915 0 0.038472238547888227 0.011082328939131098 0 0.040151017284534248 0.011774618057505768 0 0.039639725940574591 0.011219237943960545 0 0.039236259203980176 0.011145781620876915 0 0.040151017284534248 0.011774618057505768 0 0.039639725940574591 0.011219237943960545 0 0.040138201729478261 0.010943417446023616 0 0.039381826436221089 0.010580689374139494 0 0.039236259203980176 0.011145781620876915 0 0.03866098120999889 0.010656471525601655 0 0.039381826436221089 0.010580689374139494 0 0.039639725940574591 0.011219237943960545 0 0.039236259203980176 0.011145781620876915 0 0.039381826436221089 0.010580689374139494 0 0.039236259203980176 0.011145781620876915 0 0.038472238547888227 0.011082328939131098 0 0.03866098120999889 0.010656471525601655 0 0.038472238547888227 0.011082328939131098 0 0.03800801699869203 0.010808530038241468 0 0.03866098120999889 0.010656471525601655 0 0.038472238547888227 0.011082328939131098 0 0.03800801699869203 0.010808530038241468 0 0.037158485422515215 0.011257637268553373 0 0.03800801699869203 0.010808530038241468 0 0.037158485422515215 0.011257637268553373 0 0.037814481718027163 0.010451072470695311 0 0.046795927980698801 0.00056798489091814948 0 0.046808086686387342 0.00049988719129917297 0 0.046750422322133743 0.00047368684479507284 0 0.046678243749981072 0.00045985819388561546 0 0.046795927980698801 0.00056798489091814948 0 0.046750422322133743 0.00047368684479507284 0 0.046635781391867352 0.00053217164902050868 0 0.046331442125693796 0.00032943366078677026 0 0.046293058715571572 0.00038443602101996874 0 0.042029326144716321 0.013118329433164514 0 0.042357662845443109 0.012298807641366096 0 0.043185811713357607 0.012391027211265575 0 0.046278137356794605 0.00029815880520814498 0 0.046293058715571572 0.00038443602101996874 0 0.046191865630547134 0.00025713681035863717 0 0.046278137356794605 0.00029815880520814498 0 0.046331442125693796 0.00032943366078677026 0 0.046293058715571572 0.00038443602101996874 0 0.042029326144716321 0.013118329433164514 0 0.041356892526073573 0.012327706911645872 0 0.041819617395780259 0.012245974504733812 0 0.042029326144716321 0.013118329433164514 0 0.041819617395780259 0.012245974504733812 0 0.042357662845443109 0.012298807641366096 0 0.04653582811072704 0.0003575462696004195 0 0.04661316458097077 0.00041352902761430119 0 0.046331442125693796 0.00032943366078677026 0 0.04653582811072704 0.0003575462696004195 0 0.046331442125693796 0.00032943366078677026 0 0.046445861411756412 0.0003015252196595956 0 0.04653582811072704 0.0003575462696004195 0 0.046509590742562563 0.0002871258897361192 0 0.046445861411756412 0.0003015252196595956 0 0.042029326144716321 0.013118329433164514 0 0.040151017284534248 0.011774618057505768 0 0.041356892526073573 0.012327706911645872 0 0.040151017284534248 0.011774618057505768 0 0.040138201729478261 0.010943417446023616 0 0.040792786806708739 0.011260421852228987 0 0.039639725940574591 0.011219237943960545 0 0.040151017284534248 0.011774618057505768 0 0.040138201729478261 0.010943417446023616 0 0.040792786806708739 0.011260421852228987 0 0.041282531588712985 0.011723293357060889 0 0.041576358902416392 0.010969987205428437 0 0.040151017284534248 0.011774618057505768 0 0.040792786806708739 0.011260421852228987 0 0.041282531588712985 0.011723293357060889 0 0.040151017284534248 0.011774618057505768 0 0.041282531588712985 0.011723293357060889 0 0.041356892526073573 0.012327706911645872 0 0.041282531588712985 0.011723293357060889 0 0.041356892526073573 0.012327706911645872 0 0.041819617395780259 0.012245974504733812 0 0.041819617395780259 0.012245974504733812 0 0.042023169407136712 0.011757789005369629 0 0.042357662845443109 0.012298807641366096 0 0.041282531588712985 0.011723293357060889 0 0.041819617395780259 0.012245974504733812 0 0.042023169407136712 0.011757789005369629 0 0.041282531588712985 0.011723293357060889 0 0.042023169407136712 0.011757789005369629 0 0.041576358902416392 0.010969987205428437 0 0.042023169407136712 0.011757789005369629 0 0.041576358902416392 0.010969987205428437 0 0.042729085482454215 0.010866537344886134 0 0.042023169407136712 0.011757789005369629 0 0.042785532183486755 0.011771661876153179 0 0.042729085482454215 0.010866537344886134 0 0.042785532183486755 0.011771661876153179 0 0.042357662845443109 0.012298807641366096 0 0.043185811713357607 0.012391027211265575 0 0.042023169407136712 0.011757789005369629 0 0.042785532183486755 0.011771661876153179 0 0.042357662845443109 0.012298807641366096 0 0.042729085482454215 0.010866537344886134 0 0.041902763106239339 0.01009545202907474 0 0.042987909236070994 0.0093218701671743606 0 0.041902763106239339 0.01009545202907474 0 0.04143939982721364 0.0090244797856538495 0 0.042987909236070994 0.0093218701671743606 0 0.041576358902416392 0.010969987205428437 0 0.042729085482454215 0.010866537344886134 0 0.041902763106239339 0.01009545202907474 0 0.041576358902416392 0.010969987205428437 0 0.041902763106239339 0.01009545202907474 0 0.040921486919120238 0.010356486562223642 0 0.041902763106239339 0.01009545202907474 0 0.040921486919120238 0.010356486562223642 0 0.04143939982721364 0.0090244797856538495 0 0.040921486919120238 0.010356486562223642 0 0.040221565052213686 0.0091077670145905208 0 0.04143939982721364 0.0090244797856538495 0 0.040138201729478261 0.010943417446023616 0 0.040792786806708739 0.011260421852228987 0 0.040921486919120238 0.010356486562223642 0 0.040792786806708739 0.011260421852228987 0 0.041576358902416392 0.010969987205428437 0 0.040921486919120238 0.010356486562223642 0 0.040138201729478261 0.010943417446023616 0 0.040921486919120238 0.010356486562223642 0 0.040016438111593104 0.010210702268542114 0 0.040138201729478261 0.010943417446023616 0 0.040016438111593104 0.010210702268542114 0 0.039381826436221089 0.010580689374139494 0 0.040016438111593104 0.010210702268542114 0 0.040221565052213686 0.0091077670145905208 0 0.03928042975523148 0.0097177091998457803 0 0.040921486919120238 0.010356486562223642 0 0.040016438111593104 0.010210702268542114 0 0.040221565052213686 0.0091077670145905208 0 0.040221565052213686 0.0091077670145905208 0 0.039586386675868133 0.0080064871860383111 0 0.040597741264644632 0.0076079922756166008 0 0.040221565052213686 0.0091077670145905208 0 0.04143939982721364 0.0090244797856538495 0 0.040597741264644632 0.0076079922756166008 0 0.04143939982721364 0.0090244797856538495 0 0.042053321020645483 0.0080700804149879991 0 0.042987909236070994 0.0093218701671743606 0 0.04143939982721364 0.0090244797856538495 0 0.042053321020645483 0.0080700804149879991 0 0.040597741264644632 0.0076079922756166008 0 0.036849740785047651 0.0091111835035434189 0 0.037158485422515215 0.011257637268553373 0 0.037545578695711984 0.0099372929380288078 0 0.038339125645238101 0.0094786144019471073 0 0.037545578695711984 0.0099372929380288078 0 0.038185128889061427 0.010184700347136207 0 0.037673040560904633 0.0092528335990243269 0 0.038339125645238101 0.0094786144019471073 0 0.037545578695711984 0.0099372929380288078 0 0.036849740785047651 0.0091111835035434189 0 0.037673040560904633 0.0092528335990243269 0 0.037545578695711984 0.0099372929380288078 0 0.037158485422515215 0.011257637268553373 0 0.037545578695711984 0.0099372929380288078 0 0.037814481718027163 0.010451072470695311 0 0.037545578695711984 0.0099372929380288078 0 0.037814481718027163 0.010451072470695311 0 0.038185128889061427 0.010184700347136207 0 0.03800801699869203 0.010808530038241468 0 0.037814481718027163 0.010451072470695311 0 0.038185128889061427 0.010184700347136207 0 0.03800801699869203 0.010808530038241468 0 0.038185128889061427 0.010184700347136207 0 0.03866098120999889 0.010656471525601655 0 0.03866098120999889 0.010656471525601655 0 0.03874929400482556 0.010158957145193312 0 0.039381826436221089 0.010580689374139494 0 0.038185128889061427 0.010184700347136207 0 0.03866098120999889 0.010656471525601655 0 0.03874929400482556 0.010158957145193312 0 0.040016438111593104 0.010210702268542114 0 0.039381826436221089 0.010580689374139494 0 0.03928042975523148 0.0097177091998457803 0 0.03874929400482556 0.010158957145193312 0 0.039381826436221089 0.010580689374139494 0 0.03928042975523148 0.0097177091998457803 0 0.038339125645238101 0.0094786144019471073 0 0.03874929400482556 0.010158957145193312 0 0.03928042975523148 0.0097177091998457803 0 0.038339125645238101 0.0094786144019471073 0 0.03928042975523148 0.0097177091998457803 0 0.038985605900912192 0.0087768730136685482 0 0.038339125645238101 0.0094786144019471073 0 0.038185128889061427 0.010184700347136207 0 0.03874929400482556 0.010158957145193312 0 0.038339125645238101 0.0094786144019471073 0 0.038985605900912192 0.0087768730136685482 0 0.037829308471727455 0.0084595876943885581 0 0.040221565052213686 0.0091077670145905208 0 0.038985605900912192 0.0087768730136685482 0 0.039586386675868133 0.0080064871860383111 0 0.040221565052213686 0.0091077670145905208 0 0.03928042975523148 0.0097177091998457803 0 0.038985605900912192 0.0087768730136685482 0 0.038985605900912192 0.0087768730136685482 0 0.039586386675868133 0.0080064871860383111 0 0.038645177023809901 0.0078841813342662766 0 0.038985605900912192 0.0087768730136685482 0 0.038645177023809901 0.0078841813342662766 0 0.037829308471727455 0.0084595876943885581 0 0.038645177023809901 0.0078841813342662766 0 0.037829308471727455 0.0084595876943885581 0 0.037967655221306663 0.0070491040944888721 0 0.036849740785047651 0.0091111835035434189 0 0.037829308471727455 0.0084595876943885581 0 0.036741819009246092 0.0074213028379347392 0 0.037673040560904633 0.0092528335990243269 0 0.038339125645238101 0.0094786144019471073 0 0.037829308471727455 0.0084595876943885581 0 0.036849740785047651 0.0091111835035434189 0 0.037673040560904633 0.0092528335990243269 0 0.037829308471727455 0.0084595876943885581 0 0.037967655221306663 0.0070491040944888721 0 0.037019356315649961 0.0055937640049781101 0 0.036741819009246092 0.0074213028379347392 0 0.037829308471727455 0.0084595876943885581 0 0.037967655221306663 0.0070491040944888721 0 0.036741819009246092 0.0074213028379347392 0 0.038645177023809901 0.0078841813342662766 0 0.037967655221306663 0.0070491040944888721 0 0.039242934772794974 0.0068856787342175601 0 0.039586386675868133 0.0080064871860383111 0 0.038645177023809901 0.0078841813342662766 0 0.039242934772794974 0.0068856787342175601 0 0.037967655221306663 0.0070491040944888721 0 0.039242934772794974 0.0068856787342175601 0 0.038562450860842402 0.0055742362108893813 0 0.039242934772794974 0.0068856787342175601 0 0.038562450860842402 0.0055742362108893813 0 0.04005311738631414 0.0059909023112512004 0 0.038562450860842402 0.0055742362108893813 0 0.04005311738631414 0.0059909023112512004 0 0.039357558456399266 0.0041316993271847619 0 0.037967655221306663 0.0070491040944888721 0 0.038562450860842402 0.0055742362108893813 0 0.037019356315649961 0.0055937640049781101 0 0.038562450860842402 0.0055742362108893813 0 0.037019356315649961 0.0055937640049781101 0 0.03769947699277227 0.0042537485000862076 0 0.042053321020645483 0.0080700804149879991 0 0.04158267080070454 0.0066534966900751386 0 0.043702342247216572 0.007588449211736634 0 0.042053321020645483 0.0080700804149879991 0 0.04158267080070454 0.0066534966900751386 0 0.040597741264644632 0.0076079922756166008 0 0.039242934772794974 0.0068856787342175601 0 0.040597741264644632 0.0076079922756166008 0 0.04005311738631414 0.0059909023112512004 0 0.04158267080070454 0.0066534966900751386 0 0.040597741264644632 0.0076079922756166008 0 0.04005311738631414 0.0059909023112512004 0 0.039586386675868133 0.0080064871860383111 0 0.039242934772794974 0.0068856787342175601 0 0.040597741264644632 0.0076079922756166008 0 0.04158267080070454 0.0066534966900751386 0 0.04005311738631414 0.0059909023112512004 0 0.041038847531432464 0.0051376981626512323 0 0.04005311738631414 0.0059909023112512004 0 0.041038847531432464 0.0051376981626512323 0 0.039357558456399266 0.0041316993271847619 0 0.04158267080070454 0.0066534966900751386 0 0.041038847531432464 0.0051376981626512323 0 0.042956379580761747 0.0049719405416074917 0 0.041006193789012491 0.0036076649955668377 0 0.042213058858512738 0.0023264249557691198 0 0.042956379580761747 0.0049719405416074917 0 0.041038847531432464 0.0051376981626512323 0 0.041006193789012491 0.0036076649955668377 0 0.042956379580761747 0.0049719405416074917 0 0.041006193789012491 0.0036076649955668377 0 0.039536167864640689 0.0022874998323084393 0 0.039357558456399266 0.0041316993271847619 0 0.041038847531432464 0.0051376981626512323 0 0.041006193789012491 0.0036076649955668377 0 0.039357558456399266 0.0041316993271847619 0 0.041006193789012491 0.0036076649955668377 0 0.039536167864640689 0.0022874998323084393 0 0.042213058858512738 0.0023264249557691198 0 0.03769947699277227 0.0042537485000862076 0 0.039357558456399266 0.0041316993271847619 0 0.037895154015897541 0.0026597220071653284 0 0.03769947699277227 0.0042537485000862076 0 0.037895154015897541 0.0026597220071653284 0 0.036242700874707004 0.0036712174713499791 0 0.038562450860842402 0.0055742362108893813 0 0.03769947699277227 0.0042537485000862076 0 0.039357558456399266 0.0041316993271847619 0 0.039536167864640689 0.0022874998323084393 0 0.037895154015897541 0.0026597220071653284 0 0.037603891081767489 0.00071434281031392747 0 0.039536167864640689 0.0022874998323084393 0 0.039357558456399266 0.0041316993271847619 0 0.037895154015897541 0.0026597220071653284 0 0.037895154015897541 0.0026597220071653284 0 0.036692994904139874 0.0017150982876749932 0 0.036242700874707004 0.0036712174713499791 0 0.036692994904139874 0.0017150982876749932 0 0.035137926261721214 0.0016245205078199798 0 0.036242700874707004 0.0036712174713499791 0 0.036242700874707004 0.0036712174713499791 0 0.035484082345673858 0.0058109470308083553 0 0.034096062134254417 0.0038610296161552616 0 0.035137926261721214 0.0016245205078199798 0 0.036242700874707004 0.0036712174713499791 0 0.034096062134254417 0.0038610296161552616 0 0.037019356315649961 0.0055937640049781101 0 0.03769947699277227 0.0042537485000862076 0 0.036242700874707004 0.0036712174713499791 0 0.035573764361793804 0.0088367969954877019 0 0.035484082345673858 0.0058109470308083553 0 0.032987210696198199 0.0056801266827750403 0 0.037019356315649961 0.0055937640049781101 0 0.036242700874707004 0.0036712174713499791 0 0.035484082345673858 0.0058109470308083553 0 0.035573764361793804 0.0088367969954877019 0 0.035484082345673858 0.0058109470308083553 0 0.036741819009246092 0.0074213028379347392 0 0.037019356315649961 0.0055937640049781101 0 0.035484082345673858 0.0058109470308083553 0 0.036741819009246092 0.0074213028379347392 0 0.029636651990313727 0.0072310713152684272 0 0.033419061711539758 0.0091993319462696042 0 0.032987210696198199 0.0056801266827750403 0 0.035484082345673858 0.0058109470308083553 0 0.032987210696198199 0.0056801266827750403 0 0.034096062134254417 0.0038610296161552616 0 0.030536600514030267 0.0024807705612833893 0 0.032987210696198199 0.0056801266827750403 0 0.034096062134254417 0.0038610296161552616 0 0.030536600514030267 0.0024807705612833893 0 0.035137926261721214 0.0016245205078199798 0 0.034096062134254417 0.0038610296161552616 0 0.031950810976250285 0.0016919243019763747 0 0.033226507728128588 0.001560483527227039 0 0.03184748422725095 0.00075597889284918123 0 0.035137926261721214 0.0016245205078199798 0 0.033626032273027316 -6.29171621188251e-05 0 0.031896433448441522 -0.0012138150103099901 0 0.03184748422725095 0.00075597889284918123 0 0.033626032273027316 -6.29171621188251e-05 0 0.033626032273027316 -6.29171621188251e-05 0 0.036229605858696001 1.1491695229985168e-05 0 0.033681760650780761 -0.0020450048574004007 0 0.031896433448441522 -0.0012138150103099901 0 0.033626032273027316 -6.29171621188251e-05 0 0.033681760650780761 -0.0020450048574004007 0 0.036692994904139874 0.0017150982876749932 0 0.036229605858696001 1.1491695229985168e-05 0 0.037603891081767489 0.00071434281031392747 0 0.036692994904139874 0.0017150982876749932 0 0.035137926261721214 0.0016245205078199798 0 0.036229605858696001 1.1491695229985168e-05 0 0.035137926261721214 0.0016245205078199798 0 0.033626032273027316 -6.29171621188251e-05 0 0.036229605858696001 1.1491695229985168e-05 0 0.033951761666759631 0.00028730149931843437 0 0.033169304553891957 -1.6726967288086545e-05 0 0.036229605858696001 1.1491695229985168e-05 0 0.037157143643229383 -0.00055804168520576583 0 0.03673906788457125 -0.0011166692929568615 0 0.036229605858696001 1.1491695229985168e-05 0 0.037157143643229383 -0.00055804168520576583 0 0.037603891081767489 0.00071434281031392747 0 0.037157143643229383 -0.00055804168520576583 0 0.03673906788457125 -0.0011166692929568615 0 0.037552830720352162 -0.0012165143108805833 0 0.036229605858696001 1.1491695229985168e-05 0 0.03673906788457125 -0.0011166692929568615 0 0.036105784399648573 -0.0010145593587038025 0 0.03673906788457125 -0.0011166692929568615 0 0.036105784399648573 -0.0010145593587038025 0 0.03668961092976103 -0.0017395713493730271 0 0.03673906788457125 -0.0011166692929568615 0 0.03668961092976103 -0.0017395713493730271 0 0.037555649978079864 -0.0018381962637683646 0 0.03673906788457125 -0.0011166692929568615 0 0.037555649978079864 -0.0018381962637683646 0 0.037552830720352162 -0.0012165143108805833 0 0.03541793358406873 -0.0016776555763223133 0 0.036105784399648573 -0.0010145593587038025 0 0.03668961092976103 -0.0017395713493730271 0 0.03188190506601999 -0.0033420973586580412 0 0.031896433448441522 -0.0012138150103099901 0 0.033681760650780761 -0.0020450048574004007 0 0.031333655020579033 -0.00035000370046957936 0 0.033169304553891957 -1.6726967288086545e-05 0 0.03541793358406873 -0.0016776555763223133 0 0.03668961092976103 -0.0017395713493730271 0 0.037026729528761008 -0.0025201428798669501 0 0.031333655020579033 -0.00035000370046957936 0 0.033737469058708058 -0.00077271367645166612 0 0.028834938667787649 0.0044705325498263313 0 0.031864048332866005 0.0025592490813229588 0 0.03023575899513865 0.0028781276129241822 0 0.03668961092976103 -0.0017395713493730271 0 0.037342655797354338 -0.0022166656122012346 0 0.037026729528761008 -0.0025201428798669501 0 0.03668961092976103 -0.0017395713493730271 0 0.037342655797354338 -0.0022166656122012346 0 0.037555649978079864 -0.0018381962637683646 0 0.03518900611737065 -0.0014794316037991797 0 0.033737469058708058 -0.00077271367645166612 0 0.037342655797354338 -0.0022166656122012346 0 0.037026729528761008 -0.0025201428798669501 0 0.037664703908953365 -0.0022958127039773464 0 0.034434153951713821 -0.002279407859805088 0 0.031864048332866005 0.0025592490813229588 0 0.03023575899513865 0.0028781276129241822 0 0.030659872946141593 0.0022440567303219782 0 0.030255714589808354 0.0028158992572971777 0 0.028876451385818534 0.00377660232098272 0 0.027875298214743716 0.0043190447459346987 0 0.03023575899513865 0.0028781276129241822 0 0.028876451385818534 0.00377660232098272 0 0.02958340064938601 0.0032861442489542157 0 0.03023575899513865 0.0028781276129241822 0 0.028876451385818534 0.00377660232098272 0 0.029497872039102726 0.0034995966369301412 0 0.02958340064938601 0.0032861442489542157 0 0.029326731704395703 0.003466006843566986 0 0.02958340064938601 0.0032861442489542157 0 0.03023575899513865 0.0028781276129241822 0 0.037818770794478707 -0.0021890137450928143 0 0.037917855571082598 -0.0021884232547918769 0 0.038584566247208164 -0.0021964036292133567 0 0.037917855571082598 -0.0021884232547918769 0 0.037664703908953365 -0.0022958127039773464 0 0.038427685152960453 -0.0022962901094388966 0 0.037917855571082598 -0.0021884232547918769 0 0.038427685152960453 -0.0022962901094388966 0 0.038584566247208164 -0.0021964036292133567 0 0.037373341246906222 -0.0018161850153613215 0 0.037917855571082598 -0.0021884232547918769 0 0.037664703908953365 -0.0022958127039773464 0 0.037373341246906222 -0.0018161850153613215 0 0.037026729528761008 -0.0025201428798669501 0 0.037664703908953365 -0.0022958127039773464 0 0.037664703908953365 -0.0022958127039773464 0 0.037733118279200929 -0.0022235543259096304 0 0.03836145345926871 -0.0023417222273704086 0 0.037664703908953365 -0.0022958127039773464 0 0.03836145345926871 -0.0023417222273704086 0 0.038427685152960453 -0.0022962901094388966 0 0.037342655797354338 -0.0022166656122012346 0 0.037664703908953365 -0.0022958127039773464 0 0.037733118279200929 -0.0022235543259096304 0 0.037342655797354338 -0.0022166656122012346 0 0.037733118279200929 -0.0022235543259096304 0 0.037555649978079864 -0.0018381962637683646 0 0.037733118279200929 -0.0022235543259096304 0 0.037555649978079864 -0.0018381962637683646 0 0.03836145345926871 -0.0023417222273704086 0 0.037555649978079864 -0.0018381962637683646 0 0.03836145345926871 -0.0023417222273704086 0 0.038376899978380744 -0.0017410337845974136 0 0.03836145345926871 -0.0023417222273704086 0 0.038427685152960453 -0.0022962901094388966 0 0.039705337915630058 -0.002818639920354585 0 0.03836145345926871 -0.0023417222273704086 0 0.039705337915630058 -0.002818639920354585 0 0.038376899978380744 -0.0017410337845974136 0 0.038427685152960453 -0.0022962901094388966 0 0.039705337915630058 -0.002818639920354585 0 0.038584566247208164 -0.0021964036292133567 0 0.039705337915630058 -0.002818639920354585 0 0.03933786497211627 -0.0011377937648978642 0 0.042412161914348045 -0.00053445943358201159 0 0.039705337915630058 -0.002818639920354585 0 0.03933786497211627 -0.0011377937648978642 0 0.038376899978380744 -0.0017410337845974136 0 0.037555649978079864 -0.0018381962637683646 0 0.038376899978380744 -0.0017410337845974136 0 0.037552830720352162 -0.0012165143108805833 0 0.03933786497211627 -0.0011377937648978642 0 0.038376899978380744 -0.0017410337845974136 0 0.038128011822452075 -0.00065288293883798145 0 0.037157143643229383 -0.00055804168520576583 0 0.038128011822452075 -0.00065288293883798145 0 0.037552830720352162 -0.0012165143108805833 0 0.038376899978380744 -0.0017410337845974136 0 0.038128011822452075 -0.00065288293883798145 0 0.037552830720352162 -0.0012165143108805833 0 0.037157143643229383 -0.00055804168520576583 0 0.038128011822452075 -0.00065288293883798145 0 0.037603891081767489 0.00071434281031392747 0 0.038128011822452075 -0.00065288293883798145 0 0.037603891081767489 0.00071434281031392747 0 0.03962586946859091 0.00060898338952223728 0 0.03933786497211627 -0.0011377937648978642 0 0.038128011822452075 -0.00065288293883798145 0 0.03962586946859091 0.00060898338952223728 0 0.039536167864640689 0.0022874998323084393 0 0.037603891081767489 0.00071434281031392747 0 0.03962586946859091 0.00060898338952223728 0 0.037895154015897541 0.0026597220071653284 0 0.036692994904139874 0.0017150982876749932 0 0.037603891081767489 0.00071434281031392747 0 0.03962586946859091 0.00060898338952223728 0 0.042412161914348045 -0.00053445943358201159 0 0.042213058858512738 0.0023264249557691198 0 0.03933786497211627 -0.0011377937648978642 0 0.03962586946859091 0.00060898338952223728 0 0.042412161914348045 -0.00053445943358201159 0 0.039536167864640689 0.0022874998323084393 0 0.03962586946859091 0.00060898338952223728 0 0.042213058858512738 0.0023264249557691198 0 0.044487815193024645 0.0013180053066992783 0 0.042412161914348045 -0.00053445943358201159 0 0.042213058858512738 0.0023264249557691198 0 0.044487815193024645 0.0013180053066992783 0 0.047664404243873408 -0.00016973942041645471 0 0.042412161914348045 -0.00053445943358201159 0 0.044487815193024645 0.0013180053066992783 0 0.047664404243873408 -0.00016973942041645471 0 0.045841457672595849 0.0035592967504545236 0 0.047664404243873408 -0.00016973942041645471 0 0.042412161914348045 -0.00053445943358201159 0 0.045846640659560019 -0.0051129322509762716 0 0.050556311578793547 -0.00016919359056260518 0 0.049990848419904935 -0.0035217564303870914 0 0.052546990412943216 -0.0021817421664573219 0 0.046770971127068885 0.00095305580833775075 0 0.043929020727196615 -0.00067190345896997396 0 0.039705337915630058 -0.002818639920354585 0 0.042412161914348045 -0.00053445943358201159 0 0.045846640659560019 -0.0051129322509762716 0 0.039705337915630058 -0.002818639920354585 0 0.038584566247208164 -0.0021964036292133567 0 0.037111547809839329 -0.0026466852308043749 0 0.041936293719859005 -0.00095706615162485657 0 0.043929020727196615 -0.00067190345896997396 0 0.043929020727196615 -0.00067190345896997396 0 0.039515683721243311 -0.00074333732212594587 0 0.043165101651300795 0.0013896948683205031 0 0.043171007325854473 0.0013806594249176798 0 0.043154318858258017 0.0013713082226196559 0 0.038584566247208164 -0.0021964036292133567 0 0.037111547809839329 -0.0026466852308043749 0 0.037563393702467841 -0.00091439671703273326 0 0.039289690726830979 -0.00093686812303932774 0 0.039515683721243311 -0.00074333732212594587 0 0.037818770794478707 -0.0021890137450928143 0 0.038584566247208164 -0.0021964036292133567 0 0.037792158803995772 -0.0021974802946772361 0 0.043185391630217708 0.0013768954861776534 0 0.043189550878402712 0.0013913506313776136 0 0.043216650779590318 0.0013964347179034468 0 0.047524489051053997 0.00023041506726868645 0 0.049076472562857069 0.0022048607078263651 0 0.043171007325854473 0.0013806594249176798 0 0.043185391630217708 0.0013768954861776534 0 0.043189550878402712 0.0013913506313776136 0 0.049990848419904935 -0.0035217564303870914 0 0.052969041562522398 -0.0042519034163715367 0 0.052546990412943216 -0.0021817421664573219 0 0.043165101651300795 0.0013896948683205031 0 0.043171007325854473 0.0013806594249176798 0 0.043189550878402712 0.0013913506313776136 0 0.043929020727196615 -0.00067190345896997396 0 0.047524489051053997 0.00023041506726868645 0 0.052969041562522398 -0.0042519034163715367 0 0.055014472730914504 -0.0023621859677779881 0 0.055776908755031912 -0.0048440261291164445 0 0.052969041562522398 -0.0042519034163715367 0 0.055014472730914504 -0.0023621859677779881 0 0.052546990412943216 -0.0021817421664573219 0 0.055014472730914504 -0.0023621859677779881 0 0.052546990412943216 -0.0021817421664573219 0 0.054183509180029073 -0.00030202883553914468 0 0.055014472730914504 -0.0023621859677779881 0 0.054183509180029073 -0.00030202883553914468 0 0.056403125240809045 0.00050648057332651649 0 0.050556311578793547 -0.00016919359056260518 0 0.052546990412943216 -0.0021817421664573219 0 0.054183509180029073 -0.00030202883553914468 0 0.050556311578793547 -0.00016919359056260518 0 0.054183509180029073 -0.00030202883553914468 0 0.05524890774018295 0.0024128800073566171 0 0.054183509180029073 -0.00030202883553914468 0 0.05524890774018295 0.0024128800073566171 0 0.056403125240809045 0.00050648057332651649 0 0.05524890774018295 0.0024128800073566171 0 0.056815178605955044 0.0022446258845050106 0 0.056557368698286488 0.0019251822024125851 0 0.05524890774018295 0.0024128800073566171 0 0.056954968221855959 0.0021679488678696154 0 0.057889835124305351 0.0020526124568619373 0 0.05502460153417698 0.0030877879716220474 0 0.054643774260738937 0.0038830002514281025 0 0.05524890774018295 0.0024128800073566171 0 0.056954968221855959 0.0021679488678696154 0 0.056815178605955044 0.0022446258845050106 0 0.056954968221855959 0.0021679488678696154 0 0.057889835124305351 0.0020526124568619373 0 0.057629482770357669 0.0017755758919764501 0 0.056954968221855959 0.0021679488678696154 0 0.057327686038379518 0.0019132292144216306 0 0.056815178605955044 0.0022446258845050106 0 0.056954968221855959 0.0021679488678696154 0 0.057327686038379518 0.0019132292144216306 0 0.057629482770357669 0.0017755758919764501 0 0.05524890774018295 0.0024128800073566171 0 0.052671340428281116 0.0074217494381959353 0 0.050566505954758756 0.0044871303172999656 0 0.052671340428281116 0.0074217494381959353 0 0.050566505954758756 0.0044871303172999656 0 0.049243018092615921 0.0075349420846028215 0 0.046770971127068885 0.00095305580833775075 0 0.047979308906311309 0.0029534112693679611 0 0.050556311578793547 -0.00016919359056260518 0 0.05524890774018295 0.0024128800073566171 0 0.050566505954758756 0.0044871303172999656 0 0.050566505954758756 0.0044871303172999656 0 0.045841457672595849 0.0035592967504545236 0 0.047643739616689655 0.0058223026611325104 0 0.047664404243873408 -0.00016973942041645471 0 0.050566505954758756 0.0044871303172999656 0 0.045841457672595849 0.0035592967504545236 0 0.045841457672595849 0.0035592967504545236 0 0.042213058858512738 0.0023264249557691198 0 0.042956379580761747 0.0049719405416074917 0 0.044487815193024645 0.0013180053066992783 0 0.045841457672595849 0.0035592967504545236 0 0.042213058858512738 0.0023264249557691198 0 0.042956379580761747 0.0049719405416074917 0 0.045601383679490709 0.0062334998922959342 0 0.043702342247216572 0.007588449211736634 0 0.045841457672595849 0.0035592967504545236 0 0.042956379580761747 0.0049719405416074917 0 0.045601383679490709 0.0062334998922959342 0 0.045601383679490709 0.0062334998922959342 0 0.045334691189771306 0.0078425708464309393 0 0.043702342247216572 0.007588449211736634 0 0.04158267080070454 0.0066534966900751386 0 0.042956379580761747 0.0049719405416074917 0 0.043702342247216572 0.007588449211736634 0 0.050566505954758756 0.0044871303172999656 0 0.047643739616689655 0.0058223026611325104 0 0.049243018092615921 0.0075349420846028215 0 0.045841457672595849 0.0035592967504545236 0 0.045601383679490709 0.0062334998922959342 0 0.047643739616689655 0.0058223026611325104 0 0.045601383679490709 0.0062334998922959342 0 0.047643739616689655 0.0058223026611325104 0 0.046819296299886105 0.0081934905280562093 0 0.045601383679490709 0.0062334998922959342 0 0.045334691189771306 0.0078425708464309393 0 0.046819296299886105 0.0081934905280562093 0 0.047643739616689655 0.0058223026611325104 0 0.049243018092615921 0.0075349420846028215 0 0.046819296299886105 0.0081934905280562093 0 0.049243018092615921 0.0075349420846028215 0 0.048042919040353321 0.0093892261408312274 0 0.046819296299886105 0.0081934905280562093 0 0.049243018092615921 0.0075349420846028215 0 0.048042919040353321 0.0093892261408312274 0 0.049689043382629083 0.0098943895734566745 0 0.046819296299886105 0.0081934905280562093 0 0.046589024930142657 0.010005276700783683 0 0.044963669357502213 0.0092016319779962916 0 0.048042919040353321 0.0093892261408312274 0 0.046819296299886105 0.0081934905280562093 0 0.046589024930142657 0.010005276700783683 0 0.048042919040353321 0.0093892261408312274 0 0.046589024930142657 0.010005276700783683 0 0.047820683487644906 0.010823063245078144 0 0.046589024930142657 0.010005276700783683 0 0.045310022579675785 0.010904298016842062 0 0.046562507715118683 0.011484636557350943 0 0.046589024930142657 0.010005276700783683 0 0.047820683487644906 0.010823063245078144 0 0.046562507715118683 0.011484636557350943 0 0.048042919040353321 0.0093892261408312274 0 0.047820683487644906 0.010823063245078144 0 0.049689043382629083 0.0098943895734566745 0 0.047820683487644906 0.010823063245078144 0 0.048782294185858652 0.011665748569531544 0 0.049689043382629083 0.0098943895734566745 0 0.042053321020645483 0.0080700804149879991 0 0.043702342247216572 0.007588449211736634 0 0.042987909236070994 0.0093218701671743606 0 0.043702342247216572 0.007588449211736634 0 0.042987909236070994 0.0093218701671743606 0 0.044963669357502213 0.0092016319779962916 0 0.045334691189771306 0.0078425708464309393 0 0.046819296299886105 0.0081934905280562093 0 0.044963669357502213 0.0092016319779962916 0 0.045334691189771306 0.0078425708464309393 0 0.043702342247216572 0.007588449211736634 0 0.044963669357502213 0.0092016319779962916 0 0.044963669357502213 0.0092016319779962916 0 0.045310022579675785 0.010904298016842062 0 0.044027044194496573 0.010627487990349417 0 0.046589024930142657 0.010005276700783683 0 0.044963669357502213 0.0092016319779962916 0 0.045310022579675785 0.010904298016842062 0 0.042987909236070994 0.0093218701671743606 0 0.044963669357502213 0.0092016319779962916 0 0.044027044194496573 0.010627487990349417 0 0.042729085482454215 0.010866537344886134 0 0.042987909236070994 0.0093218701671743606 0 0.044027044194496573 0.010627487990349417 0 0.045922803979724612 0.0038897299609163146 0 0.051596826828263977 0.0031679252906070699 0 0.042029326144716321 0.013118329433164514 0 0.045382330664919215 0.013445650016529354 0 0.044188908446949532 0.012868940766514039 0 0.046293058715571572 0.00038443602101996874 0 0.045806240441681134 0.00024941769857744187 0 0.046191865630547134 0.00025713681035863717 0 0.042029326144716321 0.013118329433164514 0 0.045382330664919215 0.013445650016529354 0 0.047299689422725874 0.014842747494036928 0 0.043185811713357607 0.012391027211265575 0 0.043562893898716787 0.011607674535321445 0 0.044077075078392085 0.012259815187334036 0 0.042785532183486755 0.011771661876153179 0 0.043185811713357607 0.012391027211265575 0 0.043562893898716787 0.011607674535321445 0 0.042785532183486755 0.011771661876153179 0 0.042729085482454215 0.010866537344886134 0 0.043562893898716787 0.011607674535321445 0 0.042729085482454215 0.010866537344886134 0 0.044027044194496573 0.010627487990349417 0 0.043562893898716787 0.011607674535321445 0 0.044027044194496573 0.010627487990349417 0 0.043562893898716787 0.011607674535321445 0 0.044576870531457667 0.011738881116176225 0 0.043185811713357607 0.012391027211265575 0 0.044077075078392085 0.012259815187334036 0 0.044188908446949532 0.012868940766514039 0 0.043562893898716787 0.011607674535321445 0 0.044077075078392085 0.012259815187334036 0 0.044576870531457667 0.011738881116176225 0 0.044077075078392085 0.012259815187334036 0 0.044687378830389216 0.012417987592688789 0 0.044188908446949532 0.012868940766514039 0 0.044687378830389216 0.012417987592688789 0 0.044576870531457667 0.011738881116176225 0 0.045463582304762842 0.012355804700444086 0 0.044687378830389216 0.012417987592688789 0 0.045463582304762842 0.012355804700444086 0 0.045132570373962115 0.012867227729574332 0 0.044077075078392085 0.012259815187334036 0 0.044687378830389216 0.012417987592688789 0 0.044576870531457667 0.011738881116176225 0 0.045310022579675785 0.010904298016842062 0 0.044027044194496573 0.010627487990349417 0 0.044576870531457667 0.011738881116176225 0 0.045310022579675785 0.010904298016842062 0 0.044576870531457667 0.011738881116176225 0 0.045463582304762842 0.012355804700444086 0 0.045310022579675785 0.010904298016842062 0 0.045463582304762842 0.012355804700444086 0 0.046562507715118683 0.011484636557350943 0 0.045781458531973671 0.012987869189643488 0 0.045382330664919215 0.013445650016529354 0 0.046279575067432778 0.013292125997658182 0 0.045463582304762842 0.012355804700444086 0 0.045781458531973671 0.012987869189643488 0 0.046614882544181446 0.012747034166115711 0 0.045463582304762842 0.012355804700444086 0 0.045781458531973671 0.012987869189643488 0 0.045132570373962115 0.012867227729574332 0 0.045781458531973671 0.012987869189643488 0 0.045382330664919215 0.013445650016529354 0 0.045132570373962115 0.012867227729574332 0 0.045382330664919215 0.013445650016529354 0 0.045132570373962115 0.012867227729574332 0 0.044188908446949532 0.012868940766514039 0 0.044687378830389216 0.012417987592688789 0 0.045132570373962115 0.012867227729574332 0 0.044188908446949532 0.012868940766514039 0 0.042029326144716321 0.013118329433164514 0 0.043185811713357607 0.012391027211265575 0 0.044188908446949532 0.012868940766514039 0 0.048639039054292718 0.012947334049743856 0 0.050241248314321675 0.011532063648257537 0 0.04872828350990456 0.015220090839560494 0 0.048782294185858652 0.011665748569531544 0 0.048639039054292718 0.012947334049743856 0 0.050241248314321675 0.011532063648257537 0 0.0475846616138733 0.012148548434212232 0 0.047488144963476593 0.013120907463711173 0 0.048639039054292718 0.012947334049743856 0 0.048782294185858652 0.011665748569531544 0 0.0475846616138733 0.012148548434212232 0 0.048639039054292718 0.012947334049743856 0 0.047820683487644906 0.010823063245078144 0 0.048782294185858652 0.011665748569531544 0 0.0475846616138733 0.012148548434212232 0 0.047820683487644906 0.010823063245078144 0 0.046562507715118683 0.011484636557350943 0 0.0475846616138733 0.012148548434212232 0 0.045463582304762842 0.012355804700444086 0 0.046562507715118683 0.011484636557350943 0 0.046614882544181446 0.012747034166115711 0 0.046562507715118683 0.011484636557350943 0 0.0475846616138733 0.012148548434212232 0 0.046614882544181446 0.012747034166115711 0 0.0475846616138733 0.012148548434212232 0 0.047488144963476593 0.013120907463711173 0 0.046614882544181446 0.012747034166115711 0 0.047488144963476593 0.013120907463711173 0 0.046888251592100527 0.013333878365323331 0 0.046614882544181446 0.012747034166115711 0 0.045382330664919215 0.013445650016529354 0 0.046759996256221646 0.013894680523678038 0 0.047299689422725874 0.014842747494036928 0 0.047488144963476593 0.013120907463711173 0 0.046888251592100527 0.013333878365323331 0 0.04734629577993834 0.01376733160270497 0 0.045781458531973671 0.012987869189643488 0 0.046614882544181446 0.012747034166115711 0 0.046279575067432778 0.013292125997658182 0 0.046888251592100527 0.013333878365323331 0 0.046614882544181446 0.012747034166115711 0 0.046279575067432778 0.013292125997658182 0 0.045382330664919215 0.013445650016529354 0 0.046279575067432778 0.013292125997658182 0 0.046759996256221646 0.013894680523678038 0 0.046888251592100527 0.013333878365323331 0 0.046279575067432778 0.013292125997658182 0 0.046759996256221646 0.013894680523678038 0 0.047488144963476593 0.013120907463711173 0 0.04734629577993834 0.01376733160270497 0 0.047897888370449997 0.013967279954519565 0 0.046759996256221646 0.013894680523678038 0 0.04734629577993834 0.01376733160270497 0 0.047299689422725874 0.014842747494036928 0 0.04734629577993834 0.01376733160270497 0 0.047897888370449997 0.013967279954519565 0 0.047299689422725874 0.014842747494036928 0 0.046888251592100527 0.013333878365323331 0 0.046759996256221646 0.013894680523678038 0 0.04734629577993834 0.01376733160270497 0 0.047897888370449997 0.013967279954519565 0 0.048639039054292718 0.012947334049743856 0 0.04872828350990456 0.015220090839560494 0 0.047488144963476593 0.013120907463711173 0 0.047897888370449997 0.013967279954519565 0 0.048639039054292718 0.012947334049743856 0 0.053929085057283603 0.004595298588080503 0 0.052827523230093994 0.0034848972243953433 0 0.058887036524083378 0.0010605561228998284 0 0.058865543716733519 0.00078977520709633253 0 0.058212893933651963 0.0013696179723812643 0 0.053929085057283603 0.004595298588080503 0 0.055926324504278764 0.0029206408819830603 0 0.058887036524083378 0.0010605561228998284 0 0.058865543716733519 0.00078977520709633253 0 0.059128396703871357 0.0004619931292636838 0 0.058212893933651963 0.0013696179723812643 0 0.058585961037227546 0.00045064620603621307 0 0.058257967211274082 0.00077520317239612301 0 0.058865543716733519 0.00078977520709633253 0 0.058212893933651963 0.0013696179723812643 0 0.059254758825294261 0.00041510309182824596 0 0.058212893933651963 0.0013696179723812643 0 0.058257967211274082 0.00077520317239612301 0 0.057977432209459299 0.0011456705318153128 0 0.059226554434131821 0.00080454763147160262 0 0.059424791916381059 0.0004345859466125064 0 0.058212893933651963 0.0013696179723812643 0 0.057731832450071151 0.0015507684938820968 0 0.057977432209459299 0.0011456705318153128 0 0.057327686038379518 0.0019132292144216306 0 0.057731832450071151 0.0015507684938820968 0 0.057629482770357669 0.0017755758919764501 0 0.057889835124305351 0.0020526124568619373 0 0.058212893933651963 0.0013696179723812643 0 0.057629482770357669 0.0017755758919764501 0 0.058212893933651963 0.0013696179723812643 0 0.057731832450071151 0.0015507684938820968 0 0.057629482770357669 0.0017755758919764501 0 0.054643774260738937 0.0038830002514281025 0 0.053929085057283603 0.004595298588080503 0 0.057889835124305351 0.0020526124568619373 0 0.058887036524083378 0.0010605561228998284 0 0.058212893933651963 0.0013696179723812643 0 0.052671340428281116 0.0074217494381959353 0 0.05043413000073467 0.011873594228287427 0 0.049689043382629083 0.0098943895734566745 0 0.052671340428281116 0.0074217494381959353 0 0.049243018092615921 0.0075349420846028215 0 0.049689043382629083 0.0098943895734566745 0 0.048782294185858652 0.011665748569531544 0 0.050241248314321675 0.011532063648257537 0 0.049689043382629083 0.0098943895734566745 0 0.053929085057283603 0.004595298588080503 0 0.053926778044476868 0.0051810528855891083 0 0.055821209472942807 0.0025920318778055412 0 0.055748117972496833 0.0027532938524625185 0 0.055656747350779176 0.0025008749011352438 0 0.055821209472942807 0.0025920318778055412 0 0.055766475444512173 0.0024833767837945308 0 0.055656747350779176 0.0025008749011352438 0 0.055821209472942807 0.0025920318778055412 0 0.055748117972496833 0.0027532938524625185 0 0.055838951042182172 0.0026900581527527431 0 0.055821209472942807 0.0025920318778055412 0 0.055838951042182172 0.0026900581527527431 0 0.055907562384884375 0.002643434790673881 0 0.055821209472942807 0.0025920318778055412 0 0.055921318647712402 0.0025475714544486738 0 0.055881482353751635 0.0024825385327178441 0 0.055821209472942807 0.0025920318778055412 0 0.055766475444512173 0.0024833767837945308 0 0.055881482353751635 0.0024825385327178441 0 0.055821209472942807 0.0025920318778055412 0 0.055907562384884375 0.002643434790673881 0 0.055921318647712402 0.0025475714544486738 0 0.059511857329429076 0.00030047678507888942 0 0.059254758825294261 0.00041510309182824596 0 0.060326960845818942 -0.00012195250777044772 0 0.055926324504278764 0.0029206408819830603 0 0.058736209094875778 0.0018911002333981146 0 0.059511857329429076 0.00030047678507888942 0 0.060097681953899515 -6.8145632140809728e-05 0 0.060326960845818942 -0.00012195250777044772 0 0.059511857329429076 0.00030047678507888942 0 0.059687811979833985 0.00036617854131905364 0 0.060097681953899515 -6.8145632140809728e-05 0 0.059424791916381059 0.0004345859466125064 0 0.059977868988784391 -2.55733818877409e-05 0 0.059511857329429076 0.00030047678507888942 0 0.059254758825294261 0.00041510309182824596 0 0.059128396703871357 0.0004619931292636838 0 0.056436827147604902 0.0028819312492410583 0 0.055926324504278764 0.0029206408819830603 0 0.058585961037227546 0.00045064620603621307 0 0.058257967211274082 0.00077520317239612301 0 0.058426917896871863 0.00043332593281125335 0 0.058865543716733519 0.00078977520709633253 0 0.059254758825294261 0.00041510309182824596 0 0.059128396703871357 0.0004619931292636838 0 0.054644125271884517 0.0036987430349694861 0 0.054217781925422481 0.0026000346741364014 0 0.05499436707548265 0.0028275008267713373 0 0.055748117972496833 0.0027532938524625185 0 0.055838951042182172 0.0026900581527527431 0 0.055924732217224896 0.0028054401699176119 0 0.055926324504278764 0.0029206408819830603 0 0.052827523230093994 0.0034848972243953433 0 0.055838951042182172 0.0026900581527527431 0 0.055924732217224896 0.0028054401699176119 0 0.055907562384884375 0.002643434790673881 0 0.055864311863793141 0.0029150789469444115 0 0.05597457910011739 0.0029458031659737208 0 0.056026376139450759 0.0025638563894707345 0 0.051596826828263977 0.0031679252906070699 0 0.053816198281802959 0.0021286972559345619 0 0.052827523230093994 0.0034848972243953433 0 0.051596826828263977 0.0031679252906070699 0 0.047897888370449997 0.013967279954519565 0 0.04872828350990456 0.015220090839560494 0 0.047299689422725874 0.014842747494036928 0 0.045806240441681134 0.00024941769857744187 0 0.046191865630547134 0.00025713681035863717 0 0.046059248148701361 7.7683089066386626e-05 0 0.045806240441681134 0.00024941769857744187 0 0.046059248148701361 7.7683089066386626e-05 0 0.046009261826227277 -0.00026038970673618897 0 0.046191865630547134 0.00025713681035863717 0 0.046059248148701361 7.7683089066386626e-05 0 0.046223732086369332 4.513999603692214e-05 0 0.046059248148701361 7.7683089066386626e-05 0 0.046009261826227277 -0.00026038970673618897 0 0.046223732086369332 4.513999603692214e-05 0 0.046009261826227277 -0.00026038970673618897 0 0.046412776820896201 -0.00012380825420491248 0 0.046223732086369332 4.513999603692214e-05 0 0.052827523230093994 0.0034848972243953433 0 0.053764553592322656 0.0026281537365209448 0 0.055924732217224896 0.0028054401699176119 0 0.055907562384884375 0.002643434790673881 0 0.056026376139450759 0.0025638563894707345 0 0.05597457910011739 0.0029458031659737208 0 0.056144322132066882 0.0025618316555122513 0 0.056026376139450759 0.0025638563894707345 0 0.056144322132066882 0.0025618316555122513 0 0.056026376139450759 0.0025638563894707345 0 0.056024867720940973 0.0024571626880894168 0 0.056026376139450759 0.0025638563894707345 0 0.055921318647712402 0.0025475714544486738 0 0.056024867720940973 0.0024571626880894168 0 0.055907562384884375 0.002643434790673881 0 0.056026376139450759 0.0025638563894707345 0 0.055921318647712402 0.0025475714544486738 0 0.055921318647712402 0.0025475714544486738 0 0.056024867720940973 0.0024571626880894168 0 0.055881482353751635 0.0024825385327178441 0 0.056024867720940973 0.0024571626880894168 0 0.056273483892465434 0.0022526735392520117 0 0.055929526761623945 0.0023332484772937124 0 0.056024867720940973 0.0024571626880894168 0 0.055929526761623945 0.0023332484772937124 0 0.055881482353751635 0.0024825385327178441 0 0.056144322132066882 0.0025618316555122513 0 0.056024867720940973 0.0024571626880894168 0 0.056273483892465434 0.0022526735392520117 0 0.046009261826227277 -0.00026038970673618897 0 0.046232854978667408 -0.00077007202056577956 0 0.046427469383529513 -0.0004906048640881957 0 0.053816198281802959 0.0021286972559345619 0 0.058074499420720779 0.0011935230034842538 0 0.058074499420720779 0.0011935230034842538 0 0.060072725768607879 0.00135893800862554 0 0.064962265143777648 8.8505728721881653e-06 0 0.064964522082351608 9.7164712543054436e-06 0 0.064971743315217712 6.0236944701011138e-06 0 0.064964522082351608 9.7164712543054436e-06 0 0.064967455173991703 7.8456547652390863e-06 0 0.064971743315217712 6.0236944701011138e-06 0 0.064964522082351608 9.7164712543054436e-06 0 0.064967455173991703 7.8456547652390863e-06 0 0.064960046900029281 1.2205229339984216e-05 0 0.064967455173991703 7.8456547652390863e-06 0 0.064970367434795243 6.4934776775341423e-06 0 0.064973593534603954 5.4591221882726925e-06 0 0.055929526761623945 0.0023332484772937124 0 0.055766475444512173 0.0024833767837945308 0 0.055621996394886679 0.0024057067602464119 0 0.060072725768607879 0.00135893800862554 0 0.06003108120052722 0.0020124371443163936 0 0.055929526761623945 0.0023332484772937124 0 0.055766475444512173 0.0024833767837945308 0 0.055881482353751635 0.0024825385327178441 0 0.060097681953899515 -6.8145632140809728e-05 0 0.060374337857505213 -2.5009991311445027e-05 0 0.060326960845818942 -0.00012195250777044772 0 0.058736209094875778 0.0018911002333981146 0 0.06003108120052722 0.0020124371443163936 0 0.055766475444512173 0.0024833767837945308 0 0.055656747350779176 0.0025008749011352438 0 0.055621996394886679 0.0024057067602464119 0 0.064964901154279484 8.2620925748557146e-06 0 0.064973104262176354 9.9154570672020831e-08 0 0.064963754418088979 6.831500670917915e-06 0 0.064960046900029281 1.2205229339984216e-05 0 0.064964901154279484 8.2620925748557146e-06 0 0.064963754418088979 6.831500670917915e-06 0 0.064967455173991703 7.8456547652390863e-06 0 0.064960046900029281 1.2205229339984216e-05 0 0.064964901154279484 8.2620925748557146e-06 0 0.06003108120052722 0.0020124371443163936 0 0.061211995604899892 0.00099932853478170271 0 0.064964901154279484 8.2620925748557146e-06 0 0.064970367434795243 6.4934776775341423e-06 0 0.064974407072876217 5.1371858962092021e-06 0 0.064967455173991703 7.8456547652390863e-06 0 0.064964901154279484 8.2620925748557146e-06 0 0.064970367434795243 6.4934776775341423e-06 0 0.064980660662871129 3.7374770944060811e-06 0 0.064983641300747672 1.9646514012490211e-06 0 0.064964901154279484 8.2620925748557146e-06 0 0.064974407072876217 5.1371858962092021e-06 0 0.064978926794615963 3.8528733836931623e-06 0 0.064970367434795243 6.4934776775341423e-06 0 0.064974407072876217 5.1371858962092021e-06 0 0.064973593534603954 5.4591221882726925e-06 0 0.064974407072876217 5.1371858962092021e-06 0 0.064973593534603954 5.4591221882726925e-06 0 0.064979309772180152 3.8929465963613304e-06 0 0.064974407072876217 5.1371858962092021e-06 0 0.064978926794615963 3.8528733836931623e-06 0 0.064979309772180152 3.8929465963613304e-06 0 0.064973593534603954 5.4591221882726925e-06 0 0.064978501683523773 4.0248196121956261e-06 0 0.064971743315217712 6.0236944701011138e-06 0 0.064967455173991703 7.8456547652390863e-06 0 0.064973593534603954 5.4591221882726925e-06 0 0.064971743315217712 6.0236944701011138e-06 0 0.064973593534603954 5.4591221882726925e-06 0 0.064978501683523773 4.0248196121956261e-06 0 0.064979309772180152 3.8929465963613304e-06 0 0.064978501683523773 4.0248196121956261e-06 0 0.064984435878709307 2.8515929945421118e-06 0 0.064981251894975639 2.9991597558378586e-06 0 0.064978501683523773 4.0248196121956261e-06 0 0.064984435878709307 2.8515929945421118e-06 0 0.064979309772180152 3.8929465963613304e-06 0 0.064978926794615963 3.8528733836931623e-06 0 0.06498515717131037 2.8130472394366895e-06 0 0.064990623408763659 1.9581479365706941e-06 0 0.064978926794615963 3.8528733836931623e-06 0 0.064979309772180152 3.8929465963613304e-06 0 0.06498515717131037 2.8130472394366895e-06 0 0.064984435878709307 2.8515929945421118e-06 0 0.064979309772180152 3.8929465963613304e-06 0 0.06498515717131037 2.8130472394366895e-06 0 0.064984435878709307 2.8515929945421118e-06 0 0.06498515717131037 2.8130472394366895e-06 0 0.064992733584594925 1.5658405395505372e-06 0 0.06498515717131037 2.8130472394366895e-06 0 0.064992733584594925 1.5658405395505372e-06 0 0.064990623408763659 1.9581479365706941e-06 0 0.064984435878709307 2.8515929945421118e-06 0 0.064992733584594925 1.5658405395505372e-06 0 0.0649910794610781 1.5678990140544781e-06 0 0.064984435878709307 2.8515929945421118e-06 0 0.0649910794610781 1.5678990140544781e-06 0 0.064981251894975639 2.9991597558378586e-06 0 0.064999985952565412 1.9366751744268272e-09 0 0.064999989590209528 -1.9013824774485071e-10 0 0.0649910794610781 1.5678990140544781e-06 0 0.064992733584594925 1.5658405395505372e-06 0 0.064999985952565412 1.9366751744268272e-09 0 0.0649910794610781 1.5678990140544781e-06 0 0.064992733584594925 1.5658405395505372e-06 0 0.064999985952565412 1.9366751744268272e-09 0 0.064999992350901439 1.0760164789260708e-09 0 0.064999989590209528 -1.9013824774485071e-10 0 0.064986607586299094 1.207773875516247e-06 0 0.064999972300203546 6.967841433883719e-09 0 0.064999989590209528 -1.9013824774485071e-10 0 0.0649910794610781 1.5678990140544781e-06 0 0.064986607586299094 1.207773875516247e-06 0 0.0649910794610781 1.5678990140544781e-06 0 0.064986607586299094 1.207773875516247e-06 0 0.064981251894975639 2.9991597558378586e-06 0 0.064986607586299094 1.207773875516247e-06 0 0.064975051800816766 3.3673016269553838e-06 0 0.064973841631580362 8.8199309065992243e-07 0 0.064986607586299094 1.207773875516247e-06 0 0.064981251894975639 2.9991597558378586e-06 0 0.064975051800816766 3.3673016269553838e-06 0 0.064981251894975639 2.9991597558378586e-06 0 0.064971743315217712 6.0236944701011138e-06 0 0.064975051800816766 3.3673016269553838e-06 0 0.064978501683523773 4.0248196121956261e-06 0 0.064981251894975639 2.9991597558378586e-06 0 0.064971743315217712 6.0236944701011138e-06 0 0.064962265143777648 8.8505728721881653e-06 0 0.064971743315217712 6.0236944701011138e-06 0 0.064975051800816766 3.3673016269553838e-06 0 0.06483824733825326 9.9986918427810245e-05 0 0.06489809588435913 2.8526213575225045e-05 0 0.06491951509783242 7.3010964297744554e-05 0 0.064962265143777648 8.8505728721881653e-06 0 0.064975051800816766 3.3673016269553838e-06 0 0.064973841631580362 8.8199309065992243e-07 0 0.058074499420720779 0.0011935230034842538 0 0.06202645717674498 -0.00057423684980959834 0 0.06489809588435913 2.8526213575225045e-05 0 0.064955428480124228 1.9685143161045917e-05 0 0.06491951509783242 7.3010964297744554e-05 0 0.06202645717674498 -0.00057423684980959834 0 0.062919892557722817 -0.00065441007319426046 0 0.06489809588435913 2.8526213575225045e-05 0 0.064974676412262983 -2.2494469795463995e-07 0 0.064955428480124228 1.9685143161045917e-05 0 0.064986607586299094 1.207773875516247e-06 0 0.064973841631580362 8.8199309065992243e-07 0 0.064974676412262983 -2.2494469795463995e-07 0 0.064974676412262983 -2.2494469795463995e-07 0 0.064999972300203546 6.967841433883719e-09 0 0.064999966114879654 -2.1413310965564058e-09 0 0.064986607586299094 1.207773875516247e-06 0 0.064974676412262983 -2.2494469795463995e-07 0 0.064999972300203546 6.967841433883719e-09 0 0.064999966114879654 -2.1413310965564058e-09 0 0.06498266022309715 2.6568345223922252e-06 0 0.06499998069309039 2.2602381784497401e-09 0 0.064974676412262983 -2.2494469795463995e-07 0 0.064999966114879654 -2.1413310965564058e-09 0 0.06498266022309715 2.6568345223922252e-06 0 0.06498266022309715 2.6568345223922252e-06 0 0.064976425388157968 9.8664433570491124e-06 0 0.064955428480124228 1.9685143161045917e-05 0 0.064974676412262983 -2.2494469795463995e-07 0 0.06498266022309715 2.6568345223922252e-06 0 0.064955428480124228 1.9685143161045917e-05 0 0.06498266022309715 2.6568345223922252e-06 0 0.064976425388157968 9.8664433570491124e-06 0 0.06499998069309039 2.2602381784497401e-09 0 0.064976425388157968 9.8664433570491124e-06 0 0.064956558100911027 4.0779402754147223e-05 0 0.064973394996330369 1.6159747715939382e-05 0 0.064976425388157968 9.8664433570491124e-06 0 0.064955428480124228 1.9685143161045917e-05 0 0.064956558100911027 4.0779402754147223e-05 0 0.064955428480124228 1.9685143161045917e-05 0 0.064956558100911027 4.0779402754147223e-05 0 0.06491951509783242 7.3010964297744554e-05 0 0.04722750975441567 -0.0010360613828194706 0 0.047119644892371727 -0.00058777393729990998 0 0.047542579282372002 -0.00074857238077341147 0 0.047408391363709571 -0.00034726592840888198 0 0.047706877033135066 -0.00014606845440465945 0 0.047119644892371727 -0.00058777393729990998 0 0.047137197697697954 -0.00026252289011378401 0 0.047708317120787089 -0.00023519452319066273 0 0.047119644892371727 -0.00058777393729990998 0 0.046731215390547941 -0.00040280249208033835 0 0.047137197697697954 -0.00026252289011378401 0 0.047119644892371727 -0.00058777393729990998 0 0.046744797924293528 -0.00088745328890388439 0 0.046731215390547941 -0.00040280249208033835 0 0.04722750975441567 -0.0010360613828194706 0 0.047119644892371727 -0.00058777393729990998 0 0.046744797924293528 -0.00088745328890388439 0 0.056151998480543683 -0.00028156454236351406 0 0.056344300409626388 0.00032557303303199983 0 0.058074499420720779 0.0011935230034842538 0 0.056344300409626388 0.00032557303303199983 0 0.046232854978667408 -0.00077007202056577956 0 0.046744797924293528 -0.00088745328890388439 0 0.046427469383529513 -0.0004906048640881957 0 0.046744797924293528 -0.00088745328890388439 0 0.046427469383529513 -0.0004906048640881957 0 0.046731215390547941 -0.00040280249208033835 0 0.046731215390547941 -0.00040280249208033835 0 0.046668331278105921 -8.7564212845328253e-05 0 0.046916721559282157 -5.6117525070015209e-05 0 0.046731215390547941 -0.00040280249208033835 0 0.046668331278105921 -8.7564212845328253e-05 0 0.046412776820896201 -0.00012380825420491248 0 0.046668331278105921 -8.7564212845328253e-05 0 0.046412776820896201 -0.00012380825420491248 0 0.046539973015817457 0.00012290097992617965 0 0.046668331278105921 -8.7564212845328253e-05 0 0.046731076562874188 6.5646560350270119e-05 0 0.046916721559282157 -5.6117525070015209e-05 0 0.046427469383529513 -0.0004906048640881957 0 0.046731215390547941 -0.00040280249208033835 0 0.046412776820896201 -0.00012380825420491248 0 0.046009261826227277 -0.00026038970673618897 0 0.046427469383529513 -0.0004906048640881957 0 0.046412776820896201 -0.00012380825420491248 0 0.046412776820896201 -0.00012380825420491248 0 0.046223732086369332 4.513999603692214e-05 0 0.04637402496195614 9.9741146975276546e-05 0 0.046223732086369332 4.513999603692214e-05 0 0.04637402496195614 9.9741146975276546e-05 0 0.046296685346625455 0.00021447498920053356 0 0.046412776820896201 -0.00012380825420491248 0 0.04637402496195614 9.9741146975276546e-05 0 0.046539973015817457 0.00012290097992617965 0 0.04637402496195614 9.9741146975276546e-05 0 0.046406592567808685 0.00023264301914005238 0 0.046539973015817457 0.00012290097992617965 0 0.046509590742562563 0.0002871258897361192 0 0.046406592567808685 0.00023264301914005238 0 0.046539973015817457 0.00012290097992617965 0 0.046509590742562563 0.0002871258897361192 0 0.046445861411756412 0.0003015252196595956 0 0.046406592567808685 0.00023264301914005238 0 0.046331442125693796 0.00032943366078677026 0 0.046445861411756412 0.0003015252196595956 0 0.046406592567808685 0.00023264301914005238 0 0.046191865630547134 0.00025713681035863717 0 0.046223732086369332 4.513999603692214e-05 0 0.046296685346625455 0.00021447498920053356 0 0.04637402496195614 9.9741146975276546e-05 0 0.046406592567808685 0.00023264301914005238 0 0.046296685346625455 0.00021447498920053356 0 0.046331442125693796 0.00032943366078677026 0 0.046406592567808685 0.00023264301914005238 0 0.046296685346625455 0.00021447498920053356 0 0.046278137356794605 0.00029815880520814498 0 0.046331442125693796 0.00032943366078677026 0 0.046296685346625455 0.00021447498920053356 0 0.046278137356794605 0.00029815880520814498 0 0.046191865630547134 0.00025713681035863717 0 0.046296685346625455 0.00021447498920053356 0 0.046731076562874188 6.5646560350270119e-05 0 0.046680993745323397 0.0002080921563971059 0 0.046850030789184496 0.00014145563675732189 0 0.046668331278105921 -8.7564212845328253e-05 0 0.046731076562874188 6.5646560350270119e-05 0 0.046539973015817457 0.00012290097992617965 0 0.046731076562874188 6.5646560350270119e-05 0 0.046539973015817457 0.00012290097992617965 0 0.046680993745323397 0.0002080921563971059 0 0.046509590742562563 0.0002871258897361192 0 0.046539973015817457 0.00012290097992617965 0 0.04658466307761077 0.00022655374881567551 0 0.046539973015817457 0.00012290097992617965 0 0.04658466307761077 0.00022655374881567551 0 0.046680993745323397 0.0002080921563971059 0 0.046509590742562563 0.0002871258897361192 0 0.04658466307761077 0.00022655374881567551 0 0.046614898775219862 0.00029886577156531223 0 0.04658466307761077 0.00022655374881567551 0 0.046614898775219862 0.00029886577156531223 0 0.046680993745323397 0.0002080921563971059 0 0.046720087214336889 0.00033299647787334301 0 0.046680993745323397 0.0002080921563971059 0 0.046789957891064347 0.00026973121585316206 0 0.046680993745323397 0.0002080921563971059 0 0.046789957891064347 0.00026973121585316206 0 0.046850030789184496 0.00014145563675732189 0 0.046720087214336889 0.00033299647787334301 0 0.046614898775219862 0.00029886577156531223 0 0.046680993745323397 0.0002080921563971059 0 0.047061322197756737 0.00018193537349146962 0 0.047278876382665209 -1.812296493839215e-05 0 0.046916721559282157 -5.6117525070015209e-05 0 0.046896443161174355 0.00030976939194708318 0 0.046789957891064347 0.00026973121585316206 0 0.046850030789184496 0.00014145563675732189 0 0.046896443161174355 0.00030976939194708318 0 0.046850030789184496 0.00014145563675732189 0 0.047061322197756737 0.00018193537349146962 0 0.046850030789184496 0.00014145563675732189 0 0.047061322197756737 0.00018193537349146962 0 0.046916721559282157 -5.6117525070015209e-05 0 0.046731076562874188 6.5646560350270119e-05 0 0.046850030789184496 0.00014145563675732189 0 0.046916721559282157 -5.6117525070015209e-05 0 0.04705955251454591 0.0003671445867485996 0 0.046896443161174355 0.00030976939194708318 0 0.047061322197756737 0.00018193537349146962 0 0.047363974130088353 0.00033320995030789824 0 0.047061322197756737 0.00018193537349146962 0 0.047278876382665209 -1.812296493839215e-05 0 0.047363974130088353 0.00033320995030789824 0 0.047278876382665209 -1.812296493839215e-05 0 0.047708317120787089 -0.00023519452319066273 0 0.047363974130088353 0.00033320995030789824 0 0.04705955251454591 0.0003671445867485996 0 0.047061322197756737 0.00018193537349146962 0 0.047278876382665209 -1.812296493839215e-05 0 0.047137197697697954 -0.00026252289011378401 0 0.047708317120787089 -0.00023519452319066273 0 0.047278876382665209 -1.812296493839215e-05 0 0.047137197697697954 -0.00026252289011378401 0 0.046916721559282157 -5.6117525070015209e-05 0 0.046731215390547941 -0.00040280249208033835 0 0.047137197697697954 -0.00026252289011378401 0 0.046916721559282157 -5.6117525070015209e-05 0 0.047706877033135066 -0.00014606845440465945 0 0.048204329251674137 0.00019068549099265962 0 0.047574381950907033 -0.00017357296285162071 0 0.048292237950690799 0.0003852918768217985 0 0.048039894522823819 -0.00052503133596933213 0 0.047897175654177608 0.00036066547766277585 0 0.047363974130088353 0.00033320995030789824 0 0.047708317120787089 -0.00023519452319066273 0 0.047897175654177608 0.00036066547766277585 0 0.047708317120787089 -0.00023519452319066273 0 0.048250018023326062 0.00013203861047293995 0 0.048478763957909579 0.00037386268678502212 0 0.048204329251674137 0.00019068549099265962 0 0.048764967953154825 0.00059504176759962713 0 0.048292237950690799 0.0003852918768217985 0 0.048769309945803696 0.00034048552890738557 0 0.048769309945803696 0.00034048552890738557 0 0.048586324883849952 -8.8357177170217172e-05 0 0.049015964386371888 0.00013639173466355211 0 0.048586324883849952 -8.8357177170217172e-05 0 0.048902717633960854 -0.00034228051988202332 0 0.049015964386371888 0.00013639173466355211 0 0.048292237950690799 0.0003852918768217985 0 0.048769309945803696 0.00034048552890738557 0 0.048586324883849952 -8.8357177170217172e-05 0 0.048292237950690799 0.0003852918768217985 0 0.048586324883849952 -8.8357177170217172e-05 0 0.048039894522823819 -0.00052503133596933213 0 0.048586324883849952 -8.8357177170217172e-05 0 0.048577283981760443 -0.00073768167247253796 0 0.048039894522823819 -0.00052503133596933213 0 0.048586324883849952 -8.8357177170217172e-05 0 0.048902717633960854 -0.00034228051988202332 0 0.048577283981760443 -0.00073768167247253796 0 0.048902717633960854 -0.00034228051988202332 0 0.048577283981760443 -0.00073768167247253796 0 0.04917283528786906 -0.00078185305447166741 0 0.048577283981760443 -0.00073768167247253796 0 0.049041912968561724 -0.0014196446017290568 0 0.04917283528786906 -0.00078185305447166741 0 0.048577283981760443 -0.00073768167247253796 0 0.049041912968561724 -0.0014196446017290568 0 0.048487095995770668 -0.0013148129953477385 0 0.048577283981760443 -0.00073768167247253796 0 0.048189704540421888 -0.00094696876950371408 0 0.048039894522823819 -0.00052503133596933213 0 0.048577283981760443 -0.00073768167247253796 0 0.048189704540421888 -0.00094696876950371408 0 0.048487095995770668 -0.0013148129953477385 0 0.048189704540421888 -0.00094696876950371408 0 0.048487095995770668 -0.0013148129953477385 0 0.04807481614303355 -0.001283672348341868 0 0.047910721540592102 -0.00095927095867801417 0 0.047542579282372002 -0.00074857238077341147 0 0.047773548025069737 -0.0012878012123847171 0 0.047910721540592102 -0.00095927095867801417 0 0.048039894522823819 -0.00052503133596933213 0 0.047542579282372002 -0.00074857238077341147 0 0.048189704540421888 -0.00094696876950371408 0 0.047910721540592102 -0.00095927095867801417 0 0.04807481614303355 -0.001283672348341868 0 0.048189704540421888 -0.00094696876950371408 0 0.047910721540592102 -0.00095927095867801417 0 0.048039894522823819 -0.00052503133596933213 0 0.047119644892371727 -0.00058777393729990998 0 0.047574381950907033 -0.00017357296285162071 0 0.047542579282372002 -0.00074857238077341147 0 0.047574381950907033 -0.00017357296285162071 0 0.048039894522823819 -0.00052503133596933213 0 0.047542579282372002 -0.00074857238077341147 0 0.04722750975441567 -0.0010360613828194706 0 0.047542579282372002 -0.00074857238077341147 0 0.047773548025069737 -0.0012878012123847171 0 0.056151998480543683 -0.00028156454236351406 0 0.055973871903466657 -0.00073506847946600668 0 0.064956558100911027 4.0779402754147223e-05 0 0.064963715645113718 1.9679278552554621e-05 0 0.064973394996330369 1.6159747715939382e-05 0 0.064963715645113718 1.9679278552554621e-05 0 0.064972286170341065 1.1158428818560155e-05 0 0.064961119840815235 7.8850889798832149e-06 0 0.055973871903466657 -0.00073506847946600668 0 0.054205237241863852 -0.001002058030646054 0 0.047910721540592102 -0.00095927095867801417 0 0.047773548025069737 -0.0012878012123847171 0 0.04807481614303355 -0.001283672348341868 0 0.064963715645113718 1.9679278552554621e-05 0 0.064972286170341065 1.1158428818560155e-05 0 0.064973394996330369 1.6159747715939382e-05 0 0.064972286170341065 1.1158428818560155e-05 0 0.064973394996330369 1.6159747715939382e-05 0 0.064985245948833689 6.772521892606253e-06 0 0.064976425388157968 9.8664433570491124e-06 0 0.064973394996330369 1.6159747715939382e-05 0 0.064985245948833689 6.772521892606253e-06 0 0.064976425388157968 9.8664433570491124e-06 0 0.064985245948833689 6.772521892606253e-06 0 0.06499998069309039 2.2602381784497401e-09 0 0.064985245948833689 6.772521892606253e-06 0 0.0649999878897487 3.0888546986471391e-09 0 0.064980708253460237 5.7859932470674652e-06 0 0.064972286170341065 1.1158428818560155e-05 0 0.064985245948833689 6.772521892606253e-06 0 0.064980708253460237 5.7859932470674652e-06 0 0.064985245948833689 6.772521892606253e-06 0 0.0649999878897487 3.0888546986471391e-09 0 0.06499998069309039 2.2602381784497401e-09 0 0.064987513928920215 3.4701688693018629e-06 0 0.064999953930844526 1.266155266961406e-08 0 0.06497547761056624 4.0791759693893415e-06 0 0.064994491791721454 2.0467777368984633e-06 0 0.062529540286134028 0.00020821455971780449 0 0.0649999878897487 3.0888546986471391e-09 0 0.064987513928920215 3.4701688693018629e-06 0 0.064980708253460237 5.7859932470674652e-06 0 0.0649999878897487 3.0888546986471391e-09 0 0.064987513928920215 3.4701688693018629e-06 0 0.064999953930844526 1.266155266961406e-08 0 0.064987513928920215 3.4701688693018629e-06 0 0.06497476303351557 2.4400152009716671e-06 0 0.06497547761056624 4.0791759693893415e-06 0 0.064980708253460237 5.7859932470674652e-06 0 0.06497476303351557 2.4400152009716671e-06 0 0.064964364631172805 1.3134660083755807e-06 0 0.064987513928920215 3.4701688693018629e-06 0 0.064980708253460237 5.7859932470674652e-06 0 0.06497476303351557 2.4400152009716671e-06 0 0.056739563607521908 -0.00096568206391349596 0 0.054205237241863852 -0.001002058030646054 0 0.064980708253460237 5.7859932470674652e-06 0 0.064964364631172805 1.3134660083755807e-06 0 0.064961119840815235 7.8850889798832149e-06 0 0.049110875996815691 -0.0026841659534118773 0 0.048216557209410503 -0.0020424432677371394 0 0.049120636395064823 -0.0022333537497411238 0 0.064972286170341065 1.1158428818560155e-05 0 0.064980708253460237 5.7859932470674652e-06 0 0.064961119840815235 7.8850889798832149e-06 0 0.047773548025069737 -0.0012878012123847171 0 0.048381607391372733 -0.0015324519185117395 0 0.04807481614303355 -0.001283672348341868 0 0.048487095995770668 -0.0013148129953477385 0 0.048442167535929836 -0.0018239794950648644 0 0.04807481614303355 -0.001283672348341868 0 0.054205237241863852 -0.001002058030646054 0 0.052760780714624811 -0.00045929942781112028 0 0.048442167535929836 -0.0018239794950648644 0 0.049120636395064823 -0.0022333537497411238 0 0.048832246375785385 -0.0017272630511548676 0 0.054205237241863852 -0.001002058030646054 0 0.052489561365666973 -0.00089717801342640863 0 0.049120636395064823 -0.0022333537497411238 0 0.048832246375785385 -0.0017272630511548676 0 0.049199604267177711 -0.0018852158826214241 0 0.048487095995770668 -0.0013148129953477385 0 0.048442167535929836 -0.0018239794950648644 0 0.048832246375785385 -0.0017272630511548676 0 0.049041912968561724 -0.0014196446017290568 0 0.048487095995770668 -0.0013148129953477385 0 0.048832246375785385 -0.0017272630511548676 0 0.049041912968561724 -0.0014196446017290568 0 0.048832246375785385 -0.0017272630511548676 0 0.049199604267177711 -0.0018852158826214241 0 0.049041912968561724 -0.0014196446017290568 0 0.049199604267177711 -0.0018852158826214241 0 0.049574395500120619 -0.0018705494711775534 0 0.049041912968561724 -0.0014196446017290568 0 0.049574395500120619 -0.0018705494711775534 0 0.049662935984973115 -0.0013229627258468657 0 0.049574395500120619 -0.0018705494711775534 0 0.050100286349989746 -0.0018284801511709978 0 0.049662935984973115 -0.0013229627258468657 0 0.049574395500120619 -0.0018705494711775534 0 0.049953658957810856 -0.0024311233704580812 0 0.049490638744748405 -0.0023246486909397953 0 0.049574395500120619 -0.0018705494711775534 0 0.049953658957810856 -0.0024311233704580812 0 0.050100286349989746 -0.0018284801511709978 0 0.049199604267177711 -0.0018852158826214241 0 0.049574395500120619 -0.0018705494711775534 0 0.049490638744748405 -0.0023246486909397953 0 0.049120636395064823 -0.0022333537497411238 0 0.049199604267177711 -0.0018852158826214241 0 0.049490638744748405 -0.0023246486909397953 0 0.049953658957810856 -0.0024311233704580812 0 0.050924538616371785 -0.0022623305963391177 0 0.050100286349989746 -0.0018284801511709978 0 0.050924538616371785 -0.0022623305963391177 0 0.050100286349989746 -0.0018284801511709978 0 0.050493454645491403 -0.0012067952448772384 0 0.059464827648610788 -0.00047655412985818331 0 0.059414689649705678 -0.00032222800038922243 0 0.049953658957810856 -0.0024311233704580812 0 0.050924538616371785 -0.0022623305963391177 0 0.049926833800603705 -0.0032534661123320764 0 0.056370744759041962 0.0019564186320324205 0 0.056127135238609224 0.0021198939997907271 0 0.05515318093749054 0.0015516947489172049 0 0.055351208950168582 0.00051114128597815956 0 0.056370744759041962 0.0019564186320324205 0 0.05515318093749054 0.0015516947489172049 0 0.055304169347233506 -0.001316757154345038 0 0.058730441448714775 -0.00051055669594965913 0 0.056739563607521908 -0.00096568206391349596 0 0.058730441448714775 -0.00051055669594965913 0 0.049110875996815691 -0.0026841659534118773 0 0.049642193937705151 -0.0027189896874228103 0 0.049926833800603705 -0.0032534661123320764 0 0.06497476303351557 2.4400152009716671e-06 0 0.064964364631172805 1.3134660083755807e-06 0 0.064958171765950409 -1.106178560965426e-06 0 0.049953658957810856 -0.0024311233704580812 0 0.049642193937705151 -0.0027189896874228103 0 0.049926833800603705 -0.0032534661123320764 0 0.049110875996815691 -0.0026841659534118773 0 0.049490638744748405 -0.0023246486909397953 0 0.049642193937705151 -0.0027189896874228103 0 0.049110875996815691 -0.0026841659534118773 0 0.049120636395064823 -0.0022333537497411238 0 0.049490638744748405 -0.0023246486909397953 0 0.049953658957810856 -0.0024311233704580812 0 0.049490638744748405 -0.0023246486909397953 0 0.049642193937705151 -0.0027189896874228103 0 0.06497476303351557 2.4400152009716671e-06 0 0.064958171765950409 -1.106178560965426e-06 0 0.06497547761056624 4.0791759693893415e-06 0 0.06498809329095577 -7.5442643204224485e-06 0 0.064981266651864752 -1.2394663979757852e-05 0 0.064993530958475917 -4.6890702009562071e-06 0 0.058730441448714775 -0.00051055669594965913 0 0.062529540286134028 0.00020821455971780449 0 0.064979653296236534 -1.6176398152620054e-05 0 0.064981266651864752 -1.2394663979757852e-05 0 0.064993530958475917 -4.6890702009562071e-06 0 0.06106770901901739 -1.7820205028985325e-05 0 0.060448437640693367 0.00039680597938063634 0 0.060167641227465117 -0.00055063341374452413 0 0.058730441448714775 -0.00051055669594965913 0 0.059464827648610788 -0.00047655412985818331 0 0.064979653296236534 -1.6176398152620054e-05 0 0.064981266651864752 -1.2394663979757852e-05 0 0.064974368398277096 -1.4700003928588591e-05 0 0.064981266651864752 -1.2394663979757852e-05 0 0.064980740629074038 -1.3187440853288012e-05 0 0.064984516162236286 -9.5099672222416639e-06 0 0.05954172441559729 -0.00044289503030872169 0 0.059464827648610788 -0.00047655412985818331 0 0.059464827648610788 -0.00047655412985818331 0 0.061700944319894424 -0.00055672635095476504 0 0.064980740629074038 -1.3187440853288012e-05 0 0.064979175378164986 -9.4218048463170869e-06 0 0.064984516162236286 -9.5099672222416639e-06 0 0.06498809329095577 -7.5442643204224485e-06 0 0.064984516162236286 -9.5099672222416639e-06 0 0.064991876036067445 -4.2631972397290988e-06 0 0.064979175378164986 -9.4218048463170869e-06 0 0.064984516162236286 -9.5099672222416639e-06 0 0.064991876036067445 -4.2631972397290988e-06 0 0.06498809329095577 -7.5442643204224485e-06 0 0.064981266651864752 -1.2394663979757852e-05 0 0.064984516162236286 -9.5099672222416639e-06 0 0.064979175378164986 -9.4218048463170869e-06 0 0.064991876036067445 -4.2631972397290988e-06 0 0.064999950331018783 -5.9183685612821882e-09 0 0.061700944319894424 -0.00055672635095476504 0 0.064992907455908577 6.0114548173646018e-07 0 0.065000012630959988 7.4592629512805414e-10 0 0.064991876036067445 -4.2631972397290988e-06 0 0.064999950331018783 -5.9183685612821882e-09 0 0.065000012630959988 7.4592629512805414e-10 0 0.064991876036067445 -4.2631972397290988e-06 0 0.064993530958475917 -4.6890702009562071e-06 0 0.06498809329095577 -7.5442643204224485e-06 0 0.064991876036067445 -4.2631972397290988e-06 0 0.064993530958475917 -4.6890702009562071e-06 0 0.065001271740520714 -3.4624078704594672e-07 0 0.064995683600274648 6.4229751303527919e-07 0 0.064788193461961116 -1.2735934777923061e-05 0 0.064995683600274648 6.4229751303527919e-07 0 0.062114904998355168 0.00026238861726858613 0 0.058104980704199116 -9.4165316148681106e-07 0 0.064995683600274648 6.4229751303527919e-07 0 0.064788193461961116 -1.2735934777923061e-05 0 0.062114904998355168 0.00026238861726858613 0 0.064788193461961116 -1.2735934777923061e-05 0 0.062602175873720925 -2.8194787842740503e-07 0 0.062114904998355168 0.00026238861726858613 0 0.062774097992672723 -0.00064223044892179918 0 0.06250117264214182 -0.0006277358632668929 0 0.064955519782678217 -0.00013117820175989023 0 0.065001271740520714 -3.4624078704594672e-07 0 0.064872900696458721 -7.31408022195628e-05 0 0.065001271740520714 -3.4624078704594672e-07 0 0.064788193461961116 -1.2735934777923061e-05 0 0.064872900696458721 -7.31408022195628e-05 0 0.061700944319894424 -0.00055672635095476504 0 0.06250117264214182 -0.0006277358632668929 0 0.061700944319894424 -0.00055672635095476504 0 0.059414689649705678 -0.00032222800038922243 0 0.062602175873720925 -2.8194787842740503e-07 0 0.06221899447899603 0.00018259380653720716 0 0.062114904998355168 0.00026238861726858613 0 0.06216998806935671 0.00016121844137814497 0 0.06221899447899603 0.00018259380653720716 0 0.06204796773464713 3.4568574365576251e-05 0 0.06216998806935671 0.00016121844137814497 0 0.062602175873720925 -2.8194787842740503e-07 0 0.06221899447899603 0.00018259380653720716 0 0.06221899447899603 0.00018259380653720716 0 0.062114904998355168 0.00026238861726858613 0 0.06204796773464713 3.4568574365576251e-05 0 0.062114904998355168 0.00026238861726858613 0 0.060861800944828126 -0.00026840615849004813 0 0.058104980704199116 -9.4165316148681106e-07 0 0.062114904998355168 0.00026238861726858613 0 0.060861800944828126 -0.00026840615849004813 0 0.06204796773464713 3.4568574365576251e-05 0 0.05860571250112951 -0.0002915202463328979 0 0.059414689649705678 -0.00032222800038922243 0 0.059414689649705678 -0.00032222800038922243 0 0.057989943150425438 -0.00073317968315870672 0 0.055351208950168582 0.00051114128597815956 0 0.05515318093749054 0.0015516947489172049 0 0.054380168328708386 0.00016796763726637464 0 0.055485753427261746 -0.0019121114954918543 0 0.0539784393517483 -0.0028290019776171897 0 0.054380168328708386 0.00016796763726637464 0 0.055485753427261746 -0.0019121114954918543 0 0.058091415824968115 -3.4225674395928466e-06 0 0.054380168328708386 0.00016796763726637464 0 0.05860571250112951 -0.0002915202463328979 0 0.058099025475766231 -1.1060479578313921e-06 0 0.053197834022271427 -0.0002077093997918696 0 0.054266851207077353 8.4012449333260477e-07 0 0.054380168328708386 0.00016796763726637464 0 0.058091415824968115 -3.4225674395928466e-06 0 0.054266851207077353 8.4012449333260477e-07 0 0.054380168328708386 0.00016796763726637464 0 0.053197834022271427 -0.0002077093997918696 0 0.054266851207077353 8.4012449333260477e-07 0 0.051305245894848701 0.0002846849497817951 0 0.053197834022271427 -0.0002077093997918696 0 0.051271474008784186 0.00013327616499081148 0 0.051305245894848701 0.0002846849497817951 0 0.053197834022271427 -0.0002077093997918696 0 0.051271474008784186 0.00013327616499081148 0 0.050748576770526813 -0.00030695485101972644 0 0.050924538616371785 -0.0022623305963391177 0 0.053197834022271427 -0.0002077093997918696 0 0.050493454645491403 -0.0012067952448772384 0 0.055351208950168582 0.00051114128597815956 0 0.053197834022271427 -0.0002077093997918696 0 0.054380168328708386 0.00016796763726637464 0 0.055304169347233506 -0.001316757154345038 0 0.054754496308445276 -0.00095881109950643245 0 0.053197834022271427 -0.0002077093997918696 0 0.050493454645491403 -0.0012067952448772384 0 0.050748576770526813 -0.00030695485101972644 0 0.050100286349989746 -0.0018284801511709978 0 0.050493454645491403 -0.0012067952448772384 0 0.049662935984973115 -0.0013229627258468657 0 0.050493454645491403 -0.0012067952448772384 0 0.049662935984973115 -0.0013229627258468657 0 0.049825289309630115 -0.000596013386064423 0 0.050493454645491403 -0.0012067952448772384 0 0.050748576770526813 -0.00030695485101972644 0 0.049825289309630115 -0.000596013386064423 0 0.049041912968561724 -0.0014196446017290568 0 0.049662935984973115 -0.0013229627258468657 0 0.04917283528786906 -0.00078185305447166741 0 0.049662935984973115 -0.0013229627258468657 0 0.04917283528786906 -0.00078185305447166741 0 0.049825289309630115 -0.000596013386064423 0 0.048902717633960854 -0.00034228051988202332 0 0.04917283528786906 -0.00078185305447166741 0 0.049331017707433769 -0.00026698561830569583 0 0.04917283528786906 -0.00078185305447166741 0 0.049331017707433769 -0.00026698561830569583 0 0.049825289309630115 -0.000596013386064423 0 0.049331017707433769 -0.00026698561830569583 0 0.049825289309630115 -0.000596013386064423 0 0.049861788092631094 0.00013217277217840079 0 0.048902717633960854 -0.00034228051988202332 0 0.049331017707433769 -0.00026698561830569583 0 0.049015964386371888 0.00013639173466355211 0 0.051271474008784186 0.00013327616499081148 0 0.050748576770526813 -0.00030695485101972644 0 0.049861788092631094 0.00013217277217840079 0 0.050748576770526813 -0.00030695485101972644 0 0.049825289309630115 -0.000596013386064423 0 0.049861788092631094 0.00013217277217840079 0 0.051271474008784186 0.00013327616499081148 0 0.049861788092631094 0.00013217277217840079 0 0.049964557569577447 0.00048886866351197415 0 0.049861788092631094 0.00013217277217840079 0 0.049143821665851524 0.00048691075916168616 0 0.049964557569577447 0.00048886866351197415 0 0.049861788092631094 0.00013217277217840079 0 0.049015964386371888 0.00013639173466355211 0 0.049143821665851524 0.00048691075916168616 0 0.048769309945803696 0.00034048552890738557 0 0.049015964386371888 0.00013639173466355211 0 0.049143821665851524 0.00048691075916168616 0 0.049331017707433769 -0.00026698561830569583 0 0.049861788092631094 0.00013217277217840079 0 0.049015964386371888 0.00013639173466355211 0 0.048755413003871567 0.00057907073549884097 0 0.048764967953154825 0.00059504176759962713 0 0.049143821665851524 0.00048691075916168616 0 0.048764967953154825 0.00059504176759962713 0 0.048769309945803696 0.00034048552890738557 0 0.049143821665851524 0.00048691075916168616 0 0.048755413003871567 0.00057907073549884097 0 0.049143821665851524 0.00048691075916168616 0 0.049964557569577447 0.00048886866351197415 0 0.048755413003871567 0.00057907073549884097 0 0.048933908815616732 0.00047177585391222133 0 0.049964557569577447 0.00048886866351197415 0 0.048933908815616732 0.00047177585391222133 0 0.050435592357825125 9.1249503097600432e-07 0 0.051305245894848701 0.0002846849497817951 0 0.054266851207077353 8.4012449333260477e-07 0 0.050435592357825125 9.1249503097600432e-07 0 0.051305245894848701 0.0002846849497817951 0 0.051271474008784186 0.00013327616499081148 0 0.051305245894848701 0.0002846849497817951 0 0.049964557569577447 0.00048886866351197415 0 0.048933908815616732 0.00047177585391222133 0 0.051305245894848701 0.0002846849497817951 0 0.049964557569577447 0.00048886866351197415 0 0.060588718665165332 -0.001335081538893592 0 0.060393080745948798 -0.00041882643993402597 0 0.06159505212213276 -0.0017415768101167776 0 0.057231159499691313 0.0011727076361502746 0 0.05670379325721845 0.00099918550783057781 0 0.060588718665165332 -0.001335081538893592 0 0.06159505212213276 -0.0017415768101167776 0 0.060823434845200371 -0.0022587681940916884 0 0.060588718665165332 -0.001335081538893592 0 0.059658002319120065 -0.0017529829148618574 0 0.060244632996894427 -0.0021323940303806248 0 0.060588718665165332 -0.001335081538893592 0 0.059658002319120065 -0.0017529829148618574 0 0.059752802353414305 -0.00096007211986603893 0 0.060588718665165332 -0.001335081538893592 0 0.059752802353414305 -0.00096007211986603893 0 0.060307380855544893 -0.00059546832244052809 0 0.059430749643146034 -0.00043353921758504724 0 0.059752802353414305 -0.00096007211986603893 0 0.060307380855544893 -0.00059546832244052809 0 0.050844918516105703 0.0048323326102404857 0 0.050919010802499907 0.0048541339333870136 0 0.050725292525064095 0.0042472125865654371 0 0.050844918516105703 0.0048323326102404857 0 0.050919010802499907 0.0048541339333870136 0 0.051005314661742761 0.0048813810710013894 0 0.057625295752586812 0.00040112673365256206 0 0.057231159499691313 0.0011727076361502746 0 0.050919010802499907 0.0048541339333870136 0 0.051031834959408919 0.0048221560999093405 0 0.050725292525064095 0.0042472125865654371 0 0.050919010802499907 0.0048541339333870136 0 0.051031834959408919 0.0048221560999093405 0 0.051007161984927489 0.0049367736350246745 0 0.051031834959408919 0.0048221560999093405 0 0.051151816253982019 0.0050080189554872132 0 0.051007161984927489 0.0049367736350246745 0 0.051308355300334334 0.0047372865257400646 0 0.051151816253982019 0.0050080189554872132 0 0.051624719652621102 0.0049850200753747088 0 0.051031834959408919 0.0048221560999093405 0 0.051308355300334334 0.0047372865257400646 0 0.051151816253982019 0.0050080189554872132 0 0.051528425080624496 0.0042931974030951626 0 0.050725292525064095 0.0042472125865654371 0 0.051875557466524398 0.0036068382312646192 0 0.051308355300334334 0.0047372865257400646 0 0.051528425080624496 0.0042931974030951626 0 0.050725292525064095 0.0042472125865654371 0 0.051308355300334334 0.0047372865257400646 0 0.051528425080624496 0.0042931974030951626 0 0.052061661404670653 0.0045122024999560617 0 0.051528425080624496 0.0042931974030951626 0 0.051875557466524398 0.0036068382312646192 0 0.052061661404670653 0.0045122024999560617 0 0.051031834959408919 0.0048221560999093405 0 0.051308355300334334 0.0047372865257400646 0 0.050725292525064095 0.0042472125865654371 0 0.06159505212213276 -0.0017415768101167776 0 0.061536266378032556 -0.0026936592759368989 0 0.062641084522504192 -0.0031343206132577149 0 0.05670379325721845 0.00099918550783057781 0 0.057300871407678165 -0.00016662666028147767 0 0.06159505212213276 -0.0017415768101167776 0 0.061536266378032556 -0.0026936592759368989 0 0.060823434845200371 -0.0022587681940916884 0 0.050725292525064095 0.0042472125865654371 0 0.051875557466524398 0.0036068382312646192 0 0.051482757174516974 0.0024522729229778696 0 0.062641084522504192 -0.0031343206132577149 0 0.061502081659386497 -0.0034162365002155656 0 0.062675401061328087 -0.0036213924367573961 0 0.061536266378032556 -0.0026936592759368989 0 0.062641084522504192 -0.0031343206132577149 0 0.061502081659386497 -0.0034162365002155656 0 0.061536266378032556 -0.0026936592759368989 0 0.061502081659386497 -0.0034162365002155656 0 0.060933795813966622 -0.0027702526504750084 0 0.063491645054487678 -0.0035772463693799026 0 0.063046275732179219 -0.0034980747555541768 0 0.063192309831677895 -0.0035154457553589094 0 0.061502081659386497 -0.0034162365002155656 0 0.060933795813966622 -0.0027702526504750084 0 0.059995433206327518 -0.0027556620252161528 0 0.063491645054487678 -0.0035772463693799026 0 0.063002424866808904 -0.0031851894613822997 0 0.063046275732179219 -0.0034980747555541768 0 0.062121173767198605 -0.0033310172310328998 0 0.061292935581620737 -0.0029913447379419562 0 0.061536266378032556 -0.0026936592759368989 0 0.060933795813966622 -0.0027702526504750084 0 0.060823434845200371 -0.0022587681940916884 0 0.060933795813966622 -0.0027702526504750084 0 0.060531678594481331 -0.0025042837051491035 0 0.059995433206327518 -0.0027556620252161528 0 0.060588718665165332 -0.001335081538893592 0 0.060823434845200371 -0.0022587681940916884 0 0.060244632996894427 -0.0021323940303806248 0 0.060933795813966622 -0.0027702526504750084 0 0.060531678594481331 -0.0025042837051491035 0 0.060823434845200371 -0.0022587681940916884 0 0.060531678594481331 -0.0025042837051491035 0 0.060823434845200371 -0.0022587681940916884 0 0.060244632996894427 -0.0021323940303806248 0 0.059658002319120065 -0.0017529829148618574 0 0.060244632996894427 -0.0021323940303806248 0 0.059995433206327518 -0.0027556620252161528 0 0.062547780320661078 -0.0036179905730024287 0 0.063002424866808904 -0.0031851894613822997 0 0.058978420582836262 -0.0022013908295415198 0 0.060531678594481331 -0.0025042837051491035 0 0.060244632996894427 -0.0021323940303806248 0 0.059995433206327518 -0.0027556620252161528 0 0.062547780320661078 -0.0036179905730024287 0 0.063002424866808904 -0.0031851894613822997 0 0.063046275732179219 -0.0034980747555541768 0 0.063046275732179219 -0.0034980747555541768 0 0.062913724444695548 -0.0035604893818056652 0 0.063192309831677895 -0.0035154457553589094 0 0.062547780320661078 -0.0036179905730024287 0 0.063046275732179219 -0.0034980747555541768 0 0.062782948414170522 -0.0035676542609527889 0 0.063046275732179219 -0.0034980747555541768 0 0.062782948414170522 -0.0035676542609527889 0 0.062913724444695548 -0.0035604893818056652 0 0.062547780320661078 -0.0036179905730024287 0 0.062782948414170522 -0.0035676542609527889 0 0.062833504680413765 -0.0035664460453292924 0 0.062782948414170522 -0.0035676542609527889 0 0.062833504680413765 -0.0035664460453292924 0 0.062913724444695548 -0.0035604893818056652 0 0.062547780320661078 -0.0036179905730024287 0 0.062833504680413765 -0.0035664460453292924 0 0.063149309154375541 -0.0036165841203346376 0 0.062547780320661078 -0.0036179905730024287 0 0.058281603208689504 -0.0044183820123731401 0 0.058978420582836262 -0.0022013908295415198 0 0.061623834238778867 -0.0035603533504539146 0 0.060805922632328521 -0.00366467107695777 0 0.058281603208689504 -0.0044183820123731401 0 0.05761980681943904 -0.0027874968641445402 0 0.056810298033925101 -0.0034391354450271161 0 0.058281603208689504 -0.0044183820123731401 0 0.05761980681943904 -0.0027874968641445402 0 0.058978420582836262 -0.0022013908295415198 0 0.05761980681943904 -0.0027874968641445402 0 0.058978420582836262 -0.0022013908295415198 0 0.057231030032622338 -0.0011922945525642517 0 0.061292935581620737 -0.0029913447379419562 0 0.060452515955086016 -0.0026732330545996739 0 0.059658002319120065 -0.0017529829148618574 0 0.059995433206327518 -0.0027556620252161528 0 0.058978420582836262 -0.0022013908295415198 0 0.056810298033925101 -0.0034391354450271161 0 0.055771888024885301 -0.0030792108628416651 0 0.056003418231179727 -0.0045236367769067743 0 0.055771888024885301 -0.0030792108628416651 0 0.056003418231179727 -0.0045236367769067743 0 0.054966169046189763 -0.0035367775360810282 0 0.055771888024885301 -0.0030792108628416651 0 0.054966169046189763 -0.0035367775360810282 0 0.05487492583703657 -0.002753367629645744 0 0.058281603208689504 -0.0044183820123731401 0 0.056810298033925101 -0.0034391354450271161 0 0.056003418231179727 -0.0045236367769067743 0 0.060805922632328521 -0.00366467107695777 0 0.059697357488817757 -0.0036192418021086499 0 0.05761980681943904 -0.0027874968641445402 0 0.056592500551840272 -0.0024696982131319355 0 0.057231030032622338 -0.0011922945525642517 0 0.05761980681943904 -0.0027874968641445402 0 0.056810298033925101 -0.0034391354450271161 0 0.056592500551840272 -0.0024696982131319355 0 0.056810298033925101 -0.0034391354450271161 0 0.056592500551840272 -0.0024696982131319355 0 0.055771888024885301 -0.0030792108628416651 0 0.055771888024885301 -0.0030792108628416651 0 0.055422379898540229 -0.0015562227453391969 0 0.05487492583703657 -0.002753367629645744 0 0.056592500551840272 -0.0024696982131319355 0 0.055771888024885301 -0.0030792108628416651 0 0.055422379898540229 -0.0015562227453391969 0 0.055422379898540229 -0.0015562227453391969 0 0.057231030032622338 -0.0011922945525642517 0 0.055434227163273148 0.00048706262952786193 0 0.056592500551840272 -0.0024696982131319355 0 0.055422379898540229 -0.0015562227453391969 0 0.057231030032622338 -0.0011922945525642517 0 0.057231030032622338 -0.0011922945525642517 0 0.05886557553934952 -0.00072543766353316407 0 0.05763412679724552 0.00075705833119967501 0 0.059658002319120065 -0.0017529829148618574 0 0.059752802353414305 -0.00096007211986603893 0 0.05886557553934952 -0.00072543766353316407 0 0.059658002319120065 -0.0017529829148618574 0 0.058978420582836262 -0.0022013908295415198 0 0.05886557553934952 -0.00072543766353316407 0 0.058978420582836262 -0.0022013908295415198 0 0.057231030032622338 -0.0011922945525642517 0 0.05886557553934952 -0.00072543766353316407 0 0.059430749643146034 -0.00043353921758504724 0 0.059752802353414305 -0.00096007211986603893 0 0.05886557553934952 -0.00072543766353316407 0 0.059430749643146034 -0.00043353921758504724 0 0.05886557553934952 -0.00072543766353316407 0 0.059120280816549353 0.00016213412330021867 0 0.05886557553934952 -0.00072543766353316407 0 0.059120280816549353 0.00016213412330021867 0 0.058389700567620273 5.8176205825632586e-05 0 0.057597044074439017 -0.00069219129826165494 0 0.056891297535530655 -0.00030190033840972474 0 0.058389700567620273 5.8176205825632586e-05 0 0.058578305503149394 0.00040041287197579219 0 0.058213931590316924 0.0004687872253388458 0 0.059120280816549353 0.00016213412330021867 0 0.058389700567620273 5.8176205825632586e-05 0 0.058578305503149394 0.00040041287197579219 0 0.059120280816549353 0.00016213412330021867 0 0.058578305503149394 0.00040041287197579219 0 0.058927922864761513 0.00040498750210953086 0 0.057231030032622338 -0.0011922945525642517 0 0.05763412679724552 0.00075705833119967501 0 0.055434227163273148 0.00048706262952786193 0 0.056891297535530655 -0.00030190033840972474 0 0.055049221702407787 5.7190019960166854e-05 0 0.05763412679724552 0.00075705833119967501 0 0.055434227163273148 0.00048706262952786193 0 0.056503122623284406 0.002261881231625352 0 0.055434227163273148 0.00048706262952786193 0 0.056503122623284406 0.002261881231625352 0 0.054985936716005657 0.0022642069024877151 0 0.055049221702407787 5.7190019960166854e-05 0 0.051003395602728901 0.00028694865239108118 0 0.056503122623284406 0.002261881231625352 0 0.055015624683855277 0.003523842874975743 0 0.054985936716005657 0.0022642069024877151 0 0.058213931590316924 0.0004687872253388458 0 0.058243492135619475 0.00064281649234860399 0 0.058459251349850992 0.00061702679137313088 0 0.058243492135619475 0.00064281649234860399 0 0.058459251349850992 0.00061702679137313088 0 0.05838060064229985 0.00072132101265172019 0 0.058213931590316924 0.0004687872253388458 0 0.058243492135619475 0.00064281649234860399 0 0.058090115846374649 0.00069022627019300908 0 0.056503122623284406 0.002261881231625352 0 0.05536311159565873 0.0039513464949466198 0 0.055015624683855277 0.003523842874975743 0 0.051003395602728901 0.00028694865239108118 0 0.051318118588034152 0.0006339134618278513 0 0.058927922864761513 0.00040498750210953086 0 0.058692024017481886 0.00057521729506978961 0 0.058812802267429798 0.0006190506530326772 0 0.058578305503149394 0.00040041287197579219 0 0.058927922864761513 0.00040498750210953086 0 0.058692024017481886 0.00057521729506978961 0 0.058578305503149394 0.00040041287197579219 0 0.058213931590316924 0.0004687872253388458 0 0.058459251349850992 0.00061702679137313088 0 0.058578305503149394 0.00040041287197579219 0 0.058692024017481886 0.00057521729506978961 0 0.058459251349850992 0.00061702679137313088 0 0.058459251349850992 0.00061702679137313088 0 0.05849515561617015 0.00071494131614232778 0 0.058591656960389552 0.00068227794757978115 0 0.058459251349850992 0.00061702679137313088 0 0.05838060064229985 0.00072132101265172019 0 0.05849515561617015 0.00071494131614232778 0 0.05849515561617015 0.00071494131614232778 0 0.058562944037964637 0.00072192048536707078 0 0.058591656960389552 0.00068227794757978115 0 0.058692024017481886 0.00057521729506978961 0 0.058459251349850992 0.00061702679137313088 0 0.058591656960389552 0.00068227794757978115 0 0.058692024017481886 0.00057521729506978961 0 0.058591656960389552 0.00068227794757978115 0 0.058677754024098791 0.00067116581014887143 0 0.058692024017481886 0.00057521729506978961 0 0.058677754024098791 0.00067116581014887143 0 0.058812802267429798 0.0006190506530326772 0 0.058591656960389552 0.00068227794757978115 0 0.058677754024098791 0.00067116581014887143 0 0.058591369862917568 0.00076161553563619468 0 0.058562944037964637 0.00072192048536707078 0 0.058591656960389552 0.00068227794757978115 0 0.058591369862917568 0.00076161553563619468 0 0.058545032182907637 0.000677502988432007 0 0.058562944037964637 0.00072192048536707078 0 0.058591369862917568 0.00076161553563619468 0 0.058409392331899603 0.00067558959940272893 0 0.058591369862917568 0.00076161553563619468 0 0.058271606730319413 0.0008234200880473286 0 0.054878790866468179 0.00089514087070813179 0 0.054556803160739374 0.00088882316509333729 0 0.058677754024098791 0.00067116581014887143 0 0.058591369862917568 0.00076161553563619468 0 0.058743209729958806 0.00076887697810109452 0 0.054556803160739374 0.00088882316509333729 0 0.052691127706640924 0.00093694773881532059 0 0.05820696709936804 0.00067318500838768527 0 0.058271606730319413 0.0008234200880473286 0 0.057964751564484301 0.00080721721389627129 0 0.053524174712587899 0.0025013505596502279 0 0.055008342882814726 0.0025562400365942897 0 0.053961601660143826 0.00032660693472425141 0 0.051237540017271772 0.0043969618246806419 0 0.051301314734666668 0.0045327263289623981 0 0.051141769440178883 0.0045154613684922741 0 0.052691127706640924 0.00093694773881532059 0 0.054659314017343558 0.0017044679588053622 0 0.058677754024098791 0.00067116581014887143 0 0.058743209729958806 0.00076887697810109452 0 0.058812802267429798 0.0006190506530326772 0 0.054556803160739374 0.00088882316509333729 0 0.054659314017343558 0.0017044679588053622 0 0.051237540017271772 0.0043969618246806419 0 0.051141769440178883 0.0045154613684922741 0 0.05102617470146651 0.0043752104295269175 0 0.052691127706640924 0.00093694773881532059 0 0.048718066759276792 0.00064693774021244862 0 0.051141769440178883 0.0045154613684922741 0 0.051086467414256181 0.0046522101298002707 0 0.051036214955347853 0.0045078269839651363 0 0.051141769440178883 0.0045154613684922741 0 0.051155790031014288 0.0046662438394325673 0 0.051086467414256181 0.0046522101298002707 0 0.051301314734666668 0.0045327263289623981 0 0.051141769440178883 0.0045154613684922741 0 0.051155790031014288 0.0046662438394325673 0 0.051155790031014288 0.0046662438394325673 0 0.051086467414256181 0.0046522101298002707 0 0.051080792500503312 0.0047924958331747106 0 0.058927922864761513 0.00040498750210953086 0 0.059092124100345637 0.00078250705292757063 0 0.059227195223242275 0.00022890756698930195 0 0.051301314734666668 0.0045327263289623981 0 0.051155790031014288 0.0046662438394325673 0 0.051142293716247407 0.0048410004591233581 0 0.055371313045933748 0.0017085968303891259 0 0.054659314017343558 0.0017044679588053622 0 0.054659314017343558 0.0017044679588053622 0 0.055646268583370927 0.0022042774489587991 0 0.059120280816549353 0.00016213412330021867 0 0.058927922864761513 0.00040498750210953086 0 0.059227195223242275 0.00022890756698930195 0 0.051155790031014288 0.0046662438394325673 0 0.051142293716247407 0.0048410004591233581 0 0.051080792500503312 0.0047924958331747106 0 0.051086467414256181 0.0046522101298002707 0 0.051080792500503312 0.0047924958331747106 0 0.051028954092097838 0.0048441601191176178 0 0.051080792500503312 0.0047924958331747106 0 0.051005314661742761 0.0048813810710013894 0 0.051028954092097838 0.0048441601191176178 0 0.051142293716247407 0.0048410004591233581 0 0.051080792500503312 0.0047924958331747106 0 0.051005314661742761 0.0048813810710013894 0 0.050844918516105703 0.0048323326102404857 0 0.051142293716247407 0.0048410004591233581 0 0.051005314661742761 0.0048813810710013894 0 0.057231159499691313 0.0011727076361502746 0 0.055646268583370927 0.0022042774489587991 0 0.059255134032605267 5.653236601389445e-06 0 0.059120280816549353 0.00016213412330021867 0 0.059227195223242275 0.00022890756698930195 0 0.057231159499691313 0.0011727076361502746 0 0.058452673958586589 9.7701850644968749e-05 0 0.059430749643146034 -0.00043353921758504724 0 0.060307380855544893 -0.00059546832244052809 0 0.059120280816549353 0.00016213412330021867 0 0.051007764235213617 0.0049554078815635802 0 0.051151816253982019 0.0050080189554872132 0 0.050899886920886622 0.0049979087171389738 0 0.051151816253982019 0.0050080189554872132 0 0.050899886920886622 0.0049979087171389738 0 0.051031979925217671 0.0050982781955061307 0 0.051007764235213617 0.0049554078815635802 0 0.051151816253982019 0.0050080189554872132 0 0.051007161984927489 0.0049367736350246745 0 0.051005314661742761 0.0048813810710013894 0 0.051007161984927489 0.0049367736350246745 0 0.051028954092097838 0.0048441601191176178 0 0.051007764235213617 0.0049554078815635802 0 0.051007161984927489 0.0049367736350246745 0 0.051028954092097838 0.0048441601191176178 0 0.050919010802499907 0.0048541339333870136 0 0.051005314661742761 0.0048813810710013894 0 0.051007161984927489 0.0049367736350246745 0 0.051007764235213617 0.0049554078815635802 0 0.051028954092097838 0.0048441601191176178 0 0.050943111937034588 0.0048463954309150396 0 0.051028954092097838 0.0048441601191176178 0 0.050943111937034588 0.0048463954309150396 0 0.050973135666941123 0.0046482961419130001 0 0.051007764235213617 0.0049554078815635802 0 0.050943111937034588 0.0048463954309150396 0 0.050899886920886622 0.0049979087171389738 0 0.050943111937034588 0.0048463954309150396 0 0.050899886920886622 0.0049979087171389738 0 0.050769360856078118 0.004742640771667095 0 0.050769360856078118 0.004742640771667095 0 0.050755247540453748 0.0044888590114778859 0 0.050973135666941123 0.0046482961419130001 0 0.050943111937034588 0.0048463954309150396 0 0.050769360856078118 0.004742640771667095 0 0.050973135666941123 0.0046482961419130001 0 0.050755247540453748 0.0044888590114778859 0 0.050973135666941123 0.0046482961419130001 0 0.050921214968657362 0.0043931094601390294 0 0.051086467414256181 0.0046522101298002707 0 0.050973135666941123 0.0046482961419130001 0 0.051036214955347853 0.0045078269839651363 0 0.051086467414256181 0.0046522101298002707 0 0.051028954092097838 0.0048441601191176178 0 0.050973135666941123 0.0046482961419130001 0 0.050973135666941123 0.0046482961419130001 0 0.051036214955347853 0.0045078269839651363 0 0.050921214968657362 0.0043931094601390294 0 0.048718066759276792 0.00064693774021244862 0 0.04766335179497104 0.00089087852075018462 0 0.051285611990818609 0.0040546467824155172 0 0.050921214968657362 0.0043931094601390294 0 0.050791983660104324 0.0040346377498378088 0 0.051141769440178883 0.0045154613684922741 0 0.051036214955347853 0.0045078269839651363 0 0.05102617470146651 0.0043752104295269175 0 0.051036214955347853 0.0045078269839651363 0 0.05102617470146651 0.0043752104295269175 0 0.050921214968657362 0.0043931094601390294 0 0.048718066759276792 0.00064693774021244862 0 0.048808565925123198 0.00115498529760302 0 0.04766335179497104 0.00089087852075018462 0 0.046570417175546559 0.0012140948948429367 0 0.050626337059942371 0.0042427039044233717 0 0.050791983660104324 0.0040346377498378088 0 0.050380148593113752 0.0039898134149882435 0 0.050755247540453748 0.0044888590114778859 0 0.050626337059942371 0.0042427039044233717 0 0.050921214968657362 0.0043931094601390294 0 0.050626337059942371 0.0042427039044233717 0 0.050921214968657362 0.0043931094601390294 0 0.050791983660104324 0.0040346377498378088 0 0.050755247540453748 0.0044888590114778859 0 0.050626337059942371 0.0042427039044233717 0 0.050221365948815176 0.0043092762658511171 0 0.050626337059942371 0.0042427039044233717 0 0.050380148593113752 0.0039898134149882435 0 0.050221365948815176 0.0043092762658511171 0 0.046570417175546559 0.0012140948948429367 0 0.046958575979716609 0.0032251955825102719 0 0.047430007763836567 0.0048422440366893901 0 0.048111432743818169 0.0049428812783193065 0 0.047569947467547322 0.0049173761836090518 0 0.047257643425102455 0.0048087654203259542 0 0.047430007763836567 0.0048422440366893901 0 0.047569947467547322 0.0049173761836090518 0 0.046631807454914243 0.0012872311622664711 0 0.046570417175546559 0.0012140948948429367 0 0.046958575979716609 0.0032251955825102719 0 0.047118337788434099 0.0038043189073516137 0 0.050221365948815176 0.0043092762658511171 0 0.05050409176222221 0.0049177392974109821 0 0.049728153623628257 0.0048591947825049513 0 0.050769360856078118 0.004742640771667095 0 0.050755247540453748 0.0044888590114778859 0 0.050221365948815176 0.0043092762658511171 0 0.050769360856078118 0.004742640771667095 0 0.050221365948815176 0.0043092762658511171 0 0.05050409176222221 0.0049177392974109821 0 0.048111432743818169 0.0049428812783193065 0 0.048746915600521884 0.0049082950884207195 0 0.047759624394115255 0.0049860246168325221 0 0.048111432743818169 0.0049428812783193065 0 0.048746915600521884 0.0049082950884207195 0 0.049728153623628257 0.0048591947825049513 0 0.048111432743818169 0.0049428812783193065 0 0.047759624394115255 0.0049860246168325221 0 0.047569947467547322 0.0049173761836090518 0 0.047138393013040819 0.0049004399232298315 0 0.047257643425102455 0.0048087654203259542 0 0.047569947467547322 0.0049173761836090518 0 0.046715997154893357 0.0050328150029170524 0 0.047138393013040819 0.0049004399232298315 0 0.047759624394115255 0.0049860246168325221 0 0.047138393013040819 0.0049004399232298315 0 0.047759624394115255 0.0049860246168325221 0 0.047569947467547322 0.0049173761836090518 0 0.046715997154893357 0.0050328150029170524 0 0.046763610041586259 0.0054100599981456322 0 0.047909205909303795 0.0050911563886314147 0 0.046715997154893357 0.0050328150029170524 0 0.047759624394115255 0.0049860246168325221 0 0.047909205909303795 0.0050911563886314147 0 0.045711695492480824 0.0061348735219688283 0 0.046763610041586259 0.0054100599981456322 0 0.047806881558923153 0.0051228855462905993 0 0.046763610041586259 0.0054100599981456322 0 0.047806881558923153 0.0051228855462905993 0 0.047909205909303795 0.0050911563886314147 0 0.048652572470438159 0.0049301097679777363 0 0.047909205909303795 0.0050911563886314147 0 0.049155025307306567 0.0048995127759181049 0 0.047806881558923153 0.0051228855462905993 0 0.048652572470438159 0.0049301097679777363 0 0.047909205909303795 0.0050911563886314147 0 0.048746915600521884 0.0049082950884207195 0 0.047759624394115255 0.0049860246168325221 0 0.047909205909303795 0.0050911563886314147 0 0.048746915600521884 0.0049082950884207195 0 0.047909205909303795 0.0050911563886314147 0 0.049155025307306567 0.0048995127759181049 0 0.048746915600521884 0.0049082950884207195 0 0.049155025307306567 0.0048995127759181049 0 0.049843709633336709 0.0049626915028385806 0 0.049155025307306567 0.0048995127759181049 0 0.049858740073598938 0.0048870502933231388 0 0.049843709633336709 0.0049626915028385806 0 0.049858740073598938 0.0048870502933231388 0 0.049843709633336709 0.0049626915028385806 0 0.050473072906257611 0.0049915405435053102 0 0.049155025307306567 0.0048995127759181049 0 0.049454719429355566 0.0047455012861649035 0 0.050015112480194843 0.0047475364344742831 0 0.048652572470438159 0.0049301097679777363 0 0.049155025307306567 0.0048995127759181049 0 0.049454719429355566 0.0047455012861649035 0 0.049155025307306567 0.0048995127759181049 0 0.049858740073598938 0.0048870502933231388 0 0.050015112480194843 0.0047475364344742831 0 0.049454719429355566 0.0047455012861649035 0 0.050015112480194843 0.0047475364344742831 0 0.050314601279821639 0.0045686316615287104 0 0.050015112480194843 0.0047475364344742831 0 0.050783189152566952 0.004487935200200791 0 0.050314601279821639 0.0045686316615287104 0 0.050015112480194843 0.0047475364344742831 0 0.050687041550061714 0.0046015193626473671 0 0.050473072906257611 0.0049915405435053102 0 0.050015112480194843 0.0047475364344742831 0 0.050687041550061714 0.0046015193626473671 0 0.050783189152566952 0.004487935200200791 0 0.050473072906257611 0.0049915405435053102 0 0.05074109395045967 0.0050658512293458276 0 0.053781314397019574 0.0037403125073460879 0 0.049843709633336709 0.0049626915028385806 0 0.050473072906257611 0.0049915405435053102 0 0.05074109395045967 0.0050658512293458276 0 0.049858740073598938 0.0048870502933231388 0 0.050015112480194843 0.0047475364344742831 0 0.050473072906257611 0.0049915405435053102 0 0.049843709633336709 0.0049626915028385806 0 0.05074109395045967 0.0050658512293458276 0 0.050476395480423 0.0050515219493909198 0 0.05074109395045967 0.0050658512293458276 0 0.051222092269760676 0.0050989951591714619 0 0.050476395480423 0.0050515219493909198 0 0.05074109395045967 0.0050658512293458276 0 0.051222092269760676 0.0050989951591714619 0 0.052003642301159073 0.0049812949974486877 0 0.051222092269760676 0.0050989951591714619 0 0.051031979925217671 0.0050982781955061307 0 0.051624719652621102 0.0049850200753747088 0 0.051151816253982019 0.0050080189554872132 0 0.051031979925217671 0.0050982781955061307 0 0.051624719652621102 0.0049850200753747088 0 0.051222092269760676 0.0050989951591714619 0 0.051031979925217671 0.0050982781955061307 0 0.050476395480423 0.0050515219493909198 0 0.050899886920886622 0.0049979087171389738 0 0.051031979925217671 0.0050982781955061307 0 0.05050409176222221 0.0049177392974109821 0 0.051031979925217671 0.0050982781955061307 0 0.05050409176222221 0.0049177392974109821 0 0.050476395480423 0.0050515219493909198 0 0.050899886920886622 0.0049979087171389738 0 0.050769360856078118 0.004742640771667095 0 0.05050409176222221 0.0049177392974109821 0 0.05050409176222221 0.0049177392974109821 0 0.049728153623628257 0.0048591947825049513 0 0.050476395480423 0.0050515219493909198 0 0.048746915600521884 0.0049082950884207195 0 0.049843709633336709 0.0049626915028385806 0 0.049728153623628257 0.0048591947825049513 0 0.049843709633336709 0.0049626915028385806 0 0.049728153623628257 0.0048591947825049513 0 0.050476395480423 0.0050515219493909198 0 0.055014472730914504 -0.0023621859677779881 0 0.055776908755031912 -0.0048440261291164445 0 0.057371831499303014 -0.001688344781607416 0 0.05140361469405802 0.0049795356924695515 0 0.051239177248544994 0.0049068830521613377 0 0.051259944062854251 0.0047067385434795194 0 0.049076472562857069 0.0022048607078263651 0 0.052016211423539661 0.0023653927658402263 0 0.043222350958440042 0.001379350290428516 0 0.043216650779590318 0.0013964347179034468 0 0.043249554209165035 0.0013971959052898892 0 0.05140361469405802 0.0049795356924695515 0 0.051120005542898195 0.0050674481583216175 0 0.051239177248544994 0.0049068830521613377 0 0.049076472562857069 0.0022048607078263651 0 0.046473198065802392 0.0040289685207847165 0 0.046473198065802392 0.0040289685207847165 0 0.045490121546317729 0.0045580511771663211 0 0.046473198065802392 0.0040289685207847165 0 0.048413972871895875 0.0048140620573074036 0 0.051120005542898195 0.0050674481583216175 0 0.051239177248544994 0.0049068830521613377 0 0.05101068052339492 0.0047860895508276642 0 0.051239177248544994 0.0049068830521613377 0 0.05101068052339492 0.0047860895508276642 0 0.051259944062854251 0.0047067385434795194 0 0.049631715899531317 0.0054734406100534171 0 0.049455767628859552 0.0046295088709451858 0 0.048714550167022627 0.0049512985725246109 0 0.049455767628859552 0.0046295088709451858 0 0.048714550167022627 0.0049512985725246109 0 0.049024864150628032 0.0047768259172640331 0 0.045711695492480824 0.0061348735219688283 0 0.048714550167022627 0.0049512985725246109 0 0.049508288044954822 0.0061677445472961235 0 0.049631715899531317 0.0054734406100534171 0 0.048714550167022627 0.0049512985725246109 0 0.049215029667208518 0.0055897205237089905 0 0.046342436628032703 0.0051886960703287979 0 0.045490121546317729 0.0045580511771663211 0 0.045711695492480824 0.0061348735219688283 0 0.047806881558923153 0.0051228855462905993 0 0.048714550167022627 0.0049512985725246109 0 0.047806881558923153 0.0051228855462905993 0 0.048714550167022627 0.0049512985725246109 0 0.049024864150628032 0.0047768259172640331 0 0.048652572470438159 0.0049301097679777363 0 0.049454719429355566 0.0047455012861649035 0 0.049024864150628032 0.0047768259172640331 0 0.047806881558923153 0.0051228855462905993 0 0.048652572470438159 0.0049301097679777363 0 0.049024864150628032 0.0047768259172640331 0 0.049454719429355566 0.0047455012861649035 0 0.049024864150628032 0.0047768259172640331 0 0.049823867535728254 0.0046330055442339408 0 0.049454719429355566 0.0047455012861649035 0 0.049823867535728254 0.0046330055442339408 0 0.050314601279821639 0.0045686316615287104 0 0.050783189152566952 0.004487935200200791 0 0.050314601279821639 0.0045686316615287104 0 0.051116796927049256 0.0042913074534047515 0 0.050314601279821639 0.0045686316615287104 0 0.051116796927049256 0.0042913074534047515 0 0.050834591662933186 0.004428097254049872 0 0.049823867535728254 0.0046330055442339408 0 0.050314601279821639 0.0045686316615287104 0 0.050834591662933186 0.004428097254049872 0 0.048413972871895875 0.0048140620573074036 0 0.048903534879805713 0.0047175816224821502 0 0.05101068052339492 0.0047860895508276642 0 0.050834591662933186 0.004428097254049872 0 0.051115300949006903 0.0043726391604797929 0 0.049455767628859552 0.0046295088709451858 0 0.049024864150628032 0.0047768259172640331 0 0.049823867535728254 0.0046330055442339408 0 0.049455767628859552 0.0046295088709451858 0 0.049823867535728254 0.0046330055442339408 0 0.050834591662933186 0.004428097254049872 0 0.053326278961290406 0.0025536568136325802 0 0.052016211423539661 0.0023653927658402263 0 0.05101068052339492 0.0047860895508276642 0 0.051115300949006903 0.0043726391604797929 0 0.051259944062854251 0.0047067385434795194 0 0.057986961544620567 0.001131774464481041 0 0.056403125240809045 0.00050648057332651649 0 0.057371831499303014 -0.001688344781607416 0 0.057986961544620567 0.001131774464481041 0 0.056403125240809045 0.00050648057332651649 0 0.057151991815069511 0.0017028367449727592 0 0.055014472730914504 -0.0023621859677779881 0 0.056403125240809045 0.00050648057332651649 0 0.057371831499303014 -0.001688344781607416 0 0.057327686038379518 0.0019132292144216306 0 0.057320248877404945 0.0019814178227656656 0 0.056815178605955044 0.0022446258845050106 0 0.057320248877404945 0.0019814178227656656 0 0.057138116897097475 0.0021405733814418727 0 0.056815178605955044 0.0022446258845050106 0 0.057138116897097475 0.0021405733814418727 0 0.056815178605955044 0.0022446258845050106 0 0.056557368698286488 0.0019251822024125851 0 0.05524890774018295 0.0024128800073566171 0 0.056403125240809045 0.00050648057332651649 0 0.056557368698286488 0.0019251822024125851 0 0.056403125240809045 0.00050648057332651649 0 0.056557368698286488 0.0019251822024125851 0 0.057151991815069511 0.0017028367449727592 0 0.057138116897097475 0.0021405733814418727 0 0.056557368698286488 0.0019251822024125851 0 0.057151991815069511 0.0017028367449727592 0 0.057138116897097475 0.0021405733814418727 0 0.057151991815069511 0.0017028367449727592 0 0.057356743858848418 0.0020749827808302719 0 0.057986961544620567 0.001131774464481041 0 0.057151991815069511 0.0017028367449727592 0 0.057356743858848418 0.0020749827808302719 0 0.057138116897097475 0.0021405733814418727 0 0.057356743858848418 0.0020749827808302719 0 0.057278643852633614 0.002115317239679405 0 0.057320248877404945 0.0019814178227656656 0 0.057138116897097475 0.0021405733814418727 0 0.057278643852633614 0.002115317239679405 0 0.057356743858848418 0.0020749827808302719 0 0.057278643852633614 0.002115317239679405 0 0.057057009160661087 0.0025308797231037086 0 0.057278643852633614 0.002115317239679405 0 0.057057009160661087 0.0025308797231037086 0 0.056931165358365211 0.0017848402775164087 0 0.057057009160661087 0.0025308797231037086 0 0.054747274683446007 0.0021263656274695727 0 0.056931165358365211 0.0017848402775164087 0 0.057986961544620567 0.001131774464481041 0 0.057356743858848418 0.0020749827808302719 0 0.057057009160661087 0.0025308797231037086 0 0.051116796927049256 0.0042913074534047515 0 0.050834591662933186 0.004428097254049872 0 0.05209106032183778 0.0039030819012170264 0 0.050834591662933186 0.004428097254049872 0 0.051115300949006903 0.0043726391604797929 0 0.05209106032183778 0.0039030819012170264 0 0.053326278961290406 0.0025536568136325802 0 0.053699338522896378 0.0023287873546607193 0 0.05209106032183778 0.0039030819012170264 0 0.051563425874910702 0.0041307403418736864 0 0.052593116412482731 0.0035446672673493901 0 0.051116796927049256 0.0042913074534047515 0 0.05209106032183778 0.0039030819012170264 0 0.051563425874910702 0.0041307403418736864 0 0.050783189152566952 0.004487935200200791 0 0.051116796927049256 0.0042913074534047515 0 0.051563425874910702 0.0041307403418736864 0 0.05209106032183778 0.0039030819012170264 0 0.052593116412482731 0.0035446672673493901 0 0.054747274683446007 0.0021263656274695727 0 0.053699338522896378 0.0023287873546607193 0 0.053672471597342855 0.0019512921234022605 0 0.052593116412482731 0.0035446672673493901 0 0.054747274683446007 0.0021263656274695727 0 0.053614739787161692 0.0016091251291427545 0 0.054747274683446007 0.0021263656274695727 0 0.056317899996804976 0.001304238835649021 0 0.056931165358365211 0.0017848402775164087 0 0.054747274683446007 0.0021263656274695727 0 0.055845217970741302 0.0010183397459215982 0 0.056317899996804976 0.001304238835649021 0 0.054747274683446007 0.0021263656274695727 0 0.055845217970741302 0.0010183397459215982 0 0.053614739787161692 0.0016091251291427545 0 0.055845217970741302 0.0010183397459215982 0 0.053614739787161692 0.0016091251291427545 0 0.057142214857404984 -9.9821358341846747e-05 0 0.055845217970741302 0.0010183397459215982 0 0.057093543854367532 0.00070792423473206145 0 0.057142214857404984 -9.9821358341846747e-05 0 0.055845217970741302 0.0010183397459215982 0 0.057093543854367532 0.00070792423473206145 0 0.056317899996804976 0.001304238835649021 0 0.057093543854367532 0.00070792423473206145 0 0.057325980682569867 0.0011954003309415679 0 0.056317899996804976 0.001304238835649021 0 0.057093543854367532 0.00070792423473206145 0 0.057325980682569867 0.0011954003309415679 0 0.057898785801534174 0.00065977149953819528 0 0.057325980682569867 0.0011954003309415679 0 0.056317899996804976 0.001304238835649021 0 0.056931165358365211 0.0017848402775164087 0 0.057320248877404945 0.0019814178227656656 0 0.057278643852633614 0.002115317239679405 0 0.057528787115732893 0.0015009991227031838 0 0.057325980682569867 0.0011954003309415679 0 0.056931165358365211 0.0017848402775164087 0 0.057528787115732893 0.0015009991227031838 0 0.057278643852633614 0.002115317239679405 0 0.056931165358365211 0.0017848402775164087 0 0.057528787115732893 0.0015009991227031838 0 0.057325980682569867 0.0011954003309415679 0 0.057528787115732893 0.0015009991227031838 0 0.057898785801534174 0.00065977149953819528 0 0.057528787115732893 0.0015009991227031838 0 0.057898785801534174 0.00065977149953819528 0 0.057925137304100177 0.001011990937352937 0 0.057898785801534174 0.00065977149953819528 0 0.057925137304100177 0.001011990937352937 0 0.058214063554361248 0.00061036891871632385 0 0.057925137304100177 0.001011990937352937 0 0.058257967211274082 0.00077520317239612301 0 0.058214063554361248 0.00061036891871632385 0 0.057925137304100177 0.001011990937352937 0 0.058257967211274082 0.00077520317239612301 0 0.057977432209459299 0.0011456705318153128 0 0.057925137304100177 0.001011990937352937 0 0.057977432209459299 0.0011456705318153128 0 0.057639414435929251 0.0015333837060166726 0 0.057731832450071151 0.0015507684938820968 0 0.057977432209459299 0.0011456705318153128 0 0.057639414435929251 0.0015333837060166726 0 0.057528787115732893 0.0015009991227031838 0 0.057925137304100177 0.001011990937352937 0 0.057639414435929251 0.0015333837060166726 0 0.057320248877404945 0.0019814178227656656 0 0.057528787115732893 0.0015009991227031838 0 0.057639414435929251 0.0015333837060166726 0 0.057327686038379518 0.0019132292144216306 0 0.057320248877404945 0.0019814178227656656 0 0.057639414435929251 0.0015333837060166726 0 0.057327686038379518 0.0019132292144216306 0 0.057731832450071151 0.0015507684938820968 0 0.057639414435929251 0.0015333837060166726 0 0.052725148132990063 0.004598124555212111 0 0.052003642301159073 0.0049812949974486877 0 0.053578033741962336 0.0047266090967075774 0 0.052725148132990063 0.004598124555212111 0 0.053578033741962336 0.0047266090967075774 0 0.053942387447314118 0.0037217717270156916 0 0.052725148132990063 0.004598124555212111 0 0.053942387447314118 0.0037217717270156916 0 0.052815395750290858 0.0038474384728173364 0 0.052725148132990063 0.004598124555212111 0 0.052061661404670653 0.0045122024999560617 0 0.052815395750290858 0.0038474384728173364 0 0.051875557466524398 0.0036068382312646192 0 0.052061661404670653 0.0045122024999560617 0 0.052815395750290858 0.0038474384728173364 0 0.052725148132990063 0.004598124555212111 0 0.052061661404670653 0.0045122024999560617 0 0.051624719652621102 0.0049850200753747088 0 0.051308355300334334 0.0047372865257400646 0 0.052061661404670653 0.0045122024999560617 0 0.051624719652621102 0.0049850200753747088 0 0.051222092269760676 0.0050989951591714619 0 0.051624719652621102 0.0049850200753747088 0 0.052003642301159073 0.0049812949974486877 0 0.05074109395045967 0.0050658512293458276 0 0.052003642301159073 0.0049812949974486877 0 0.053578033741962336 0.0047266090967075774 0 0.052725148132990063 0.004598124555212111 0 0.051624719652621102 0.0049850200753747088 0 0.052003642301159073 0.0049812949974486877 0 0.053400915879424568 0.0043342694748728337 0 0.054188420221419051 0.0034826193280617407 0 0.05074109395045967 0.0050658512293458276 0 0.053781314397019574 0.0037403125073460879 0 0.052789687071800241 0.00328581123215982 0 0.052429065593147792 0.0040190448118698503 0 0.053059701209958142 0.0033345275139449872 0 0.050687041550061714 0.0046015193626473671 0 0.050473072906257611 0.0049915405435053102 0 0.050970528865426919 0.0038953931259098308 0 0.050687041550061714 0.0046015193626473671 0 0.05123125719102066 0.0042442159169300804 0 0.050970528865426919 0.0038953931259098308 0 0.052593116412482731 0.0035446672673493901 0 0.05123125719102066 0.0042442159169300804 0 0.050970528865426919 0.0038953931259098308 0 0.050687041550061714 0.0046015193626473671 0 0.050783189152566952 0.004487935200200791 0 0.05123125719102066 0.0042442159169300804 0 0.050783189152566952 0.004487935200200791 0 0.051563425874910702 0.0041307403418736864 0 0.05123125719102066 0.0042442159169300804 0 0.051563425874910702 0.0041307403418736864 0 0.052593116412482731 0.0035446672673493901 0 0.05123125719102066 0.0042442159169300804 0 0.053781314397019574 0.0037403125073460879 0 0.054400888474533136 0.0023355500505462417 0 0.056127830945799664 0.0013446841849183856 0 0.052593116412482731 0.0035446672673493901 0 0.050970528865426919 0.0038953931259098308 0 0.053614739787161692 0.0016091251291427545 0 0.053059701209958142 0.0033345275139449872 0 0.054283288477258995 0.0018926306787391261 0 0.053781314397019574 0.0037403125073460879 0 0.052789687071800241 0.00328581123215982 0 0.054400888474533136 0.0023355500505462417 0 0.052789687071800241 0.00328581123215982 0 0.054400888474533136 0.0023355500505462417 0 0.05481089358798185 0.00090139315907696916 0 0.054400888474533136 0.0023355500505462417 0 0.056127830945799664 0.0013446841849183856 0 0.05481089358798185 0.00090139315907696916 0 0.054188420221419051 0.0034826193280617407 0 0.055844111972880861 0.0015489102820013618 0 0.056127830945799664 0.0013446841849183856 0 0.056281846349195475 0.00037992498111665078 0 0.057142214857404984 -9.9821358341846747e-05 0 0.054283288477258995 0.0018926306787391261 0 0.054994656791488371 0.0010078729352424359 0 0.056127830945799664 0.0013446841849183856 0 0.056281846349195475 0.00037992498111665078 0 0.05481089358798185 0.00090139315907696916 0 0.05638891305942581 0.0024665922407272629 0 0.053774772966276203 0.0021264395415099059 0 0.056093204585759095 0.00068502601797525912 0 0.05638891305942581 0.0024665922407272629 0 0.053942387447314118 0.0037217717270156916 0 0.053774772966276203 0.0021264395415099059 0 0.053942387447314118 0.0037217717270156916 0 0.052815395750290858 0.0038474384728173364 0 0.053774772966276203 0.0021264395415099059 0 0.053578033741962336 0.0047266090967075774 0 0.05638891305942581 0.0024665922407272629 0 0.053942387447314118 0.0037217717270156916 0 0.051875557466524398 0.0036068382312646192 0 0.052815395750290858 0.0038474384728173364 0 0.053774772966276203 0.0021264395415099059 0 0.051875557466524398 0.0036068382312646192 0 0.051482757174516974 0.0024522729229778696 0 0.053774772966276203 0.0021264395415099059 0 0.051482757174516974 0.0024522729229778696 0 0.053774772966276203 0.0021264395415099059 0 0.05428601593927123 -0.0004644972374853451 0 0.057300871407678165 -0.00016662666028147767 0 0.058082021503510391 -0.0012336916322914218 0 0.062641084522504192 -0.0031343206132577149 0 0.062299564698532428 -0.0038373010991739295 0 0.062675401061328087 -0.0036213924367573961 0 0.062299564698532428 -0.0038373010991739295 0 0.062688587174687421 -0.0032366867422516125 0 0.062675401061328087 -0.0036213924367573961 0 0.062299564698532428 -0.0038373010991739295 0 0.062688587174687421 -0.0032366867422516125 0 0.062062969312733911 -0.0026794713592780991 0 0.062688587174687421 -0.0032366867422516125 0 0.062062969312733911 -0.0026794713592780991 0 0.06285426821508211 -0.0025767163101689311 0 0.058082021503510391 -0.0012336916322914218 0 0.058508814499070833 -0.0016323756181664407 0 0.062299564698532428 -0.0038373010991739295 0 0.062062969312733911 -0.0026794713592780991 0 0.059872906170338261 -0.0024417754750354157 0 0.05428601593927123 -0.0004644972374853451 0 0.059347629744454705 -0.0014743892493951612 0 0.059872906170338261 -0.0024417754750354157 0 0.053774772966276203 0.0021264395415099059 0 0.05428601593927123 -0.0004644972374853451 0 0.056093204585759095 0.00068502601797525912 0 0.05428601593927123 -0.0004644972374853451 0 0.056093204585759095 0.00068502601797525912 0 0.059347629744454705 -0.0014743892493951612 0 0.055844111972880861 0.0015489102820013618 0 0.05764945949665793 -0.00028688690106290938 0 0.05638891305942581 0.0024665922407272629 0 0.056093204585759095 0.00068502601797525912 0 0.059347629744454705 -0.0014743892493951612 0 0.056281846349195475 0.00037992498111665078 0 0.05481089358798185 0.00090139315907696916 0 0.05701842476729925 -0.00026538764698146202 0 0.056281846349195475 0.00037992498111665078 0 0.05701842476729925 -0.00026538764698146202 0 0.057142214857404984 -9.9821358341846747e-05 0 0.058376070209662782 -0.0004679105877738496 0 0.05701842476729925 -0.00026538764698146202 0 0.057142214857404984 -9.9821358341846747e-05 0 0.059347629744454705 -0.0014743892493951612 0 0.060707926900725635 -0.0022259953007447222 0 0.059872906170338261 -0.0024417754750354157 0 0.058376070209662782 -0.0004679105877738496 0 0.05701842476729925 -0.00026538764698146202 0 0.059222755430503989 -0.00065363614603124621 0 0.060707926900725635 -0.0022259953007447222 0 0.059872906170338261 -0.0024417754750354157 0 0.061253058090532157 -0.0020364719484955956 0 0.05764945949665793 -0.00028688690106290938 0 0.059039323477943009 -0.00090641579251951739 0 0.058376070209662782 -0.0004679105877738496 0 0.059222755430503989 -0.00065363614603124621 0 0.059935469280748922 -0.00067174593300282014 0 0.058376070209662782 -0.0004679105877738496 0 0.059935469280748922 -0.00067174593300282014 0 0.059516385914156034 -0.00060701039883856933 0 0.059222755430503989 -0.00065363614603124621 0 0.059935469280748922 -0.00067174593300282014 0 0.061880797112928404 -0.000604353455864275 0 0.059935469280748922 -0.00067174593300282014 0 0.059516385914156034 -0.00060701039883856933 0 0.060692038460963403 -0.00064093999432549746 0 0.059039323477943009 -0.00090641579251951739 0 0.059642609150315516 -0.00078822814883358606 0 0.060707926900725635 -0.0022259953007447222 0 0.061838954922615992 -0.0013018816135657253 0 0.062037643634623781 -0.0015632649747251606 0 0.060707926900725635 -0.0022259953007447222 0 0.061838954922615992 -0.0013018816135657253 0 0.061880797112928404 -0.000604353455864275 0 0.061838954922615992 -0.0013018816135657253 0 0.062037643634623781 -0.0015632649747251606 0 0.062769735573572044 -0.00098878705540836743 0 0.062037643634623781 -0.0015632649747251606 0 0.063169805315482802 -0.0013664454506996759 0 0.062427931808231696 -0.0019463597494303023 0 0.062037643634623781 -0.0015632649747251606 0 0.063169805315482802 -0.0013664454506996759 0 0.062769735573572044 -0.00098878705540836743 0 0.063169805315482802 -0.0013664454506996759 0 0.062427931808231696 -0.0019463597494303023 0 0.063130312785760687 -0.0019837532106618239 0 0.062427931808231696 -0.0019463597494303023 0 0.063130312785760687 -0.0019837532106618239 0 0.06285426821508211 -0.0025767163101689311 0 0.062062969312733911 -0.0026794713592780991 0 0.062427931808231696 -0.0019463597494303023 0 0.06285426821508211 -0.0025767163101689311 0 0.062062969312733911 -0.0026794713592780991 0 0.062427931808231696 -0.0019463597494303023 0 0.061253058090532157 -0.0020364719484955956 0 0.060707926900725635 -0.0022259953007447222 0 0.062037643634623781 -0.0015632649747251606 0 0.061253058090532157 -0.0020364719484955956 0 0.062062969312733911 -0.0026794713592780991 0 0.059872906170338261 -0.0024417754750354157 0 0.061253058090532157 -0.0020364719484955956 0 0.062037643634623781 -0.0015632649747251606 0 0.062427931808231696 -0.0019463597494303023 0 0.061253058090532157 -0.0020364719484955956 0 0.05865160579053319 7.4908585923794599e-05 0 0.058867487288943421 -0.00029042037968285227 0 0.059056497304618913 -0.00036653264154679446 0 0.058585961037227546 0.00045064620603621307 0 0.05865160579053319 7.4908585923794599e-05 0 0.059056497304618913 -0.00036653264154679446 0 0.058585961037227546 0.00045064620603621307 0 0.05865160579053319 7.4908585923794599e-05 0 0.058426917896871863 0.00043332593281125335 0 0.058257967211274082 0.00077520317239612301 0 0.058426917896871863 0.00043332593281125335 0 0.058214063554361248 0.00061036891871632385 0 0.057898785801534174 0.00065977149953819528 0 0.058214063554361248 0.00061036891871632385 0 0.058422135795271078 0.00028605844698554233 0 0.058426917896871863 0.00043332593281125335 0 0.058214063554361248 0.00061036891871632385 0 0.058422135795271078 0.00028605844698554233 0 0.05865160579053319 7.4908585923794599e-05 0 0.058426917896871863 0.00043332593281125335 0 0.058422135795271078 0.00028605844698554233 0 0.05865160579053319 7.4908585923794599e-05 0 0.058422135795271078 0.00028605844698554233 0 0.058385516368245578 0.00010237405008527922 0 0.057898785801534174 0.00065977149953819528 0 0.058422135795271078 0.00028605844698554233 0 0.058385516368245578 0.00010237405008527922 0 0.057898785801534174 0.00065977149953819528 0 0.058385516368245578 0.00010237405008527922 0 0.057855839052846872 0.00015662921811902795 0 0.058385516368245578 0.00010237405008527922 0 0.058521580571048525 -0.0001883183898031606 0 0.057855839052846872 0.00015662921811902795 0 0.058385516368245578 0.00010237405008527922 0 0.058521580571048525 -0.0001883183898031606 0 0.058867487288943421 -0.00029042037968285227 0 0.05865160579053319 7.4908585923794599e-05 0 0.058385516368245578 0.00010237405008527922 0 0.058867487288943421 -0.00029042037968285227 0 0.058521580571048525 -0.0001883183898031606 0 0.058867487288943421 -0.00029042037968285227 0 0.059089616354089068 -0.00046989305461983251 0 0.058258037484880766 -0.00024144932300322085 0 0.058581319615939313 -0.00043872173007045319 0 0.059089616354089068 -0.00046989305461983251 0 0.058521580571048525 -0.0001883183898031606 0 0.058258037484880766 -0.00024144932300322085 0 0.059089616354089068 -0.00046989305461983251 0 0.058521580571048525 -0.0001883183898031606 0 0.058258037484880766 -0.00024144932300322085 0 0.057855839052846872 0.00015662921811902795 0 0.057093543854367532 0.00070792423473206145 0 0.057898785801534174 0.00065977149953819528 0 0.057855839052846872 0.00015662921811902795 0 0.057093543854367532 0.00070792423473206145 0 0.057855839052846872 0.00015662921811902795 0 0.057142214857404984 -9.9821358341846747e-05 0 0.058258037484880766 -0.00024144932300322085 0 0.057855839052846872 0.00015662921811902795 0 0.057142214857404984 -9.9821358341846747e-05 0 0.058258037484880766 -0.00024144932300322085 0 0.057142214857404984 -9.9821358341846747e-05 0 0.058581319615939313 -0.00043872173007045319 0 0.058376070209662782 -0.0004679105877738496 0 0.057142214857404984 -9.9821358341846747e-05 0 0.058581319615939313 -0.00043872173007045319 0 0.058581319615939313 -0.00043872173007045319 0 0.059516385914156034 -0.00060701039883856933 0 0.059775681821182029 -0.00061871993793342385 0 0.058376070209662782 -0.0004679105877738496 0 0.058581319615939313 -0.00043872173007045319 0 0.059516385914156034 -0.00060701039883856933 0 0.059516385914156034 -0.00060701039883856933 0 0.059775681821182029 -0.00061871993793342385 0 0.060692038460963403 -0.00064093999432549746 0 0.059775681821182029 -0.00061871993793342385 0 0.060784250620730708 -0.00056839480588440582 0 0.060692038460963403 -0.00064093999432549746 0 0.059775681821182029 -0.00061871993793342385 0 0.059963941832015588 -0.00061077959170899754 0 0.060784250620730708 -0.00056839480588440582 0 0.059775681821182029 -0.00061871993793342385 0 0.059089616354089068 -0.00046989305461983251 0 0.059963941832015588 -0.00061077959170899754 0 0.058581319615939313 -0.00043872173007045319 0 0.059775681821182029 -0.00061871993793342385 0 0.059089616354089068 -0.00046989305461983251 0 0.059089616354089068 -0.00046989305461983251 0 0.059367201441650246 -0.00050808071624282639 0 0.059963941832015588 -0.00061077959170899754 0 0.058867487288943421 -0.00029042037968285227 0 0.059089616354089068 -0.00046989305461983251 0 0.059367201441650246 -0.00050808071624282639 0 0.059963941832015588 -0.00061077959170899754 0 0.059833979062456133 -0.00058178478671053245 0 0.060735301737884502 -0.00049928062808458559 0 0.059367201441650246 -0.00050808071624282639 0 0.059963941832015588 -0.00061077959170899754 0 0.059833979062456133 -0.00058178478671053245 0 0.061632464295352886 0.00012085597743074799 0 0.06100303602490427 0.00011154756740951027 0 0.060326960845818942 -0.00012195250777044772 0 0.060818715988289147 -0.00011476319011492384 0 0.059977868988784391 -2.55733818877409e-05 0 0.059367201441650246 -0.00050808071624282639 0 0.059833979062456133 -0.00058178478671053245 0 0.059056497304618913 -0.00036653264154679446 0 0.060374337857505213 -2.5009991311445027e-05 0 0.06100303602490427 0.00011154756740951027 0 0.060326960845818942 -0.00012195250777044772 0 0.058867487288943421 -0.00029042037968285227 0 0.059367201441650246 -0.00050808071624282639 0 0.059056497304618913 -0.00036653264154679446 0 0.064973104262176354 9.9154570672020831e-08 0 0.064974647275281835 -6.5327709600683035e-07 0 0.064985041017118633 -3.9628281916929452e-07 0 0.064983641300747672 1.9646514012490211e-06 0 0.064990795330661405 2.1263596667748054e-07 0 0.06270685181252128 0.00030089136664487805 0 0.063869463413677191 3.1736274429862413e-06 0 0.064973104262176354 9.9154570672020831e-08 0 0.064963754418088979 6.831500670917915e-06 0 0.064974647275281835 -6.5327709600683035e-07 0 0.061632464295352886 0.00012085597743074799 0 0.06100303602490427 0.00011154756740951027 0 0.062135956685430087 0.00033919110172067228 0 0.061211995604899892 0.00099932853478170271 0 0.06270685181252128 0.00030089136664487805 0 0.060818715988289147 -0.00011476319011492384 0 0.061741030446982904 2.5640507984063981e-05 0 0.059833979062456133 -0.00058178478671053245 0 0.060735301737884502 -0.00049928062808458559 0 0.061358894178110364 -0.00019247677222251908 0 0.061632464295352886 0.00012085597743074799 0 0.062135956685430087 0.00033919110172067228 0 0.062939913925997654 0.00035155814726314382 0 0.060735301737884502 -0.00049928062808458559 0 0.061358894178110364 -0.00019247677222251908 0 0.06171309475878213 -0.00036160017796152486 0 0.062135956685430087 0.00033919110172067228 0 0.062939913925997654 0.00035155814726314382 0 0.063353583302022135 0.00036262739262059827 0 0.061358894178110364 -0.00019247677222251908 0 0.06171309475878213 -0.00036160017796152486 0 0.062814728376184126 -6.4968974053650745e-05 0 0.06171309475878213 -0.00036160017796152486 0 0.06270396272080106 -0.00017829228363058447 0 0.062814728376184126 -6.4968974053650745e-05 0 0.060735301737884502 -0.00049928062808458559 0 0.06171309475878213 -0.00036160017796152486 0 0.060784250620730708 -0.00056839480588440582 0 0.059963941832015588 -0.00061077959170899754 0 0.060735301737884502 -0.00049928062808458559 0 0.060784250620730708 -0.00056839480588440582 0 0.06171309475878213 -0.00036160017796152486 0 0.060784250620730708 -0.00056839480588440582 0 0.061548045304706193 -0.00048588680324882947 0 0.060784250620730708 -0.00056839480588440582 0 0.060692038460963403 -0.00064093999432549746 0 0.061548045304706193 -0.00048588680324882947 0 0.06171309475878213 -0.00036160017796152486 0 0.061548045304706193 -0.00048588680324882947 0 0.06270396272080106 -0.00017829228363058447 0 0.061548045304706193 -0.00048588680324882947 0 0.06270396272080106 -0.00017829228363058447 0 0.061880797112928404 -0.000604353455864275 0 0.06270396272080106 -0.00017829228363058447 0 0.063780597505484968 6.5260671552088458e-06 0 0.063628394974102845 -6.9779413968820131e-05 0 0.06270396272080106 -0.00017829228363058447 0 0.063780597505484968 6.5260671552088458e-06 0 0.062814728376184126 -6.4968974053650745e-05 0 0.063780597505484968 6.5260671552088458e-06 0 0.064998228460178012 7.8041247318815313e-08 0 0.063628394974102845 -6.9779413968820131e-05 0 0.063780597505484968 6.5260671552088458e-06 0 0.064998228460178012 7.8041247318815313e-08 0 0.064217126356190646 0.00014950155756167667 0 0.064998228460178012 7.8041247318815313e-08 0 0.064217126356190646 0.00014950155756167667 0 0.064996598144119996 2.5704633611880753e-07 0 0.063780597505484968 6.5260671552088458e-06 0 0.064217126356190646 0.00014950155756167667 0 0.062814728376184126 -6.4968974053650745e-05 0 0.061358894178110364 -0.00019247677222251908 0 0.064217126356190646 0.00014950155756167667 0 0.062814728376184126 -6.4968974053650745e-05 0 0.061741030446982904 2.5640507984063981e-05 0 0.062268080649712648 0.00015020884759156267 0 0.062939913925997654 0.00035155814726314382 0 0.064217126356190646 0.00014950155756167667 0 0.063353583302022135 0.00036262739262059827 0 0.064989324553871491 -4.51031234492307e-07 0 0.0650000031967293 -1.7086982715559229e-09 0 0.064999979844778261 3.2765467107018837e-09 0 0.064217126356190646 0.00014950155756167667 0 0.063353583302022135 0.00036262739262059827 0 0.064996598144119996 2.5704633611880753e-07 0 0.063869463413677191 3.1736274429862413e-06 0 0.064997790546412998 7.645813938140092e-08 0 0.064999981231075074 1.2462775334366272e-09 0 0.064990795330661405 2.1263596667748054e-07 0 0.064992733584594925 1.5658405395505372e-06 0 0.064999992350901439 1.0760164789260708e-09 0 0.064990623408763659 1.9581479365706941e-06 0 0.064989324553871491 -4.51031234492307e-07 0 0.064999979844778261 3.2765467107018837e-09 0 0.064985041017118633 -3.9628281916929452e-07 0 0.064974647275281835 -6.5327709600683035e-07 0 0.064989324553871491 -4.51031234492307e-07 0 0.064985041017118633 -3.9628281916929452e-07 0 0.063480912955424587 -0.00042023673351065092 0 0.061880797112928404 -0.000604353455864275 0 0.06391951187055589 -7.5055890298234121e-05 0 0.063480912955424587 -0.00042023673351065092 0 0.064341012774563389 -0.00013146140680995923 0 0.063740188921621338 -0.00071800246045159713 0 0.063480912955424587 -0.00042023673351065092 0 0.062769735573572044 -0.00098878705540836743 0 0.063740188921621338 -0.00071800246045159713 0 0.063169805315482802 -0.0013664454506996759 0 0.062769735573572044 -0.00098878705540836743 0 0.063740188921621338 -0.00071800246045159713 0 0.063480912955424587 -0.00042023673351065092 0 0.062769735573572044 -0.00098878705540836743 0 0.061880797112928404 -0.000604353455864275 0 0.061838954922615992 -0.0013018816135657253 0 0.062769735573572044 -0.00098878705540836743 0 0.061880797112928404 -0.000604353455864275 0 0.059935469280748922 -0.00067174593300282014 0 0.060692038460963403 -0.00064093999432549746 0 0.061880797112928404 -0.000604353455864275 0 0.060692038460963403 -0.00064093999432549746 0 0.061548045304706193 -0.00048588680324882947 0 0.061880797112928404 -0.000604353455864275 0 0.06270396272080106 -0.00017829228363058447 0 0.061880797112928404 -0.000604353455864275 0 0.063628394974102845 -6.9779413968820131e-05 0 0.061880797112928404 -0.000604353455864275 0 0.063628394974102845 -6.9779413968820131e-05 0 0.06391951187055589 -7.5055890298234121e-05 0 0.064998228460178012 7.8041247318815313e-08 0 0.063628394974102845 -6.9779413968820131e-05 0 0.064998369341247877 2.6993571893416934e-08 0 0.063628394974102845 -6.9779413968820131e-05 0 0.064998369341247877 2.6993571893416934e-08 0 0.06391951187055589 -7.5055890298234121e-05 0 0.064998369341247877 2.6993571893416934e-08 0 0.06391951187055589 -7.5055890298234121e-05 0 0.064998934890151835 9.4216220858334979e-08 0 0.063480912955424587 -0.00042023673351065092 0 0.06391951187055589 -7.5055890298234121e-05 0 0.064341012774563389 -0.00013146140680995923 0 0.064998934890151835 9.4216220858334979e-08 0 0.064999454282475638 -1.8299394950593188e-08 0 0.064341012774563389 -0.00013146140680995923 0 0.06391951187055589 -7.5055890298234121e-05 0 0.064998934890151835 9.4216220858334979e-08 0 0.064341012774563389 -0.00013146140680995923 0 0.064999454282475638 -1.8299394950593188e-08 0 0.064762748390687186 -0.00010524867260526184 0 0.064341012774563389 -0.00013146140680995923 0 0.064999454282475638 -1.8299394950593188e-08 0 0.064762748390687186 -0.00010524867260526184 0 0.064999793651067034 -2.5347757192220679e-08 0 0.064762748390687186 -0.00010524867260526184 0 0.064767774030589878 -0.00030374978730199879 0 0.064385662592248677 -0.00044326550353409743 0 0.064762748390687186 -0.00010524867260526184 0 0.064341012774563389 -0.00013146140680995923 0 0.064385662592248677 -0.00044326550353409743 0 0.064999793651067034 -2.5347757192220679e-08 0 0.064960052634233809 -9.2159709651028394e-05 0 0.065000058554345458 -5.3914410365083734e-08 0 0.064762748390687186 -0.00010524867260526184 0 0.064999793651067034 -2.5347757192220679e-08 0 0.064960052634233809 -9.2159709651028394e-05 0 0.064762748390687186 -0.00010524867260526184 0 0.064960052634233809 -9.2159709651028394e-05 0 0.064767774030589878 -0.00030374978730199879 0 0.064960052634233809 -9.2159709651028394e-05 0 0.065030719106231066 -0.0003143733721907943 0 0.064767774030589878 -0.00030374978730199879 0 0.064747510514797407 -0.00042612165577014777 0 0.064710233847224186 -0.00050670050499398859 0 0.065030719106231066 -0.0003143733721907943 0 0.064767774030589878 -0.00030374978730199879 0 0.064703243654176845 -0.00071177726203136321 0 0.064767774030589878 -0.00030374978730199879 0 0.064703243654176845 -0.00071177726203136321 0 0.064385662592248677 -0.00044326550353409743 0 0.064703243654176845 -0.00071177726203136321 0 0.064385662592248677 -0.00044326550353409743 0 0.064634008893655226 -0.00076121083962742088 0 0.064703243654176845 -0.00071177726203136321 0 0.064634008893655226 -0.00076121083962742088 0 0.064605411078750924 -0.00072343427935956327 0 0.064703243654176845 -0.00071177726203136321 0 0.064605411078750924 -0.00072343427935956327 0 0.064496186315935095 -0.00080503229554059147 0 0.064437397037365549 -0.000753459319346152 0 0.064703243654176845 -0.00071177726203136321 0 0.064496186315935095 -0.00080503229554059147 0 0.064341012774563389 -0.00013146140680995923 0 0.064385662592248677 -0.00044326550353409743 0 0.063740188921621338 -0.00071800246045159713 0 0.064096832887761912 -0.00091721234700406712 0 0.064142579305033198 -0.0012896266277321702 0 0.064385662592248677 -0.00044326550353409743 0 0.063869599360727516 -0.0011747712114889934 0 0.064123419761588626 -0.0013828386954034902 0 0.064385662592248677 -0.00044326550353409743 0 0.064123419761588626 -0.0013828386954034902 0 0.064464480991009765 -0.0012763249059549577 0 0.063169805315482802 -0.0013664454506996759 0 0.063740188921621338 -0.00071800246045159713 0 0.063869599360727516 -0.0011747712114889934 0 0.064385662592248677 -0.00044326550353409743 0 0.063740188921621338 -0.00071800246045159713 0 0.063869599360727516 -0.0011747712114889934 0 0.063169805315482802 -0.0013664454506996759 0 0.063869599360727516 -0.0011747712114889934 0 0.063643814147708061 -0.0017023354503048417 0 0.063169805315482802 -0.0013664454506996759 0 0.063643814147708061 -0.0017023354503048417 0 0.063130312785760687 -0.0019837532106618239 0 0.063643814147708061 -0.0017023354503048417 0 0.063130312785760687 -0.0019837532106618239 0 0.063475737642662511 -0.0023285135564594969 0 0.063130312785760687 -0.0019837532106618239 0 0.063475737642662511 -0.0023285135564594969 0 0.06285426821508211 -0.0025767163101689311 0 0.063475737642662511 -0.0023285135564594969 0 0.06399121860430422 -0.002024370612841817 0 0.063750916425680121 -0.0027723254267624131 0 0.06399121860430422 -0.002024370612841817 0 0.064361927255571563 -0.0023079819523406878 0 0.063750916425680121 -0.0027723254267624131 0 0.063643814147708061 -0.0017023354503048417 0 0.063475737642662511 -0.0023285135564594969 0 0.06399121860430422 -0.002024370612841817 0 0.06399121860430422 -0.002024370612841817 0 0.064123419761588626 -0.0013828386954034902 0 0.064403585281031794 -0.0018495139558920841 0 0.063643814147708061 -0.0017023354503048417 0 0.06399121860430422 -0.002024370612841817 0 0.064123419761588626 -0.0013828386954034902 0 0.063869599360727516 -0.0011747712114889934 0 0.063643814147708061 -0.0017023354503048417 0 0.064123419761588626 -0.0013828386954034902 0 0.064464480991009765 -0.0012763249059549577 0 0.064403585281031794 -0.0018495139558920841 0 0.065114033645837108 -0.0022581672171786372 0 0.064142579305033198 -0.0012896266277321702 0 0.063981355225155898 -0.0021035281339214745 0 0.064123419761588626 -0.0013828386954034902 0 0.064464480991009765 -0.0012763249059549577 0 0.064403585281031794 -0.0018495139558920841 0 0.064605411078750924 -0.00072343427935956327 0 0.064600280626938067 -0.00063515828706024843 0 0.064486477079641169 -0.00071174115481754637 0 0.064634008893655226 -0.00076121083962742088 0 0.064605411078750924 -0.00072343427935956327 0 0.064600280626938067 -0.00063515828706024843 0 0.064403585281031794 -0.0018495139558920841 0 0.065114033645837108 -0.0022581672171786372 0 0.064361927255571563 -0.0023079819523406878 0 0.065114033645837108 -0.0022581672171786372 0 0.064361927255571563 -0.0023079819523406878 0 0.064537809439254176 -0.0028425296060548624 0 0.06399121860430422 -0.002024370612841817 0 0.064403585281031794 -0.0018495139558920841 0 0.064361927255571563 -0.0023079819523406878 0 0.064361927255571563 -0.0023079819523406878 0 0.064537809439254176 -0.0028425296060548624 0 0.063750916425680121 -0.0027723254267624131 0 0.064537809439254176 -0.0028425296060548624 0 0.06357333022876166 -0.0034360071839930136 0 0.063750916425680121 -0.0027723254267624131 0 0.063763353351421886 -0.0025737503490281984 0 0.063682223662569135 -0.0027319237909154566 0 0.063078222023905631 -0.0034837634049783997 0 0.063076038041571109 -0.0034293840503813247 0 0.063116044678575289 -0.0032633295288629184 0 0.063981355225155898 -0.0021035281339214745 0 0.063918859372613934 -0.0023331920747266363 0 0.063981355225155898 -0.0021035281339214745 0 0.063763353351421886 -0.0025737503490281984 0 0.063078222023905631 -0.0034837634049783997 0 0.063170455557989863 -0.0035351795978989116 0 0.063076038041571109 -0.0034293840503813247 0 0.063170455557989863 -0.0035351795978989116 0 0.063076038041571109 -0.0034293840503813247 0 0.063070866377398768 -0.0035114222698985698 0 0.063076038041571109 -0.0034293840503813247 0 0.062967431312411587 -0.0035392521625007287 0 0.063116044678575289 -0.0032633295288629184 0 0.063076038041571109 -0.0034293840503813247 0 0.063070866377398768 -0.0035114222698985698 0 0.062967431312411587 -0.0035392521625007287 0 0.063070866377398768 -0.0035114222698985698 0 0.062913724444695548 -0.0035604893818056652 0 0.063192309831677895 -0.0035154457553589094 0 0.062833504680413765 -0.0035664460453292924 0 0.062913724444695548 -0.0035604893818056652 0 0.062967431312411587 -0.0035392521625007287 0 0.063070866377398768 -0.0035114222698985698 0 0.062913724444695548 -0.0035604893818056652 0 0.062967431312411587 -0.0035392521625007287 0 0.063170455557989863 -0.0035351795978989116 0 0.063319587722396528 -0.003475721145057206 0 0.06357333022876166 -0.0034360071839930136 0 0.063170455557989863 -0.0035351795978989116 0 0.063070866377398768 -0.0035114222698985698 0 0.063319587722396528 -0.003475721145057206 0 0.063491645054487678 -0.0035772463693799026 0 0.063319587722396528 -0.003475721145057206 0 0.06357333022876166 -0.0034360071839930136 0 0.063070866377398768 -0.0035114222698985698 0 0.063319587722396528 -0.003475721145057206 0 0.063192309831677895 -0.0035154457553589094 0 0.063491645054487678 -0.0035772463693799026 0 0.063319587722396528 -0.003475721145057206 0 0.063192309831677895 -0.0035154457553589094 0 0.062121173767198605 -0.0033310172310328998 0 0.062364671778450217 -0.0034391606299434096 0 0.063491645054487678 -0.0035772463693799026 0 0.06357333022876166 -0.0034360071839930136 0 0.063242466370698913 -0.0033267870244924158 0 0.063491645054487678 -0.0035772463693799026 0 0.063242466370698913 -0.0033267870244924158 0 0.062675401061328087 -0.0036213924367573961 0 0.062688587174687421 -0.0032366867422516125 0 0.063242466370698913 -0.0033267870244924158 0 0.062675401061328087 -0.0036213924367573961 0 0.062688587174687421 -0.0032366867422516125 0 0.063242466370698913 -0.0033267870244924158 0 0.063207768895929883 -0.0029033784124372465 0 0.062688587174687421 -0.0032366867422516125 0 0.06285426821508211 -0.0025767163101689311 0 0.063207768895929883 -0.0029033784124372465 0 0.063475737642662511 -0.0023285135564594969 0 0.06285426821508211 -0.0025767163101689311 0 0.063207768895929883 -0.0029033784124372465 0 0.063475737642662511 -0.0023285135564594969 0 0.063207768895929883 -0.0029033784124372465 0 0.063750916425680121 -0.0027723254267624131 0 0.06357333022876166 -0.0034360071839930136 0 0.063242466370698913 -0.0033267870244924158 0 0.063750916425680121 -0.0027723254267624131 0 0.063242466370698913 -0.0033267870244924158 0 0.063207768895929883 -0.0029033784124372465 0 0.063750916425680121 -0.0027723254267624131 0 0.064569216047191388 -0.0032375305135022682 0 0.06466127833063387 -0.002732594322858876 0 0.0650602735056411 -0.0030263180728510434 0 0.064569216047191388 -0.0032375305135022682 0 0.06466127833063387 -0.002732594322858876 0 0.064292936743964205 -0.0029785947574898831 0 0.06466127833063387 -0.002732594322858876 0 0.064292936743964205 -0.0029785947574898831 0 0.06420492278892409 -0.0026224075799148061 0 0.06466127833063387 -0.002732594322858876 0 0.0650602735056411 -0.0030263180728510434 0 0.065078925567207929 -0.0025484990477339007 0 0.065416435587319299 -0.0027984567860284385 0 0.0650602735056411 -0.0030263180728510434 0 0.065078925567207929 -0.0025484990477339007 0 0.065416435587319299 -0.0027984567860284385 0 0.065438138479446795 -0.0024029506712433552 0 0.065743719175769127 -0.0026370936699852206 0 0.065416435587319299 -0.0027984567860284385 0 0.065438138479446795 -0.0024029506712433552 0 0.065078925567207929 -0.0025484990477339007 0 0.065416435587319299 -0.0027984567860284385 0 0.065434577139759351 -0.003195815828653675 0 0.065714842415646554 -0.0029824435410531831 0 0.065416435587319299 -0.0027984567860284385 0 0.0650602735056411 -0.0030263180728510434 0 0.065434577139759351 -0.003195815828653675 0 0.059697357488817757 -0.0036192418021086499 0 0.059753314024404425 -0.0033786688686431587 0 0.065102447510968914 -0.0036994640531094504 0 0.065434577139759351 -0.003195815828653675 0 0.065841434066289742 -0.0033976599319942963 0 0.0650602735056411 -0.0030263180728510434 0 0.065102447510968914 -0.0036994640531094504 0 0.065434577139759351 -0.003195815828653675 0 0.064569216047191388 -0.0032375305135022682 0 0.065102447510968914 -0.0036994640531094504 0 0.064095918321301654 -0.0037459999459276195 0 0.059697357488817757 -0.0036192418021086499 0 0.062625123163827623 -0.0037419054145500464 0 0.063149309154375541 -0.0036165841203346376 0 0.063253578519193082 -0.0035594463661568826 0 0.063166958776903426 -0.0035607972297684925 0 0.064569216047191388 -0.0032375305135022682 0 0.0650602735056411 -0.0030263180728510434 0 0.065102447510968914 -0.0036994640531094504 0 0.063149309154375541 -0.0036165841203346376 0 0.063166958776903426 -0.0035607972297684925 0 0.062967431312411587 -0.0035392521625007287 0 0.064569216047191388 -0.0032375305135022682 0 0.064095918321301654 -0.0037459999459276195 0 0.06412829933780384 -0.0032925262843537455 0 0.064095918321301654 -0.0037459999459276195 0 0.063720557211895512 -0.0034345433503585269 0 0.06412829933780384 -0.0032925262843537455 0 0.063720557211895512 -0.0034345433503585269 0 0.062967431312411587 -0.0035392521625007287 0 0.063416340878397218 -0.003349146062357024 0 0.062833504680413765 -0.0035664460453292924 0 0.063149309154375541 -0.0036165841203346376 0 0.062967431312411587 -0.0035392521625007287 0 0.064095918321301654 -0.0037459999459276195 0 0.063720557211895512 -0.0034345433503585269 0 0.062967431312411587 -0.0035392521625007287 0 0.062625123163827623 -0.0037419054145500464 0 0.062955560064131069 -0.0037287049574857042 0 0.062967431312411587 -0.0035392521625007287 0 0.063116044678575289 -0.0032633295288629184 0 0.063416340878397218 -0.003349146062357024 0 0.062559679940041316 -0.0024217340635643552 0 0.063116044678575289 -0.0032633295288629184 0 0.06354919171165653 -0.0025511584497905594 0 0.063116044678575289 -0.0032633295288629184 0 0.063416340878397218 -0.003349146062357024 0 0.063804566200250809 -0.0030861190959338342 0 0.063116044678575289 -0.0032633295288629184 0 0.063804566200250809 -0.0030861190959338342 0 0.06354919171165653 -0.0025511584497905594 0 0.06412829933780384 -0.0032925262843537455 0 0.064292936743964205 -0.0029785947574898831 0 0.063804566200250809 -0.0030861190959338342 0 0.064569216047191388 -0.0032375305135022682 0 0.06412829933780384 -0.0032925262843537455 0 0.064292936743964205 -0.0029785947574898831 0 0.063720557211895512 -0.0034345433503585269 0 0.06412829933780384 -0.0032925262843537455 0 0.063804566200250809 -0.0030861190959338342 0 0.063720557211895512 -0.0034345433503585269 0 0.063416340878397218 -0.003349146062357024 0 0.063804566200250809 -0.0030861190959338342 0 0.063804566200250809 -0.0030861190959338342 0 0.06420492278892409 -0.0026224075799148061 0 0.06354919171165653 -0.0025511584497905594 0 0.064292936743964205 -0.0029785947574898831 0 0.063804566200250809 -0.0030861190959338342 0 0.06420492278892409 -0.0026224075799148061 0 0.06420492278892409 -0.0026224075799148061 0 0.064029483199556883 -0.0021705413166406167 0 0.064720990668962072 -0.0022072133379193726 0 0.064029483199556883 -0.0021705413166406167 0 0.064461968889648918 -0.0016849419509867331 0 0.064720990668962072 -0.0022072133379193726 0 0.06420492278892409 -0.0026224075799148061 0 0.064029483199556883 -0.0021705413166406167 0 0.06354919171165653 -0.0025511584497905594 0 0.062559679940041316 -0.0024217340635643552 0 0.06354919171165653 -0.0025511584497905594 0 0.063397320163952664 -0.0016742050603758302 0 0.064029483199556883 -0.0021705413166406167 0 0.06354919171165653 -0.0025511584497905594 0 0.063397320163952664 -0.0016742050603758302 0 0.063981355225155898 -0.0021035281339214745 0 0.06415080732280877 -0.0016171142934010541 0 0.064605411078750924 -0.00072343427935956327 0 0.064486477079641169 -0.00071174115481754637 0 0.064496186315935095 -0.00080503229554059147 0 0.064029483199556883 -0.0021705413166406167 0 0.063397320163952664 -0.0016742050603758302 0 0.064461968889648918 -0.0016849419509867331 0 0.063397320163952664 -0.0016742050603758302 0 0.064461968889648918 -0.0016849419509867331 0 0.064378705732720337 -0.00097025926061589118 0 0.06415080732280877 -0.0016171142934010541 0 0.064266280355350813 -0.0014222189239500456 0 0.064461968889648918 -0.0016849419509867331 0 0.06478465687647561 -0.0013740030625786473 0 0.064378705732720337 -0.00097025926061589118 0 0.064461968889648918 -0.0016849419509867331 0 0.064720990668962072 -0.0022072133379193726 0 0.065075710477549162 -0.0017635216500508858 0 0.06478465687647561 -0.0013740030625786473 0 0.065075710477549162 -0.0017635216500508858 0 0.065024926160627106 -0.0010970727609481213 0 0.064461968889648918 -0.0016849419509867331 0 0.06478465687647561 -0.0013740030625786473 0 0.065075710477549162 -0.0017635216500508858 0 0.064720990668962072 -0.0022072133379193726 0 0.065168806415570116 -0.0021728283537617282 0 0.065075710477549162 -0.0017635216500508858 0 0.064720990668962072 -0.0022072133379193726 0 0.065078925567207929 -0.0025484990477339007 0 0.065168806415570116 -0.0021728283537617282 0 0.06466127833063387 -0.002732594322858876 0 0.064720990668962072 -0.0022072133379193726 0 0.065078925567207929 -0.0025484990477339007 0 0.06466127833063387 -0.002732594322858876 0 0.06420492278892409 -0.0026224075799148061 0 0.064720990668962072 -0.0022072133379193726 0 0.065438138479446795 -0.0024029506712433552 0 0.065078925567207929 -0.0025484990477339007 0 0.065168806415570116 -0.0021728283537617282 0 0.065168806415570116 -0.0021728283537617282 0 0.065503984645623139 -0.001954337798201033 0 0.065075710477549162 -0.0017635216500508858 0 0.065438138479446795 -0.0024029506712433552 0 0.065168806415570116 -0.0021728283537617282 0 0.065503984645623139 -0.001954337798201033 0 0.065503984645623139 -0.001954337798201033 0 0.065075710477549162 -0.0017635216500508858 0 0.065579948404594482 -0.0013894834743011421 0 0.065075710477549162 -0.0017635216500508858 0 0.065024926160627106 -0.0010970727609481213 0 0.065579948404594482 -0.0013894834743011421 0 0.065364864759438576 -0.00096601731616420127 0 0.065024926160627106 -0.0010970727609481213 0 0.065579948404594482 -0.0013894834743011421 0 0.065364864759438576 -0.00096601731616420127 0 0.065024926160627106 -0.0010970727609481213 0 0.064966766897804895 -0.00075687881202250143 0 0.06478465687647561 -0.0013740030625786473 0 0.064703729664739473 -0.0008764724185136944 0 0.065024926160627106 -0.0010970727609481213 0 0.06478465687647561 -0.0013740030625786473 0 0.064703729664739473 -0.0008764724185136944 0 0.064378705732720337 -0.00097025926061589118 0 0.064703729664739473 -0.0008764724185136944 0 0.065024926160627106 -0.0010970727609481213 0 0.064966766897804895 -0.00075687881202250143 0 0.064703729664739473 -0.0008764724185136944 0 0.064966766897804895 -0.00075687881202250143 0 0.064806735836939036 -0.00061285963345396983 0 0.064966766897804895 -0.00075687881202250143 0 0.064806735836939036 -0.00061285963345396983 0 0.065033003676240014 -0.00047402326506641674 0 0.064966766897804895 -0.00075687881202250143 0 0.06524761582975136 -0.00067406548227385893 0 0.065033003676240014 -0.00047402326506641674 0 0.06524761582975136 -0.00067406548227385893 0 0.065231728600710165 -0.00044295073008727607 0 0.065734990172429703 -0.0008294651512350987 0 0.06524761582975136 -0.00067406548227385893 0 0.065231728600710165 -0.00044295073008727607 0 0.065033003676240014 -0.00047402326506641674 0 0.065364864759438576 -0.00096601731616420127 0 0.06524761582975136 -0.00067406548227385893 0 0.065734990172429703 -0.0008294651512350987 0 0.065364864759438576 -0.00096601731616420127 0 0.064966766897804895 -0.00075687881202250143 0 0.06524761582975136 -0.00067406548227385893 0 0.064486477079641169 -0.00071174115481754637 0 0.064496186315935095 -0.00080503229554059147 0 0.064378705732720337 -0.00097025926061589118 0 0.064496186315935095 -0.00080503229554059147 0 0.064378705732720337 -0.00097025926061589118 0 0.064511371876060319 -0.00074049231258745303 0 0.064703729664739473 -0.0008764724185136944 0 0.064378705732720337 -0.00097025926061589118 0 0.064511371876060319 -0.00074049231258745303 0 0.064703729664739473 -0.0008764724185136944 0 0.064806735836939036 -0.00061285963345396983 0 0.064511371876060319 -0.00074049231258745303 0 0.064806735836939036 -0.00061285963345396983 0 0.064511371876060319 -0.00074049231258745303 0 0.06472493193802567 -0.00042913885282196937 0 0.064437397037365549 -0.000753459319346152 0 0.064496186315935095 -0.00080503229554059147 0 0.064511371876060319 -0.00074049231258745303 0 0.064960052634233809 -9.2159709651028394e-05 0 0.065030719106231066 -0.0003143733721907943 0 0.065060000299505011 -8.1169488518055308e-05 0 0.064437397037365549 -0.000753459319346152 0 0.064511371876060319 -0.00074049231258745303 0 0.064510917641573198 -0.00037502238825179625 0 0.064747510514797407 -0.00042612165577014777 0 0.064839021664842858 -0.00024514408194089876 0 0.064511371876060319 -0.00074049231258745303 0 0.064510917641573198 -0.00037502238825179625 0 0.06472493193802567 -0.00042913885282196937 0 0.064839021664842858 -0.00024514408194089876 0 0.064999813035348769 -3.2439910919658339e-07 0 0.065060000299505011 -8.1169488518055308e-05 0 0.065000088415675561 -1.1809034797952307e-08 0 0.065000058554345458 -5.3914410365083734e-08 0 0.064510917641573198 -0.00037502238825179625 0 0.06472493193802567 -0.00042913885282196937 0 0.064999018272313233 1.2771689236388655e-09 0 0.064960052634233809 -9.2159709651028394e-05 0 0.065060000299505011 -8.1169488518055308e-05 0 0.065000058554345458 -5.3914410365083734e-08 0 0.065333331510667988 -0.00021778717936617908 0 0.065231728600710165 -0.00044295073008727607 0 0.065734990172429703 -0.0008294651512350987 0 0.065069898665304604 -0.00027451440844563523 0 0.065219523106872859 -0.0002495951455845014 0 0.065231728600710165 -0.00044295073008727607 0 0.065219523106872859 -0.0002495951455845014 0 0.065277946183351102 -0.0002324921628292935 0 0.065039085336857566 -0.00012460692367206156 0 0.065069898665304604 -0.00027451440844563523 0 0.065219523106872859 -0.0002495951455845014 0 0.065039085336857566 -0.00012460692367206156 0 0.065219523106872859 -0.0002495951455845014 0 0.065333331510667988 -0.00021778717936617908 0 0.065231728600710165 -0.00044295073008727607 0 0.065111498738161119 -0.00014520252272182327 0 0.065107833249516703 -0.00014503162518799542 0 0.065069898665304604 -0.00027451440844563523 0 0.065231728600710165 -0.00044295073008727607 0 0.065033003676240014 -0.00047402326506641674 0 0.064806735836939036 -0.00061285963345396983 0 0.065033003676240014 -0.00047402326506641674 0 0.064941864556772588 -0.00029057009576834484 0 0.064806735836939036 -0.00061285963345396983 0 0.06472493193802567 -0.00042913885282196937 0 0.064941864556772588 -0.00029057009576834484 0 0.065069898665304604 -0.00027451440844563523 0 0.065033003676240014 -0.00047402326506641674 0 0.064941864556772588 -0.00029057009576834484 0 0.065069898665304604 -0.00027451440844563523 0 0.064941864556772588 -0.00029057009576834484 0 0.065039085336857566 -0.00012460692367206156 0 0.064999018272313233 1.2771689236388655e-09 0 0.065000852927050032 -1.3041062619962513e-07 0 0.065039085336857566 -0.00012460692367206156 0 0.06472493193802567 -0.00042913885282196937 0 0.064999018272313233 1.2771689236388655e-09 0 0.064941864556772588 -0.00029057009576834484 0 0.064999018272313233 1.2771689236388655e-09 0 0.064941864556772588 -0.00029057009576834484 0 0.065039085336857566 -0.00012460692367206156 0 0.065277946183351102 -0.0002324921628292935 0 0.065000852927050032 -1.3041062619962513e-07 0 0.065039085336857566 -0.00012460692367206156 0 0.065107833249516703 -0.00014503162518799542 0 0.065000212737217691 -1.9758143725025869e-07 0 0.065000198237463322 -2.3516678604988251e-07 0 0.06499999999015206 -1.3130900545513935e-10 0 0.065000000874031377 -1.3448199257876075e-10 0 0.065000198237463322 -2.3516678604988251e-07 0 0.065000000874031377 -1.3448199257876075e-10 0 0.065000096706069307 -7.8363112022295212e-08 0 0.065107833249516703 -0.00014503162518799542 0 0.06504560605466847 -7.0408784652993954e-05 0 0.065050825539680446 2.4035541115515467e-07 0 0.06504889297787067 1.8030426516943789e-06 0 0.065049052920180775 -6.0206692802761085e-09 0 0.065050825539680446 2.4035541115515467e-07 0 0.06504889297787067 1.8030426516943789e-06 0 0.065050006745686034 -6.297471320088127e-07 0 0.06504889297787067 1.8030426516943789e-06 0 0.065050006745686034 -6.297471320088127e-07 0 0.065045783458153622 4.9578618193780478e-06 0 0.065000000874031377 -1.3448199257876075e-10 0 0.065000096706069307 -7.8363112022295212e-08 0 0.064999997977141871 2.6741369215930652e-12 0 0.065050006745686034 -6.297471320088127e-07 0 0.065033653052204571 -5.7120549483996517e-06 0 0.065036241080985435 3.1092950181650172e-06 0 0.06504560605466847 -7.0408784652993954e-05 0 0.065025660740174449 -3.8037967804936027e-05 0 0.065000096706069307 -7.8363112022295212e-08 0 0.064999997977141871 2.6741369215930652e-12 0 0.064999786690780686 2.860661962428956e-08 0 0.064999997977141871 2.6741369215930652e-12 0 0.064999786690780686 2.860661962428956e-08 0 0.065000005530354676 -4.1837859581540027e-10 0 0.065033653052204571 -5.7120549483996517e-06 0 0.065022115826632546 3.1812925465381207e-06 0 0.065036241080985435 3.1092950181650172e-06 0 0.065036241080985435 3.1092950181650172e-06 0 0.065025731339810891 1.4938319982336406e-05 0 0.065045783458153622 4.9578618193780478e-06 0 0.06559825015511575 -0.00019702322988287841 0 0.065330295705051333 -0.00014108745696725616 0 0.065022115826632546 3.1812925465381207e-06 0 0.065036241080985435 3.1092950181650172e-06 0 0.065025731339810891 1.4938319982336406e-05 0 0.065050006745686034 -6.297471320088127e-07 0 0.065036241080985435 3.1092950181650172e-06 0 0.065045783458153622 4.9578618193780478e-06 0 0.06504889297787067 1.8030426516943789e-06 0 0.065045783458153622 4.9578618193780478e-06 0 0.065048815470343524 -2.8069559488768372e-07 0 0.065053229947124105 3.7992857319753481e-06 0 0.065045783458153622 4.9578618193780478e-06 0 0.065048815470343524 -2.8069559488768372e-07 0 0.06559825015511575 -0.00019702322988287841 0 0.065725745347873607 -0.0005701786096963975 0 0.06737479268593316 -0.00077333985587231719 0 0.067241884587498996 -0.0016039783379746897 0 0.066803567829497715 -0.0013268715409227186 0 0.067241884587498996 -0.0016039783379746897 0 0.066803567829497715 -0.0013268715409227186 0 0.06689868393500023 -0.002030750139958151 0 0.06504889297787067 1.8030426516943789e-06 0 0.065048815470343524 -2.8069559488768372e-07 0 0.065049052920180775 -6.0206692802761085e-09 0 0.065725745347873607 -0.0005701786096963975 0 0.0654533662529449 -0.0011048490165987614 0 0.065048815470343524 -2.8069559488768372e-07 0 0.065049052920180775 -6.0206692802761085e-09 0 0.065049600169917315 -3.9430457076060166e-06 0 0.065297297226843076 -0.00054086134742995884 0 0.0654533662529449 -0.0011048490165987614 0 0.065364864759438576 -0.00096601731616420127 0 0.065579948404594482 -0.0013894834743011421 0 0.065734990172429703 -0.0008294651512350987 0 0.065579948404594482 -0.0013894834743011421 0 0.065734990172429703 -0.0008294651512350987 0 0.066181098808364008 -0.0017256082785990158 0 0.065107833249516703 -0.00014503162518799542 0 0.065297297226843076 -0.00054086134742995884 0 0.064957398408304404 -8.9289311326854208e-06 0 0.064939377958075681 -1.6377138837040554e-05 0 0.06497122974373247 -3.5355273809028186e-06 0 0.064939377958075681 -1.6377138837040554e-05 0 0.06497122974373247 -3.5355273809028186e-06 0 0.064969597096921142 -1.2116631972846859e-05 0 0.06497122974373247 -3.5355273809028186e-06 0 0.064984951173555544 -3.9215978554594182e-06 0 0.064969597096921142 -1.2116631972846859e-05 0 0.064999973703399924 -7.1639091961722197e-09 0 0.064984951173555544 -3.9215978554594182e-06 0 0.064999983650685614 9.205551057644583e-09 0 0.06497122974373247 -3.5355273809028186e-06 0 0.064984951173555544 -3.9215978554594182e-06 0 0.064999983650685614 9.205551057644583e-09 0 0.064999973703399924 -7.1639091961722197e-09 0 0.064984951173555544 -3.9215978554594182e-06 0 0.06498971300790457 -7.3109721590334513e-06 0 0.064984951173555544 -3.9215978554594182e-06 0 0.06498971300790457 -7.3109721590334513e-06 0 0.064969597096921142 -1.2116631972846859e-05 0 0.064999973703399924 -7.1639091961722197e-09 0 0.06498971300790457 -7.3109721590334513e-06 0 0.064999961172786724 -1.5761310512158089e-08 0 0.064988030595043794 -8.2882759390310302e-06 0 0.064993296652414642 2.009943704539982e-06 0 0.064969165633436479 2.4970080194105094e-06 0 0.06498971300790457 -7.3109721590334513e-06 0 0.064969597096921142 -1.2116631972846859e-05 0 0.064988030595043794 -8.2882759390310302e-06 0 0.064939377958075681 -1.6377138837040554e-05 0 0.064969597096921142 -1.2116631972846859e-05 0 0.064969165633436479 2.4970080194105094e-06 0 0.064969597096921142 -1.2116631972846859e-05 0 0.064988030595043794 -8.2882759390310302e-06 0 0.064969165633436479 2.4970080194105094e-06 0 0.06498971300790457 -7.3109721590334513e-06 0 0.064988030595043794 -8.2882759390310302e-06 0 0.064990754814603091 -8.2639204000281046e-06 0 0.064988030595043794 -8.2882759390310302e-06 0 0.064990754814603091 -8.2639204000281046e-06 0 0.064989366579587773 -7.1352043382179138e-06 0 0.065187353426420888 -0.00048660002451913695 0 0.06517307983241459 -0.00055592853486588717 0 0.065000002234661555 -7.4635800448751256e-09 0 0.065000910391871142 -7.4620280317439366e-07 0 0.065000005530354676 -4.1837859581540027e-10 0 0.06498971300790457 -7.3109721590334513e-06 0 0.064999961172786724 -1.5761310512158089e-08 0 0.064990754814603091 -8.2639204000281046e-06 0 0.065000408161045242 -3.2569561909013744e-07 0 0.065216935444374138 -0.00011634481429791253 0 0.065000002234661555 -7.4635800448751256e-09 0 0.065000910391871142 -7.4620280317439366e-07 0 0.065006464883808859 4.1112691742753443e-06 0 0.065025660740174449 -3.8037967804936027e-05 0 0.065017649425505392 -2.9312845928225105e-05 0 0.065022115826632546 3.1812925465381207e-06 0 0.065000910391871142 -7.4620280317439366e-07 0 0.065006464883808859 4.1112691742753443e-06 0 0.065033653052204571 -5.7120549483996517e-06 0 0.065022115826632546 3.1812925465381207e-06 0 0.065000910391871142 -7.4620280317439366e-07 0 0.064999786690780686 2.860661962428956e-08 0 0.065000910391871142 -7.4620280317439366e-07 0 0.065000005530354676 -4.1837859581540027e-10 0 0.06559825015511575 -0.00019702322988287841 0 0.065216935444374138 -0.00011634481429791253 0 0.064993852075939718 -7.342289648711338e-06 0 0.064990754814603091 -8.2639204000281046e-06 0 0.064989366579587773 -7.1352043382179138e-06 0 0.065022115826632546 3.1812925465381207e-06 0 0.065025731339810891 1.4938319982336406e-05 0 0.065006464883808859 4.1112691742753443e-06 0 0.06559825015511575 -0.00019702322988287841 0 0.06517307983241459 -0.00055592853486588717 0 0.06737479268593316 -0.00077333985587231719 0 0.067741902229255774 -0.0015247133038609655 0 0.068069495231325494 -0.00086934151061484905 0 0.06737479268593316 -0.00077333985587231719 0 0.067241884587498996 -0.0016039783379746897 0 0.067741902229255774 -0.0015247133038609655 0 0.063688612205498443 -0.00051471415436242453 0 0.063954094578666007 3.5601295349060238e-05 0 0.064123225169875162 -0.00038053823074940893 0 0.063688612205498443 -0.00051471415436242453 0 0.064123225169875162 -0.00038053823074940893 0 0.064229565718706846 -0.00081106451431707787 0 0.064757059938319497 -0.00070402270691869112 0 0.06517307983241459 -0.00055592853486588717 0 0.063954094578666007 3.5601295349060238e-05 0 0.064353131485078194 3.5017767004127582e-06 0 0.064123225169875162 -0.00038053823074940893 0 0.06517307983241459 -0.00055592853486588717 0 0.064883090048485095 -0.00039158470251084631 0 0.064353131485078194 3.5017767004127582e-06 0 0.064123225169875162 -0.00038053823074940893 0 0.064493758262907291 -0.00053337060697374885 0 0.064123225169875162 -0.00038053823074940893 0 0.064493758262907291 -0.00053337060697374885 0 0.064229565718706846 -0.00081106451431707787 0 0.064493758262907291 -0.00053337060697374885 0 0.06467986059577549 -0.00035425856854511998 0 0.064675318741819574 -0.00046270637688380309 0 0.064493758262907291 -0.00053337060697374885 0 0.064605129327298616 -0.00078111857836567309 0 0.06467361839258455 -0.00057040130955317693 0 0.064493758262907291 -0.00053337060697374885 0 0.064675318741819574 -0.00046270637688380309 0 0.06467361839258455 -0.00057040130955317693 0 0.064493758262907291 -0.00053337060697374885 0 0.064870916632088743 -4.0942623713590441e-05 0 0.064984772490046167 -3.4688640781585816e-05 0 0.064883090048485095 -0.00039158470251084631 0 0.064852871445487306 -0.0003493289112562053 0 0.064353131485078194 3.5017767004127582e-06 0 0.064493758262907291 -0.00053337060697374885 0 0.064870916632088743 -4.0942623713590441e-05 0 0.064703954510289985 -0.00033873323009361308 0 0.064800374972838623 -0.00022663390548511791 0 0.064939377958075681 -1.6377138837040554e-05 0 0.064969165633436479 2.4970080194105094e-06 0 0.064870916632088743 -4.0942623713590441e-05 0 0.064957398408304404 -8.9289311326854208e-06 0 0.064870916632088743 -4.0942623713590441e-05 0 0.064984772490046167 -3.4688640781585816e-05 0 0.064957398408304404 -8.9289311326854208e-06 0 0.064939377958075681 -1.6377138837040554e-05 0 0.064870916632088743 -4.0942623713590441e-05 0 0.064493758262907291 -0.00053337060697374885 0 0.064605129327298616 -0.00078111857836567309 0 0.064229565718706846 -0.00081106451431707787 0 0.06457439621106198 -0.0010824356479039257 0 0.064605129327298616 -0.00078111857836567309 0 0.064229565718706846 -0.00081106451431707787 0 0.058329075899887055 -0.0014269078288978031 0 0.057702237768813371 -0.0020532832136632407 0 0.06457439621106198 -0.0010824356479039257 0 0.064229565718706846 -0.00081106451431707787 0 0.064140777973980656 -0.0012554791334726174 0 0.064229565718706846 -0.00081106451431707787 0 0.063827172974629365 -0.0010022294875793357 0 0.064140777973980656 -0.0012554791334726174 0 0.063827172974629365 -0.0010022294875793357 0 0.063643568477050314 -0.0014142579698273332 0 0.064140777973980656 -0.0012554791334726174 0 0.063688612205498443 -0.00051471415436242453 0 0.064229565718706846 -0.00081106451431707787 0 0.063827172974629365 -0.0010022294875793357 0 0.064757059938319497 -0.00070402270691869112 0 0.063458128785617282 -0.0011105747313697701 0 0.067241884587498996 -0.0016039783379746897 0 0.067741902229255774 -0.0015247133038609655 0 0.067422385445438021 -0.0022031665675620185 0 0.063688612205498443 -0.00051471415436242453 0 0.063827172974629365 -0.0010022294875793357 0 0.063414166858836232 -0.0010173951506202794 0 0.063827172974629365 -0.0010022294875793357 0 0.063643568477050314 -0.0014142579698273332 0 0.063414166858836232 -0.0010173951506202794 0 0.050696304919017846 -0.0038009537023149294 0 0.051442847688511151 -0.0036521124387306385 0 0.050986827336053073 -0.0031359200996570013 0 0.050696304919017846 -0.0038009537023149294 0 0.050173441999206009 -0.0031947599220941178 0 0.050986827336053073 -0.0031359200996570013 0 0.050696304919017846 -0.0038009537023149294 0 0.050173441999206009 -0.0031947599220941178 0 0.049786678316970319 -0.0032708737471883898 0 0.058023353868552903 -0.0024698764487331893 0 0.057702237768813371 -0.0020532832136632407 0 0.049786678316970319 -0.0032708737471883898 0 0.04984410866858701 -0.0032229356066004839 0 0.050031656932114352 -0.0027862436313418949 0 0.050173441999206009 -0.0031947599220941178 0 0.049786678316970319 -0.0032708737471883898 0 0.04984410866858701 -0.0032229356066004839 0 0.050173441999206009 -0.0031947599220941178 0 0.04984410866858701 -0.0032229356066004839 0 0.049889735817681767 -0.0031953543288150898 0 0.04984410866858701 -0.0032229356066004839 0 0.049889735817681767 -0.0031953543288150898 0 0.049864332725399273 -0.0034546022203933522 0 0.04984410866858701 -0.0032229356066004839 0 0.049864332725399273 -0.0034546022203933522 0 0.050401975211707119 -0.0036269998495690493 0 0.04984410866858701 -0.0032229356066004839 0 0.050031656932114352 -0.0027862436313418949 0 0.050401975211707119 -0.0036269998495690493 0 0.050136044356312345 -0.0015123326990418239 0 0.050031656932114352 -0.0027862436313418949 0 0.051906031071108603 -0.0019091959954224229 0 0.050136044356312345 -0.0015123326990418239 0 0.049786678316970319 -0.0032708737471883898 0 0.050031656932114352 -0.0027862436313418949 0 0.066309554399362869 -0.0021161914430314396 0 0.066500970353218447 -0.0023195095568559788 0 0.066191362190201067 -0.0023311262884803817 0 0.066309554399362869 -0.0021161914430314396 0 0.066191362190201067 -0.0023311262884803817 0 0.066093283086347446 -0.0021193394858100966 0 0.066309554399362869 -0.0021161914430314396 0 0.066093283086347446 -0.0021193394858100966 0 0.066052146741226753 -0.0018772420692143982 0 0.066309554399362869 -0.0021161914430314396 0 0.066500970353218447 -0.0023195095568559788 0 0.066544988618719145 -0.0019325420690064711 0 0.066500970353218447 -0.0023195095568559788 0 0.066235514289759878 -0.0026090715259187093 0 0.066515855142549249 -0.0027584003012194897 0 0.066500970353218447 -0.0023195095568559788 0 0.066191362190201067 -0.0023311262884803817 0 0.066235514289759878 -0.0026090715259187093 0 0.066191362190201067 -0.0023311262884803817 0 0.065995600261714901 -0.0025129901982299391 0 0.066235514289759878 -0.0026090715259187093 0 0.065995600261714901 -0.0025129901982299391 0 0.065752820610635962 -0.002309014029595526 0 0.065973596769518847 -0.0022659552125385879 0 0.066191362190201067 -0.0023311262884803817 0 0.065995600261714901 -0.0025129901982299391 0 0.065973596769518847 -0.0022659552125385879 0 0.065438138479446795 -0.0024029506712433552 0 0.065752820610635962 -0.002309014029595526 0 0.065743719175769127 -0.0026370936699852206 0 0.065995600261714901 -0.0025129901982299391 0 0.065752820610635962 -0.002309014029595526 0 0.065743719175769127 -0.0026370936699852206 0 0.065438138479446795 -0.0024029506712433552 0 0.065503984645623139 -0.001954337798201033 0 0.065752820610635962 -0.002309014029595526 0 0.065503984645623139 -0.001954337798201033 0 0.065752820610635962 -0.002309014029595526 0 0.065841524729428558 -0.0020265446760833134 0 0.066191362190201067 -0.0023311262884803817 0 0.065973596769518847 -0.0022659552125385879 0 0.066093283086347446 -0.0021193394858100966 0 0.065752820610635962 -0.002309014029595526 0 0.065973596769518847 -0.0022659552125385879 0 0.065841524729428558 -0.0020265446760833134 0 0.065973596769518847 -0.0022659552125385879 0 0.065841524729428558 -0.0020265446760833134 0 0.066093283086347446 -0.0021193394858100966 0 0.066052146741226753 -0.0018772420692143982 0 0.065810991028841331 -0.0017611841029511691 0 0.066181098808364008 -0.0017256082785990158 0 0.065579948404594482 -0.0013894834743011421 0 0.065810991028841331 -0.0017611841029511691 0 0.066181098808364008 -0.0017256082785990158 0 0.065841524729428558 -0.0020265446760833134 0 0.066093283086347446 -0.0021193394858100966 0 0.066052146741226753 -0.0018772420692143982 0 0.065503984645623139 -0.001954337798201033 0 0.065579948404594482 -0.0013894834743011421 0 0.065810991028841331 -0.0017611841029511691 0 0.065841524729428558 -0.0020265446760833134 0 0.066052146741226753 -0.0018772420692143982 0 0.065810991028841331 -0.0017611841029511691 0 0.065503984645623139 -0.001954337798201033 0 0.065841524729428558 -0.0020265446760833134 0 0.065810991028841331 -0.0017611841029511691 0 0.066803567829497715 -0.0013268715409227186 0 0.066219241150674485 -0.0018842209253579721 0 0.066544988618719145 -0.0019325420690064711 0 0.066309554399362869 -0.0021161914430314396 0 0.066219241150674485 -0.0018842209253579721 0 0.066544988618719145 -0.0019325420690064711 0 0.066309554399362869 -0.0021161914430314396 0 0.066052146741226753 -0.0018772420692143982 0 0.06619477616118799 -0.001738298490840316 0 0.065523437170168453 -0.0012407209875237237 0 0.0654533662529449 -0.0011048490165987614 0 0.065458685714445894 -0.0011143558392999878 0 0.0654533662529449 -0.0011048490165987614 0 0.066803567829497715 -0.0013268715409227186 0 0.066544988618719145 -0.0019325420690064711 0 0.06689868393500023 -0.002030750139958151 0 0.066500970353218447 -0.0023195095568559788 0 0.066544988618719145 -0.0019325420690064711 0 0.06689868393500023 -0.002030750139958151 0 0.067241884587498996 -0.0016039783379746897 0 0.06689868393500023 -0.002030750139958151 0 0.067422385445438021 -0.0022031665675620185 0 0.067422385445438021 -0.0022031665675620185 0 0.067042351798387523 -0.0024183860670312254 0 0.067087358317489104 -0.0029371232879757099 0 0.06689868393500023 -0.002030750139958151 0 0.067422385445438021 -0.0022031665675620185 0 0.067042351798387523 -0.0024183860670312254 0 0.066500970353218447 -0.0023195095568559788 0 0.06689868393500023 -0.002030750139958151 0 0.066762092711639964 -0.0025069639345183131 0 0.06689868393500023 -0.002030750139958151 0 0.067042351798387523 -0.0024183860670312254 0 0.066762092711639964 -0.0025069639345183131 0 0.066500970353218447 -0.0023195095568559788 0 0.066762092711639964 -0.0025069639345183131 0 0.066515855142549249 -0.0027584003012194897 0 0.067042351798387523 -0.0024183860670312254 0 0.066762092711639964 -0.0025069639345183131 0 0.067087358317489104 -0.0029371232879757099 0 0.066762092711639964 -0.0025069639345183131 0 0.067087358317489104 -0.0029371232879757099 0 0.066515855142549249 -0.0027584003012194897 0 0.06017706495280243 -0.0024787052348364991 0 0.05977870000659484 -0.0030619452698235679 0 0.067087358317489104 -0.0029371232879757099 0 0.066491559382262311 -0.003138578335378337 0 0.066515855142549249 -0.0027584003012194897 0 0.050696304919017846 -0.0038009537023149294 0 0.051839926787630851 -0.0040189832040422278 0 0.051442847688511151 -0.0036521124387306385 0 0.063458128785617282 -0.0011105747313697701 0 0.06017706495280243 -0.0024787052348364991 0 0.058023353868552903 -0.0024698764487331893 0 0.06017706495280243 -0.0024787052348364991 0 0.063643568477050314 -0.0014142579698273332 0 0.063414166858836232 -0.0010173951506202794 0 0.063124716608514861 -0.001552690411344462 0 0.06017706495280243 -0.0024787052348364991 0 0.060001679733851718 -0.0026473176003179886 0 0.051442847688511151 -0.0036521124387306385 0 0.051803622855753857 -0.0034493344557662109 0 0.050986827336053073 -0.0031359200996570013 0 0.051442847688511151 -0.0036521124387306385 0 0.051803622855753857 -0.0034493344557662109 0 0.051987690189228629 -0.0038704145936353787 0 0.051839926787630851 -0.0040189832040422278 0 0.051442847688511151 -0.0036521124387306385 0 0.051987690189228629 -0.0038704145936353787 0 0.051873267421788355 -0.0040817867917906673 0 0.051987690189228629 -0.0038704145936353787 0 0.052837490146577772 -0.0039621995592147938 0 0.05242306874605733 -0.0037186503382413043 0 0.051987690189228629 -0.0038704145936353787 0 0.052837490146577772 -0.0039621995592147938 0 0.051803622855753857 -0.0034493344557662109 0 0.05242306874605733 -0.0037186503382413043 0 0.051987690189228629 -0.0038704145936353787 0 0.051803622855753857 -0.0034493344557662109 0 0.05242306874605733 -0.0037186503382413043 0 0.052306719529579764 -0.0033855439489871041 0 0.05977870000659484 -0.0030619452698235679 0 0.059753314024404425 -0.0033786688686431587 0 0.05242306874605733 -0.0037186503382413043 0 0.053491138976004396 -0.0033857659872119205 0 0.052306719529579764 -0.0033855439489871041 0 0.05242306874605733 -0.0037186503382413043 0 0.052837490146577772 -0.0039621995592147938 0 0.053491138976004396 -0.0033857659872119205 0 0.052837490146577772 -0.0039621995592147938 0 0.053491138976004396 -0.0033857659872119205 0 0.053819230588248668 -0.0037685213146508956 0 0.066491559382262311 -0.003138578335378337 0 0.066058670067977068 -0.0029149532426038099 0 0.065841434066289742 -0.0033976599319942963 0 0.066491559382262311 -0.003138578335378337 0 0.066515855142549249 -0.0027584003012194897 0 0.066058670067977068 -0.0029149532426038099 0 0.066235514289759878 -0.0026090715259187093 0 0.066515855142549249 -0.0027584003012194897 0 0.066058670067977068 -0.0029149532426038099 0 0.065995600261714901 -0.0025129901982299391 0 0.066235514289759878 -0.0026090715259187093 0 0.066058670067977068 -0.0029149532426038099 0 0.065416435587319299 -0.0027984567860284385 0 0.065743719175769127 -0.0026370936699852206 0 0.065714842415646554 -0.0029824435410531831 0 0.065995600261714901 -0.0025129901982299391 0 0.065743719175769127 -0.0026370936699852206 0 0.066058670067977068 -0.0029149532426038099 0 0.065743719175769127 -0.0026370936699852206 0 0.066058670067977068 -0.0029149532426038099 0 0.065714842415646554 -0.0029824435410531831 0 0.066058670067977068 -0.0029149532426038099 0 0.065714842415646554 -0.0029824435410531831 0 0.065841434066289742 -0.0033976599319942963 0 0.065434577139759351 -0.003195815828653675 0 0.065714842415646554 -0.0029824435410531831 0 0.065841434066289742 -0.0033976599319942963 0 0.059697357488817757 -0.0036192418021086499 0 0.054904817616046681 -0.003462604888248674 0 0.054924629061550198 -0.00349601253999203 0 0.053491138976004396 -0.0033857659872119205 0 0.053819230588248668 -0.0037685213146508956 0 0.054097396912465866 -0.0040727184983007612 0 0.054966169046189763 -0.0035367775360810282 0 0.054124594102597436 -0.0028895537503896788 0 0.056003418231179727 -0.0045236367769067743 0 0.054097396912465866 -0.0040727184983007612 0 0.054966169046189763 -0.0035367775360810282 0 0.054966169046189763 -0.0035367775360810282 0 0.05487492583703657 -0.002753367629645744 0 0.054124594102597436 -0.0028895537503896788 0 0.054904817616046681 -0.003462604888248674 0 0.05364007076301533 -0.0034024851518463205 0 0.054097396912465866 -0.0040727184983007612 0 0.053249241133038902 -0.0031111215767788691 0 0.054124594102597436 -0.0028895537503896788 0 0.054097396912465866 -0.0040727184983007612 0 0.053249241133038902 -0.0031111215767788691 0 0.052306719529579764 -0.0033855439489871041 0 0.053259723252677978 -0.0021664195151312568 0 0.054124594102597436 -0.0028895537503896788 0 0.054317809087008888 -0.0019837851250422769 0 0.053249241133038902 -0.0031111215767788691 0 0.053259723252677978 -0.0021664195151312568 0 0.054124594102597436 -0.0028895537503896788 0 0.053249241133038902 -0.0031111215767788691 0 0.053259723252677978 -0.0021664195151312568 0 0.052478566236380683 -0.0027928145790468324 0 0.055422379898540229 -0.0015562227453391969 0 0.05487492583703657 -0.002753367629645744 0 0.054317809087008888 -0.0019837851250422769 0 0.05487492583703657 -0.002753367629645744 0 0.054124594102597436 -0.0028895537503896788 0 0.054317809087008888 -0.0019837851250422769 0 0.055422379898540229 -0.0015562227453391969 0 0.054317809087008888 -0.0019837851250422769 0 0.053800826650998217 -0.00085883999350551182 0 0.055422379898540229 -0.0015562227453391969 0 0.055434227163273148 0.00048706262952786193 0 0.053800826650998217 -0.00085883999350551182 0 0.053259723252677978 -0.0021664195151312568 0 0.054317809087008888 -0.0019837851250422769 0 0.053800826650998217 -0.00085883999350551182 0 0.053259723252677978 -0.0021664195151312568 0 0.053800826650998217 -0.00085883999350551182 0 0.052319475254200956 -0.001443327237700783 0 0.051559487441796871 -0.001678451407482543 0 0.049193633328212548 -0.0035665693220021037 0 0.049684323470920271 -0.0014652706374837085 0 0.051723064967534614 -0.0010822516991540021 0 0.050529232673052211 -0.0020645406202023492 0 0.052370361907368816 -0.00024177003038667873 0 0.052319475254200956 -0.001443327237700783 0 0.05125373790628051 -0.00119181460267738 0 0.053800826650998217 -0.00085883999350551182 0 0.052370361907368816 -0.00024177003038667873 0 0.052319475254200956 -0.001443327237700783 0 0.052319475254200956 -0.001443327237700783 0 0.051377938131388023 -0.0019129085655440073 0 0.052008701291883674 -0.0022718236726292744 0 0.052319475254200956 -0.001443327237700783 0 0.051377938131388023 -0.0019129085655440073 0 0.05125373790628051 -0.00119181460267738 0 0.052008701291883674 -0.0022718236726292744 0 0.05170494893300296 -0.0029387522750850339 0 0.051115767760250681 -0.0025250573263456712 0 0.051377938131388023 -0.0019129085655440073 0 0.052008701291883674 -0.0022718236726292744 0 0.051115767760250681 -0.0025250573263456712 0 0.052008701291883674 -0.0022718236726292744 0 0.052478566236380683 -0.0027928145790468324 0 0.05170494893300296 -0.0029387522750850339 0 0.053259723252677978 -0.0021664195151312568 0 0.052319475254200956 -0.001443327237700783 0 0.052008701291883674 -0.0022718236726292744 0 0.053259723252677978 -0.0021664195151312568 0 0.052008701291883674 -0.0022718236726292744 0 0.052478566236380683 -0.0027928145790468324 0 0.053249241133038902 -0.0031111215767788691 0 0.052478566236380683 -0.0027928145790468324 0 0.052306719529579764 -0.0033855439489871041 0 0.052478566236380683 -0.0027928145790468324 0 0.052306719529579764 -0.0033855439489871041 0 0.05170494893300296 -0.0029387522750850339 0 0.051803622855753857 -0.0034493344557662109 0 0.05170494893300296 -0.0029387522750850339 0 0.050986827336053073 -0.0031359200996570013 0 0.051803622855753857 -0.0034493344557662109 0 0.052306719529579764 -0.0033855439489871041 0 0.05170494893300296 -0.0029387522750850339 0 0.05170494893300296 -0.0029387522750850339 0 0.050986827336053073 -0.0031359200996570013 0 0.051115767760250681 -0.0025250573263456712 0 0.050986827336053073 -0.0031359200996570013 0 0.050452840263014435 -0.0027722612575923882 0 0.051115767760250681 -0.0025250573263456712 0 0.050173441999206009 -0.0031947599220941178 0 0.050986827336053073 -0.0031359200996570013 0 0.050452840263014435 -0.0027722612575923882 0 0.050173441999206009 -0.0031947599220941178 0 0.050452840263014435 -0.0027722612575923882 0 0.049859053915479443 -0.002847545819242822 0 0.049702038041916932 -0.0027409526805471131 0 0.049418026638717076 -0.0030631850982315626 0 0.050452840263014435 -0.0027722612575923882 0 0.050382620837818519 -0.0020957159342687055 0 0.049859053915479443 -0.002847545819242822 0 0.051377938131388023 -0.0019129085655440073 0 0.050382620837818519 -0.0020957159342687055 0 0.051115767760250681 -0.0025250573263456712 0 0.050452840263014435 -0.0027722612575923882 0 0.050382620837818519 -0.0020957159342687055 0 0.051115767760250681 -0.0025250573263456712 0 0.049864332725399273 -0.0034546022203933522 0 0.049340562515940468 -0.0033641871214873998 0 0.04862535436068096 -0.0033044292574517286 0 0.049889735817681767 -0.0031953543288150898 0 0.049864332725399273 -0.0034546022203933522 0 0.049859053915479443 -0.002847545819242822 0 0.049427843161917839 -0.0031565814797365351 0 0.049418026638717076 -0.0030631850982315626 0 0.050173441999206009 -0.0031947599220941178 0 0.049889735817681767 -0.0031953543288150898 0 0.049859053915479443 -0.002847545819242822 0 0.048021210698179759 -0.0037395091446876545 0 0.04862535436068096 -0.0033044292574517286 0 0.048328000242901147 -0.0036878706108372994 0 0.04862535436068096 -0.0033044292574517286 0 0.048770493620369275 -0.0035436084568886222 0 0.048328000242901147 -0.0036878706108372994 0 0.049224864120622484 -0.0053724950621340094 0 0.048909026742455584 -0.00558448971811172 0 0.049340562515940468 -0.0033641871214873998 0 0.048770493620369275 -0.0035436084568886222 0 0.048800743463310418 -0.003742642521649978 0 0.049340562515940468 -0.0033641871214873998 0 0.04862535436068096 -0.0033044292574517286 0 0.048770493620369275 -0.0035436084568886222 0 0.048770493620369275 -0.0035436084568886222 0 0.048800743463310418 -0.003742642521649978 0 0.048328000242901147 -0.0036878706108372994 0 0.048800743463310418 -0.003742642521649978 0 0.048328000242901147 -0.0036878706108372994 0 0.048210148261977608 -0.003904827899437364 0 0.048328000242901147 -0.0036878706108372994 0 0.048210148261977608 -0.003904827899437364 0 0.047849554999911989 -0.0034232693197811161 0 0.048800743463310418 -0.003742642521649978 0 0.048210148261977608 -0.003904827899437364 0 0.04859384529605288 -0.0042179610426585686 0 0.048909026742455584 -0.00558448971811172 0 0.048666544397354503 -0.0054806224497860904 0 0.048021210698179759 -0.0037395091446876545 0 0.049193633328212548 -0.0035665693220021037 0 0.047849554999911989 -0.0034232693197811161 0 0.049702038041916932 -0.0027409526805471131 0 0.050529232673052211 -0.0020645406202023492 0 0.051377938131388023 -0.0019129085655440073 0 0.050382620837818519 -0.0020957159342687055 0 0.05125373790628051 -0.00119181460267738 0 0.048021210698179759 -0.0037395091446876545 0 0.048328000242901147 -0.0036878706108372994 0 0.047849554999911989 -0.0034232693197811161 0 0.048210148261977608 -0.003904827899437364 0 0.047849554999911989 -0.0034232693197811161 0 0.047828825867439209 -0.004056516855288554 0 0.047693705870499564 -0.0029015097834950419 0 0.047708853018937264 -0.002680241253388194 0 0.047849554999911989 -0.0034232693197811161 0 0.047264541798217562 -0.0044086025310417255 0 0.047828825867439209 -0.004056516855288554 0 0.049193633328212548 -0.0035665693220021037 0 0.047849554999911989 -0.0034232693197811161 0 0.049684323470920271 -0.0014652706374837085 0 0.047849554999911989 -0.0034232693197811161 0 0.048093194121421295 -0.0005843311502508621 0 0.049684323470920271 -0.0014652706374837085 0 0.048093194121421295 -0.0005843311502508621 0 0.049684323470920271 -0.0014652706374837085 0 0.049736377556808958 0.00057972111692027831 0 0.047828825867439209 -0.004056516855288554 0 0.047646656256012346 -0.0046630223776913627 0 0.048024441920882587 -0.0043971216221155747 0 0.047264541798217562 -0.0044086025310417255 0 0.047828825867439209 -0.004056516855288554 0 0.047646656256012346 -0.0046630223776913627 0 0.047646656256012346 -0.0046630223776913627 0 0.047296921510336314 -0.0048101876324894242 0 0.047532599702583458 -0.0050362864548450367 0 0.047264541798217562 -0.0044086025310417255 0 0.047646656256012346 -0.0046630223776913627 0 0.047296921510336314 -0.0048101876324894242 0 0.048093194121421295 -0.0005843311502508621 0 0.048719495549761224 0.0019604584534382431 0 0.049736377556808958 0.00057972111692027831 0 0.047708853018937264 -0.002680241253388194 0 0.047631186995087109 -0.002892673877508994 0 0.047264541798217562 -0.0044086025310417255 0 0.047296921510336314 -0.0048101876324894242 0 0.047065493032197647 -0.0050082679466861473 0 0.047296921510336314 -0.0048101876324894242 0 0.046957145306249122 -0.0049767401045885465 0 0.047222804070903644 -0.0050213563312615696 0 0.04744386738355523 -0.0031426027640168875 0 0.047631186995087109 -0.002892673877508994 0 0.048719495549761224 0.0019604584534382431 0 0.050318310504678922 0.0020041767049403109 0 0.049736377556808958 0.00057972111692027831 0 0.048210148261977608 -0.003904827899437364 0 0.04859384529605288 -0.0042179610426585686 0 0.048024441920882587 -0.0043971216221155747 0 0.04859384529605288 -0.0042179610426585686 0 0.048024441920882587 -0.0043971216221155747 0 0.047926513088197321 -0.0049324284689310572 0 0.048210148261977608 -0.003904827899437364 0 0.047828825867439209 -0.004056516855288554 0 0.048024441920882587 -0.0043971216221155747 0 0.047926513088197321 -0.0049324284689310572 0 0.048124949299097122 -0.0053291737321043741 0 0.047869729782004315 -0.0051496104910416871 0 0.047646656256012346 -0.0046630223776913627 0 0.047926513088197321 -0.0049324284689310572 0 0.047532599702583458 -0.0050362864548450367 0 0.047646656256012346 -0.0046630223776913627 0 0.048024441920882587 -0.0043971216221155747 0 0.047926513088197321 -0.0049324284689310572 0 0.048666544397354503 -0.0054806224497860904 0 0.048565546208226826 -0.0053995643737411933 0 0.04859384529605288 -0.0042179610426585686 0 0.047926513088197321 -0.0049324284689310572 0 0.048124949299097122 -0.0053291737321043741 0 0.048270177599889122 -0.0065796801157704107 0 0.048124949299097122 -0.0053291737321043741 0 0.047421936136657759 -0.0058357811930078683 0 0.048124949299097122 -0.0053291737321043741 0 0.048007228767870211 -0.004974804265201283 0 0.047421936136657759 -0.0058357811930078683 0 0.048124949299097122 -0.0053291737321043741 0 0.048007228767870211 -0.004974804265201283 0 0.047869729782004315 -0.0051496104910416871 0 0.048007228767870211 -0.004974804265201283 0 0.047869729782004315 -0.0051496104910416871 0 0.047859081905270981 -0.0052445353780459945 0 0.047926513088197321 -0.0049324284689310572 0 0.047869729782004315 -0.0051496104910416871 0 0.047532599702583458 -0.0050362864548450367 0 0.047869729782004315 -0.0051496104910416871 0 0.047532599702583458 -0.0050362864548450367 0 0.047445871799712512 -0.0052824691168476814 0 0.047585964608403947 -0.0053477297404896504 0 0.047859081905270981 -0.0052445353780459945 0 0.048041305439390523 -0.0057157728917227417 0 0.047869729782004315 -0.0051496104910416871 0 0.047585964608403947 -0.0053477297404896504 0 0.047445871799712512 -0.0052824691168476814 0 0.047585964608403947 -0.0053477297404896504 0 0.047291948043583824 -0.0054754662718311071 0 0.04743283104438524 -0.0057719487883547815 0 0.047585964608403947 -0.0053477297404896504 0 0.047445871799712512 -0.0052824691168476814 0 0.047291948043583824 -0.0054754662718311071 0 0.047869729782004315 -0.0051496104910416871 0 0.047585964608403947 -0.0053477297404896504 0 0.047859081905270981 -0.0052445353780459945 0 0.048007228767870211 -0.004974804265201283 0 0.046988825767081785 -0.0042346836988154564 0 0.048550738497265718 -0.0027170718568995567 0 0.046294950738970948 -0.0050185827766884294 0 0.045639590418302178 -0.0058370782407980697 0 0.048007228767870211 -0.004974804265201283 0 0.047859081905270981 -0.0052445353780459945 0 0.048041305439390523 -0.0057157728917227417 0 0.046380744900256468 -0.0043123863175734082 0 0.046180081388337069 -0.0052018962753961877 0 0.045658817054553012 -0.0049888036693049214 0 0.047631186995087109 -0.002892673877508994 0 0.046843634065938375 -0.0049647507460418728 0 0.04708792554194325 -0.0052746308979550703 0 0.046957145306249122 -0.0049767401045885465 0 0.046649404846854009 -0.0055714728484779312 0 0.04708792554194325 -0.0052746308979550703 0 0.046957145306249122 -0.0049767401045885465 0 0.047222804070903644 -0.0050213563312615696 0 0.04708792554194325 -0.0052746308979550703 0 0.047222804070903644 -0.0050213563312615696 0 0.047532599702583458 -0.0050362864548450367 0 0.04708792554194325 -0.0052746308979550703 0 0.047532599702583458 -0.0050362864548450367 0 0.047033750295660391 -0.0057626605668710884 0 0.047296921510336314 -0.0048101876324894242 0 0.047222804070903644 -0.0050213563312615696 0 0.047532599702583458 -0.0050362864548450367 0 0.047532599702583458 -0.0050362864548450367 0 0.047445871799712512 -0.0052824691168476814 0 0.046854901568526321 -0.0054569325584714846 0 0.047027098416078751 -0.0053808937923308202 0 0.046786277223399321 -0.0057343211079995873 0 0.047445871799712512 -0.0052824691168476814 0 0.047291948043583824 -0.0054754662718311071 0 0.046854901568526321 -0.0054569325584714846 0 0.047291948043583824 -0.0054754662718311071 0 0.046854901568526321 -0.0054569325584714846 0 0.047104582052591951 -0.005667618200340915 0 0.04708792554194325 -0.0052746308979550703 0 0.047033750295660391 -0.0057626605668710884 0 0.046649404846854009 -0.0055714728484779312 0 0.046180081388337069 -0.0052018962753961877 0 0.045658817054553012 -0.0049888036693049214 0 0.045638841217761246 -0.0055852268629766749 0 0.045658817054553012 -0.0049888036693049214 0 0.045638841217761246 -0.0055852268629766749 0 0.044984656511538948 -0.0056517927958305457 0 0.048719495549761224 0.0019604584534382431 0 0.050640317030512465 0.0034642710278963234 0 0.050318310504678922 0.0020041767049403109 0 0.047631186995087109 -0.002892673877508994 0 0.048518126837991914 -0.0017484015560327584 0 0.050640317030512465 0.0034642710278963234 0 0.050318310504678922 0.0020041767049403109 0 0.051521800583371392 0.002522381829442664 0 0.050318310504678922 0.0020041767049403109 0 0.051521800583371392 0.002522381829442664 0 0.050896447442125008 0.0013686147631656752 0 0.050640317030512465 0.0034642710278963234 0 0.051521800583371392 0.002522381829442664 0 0.052185433603693328 0.0034030616123927617 0 0.051521800583371392 0.002522381829442664 0 0.052990755848685567 0.0026236471321825 0 0.052451594302494006 0.0015145503958852527 0 0.051521800583371392 0.002522381829442664 0 0.052185433603693328 0.0034030616123927617 0 0.052990755848685567 0.0026236471321825 0 0.051521800583371392 0.002522381829442664 0 0.050896447442125008 0.0013686147631656752 0 0.052451594302494006 0.0015145503958852527 0 0.052185433603693328 0.0034030616123927617 0 0.053427407224744004 0.003666762636570166 0 0.052258116545143479 0.0047023045231781111 0 0.048518126837991914 -0.0017484015560327584 0 0.049118054874499897 -0.0015069874347131995 0 0.050640317030512465 0.0034642710278963234 0 0.052185433603693328 0.0034030616123927617 0 0.052258116545143479 0.0047023045231781111 0 0.053427407224744004 0.003666762636570166 0 0.052258116545143479 0.0047023045231781111 0 0.053460953108626801 0.0045807359006687469 0 0.053427407224744004 0.003666762636570166 0 0.054426959265873383 0.0039725478526506748 0 0.053460953108626801 0.0045807359006687469 0 0.052185433603693328 0.0034030616123927617 0 0.053427407224744004 0.003666762636570166 0 0.052990755848685567 0.0026236471321825 0 0.054877905449867391 0.0040075032702864147 0 0.054426959265873383 0.0039725478526506748 0 0.054680009954549712 0.004821794867492438 0 0.054877905449867391 0.0040075032702864147 0 0.054426959265873383 0.0039725478526506748 0 0.055015624683855277 0.003523842874975743 0 0.055327444182711877 0.0039835300655071187 0 0.054877905449867391 0.0040075032702864147 0 0.055015624683855277 0.003523842874975743 0 0.053427407224744004 0.003666762636570166 0 0.054426959265873383 0.0039725478526506748 0 0.054409972893879478 0.0032088185309055283 0 0.053427407224744004 0.003666762636570166 0 0.054409972893879478 0.0032088185309055283 0 0.054106056645542681 0.0026673633564037033 0 0.054426959265873383 0.0039725478526506748 0 0.054409972893879478 0.0032088185309055283 0 0.055015624683855277 0.003523842874975743 0 0.054409972893879478 0.0032088185309055283 0 0.055015624683855277 0.003523842874975743 0 0.054985936716005657 0.0022642069024877151 0 0.054409972893879478 0.0032088185309055283 0 0.054106056645542681 0.0026673633564037033 0 0.054985936716005657 0.0022642069024877151 0 0.054106056645542681 0.0026673633564037033 0 0.054985936716005657 0.0022642069024877151 0 0.054071685616607253 0.0016336308200250991 0 0.052990755848685567 0.0026236471321825 0 0.054071685616607253 0.0016336308200250991 0 0.052451594302494006 0.0015145503958852527 0 0.053427407224744004 0.003666762636570166 0 0.054106056645542681 0.0026673633564037033 0 0.052990755848685567 0.0026236471321825 0 0.054106056645542681 0.0026673633564037033 0 0.052990755848685567 0.0026236471321825 0 0.054071685616607253 0.0016336308200250991 0 0.054071685616607253 0.0016336308200250991 0 0.053497457349105583 0.00060141624021187818 0 0.052451594302494006 0.0015145503958852527 0 0.055434227163273148 0.00048706262952786193 0 0.054071685616607253 0.0016336308200250991 0 0.053497457349105583 0.00060141624021187818 0 0.055434227163273148 0.00048706262952786193 0 0.054985936716005657 0.0022642069024877151 0 0.054071685616607253 0.0016336308200250991 0 0.055434227163273148 0.00048706262952786193 0 0.053800826650998217 -0.00085883999350551182 0 0.053497457349105583 0.00060141624021187818 0 0.053800826650998217 -0.00085883999350551182 0 0.052370361907368816 -0.00024177003038667873 0 0.053497457349105583 0.00060141624021187818 0 0.051559487441796871 -0.001678451407482543 0 0.053497457349105583 0.00060141624021187818 0 0.051327482428613534 0.00020932987445344904 0 0.051723064967534614 -0.0010822516991540021 0 0.052454682665962822 -0.00046054982237451293 0 0.051559487441796871 -0.001678451407482543 0 0.051327482428613534 0.00020932987445344904 0 0.049684323470920271 -0.0014652706374837085 0 0.051327482428613534 0.00020932987445344904 0 0.049684323470920271 -0.0014652706374837085 0 0.049736377556808958 0.00057972111692027831 0 0.051327482428613534 0.00020932987445344904 0 0.049736377556808958 0.00057972111692027831 0 0.050896447442125008 0.0013686147631656752 0 0.050318310504678922 0.0020041767049403109 0 0.049736377556808958 0.00057972111692027831 0 0.050896447442125008 0.0013686147631656752 0 0.051327482428613534 0.00020932987445344904 0 0.050896447442125008 0.0013686147631656752 0 0.052451594302494006 0.0015145503958852527 0 0.053497457349105583 0.00060141624021187818 0 0.051327482428613534 0.00020932987445344904 0 0.052451594302494006 0.0015145503958852527 0 0.041513992438796291 -0.0066940885950791838 0 0.041051049899034894 -0.0068354203426540467 0 0.041113764765366823 -0.0063852355753872348 0 0.041513992438796291 -0.0066940885950791838 0 0.041113764765366823 -0.0063852355753872348 0 0.041486008669025166 -0.0063590913528884805 0 0.041513992438796291 -0.0066940885950791838 0 0.041486008669025166 -0.0063590913528884805 0 0.04172362707404513 -0.0064793007586789594 0 0.046513171598071258 -0.0062403650756588285 0 0.046311375992717618 -0.006608916156035388 0 0.046883175057749547 -0.0065535285207910052 0 0.044083299701761253 -0.0064767210815336613 0 0.04357295404391482 -0.0066081631515142788 0 0.046311375992717618 -0.006608916156035388 0 0.045814453694710017 -0.0065146099585615229 0 0.046039369389707853 -0.0068727253374701062 0 0.046513171598071258 -0.0062403650756588285 0 0.046311375992717618 -0.006608916156035388 0 0.045814453694710017 -0.0065146099585615229 0 0.04009503048325852 -0.0080227719182095723 0 0.039751508833259813 -0.0082801946389915067 0 0.039704725268305416 -0.008063704669182643 0 0.041051049899034894 -0.0068354203426540467 0 0.040879560697160387 -0.0066966861944786514 0 0.040655410844513712 -0.006964138042034611 0 0.04357295404391482 -0.0066081631515142788 0 0.043784522153729147 -0.0064661000494746169 0 0.041646849805837265 -0.0074159294923114658 0 0.043784522153729147 -0.0064661000494746169 0 0.04009503048325852 -0.0080227719182095723 0 0.039704725268305416 -0.008063704669182643 0 0.039622640953262428 -0.0077969191568753966 0 0.04009503048325852 -0.0080227719182095723 0 0.040047903743126161 -0.0075960333843376575 0 0.039622640953262428 -0.0077969191568753966 0 0.041051049899034894 -0.0068354203426540467 0 0.040879560697160387 -0.0066966861944786514 0 0.041113764765366823 -0.0063852355753872348 0 0.04009503048325852 -0.0080227719182095723 0 0.040047903743126161 -0.0075960333843376575 0 0.040582909482439748 -0.007559912711509866 0 0.041646849805837265 -0.0074159294923114658 0 0.041272475982366337 -0.007119402174144954 0 0.040144330356664149 -0.0072530057771616101 0 0.040047903743126161 -0.0075960333843376575 0 0.040582909482439748 -0.007559912711509866 0 0.040144330356664149 -0.0072530057771616101 0 0.040482342021252823 -0.0069770555726992442 0 0.040582909482439748 -0.007559912711509866 0 0.040047903743126161 -0.0075960333843376575 0 0.039622640953262428 -0.0077969191568753966 0 0.039659378739869806 -0.0072892784169337893 0 0.040144330356664149 -0.0072530057771616101 0 0.040047903743126161 -0.0075960333843376575 0 0.039659378739869806 -0.0072892784169337893 0 0.040144330356664149 -0.0072530057771616101 0 0.039950249973556777 -0.006842328106467818 0 0.039659378739869806 -0.0072892784169337893 0 0.039950249973556777 -0.006842328106467818 0 0.040482342021252823 -0.0069770555726992442 0 0.040353403275353014 -0.0066662890922046343 0 0.040144330356664149 -0.0072530057771616101 0 0.039950249973556777 -0.006842328106467818 0 0.040482342021252823 -0.0069770555726992442 0 0.040482342021252823 -0.0069770555726992442 0 0.040582909482439748 -0.007559912711509866 0 0.041026842557255451 -0.0069748794795603643 0 0.040482342021252823 -0.0069770555726992442 0 0.041026842557255451 -0.0069748794795603643 0 0.040761997906763534 -0.006490007294478667 0 0.041272475982366337 -0.007119402174144954 0 0.041364500459065381 -0.0066512788557163876 0 0.041113764765366823 -0.0063852355753872348 0 0.041486008669025166 -0.0063590913528884805 0 0.041446298263865207 -0.0059514471068976438 0 0.041486008669025166 -0.0063590913528884805 0 0.041446298263865207 -0.0059514471068976438 0 0.041850814709826427 -0.0060134361930073762 0 0.041446298263865207 -0.0059514471068976438 0 0.041850814709826427 -0.0060134361930073762 0 0.041845042878261865 -0.005679965388636272 0 0.041850814709826427 -0.0060134361930073762 0 0.042256160108320069 -0.0057494376235706825 0 0.041845042878261865 -0.005679965388636272 0 0.041850814709826427 -0.0060134361930073762 0 0.042256160108320069 -0.0057494376235706825 0 0.042403609571354708 -0.005931354335553661 0 0.042256160108320069 -0.0057494376235706825 0 0.042403609571354708 -0.005931354335553661 0 0.042886319617199381 -0.0057876448950523914 0 0.042403609571354708 -0.005931354335553661 0 0.04172362707404513 -0.0064793007586789594 0 0.041931928319033501 -0.0068431177999203835 0 0.042403609571354708 -0.005931354335553661 0 0.044145857320161769 -0.0060681039919543416 0 0.041931928319033501 -0.0068431177999203835 0 0.041850814709826427 -0.0060134361930073762 0 0.042403609571354708 -0.005931354335553661 0 0.04172362707404513 -0.0064793007586789594 0 0.041486008669025166 -0.0063590913528884805 0 0.041850814709826427 -0.0060134361930073762 0 0.04172362707404513 -0.0064793007586789594 0 0.042284276719892488 -0.0057063509784543651 0 0.041850251893477387 -0.0059133515492126518 0 0.042281111775067583 -0.0058520611220410097 0 0.044935630333677964 -0.0058104488346840373 0 0.045639590418302178 -0.0058370782407980697 0 0.042256160108320069 -0.0057494376235706825 0 0.042886319617199381 -0.0057876448950523914 0 0.042281111775067583 -0.0058520611220410097 0 0.042284276719892488 -0.0057063509784543651 0 0.042886319617199381 -0.0057876448950523914 0 0.042281111775067583 -0.0058520611220410097 0 0.042403609571354708 -0.005931354335553661 0 0.042886319617199381 -0.0057876448950523914 0 0.044145857320161769 -0.0060681039919543416 0 0.04574809731528217 -0.0059554121073638515 0 0.044889334696336096 -0.0062445691320081667 0 0.046988825767081785 -0.0042346836988154564 0 0.044145857320161769 -0.0060681039919543416 0 0.046550861634999184 -0.0057022982664992651 0 0.044145857320161769 -0.0060681039919543416 0 0.046550861634999184 -0.0057022982664992651 0 0.041931928319033501 -0.0068431177999203835 0 0.042284276719892488 -0.0057063509784543651 0 0.042886319617199381 -0.0057876448950523914 0 0.044145857320161769 -0.0060681039919543416 0 0.044935630333677964 -0.0058104488346840373 0 0.044458626817061364 -0.0061325515481324049 0 0.048007228767870211 -0.004974804265201283 0 0.046550861634999184 -0.0057022982664992651 0 0.047421936136657759 -0.0058357811930078683 0 0.048007228767870211 -0.004974804265201283 0 0.046988825767081785 -0.0042346836988154564 0 0.046550861634999184 -0.0057022982664992651 0 0.046550861634999184 -0.0057022982664992651 0 0.047421936136657759 -0.0058357811930078683 0 0.047008405756361962 -0.0059576636947239903 0 0.047421936136657759 -0.0058357811930078683 0 0.047008405756361962 -0.0059576636947239903 0 0.04744970682576944 -0.0062278611368324788 0 0.047008405756361962 -0.0059576636947239903 0 0.04744970682576944 -0.0062278611368324788 0 0.047132135744260506 -0.0061912204356035167 0 0.046550861634999184 -0.0057022982664992651 0 0.047008405756361962 -0.0059576636947239903 0 0.047093725813512288 -0.0060745496051935648 0 0.047474295767160744 -0.0065000761795610462 0 0.04744970682576944 -0.0062278611368324788 0 0.047132135744260506 -0.0061912204356035167 0 0.047474295767160744 -0.0065000761795610462 0 0.047132135744260506 -0.0061912204356035167 0 0.0472327254973074 -0.0066156178708280614 0 0.047474295767160744 -0.0065000761795610462 0 0.04744970682576944 -0.0062278611368324788 0 0.048084250445726957 -0.0068261899384033922 0 0.048270177599889122 -0.0065796801157704107 0 0.047421936136657759 -0.0058357811930078683 0 0.04744970682576944 -0.0062278611368324788 0 0.048270177599889122 -0.0065796801157704107 0 0.04744970682576944 -0.0062278611368324788 0 0.048084250445726957 -0.0068261899384033922 0 0.041513992438796291 -0.0066940885950791838 0 0.04172362707404513 -0.0064793007586789594 0 0.041931928319033501 -0.0068431177999203835 0 0.044083299701761253 -0.0064767210815336613 0 0.044889334696336096 -0.0062445691320081667 0 0.046513171598071258 -0.0062403650756588285 0 0.047093725813512288 -0.0060745496051935648 0 0.04695957334592555 -0.0062720526249936048 0 0.047008405756361962 -0.0059576636947239903 0 0.047093725813512288 -0.0060745496051935648 0 0.047132135744260506 -0.0061912204356035167 0 0.047093725813512288 -0.0060745496051935648 0 0.047132135744260506 -0.0061912204356035167 0 0.04695957334592555 -0.0062720526249936048 0 0.047132135744260506 -0.0061912204356035167 0 0.046870576525073586 -0.0065631654593379957 0 0.0472327254973074 -0.0066156178708280614 0 0.047132135744260506 -0.0061912204356035167 0 0.046883175057749547 -0.0065535285207910052 0 0.04695957334592555 -0.0062720526249936048 0 0.046942313411981448 -0.0065059034531124074 0 0.046771156603352543 -0.0066480336695224716 0 0.046513171598071258 -0.0062403650756588285 0 0.046883175057749547 -0.0065535285207910052 0 0.04695957334592555 -0.0062720526249936048 0 0.046870576525073586 -0.0065631654593379957 0 0.047215072007201105 -0.007141170270576278 0 0.046579118427764105 -0.0074458856866750477 0 0.046771156603352543 -0.0066480336695224716 0 0.0464048789204752 -0.0069377971629938483 0 0.0472327254973074 -0.0066156178708280614 0 0.047215072007201105 -0.007141170270576278 0 0.047596541595287672 -0.0068961870356297394 0 0.046870576525073586 -0.0065631654593379957 0 0.0472327254973074 -0.0066156178708280614 0 0.047215072007201105 -0.007141170270576278 0 0.047215072007201105 -0.007141170270576278 0 0.048001530344776333 -0.0075450097597809579 0 0.047032108498954464 -0.0078442983360284043 0 0.047215072007201105 -0.007141170270576278 0 0.047032108498954464 -0.0078442983360284043 0 0.046579118427764105 -0.0074458856866750477 0 0.048852514088344998 -0.0073452931204768812 0 0.048270177599889122 -0.0065796801157704107 0 0.048084250445726957 -0.0068261899384033922 0 0.047474295767160744 -0.0065000761795610462 0 0.048084250445726957 -0.0068261899384033922 0 0.047596541595287672 -0.0068961870356297394 0 0.047474295767160744 -0.0065000761795610462 0 0.0472327254973074 -0.0066156178708280614 0 0.047596541595287672 -0.0068961870356297394 0 0.047215072007201105 -0.007141170270576278 0 0.047596541595287672 -0.0068961870356297394 0 0.048001530344776333 -0.0075450097597809579 0 0.048084250445726957 -0.0068261899384033922 0 0.047596541595287672 -0.0068961870356297394 0 0.048001530344776333 -0.0075450097597809579 0 0.048852514088344998 -0.0073452931204768812 0 0.048084250445726957 -0.0068261899384033922 0 0.048001530344776333 -0.0075450097597809579 0 0.049245746650553063 -0.0087425035978733554 0 0.048852514088344998 -0.0073452931204768812 0 0.048929693425602779 -0.0081306289718067089 0 0.048852514088344998 -0.0073452931204768812 0 0.048001530344776333 -0.0075450097597809579 0 0.048929693425602779 -0.0081306289718067089 0 0.048001530344776333 -0.0075450097597809579 0 0.048929693425602779 -0.0081306289718067089 0 0.047727501519283407 -0.0086169114307709828 0 0.048929693425602779 -0.0081306289718067089 0 0.04986771118994282 -0.0082843360963213101 0 0.047727501519283407 -0.0086169114307709828 0 0.051230069292014985 -0.0079508236264788871 0 0.052306283572668415 -0.007755904233826663 0 0.04986771118994282 -0.0082843360963213101 0 0.05697097637737155 -0.0081710421475981992 0 0.053388552749969717 -0.0059040579669932527 0 0.04986771118994282 -0.0082843360963213101 0 0.050720061199268092 -0.0059040034748330545 0 0.053388552749969717 -0.0059040579669932527 0 0.049245746650553063 -0.0087425035978733554 0 0.04986771118994282 -0.0082843360963213101 0 0.050720061199268092 -0.0059040034748330545 0 0.049245746650553063 -0.0087425035978733554 0 0.048929693425602779 -0.0081306289718067089 0 0.04986771118994282 -0.0082843360963213101 0 0.047032108498954464 -0.0078442983360284043 0 0.046702430664302262 -0.0084187927790963391 0 0.046341765528213716 -0.0079160813881081031 0 0.047032108498954464 -0.0078442983360284043 0 0.046341765528213716 -0.0079160813881081031 0 0.046579118427764105 -0.0074458856866750477 0 0.048001530344776333 -0.0075450097597809579 0 0.047032108498954464 -0.0078442983360284043 0 0.047727501519283407 -0.0086169114307709828 0 0.052306283572668415 -0.007755904233826663 0 0.053856627506752797 -0.00718172852063329 0 0.047032108498954464 -0.0078442983360284043 0 0.047727501519283407 -0.0086169114307709828 0 0.046702430664302262 -0.0084187927790963391 0 0.05697097637737155 -0.0081710421475981992 0 0.062014708891521116 -0.0068846342548747035 0 0.061224859548433375 -0.0051588669564365721 0 0.062014708891521116 -0.0068846342548747035 0 0.064574798044524762 -0.0056248065919842017 0 0.063864964953102496 -0.0050939257453476699 0 0.053856627506752797 -0.00718172852063329 0 0.054890780061946642 -0.0062960308495160324 0 0.046702430664302262 -0.0084187927790963391 0 0.045988891357795283 -0.0082866942351603069 0 0.046341765528213716 -0.0079160813881081031 0 0.045988891357795283 -0.0082866942351603069 0 0.045895049562447783 -0.0078698095329712489 0 0.046341765528213716 -0.0079160813881081031 0 0.045895049562447783 -0.0078698095329712489 0 0.046341765528213716 -0.0079160813881081031 0 0.0459077781091859 -0.0073660811289996296 0 0.046341765528213716 -0.0079160813881081031 0 0.046579118427764105 -0.0074458856866750477 0 0.0459077781091859 -0.0073660811289996296 0 0.046579118427764105 -0.0074458856866750477 0 0.0459077781091859 -0.0073660811289996296 0 0.046376913260998472 -0.0069793339553712195 0 0.046022103789916981 -0.00722986441015608 0 0.0464048789204752 -0.0069377971629938483 0 0.046005901295136827 -0.0072891566068928292 0 0.046039369389707853 -0.0068727253374701062 0 0.046462055809538653 -0.0069229264027122588 0 0.046311375992717618 -0.006608916156035388 0 0.046039369389707853 -0.0068727253374701062 0 0.046462055809538653 -0.0069229264027122588 0 0.046870576525073586 -0.0065631654593379957 0 0.046579118427764105 -0.0074458856866750477 0 0.046376913260998472 -0.0069793339553712195 0 0.046311375992717618 -0.006608916156035388 0 0.046883175057749547 -0.0065535285207910052 0 0.046462055809538653 -0.0069229264027122588 0 0.045591765069206362 -0.0070304510719396106 0 0.045203181393722432 -0.0072950929031032289 0 0.045112902292542105 -0.0068062240703237369 0 0.045814453694710017 -0.0065146099585615229 0 0.045591765069206362 -0.0070304510719396106 0 0.045112902292542105 -0.0068062240703237369 0 0.045814453694710017 -0.0065146099585615229 0 0.046039369389707853 -0.0068727253374701062 0 0.045591765069206362 -0.0070304510719396106 0 0.046005901295136827 -0.0072891566068928292 0 0.046039369389707853 -0.0068727253374701062 0 0.045591765069206362 -0.0070304510719396106 0 0.046005901295136827 -0.0072891566068928292 0 0.045591765069206362 -0.0070304510719396106 0 0.045518995608140114 -0.0076517624162861309 0 0.046022103789916981 -0.00722986441015608 0 0.045818939370612814 -0.0073798809875374217 0 0.045591765069206362 -0.0070304510719396106 0 0.045203181393722432 -0.0072950929031032289 0 0.045518995608140114 -0.0076517624162861309 0 0.045203181393722432 -0.0072950929031032289 0 0.045518995608140114 -0.0076517624162861309 0 0.045056789816145734 -0.0077052709588665063 0 0.045518995608140114 -0.0076517624162861309 0 0.045329603203492774 -0.0079315956580877384 0 0.045056789816145734 -0.0077052709588665063 0 0.045518995608140114 -0.0076517624162861309 0 0.045631559301786292 -0.0080079204146484041 0 0.045329603203492774 -0.0079315956580877384 0 0.045895049562447783 -0.0078698095329712489 0 0.045518995608140114 -0.0076517624162861309 0 0.045631559301786292 -0.0080079204146484041 0 0.045895049562447783 -0.0078698095329712489 0 0.0459077781091859 -0.0073660811289996296 0 0.045518995608140114 -0.0076517624162861309 0 0.045988891357795283 -0.0082866942351603069 0 0.045895049562447783 -0.0078698095329712489 0 0.045631559301786292 -0.0080079204146484041 0 0.064574798044524762 -0.0056248065919842017 0 0.065602068580840875 -0.0052655577662750136 0 0.064962346736622656 -0.0053779821123141778 0 0.054890780061946642 -0.0062960308495160324 0 0.055478239964724778 -0.0049115599105944161 0 0.045988891357795283 -0.0082866942351603069 0 0.045631559301786292 -0.0080079204146484041 0 0.04537650522982415 -0.0082467375386610815 0 0.045329603203492774 -0.0079315956580877384 0 0.04537650522982415 -0.0082467375386610815 0 0.045062427100785764 -0.0080269589162354181 0 0.045631559301786292 -0.0080079204146484041 0 0.045329603203492774 -0.0079315956580877384 0 0.04537650522982415 -0.0082467375386610815 0 0.065602068580840875 -0.0052655577662750136 0 0.065436713858579854 -0.0047433619152490048 0 0.065835629663185277 -0.004912332087487265 0 0.065793562792648946 -0.0038543884041757873 0 0.066179130681154677 -0.0026114812995599703 0 0.065554538306005564 -0.0028908154689545238 0 0.064883255705448686 -0.0037964593680133718 0 0.06488162774174526 -0.0029123280590473877 0 0.065436713858579854 -0.0047433619152490048 0 0.065835629663185277 -0.004912332087487265 0 0.065817063631452732 -0.0046776580653839729 0 0.065436713858579854 -0.0047433619152490048 0 0.065760870606451916 -0.0043249796299552517 0 0.065817063631452732 -0.0046776580653839729 0 0.065008052998049279 -0.0030456322556721791 0 0.065002686450446698 -0.0038681971253035296 0 0.064497154457561476 -0.0031145230248232759 0 0.065008052998049279 -0.0030456322556721791 0 0.065002686450446698 -0.0038681971253035296 0 0.065554538306005564 -0.0028908154689545238 0 0.065793562792648946 -0.0038543884041757873 0 0.065002686450446698 -0.0038681971253035296 0 0.065554538306005564 -0.0028908154689545238 0 0.065602068580840875 -0.0052655577662750136 0 0.065436713858579854 -0.0047433619152490048 0 0.064962346736622656 -0.0053779821123141778 0 0.065002686450446698 -0.0038681971253035296 0 0.064962346736622656 -0.0053779821123141778 0 0.064577106334153075 -0.0048460680964706867 0 0.064883255705448686 -0.0037964593680133718 0 0.06474899001999701 -0.0042542065688791243 0 0.065793562792648946 -0.0038543884041757873 0 0.065002686450446698 -0.0038681971253035296 0 0.064962346736622656 -0.0053779821123141778 0 0.064574798044524762 -0.0056248065919842017 0 0.064962346736622656 -0.0053779821123141778 0 0.064577106334153075 -0.0048460680964706867 0 0.064574798044524762 -0.0056248065919842017 0 0.063864964953102496 -0.0050939257453476699 0 0.064577106334153075 -0.0048460680964706867 0 0.063864964953102496 -0.0050939257453476699 0 0.063215630245558693 -0.0042049368645510985 0 0.064390681502712585 -0.0041625205328290451 0 0.063864964953102496 -0.0050939257453476699 0 0.064577106334153075 -0.0048460680964706867 0 0.064390681502712585 -0.0041625205328290451 0 0.065002686450446698 -0.0038681971253035296 0 0.064577106334153075 -0.0048460680964706867 0 0.064390681502712585 -0.0041625205328290451 0 0.062014708891521116 -0.0068846342548747035 0 0.063864964953102496 -0.0050939257453476699 0 0.063215630245558693 -0.0042049368645510985 0 0.063215630245558693 -0.0042049368645510985 0 0.062823188707167146 -0.0029444499688506716 0 0.061950610983245294 -0.0037616853599808362 0 0.063215630245558693 -0.0042049368645510985 0 0.063609541143407819 -0.0030623537702381748 0 0.06394393624736977 -0.0036220738362175453 0 0.063215630245558693 -0.0042049368645510985 0 0.063609541143407819 -0.0030623537702381748 0 0.062823188707167146 -0.0029444499688506716 0 0.063215630245558693 -0.0042049368645510985 0 0.064390681502712585 -0.0041625205328290451 0 0.06394393624736977 -0.0036220738362175453 0 0.064390681502712585 -0.0041625205328290451 0 0.06394393624736977 -0.0036220738362175453 0 0.064497154457561476 -0.0031145230248232759 0 0.065002686450446698 -0.0038681971253035296 0 0.064390681502712585 -0.0041625205328290451 0 0.064497154457561476 -0.0031145230248232759 0 0.063609541143407819 -0.0030623537702381748 0 0.06394393624736977 -0.0036220738362175453 0 0.064497154457561476 -0.0031145230248232759 0 0.064497154457561476 -0.0031145230248232759 0 0.064172799910413719 -0.0022317379071910355 0 0.06497320940990145 -0.00236299356147689 0 0.063609541143407819 -0.0030623537702381748 0 0.064497154457561476 -0.0031145230248232759 0 0.064172799910413719 -0.0022317379071910355 0 0.064172799910413719 -0.0022317379071910355 0 0.064636197921669566 -0.0019406857483759443 0 0.06497320940990145 -0.00236299356147689 0 0.062823188707167146 -0.0029444499688506716 0 0.063510408351393696 -0.0022950297907443104 0 0.062725174023737881 -0.0022042334629759509 0 0.063609541143407819 -0.0030623537702381748 0 0.064172799910413719 -0.0022317379071910355 0 0.063510408351393696 -0.0022950297907443104 0 0.063609541143407819 -0.0030623537702381748 0 0.062823188707167146 -0.0029444499688506716 0 0.063510408351393696 -0.0022950297907443104 0 0.064172799910413719 -0.0022317379071910355 0 0.063510408351393696 -0.0022950297907443104 0 0.06363123690805049 -0.0016073748581520463 0 0.063510408351393696 -0.0022950297907443104 0 0.063222837369259904 -0.0019100704291679033 0 0.06363123690805049 -0.0016073748581520463 0 0.063222837369259904 -0.0019100704291679033 0 0.062725174023737881 -0.0022042334629759509 0 0.063026850140888699 -0.0015906918076941997 0 0.063510408351393696 -0.0022950297907443104 0 0.063222837369259904 -0.0019100704291679033 0 0.062725174023737881 -0.0022042334629759509 0 0.06363123690805049 -0.0016073748581520463 0 0.063379029013681296 -0.00108482742563856 0 0.064229019569942619 -0.00098124835595524628 0 0.063222837369259904 -0.0019100704291679033 0 0.06363123690805049 -0.0016073748581520463 0 0.063026850140888699 -0.0015906918076941997 0 0.06363123690805049 -0.0016073748581520463 0 0.063026850140888699 -0.0015906918076941997 0 0.063379029013681296 -0.00108482742563856 0 0.06363123690805049 -0.0016073748581520463 0 0.064394550601675843 -0.0015686059294069254 0 0.064229019569942619 -0.00098124835595524628 0 0.064172799910413719 -0.0022317379071910355 0 0.064636197921669566 -0.0019406857483759443 0 0.064394550601675843 -0.0015686059294069254 0 0.064636197921669566 -0.0019406857483759443 0 0.064394550601675843 -0.0015686059294069254 0 0.064987957510337993 -0.001639243638375805 0 0.064172799910413719 -0.0022317379071910355 0 0.06363123690805049 -0.0016073748581520463 0 0.064394550601675843 -0.0015686059294069254 0 0.064394550601675843 -0.0015686059294069254 0 0.064987957510337993 -0.001639243638375805 0 0.064691728717302582 -0.0011769928172123308 0 0.064636197921669566 -0.0019406857483759443 0 0.064987957510337993 -0.001639243638375805 0 0.06497320940990145 -0.00236299356147689 0 0.064987957510337993 -0.001639243638375805 0 0.065561042168547162 -0.0014780827011579359 0 0.065528834166038288 -0.002083328616326657 0 0.064987957510337993 -0.001639243638375805 0 0.065528834166038288 -0.002083328616326657 0 0.06497320940990145 -0.00236299356147689 0 0.064987957510337993 -0.001639243638375805 0 0.065561042168547162 -0.0014780827011579359 0 0.065146209179059264 -0.0010632359704786916 0 0.065561042168547162 -0.0014780827011579359 0 0.065960853568708261 -0.0018513797810203406 0 0.065976516069445934 -0.0013934761373404574 0 0.065561042168547162 -0.0014780827011579359 0 0.065960853568708261 -0.0018513797810203406 0 0.065528834166038288 -0.002083328616326657 0 0.065960853568708261 -0.0018513797810203406 0 0.065528834166038288 -0.002083328616326657 0 0.066179130681154677 -0.0026114812995599703 0 0.065528834166038288 -0.002083328616326657 0 0.066179130681154677 -0.0026114812995599703 0 0.065554538306005564 -0.0028908154689545238 0 0.065008052998049279 -0.0030456322556721791 0 0.065554538306005564 -0.0028908154689545238 0 0.06497320940990145 -0.00236299356147689 0 0.065008052998049279 -0.0030456322556721791 0 0.064497154457561476 -0.0031145230248232759 0 0.06497320940990145 -0.00236299356147689 0 0.065528834166038288 -0.002083328616326657 0 0.065554538306005564 -0.0028908154689545238 0 0.06497320940990145 -0.00236299356147689 0 0.050031656932114352 -0.0027862436313418949 0 0.051906031071108603 -0.0019091959954224229 0 0.050401975211707119 -0.0036269998495690493 0 0.051906031071108603 -0.0019091959954224229 0 0.050401975211707119 -0.0036269998495690493 0 0.052846133976063372 -0.0037255753066599566 0 0.050401975211707119 -0.0036269998495690493 0 0.050720061199268092 -0.0059040034748330545 0 0.052846133976063372 -0.0037255753066599566 0 0.049864332725399273 -0.0034546022203933522 0 0.049340562515940468 -0.0033641871214873998 0 0.050401975211707119 -0.0036269998495690493 0 0.049245746650553063 -0.0087425035978733554 0 0.050401975211707119 -0.0036269998495690493 0 0.050720061199268092 -0.0059040034748330545 0 0.049224864120622484 -0.0053724950621340094 0 0.049464097395803493 -0.0046736622677851832 0 0.050720061199268092 -0.0059040034748330545 0 0.052846133976063372 -0.0037255753066599566 0 0.053388552749969717 -0.0059040579669932527 0 0.05697097637737155 -0.0081710421475981992 0 0.053388552749969717 -0.0059040579669932527 0 0.055777914731716373 -0.0048220018729765481 0 0.052846133976063372 -0.0037255753066599566 0 0.053388552749969717 -0.0059040579669932527 0 0.055777914731716373 -0.0048220018729765481 0 0.051906031071108603 -0.0019091959954224229 0 0.055098848704872749 -0.0024416724627931161 0 0.053555317215196033 0.00088816119915353367 0 0.051906031071108603 -0.0019091959954224229 0 0.052846133976063372 -0.0037255753066599566 0 0.055098848704872749 -0.0024416724627931161 0 0.052846133976063372 -0.0037255753066599566 0 0.055777914731716373 -0.0048220018729765481 0 0.055098848704872749 -0.0024416724627931161 0 0.055098848704872749 -0.0024416724627931161 0 0.059449781018002024 -0.0039473074609862246 0 0.058759826200871661 -0.00073481257217831335 0 0.060806884685711944 -0.0023996419803909894 0 0.060900719601248987 -0.0016979316188799828 0 0.055777914731716373 -0.0048220018729765481 0 0.055098848704872749 -0.0024416724627931161 0 0.059449781018002024 -0.0039473074609862246 0 0.059449781018002024 -0.0039473074609862246 0 0.061683740744316665 -0.002848803165188759 0 0.060759734308287267 -0.0026865075715869526 0 0.05697097637737155 -0.0081710421475981992 0 0.055777914731716373 -0.0048220018729765481 0 0.059449781018002024 -0.0039473074609862246 0 0.05697097637737155 -0.0081710421475981992 0 0.059449781018002024 -0.0039473074609862246 0 0.061224859548433375 -0.0051588669564365721 0 0.059449781018002024 -0.0039473074609862246 0 0.061224859548433375 -0.0051588669564365721 0 0.061950610983245294 -0.0037616853599808362 0 0.063215630245558693 -0.0042049368645510985 0 0.061224859548433375 -0.0051588669564365721 0 0.061950610983245294 -0.0037616853599808362 0 0.062014708891521116 -0.0068846342548747035 0 0.063215630245558693 -0.0042049368645510985 0 0.061224859548433375 -0.0051588669564365721 0 0.059449781018002024 -0.0039473074609862246 0 0.061950610983245294 -0.0037616853599808362 0 0.061683740744316665 -0.002848803165188759 0 0.062823188707167146 -0.0029444499688506716 0 0.061950610983245294 -0.0037616853599808362 0 0.061683740744316665 -0.002848803165188759 0 0.062823188707167146 -0.0029444499688506716 0 0.061683740744316665 -0.002848803165188759 0 0.062725174023737881 -0.0022042334629759509 0 0.061683740744316665 -0.002848803165188759 0 0.06192051873777344 -0.0021568358795160812 0 0.062725174023737881 -0.0022042334629759509 0 0.061683740744316665 -0.002848803165188759 0 0.06192051873777344 -0.0021568358795160812 0 0.060759734308287267 -0.0026865075715869526 0 0.06192051873777344 -0.0021568358795160812 0 0.062415532608575075 -0.0014406604605826732 0 0.061383014839839253 -0.0015445514574991316 0 0.06192051873777344 -0.0021568358795160812 0 0.062528302115828466 -0.0017633939743820332 0 0.062415532608575075 -0.0014406604605826732 0 0.06192051873777344 -0.0021568358795160812 0 0.062528302115828466 -0.0017633939743820332 0 0.062725174023737881 -0.0022042334629759509 0 0.062528302115828466 -0.0017633939743820332 0 0.062725174023737881 -0.0022042334629759509 0 0.063026850140888699 -0.0015906918076941997 0 0.062905278856013616 -0.001273557039681973 0 0.062415532608575075 -0.0014406604605826732 0 0.063160442369849273 -0.00081392252386781839 0 0.062528302115828466 -0.0017633939743820332 0 0.063026850140888699 -0.0015906918076941997 0 0.062905278856013616 -0.001273557039681973 0 0.063026850140888699 -0.0015906918076941997 0 0.062905278856013616 -0.001273557039681973 0 0.063379029013681296 -0.00108482742563856 0 0.062528302115828466 -0.0017633939743820332 0 0.062905278856013616 -0.001273557039681973 0 0.062415532608575075 -0.0014406604605826732 0 0.062415532608575075 -0.0014406604605826732 0 0.062366160204790994 -0.0014446789258173139 0 0.063160442369849273 -0.00081392252386781839 0 0.065166086186578293 -0.00083941559907975438 0 0.064986895918420537 -0.00071489377759839537 0 0.065136140813921092 -0.00051941775640616317 0 0.061214352582649845 -0.00053874056563447557 0 0.063027302243864367 -0.0007844301689576722 0 0.061291754492881309 -0.00055292543691953995 0 0.061214352582649845 -0.00053874056563447557 0 0.058495555936283104 0.0024161998094707942 0 0.058759826200871661 -0.00073481257217831335 0 0.053555317215196033 0.00088816119915353367 0 0.06192051873777344 -0.0021568358795160812 0 0.061383014839839253 -0.0015445514574991316 0 0.060759734308287267 -0.0026865075715869526 0 0.061214352582649845 -0.00053874056563447557 0 0.060900719601248987 -0.0016979316188799828 0 0.061214352582649845 -0.00053874056563447557 0 0.059735193001679378 -0.00079087837467515468 0 0.055098848704872749 -0.0024416724627931161 0 0.058759826200871661 -0.00073481257217831335 0 0.053555317215196033 0.00088816119915353367 0 0.064889936637422832 -0.00093333615568761818 0 0.064986895918420537 -0.00071489377759839537 0 0.064801045464057572 -0.00065717761031064957 0 0.065166086186578293 -0.00083941559907975438 0 0.064889936637422832 -0.00093333615568761818 0 0.064986895918420537 -0.00071489377759839537 0 0.064605129327298616 -0.00078111857836567309 0 0.064889936637422832 -0.00093333615568761818 0 0.064801045464057572 -0.00065717761031064957 0 0.064605129327298616 -0.00078111857836567309 0 0.06467361839258455 -0.00057040130955317693 0 0.064801045464057572 -0.00065717761031064957 0 0.06457439621106198 -0.0010824356479039257 0 0.064605129327298616 -0.00078111857836567309 0 0.064889936637422832 -0.00093333615568761818 0 0.050136044356312345 -0.0015123326990418239 0 0.051906031071108603 -0.0019091959954224229 0 0.053555317215196033 0.00088816119915353367 0 0.058329075899887055 -0.0014269078288978031 0 0.059735193001679378 -0.00079087837467515468 0 0.06467986059577549 -0.00035425856854511998 0 0.064805868174631506 -0.00034154907016116374 0 0.0647408595912356 -0.00039840809930799883 0 0.064805868174631506 -0.00034154907016116374 0 0.0647408595912356 -0.00039840809930799883 0 0.064783625460047942 -0.00046508403684507213 0 0.064805868174631506 -0.00034154907016116374 0 0.064783625460047942 -0.00046508403684507213 0 0.064921575329033254 -0.00036659481978420789 0 0.06467986059577549 -0.00035425856854511998 0 0.0647408595912356 -0.00039840809930799883 0 0.064675318741819574 -0.00046270637688380309 0 0.0647408595912356 -0.00039840809930799883 0 0.064675318741819574 -0.00046270637688380309 0 0.064783625460047942 -0.00046508403684507213 0 0.064675318741819574 -0.00046270637688380309 0 0.06467361839258455 -0.00057040130955317693 0 0.064783625460047942 -0.00046508403684507213 0 0.06467361839258455 -0.00057040130955317693 0 0.064801045464057572 -0.00065717761031064957 0 0.064783625460047942 -0.00046508403684507213 0 0.064801045464057572 -0.00065717761031064957 0 0.064783625460047942 -0.00046508403684507213 0 0.06492596586931787 -0.00054342874876846042 0 0.064986895918420537 -0.00071489377759839537 0 0.06492596586931787 -0.00054342874876846042 0 0.065136140813921092 -0.00051941775640616317 0 0.06492596586931787 -0.00054342874876846042 0 0.064921575329033254 -0.00036659481978420789 0 0.065136140813921092 -0.00051941775640616317 0 0.064986895918420537 -0.00071489377759839537 0 0.064801045464057572 -0.00065717761031064957 0 0.06492596586931787 -0.00054342874876846042 0 0.064783625460047942 -0.00046508403684507213 0 0.06492596586931787 -0.00054342874876846042 0 0.064921575329033254 -0.00036659481978420789 0 0.064921575329033254 -0.00036659481978420789 0 0.065136140813921092 -0.00051941775640616317 0 0.065081994797696607 -0.00021727963355622603 0 0.063160442369849273 -0.00081392252386781839 0 0.064108341426637253 -0.00033518809741320661 0 0.064080994135827268 -0.00022055396041142738 0 0.063027302243864367 -0.0007844301689576722 0 0.064147017473835194 -0.00047330959403215836 0 0.062905278856013616 -0.001273557039681973 0 0.063160442369849273 -0.00081392252386781839 0 0.063379029013681296 -0.00108482742563856 0 0.063160442369849273 -0.00081392252386781839 0 0.063379029013681296 -0.00108482742563856 0 0.063996091416909498 -0.00062366663155544102 0 0.063160442369849273 -0.00081392252386781839 0 0.064108341426637253 -0.00033518809741320661 0 0.063996091416909498 -0.00062366663155544102 0 0.064108341426637253 -0.00033518809741320661 0 0.064546239808354403 -0.00010084828094827726 0 0.064080994135827268 -0.00022055396041142738 0 0.064108341426637253 -0.00033518809741320661 0 0.064546239808354403 -0.00010084828094827726 0 0.064625158909279667 -0.00014965165191120969 0 0.064546239808354403 -0.00010084828094827726 0 0.064998862984185432 -1.9642799264311679e-08 0 0.064999371154425958 -5.1643450191509735e-08 0 0.065000380699091712 -9.0541102860647152e-08 0 0.065081994797696607 -0.00021727963355622603 0 0.064999636095766117 7.945819493342664e-08 0 0.064546239808354403 -0.00010084828094827726 0 0.064998862984185432 -1.9642799264311679e-08 0 0.064080994135827268 -0.00022055396041142738 0 0.064998402701620425 -6.8458440600716066e-07 0 0.064147017473835194 -0.00047330959403215836 0 0.064921575329033254 -0.00036659481978420789 0 0.065081994797696607 -0.00021727963355622603 0 0.064855741477247611 -0.00015696317151792617 0 0.064805868174631506 -0.00034154907016116374 0 0.064921575329033254 -0.00036659481978420789 0 0.064855741477247611 -0.00015696317151792617 0 0.064999902434392909 -9.5407507801020848e-08 0 0.064910835068090283 -9.9790270520031159e-05 0 0.065000006385451961 -4.8477194265724647e-09 0 0.064999983650685614 9.205551057644583e-09 0 0.064995431954214547 -1.1282130638206304e-06 0 0.065081994797696607 -0.00021727963355622603 0 0.064999636095766117 7.945819493342664e-08 0 0.064855741477247611 -0.00015696317151792617 0 0.06497122974373247 -3.5355273809028186e-06 0 0.064999983650685614 9.205551057644583e-09 0 0.064995431954214547 -1.1282130638206304e-06 0 0.064800374972838623 -0.00022663390548511791 0 0.064910835068090283 -9.9790270520031159e-05 0 0.06467986059577549 -0.00035425856854511998 0 0.064805868174631506 -0.00034154907016116374 0 0.064855741477247611 -0.00015696317151792617 0 0.064957398408304404 -8.9289311326854208e-06 0 0.06497122974373247 -3.5355273809028186e-06 0 0.064995431954214547 -1.1282130638206304e-06 0 0.064957398408304404 -8.9289311326854208e-06 0 0.064984772490046167 -3.4688640781585816e-05 0 0.064995431954214547 -1.1282130638206304e-06 0 0.065145123980106273 -0.00056393883001492468 0 0.064802550196876613 -0.00080550797589061898 0 0.06462656374930717 -0.00048792613823662193 0 0.065145123980106273 -0.00056393883001492468 0 0.06462656374930717 -0.00048792613823662193 0 0.064996790228614723 -0.00015515956420139392 0 0.065145123980106273 -0.00056393883001492468 0 0.065590295480814229 -0.00094043819200431374 0 0.065558256740109497 -0.00025405231136140546 0 0.065145123980106273 -0.00056393883001492468 0 0.065590295480814229 -0.00094043819200431374 0 0.065146209179059264 -0.0010632359704786916 0 0.065561042168547162 -0.0014780827011579359 0 0.065590295480814229 -0.00094043819200431374 0 0.065976516069445934 -0.0013934761373404574 0 0.065561042168547162 -0.0014780827011579359 0 0.065590295480814229 -0.00094043819200431374 0 0.065146209179059264 -0.0010632359704786916 0 0.065145123980106273 -0.00056393883001492468 0 0.065146209179059264 -0.0010632359704786916 0 0.064802550196876613 -0.00080550797589061898 0 0.065146209179059264 -0.0010632359704786916 0 0.064802550196876613 -0.00080550797589061898 0 0.064691728717302582 -0.0011769928172123308 0 0.064987957510337993 -0.001639243638375805 0 0.065146209179059264 -0.0010632359704786916 0 0.064691728717302582 -0.0011769928172123308 0 0.064802550196876613 -0.00080550797589061898 0 0.064229019569942619 -0.00098124835595524628 0 0.06462656374930717 -0.00048792613823662193 0 0.064394550601675843 -0.0015686059294069254 0 0.064691728717302582 -0.0011769928172123308 0 0.064229019569942619 -0.00098124835595524628 0 0.064802550196876613 -0.00080550797589061898 0 0.064691728717302582 -0.0011769928172123308 0 0.064229019569942619 -0.00098124835595524628 0 0.063379029013681296 -0.00108482742563856 0 0.064229019569942619 -0.00098124835595524628 0 0.063996091416909498 -0.00062366663155544102 0 0.064108341426637253 -0.00033518809741320661 0 0.063996091416909498 -0.00062366663155544102 0 0.064625158909279667 -0.00014965165191120969 0 0.064229019569942619 -0.00098124835595524628 0 0.063996091416909498 -0.00062366663155544102 0 0.06462656374930717 -0.00048792613823662193 0 0.063996091416909498 -0.00062366663155544102 0 0.06462656374930717 -0.00048792613823662193 0 0.064625158909279667 -0.00014965165191120969 0 0.06462656374930717 -0.00048792613823662193 0 0.064625158909279667 -0.00014965165191120969 0 0.064996790228614723 -0.00015515956420139392 0 0.064546239808354403 -0.00010084828094827726 0 0.064625158909279667 -0.00014965165191120969 0 0.064999371154425958 -5.1643450191509735e-08 0 0.064625158909279667 -0.00014965165191120969 0 0.064999371154425958 -5.1643450191509735e-08 0 0.064999723811560078 -4.8063947823810301e-08 0 0.064625158909279667 -0.00014965165191120969 0 0.064999723811560078 -4.8063947823810301e-08 0 0.064996790228614723 -0.00015515956420139392 0 0.064999723811560078 -4.8063947823810301e-08 0 0.064996790228614723 -0.00015515956420139392 0 0.065000994874380796 1.4718549586226654e-07 0 0.065145123980106273 -0.00056393883001492468 0 0.064996790228614723 -0.00015515956420139392 0 0.065558256740109497 -0.00025405231136140546 0 0.064996790228614723 -0.00015515956420139392 0 0.065000994874380796 1.4718549586226654e-07 0 0.065558256740109497 -0.00025405231136140546 0 0.064999975164808238 9.0988614324865191e-09 0 0.064997404560718633 -7.8470450890941926e-06 0 0.064999993007859039 -1.312198401874763e-08 0 0.064999975164808238 9.0988614324865191e-09 0 0.064997404560718633 -7.8470450890941926e-06 0 0.064987955758804519 -3.3012079694324824e-05 0 0.064999863735459976 -4.5444165066370435e-07 0 0.064922707388068143 -0.00040075531291298538 0 0.064997404560718633 -7.8470450890941926e-06 0 0.064989760067129296 -7.4901271130026623e-06 0 0.064988522116513459 -9.5155333016958386e-06 0 0.064997404560718633 -7.8470450890941926e-06 0 0.064999993007859039 -1.312198401874763e-08 0 0.064989760067129296 -7.4901271130026623e-06 0 0.064999993007859039 -1.312198401874763e-08 0 0.064989760067129296 -7.4901271130026623e-06 0 0.064994039802467776 -3.4930633233556426e-06 0 0.064989760067129296 -7.4901271130026623e-06 0 0.064985236249035086 -8.825409954199398e-06 0 0.064994039802467776 -3.4930633233556426e-06 0 0.064989760067129296 -7.4901271130026623e-06 0 0.064984968260541245 -1.0724240922593845e-05 0 0.064988522116513459 -9.5155333016958386e-06 0 0.064989760067129296 -7.4901271130026623e-06 0 0.064984968260541245 -1.0724240922593845e-05 0 0.064982195046950311 -1.1645397851965287e-05 0 0.064984968260541245 -1.0724240922593845e-05 0 0.064982195046950311 -1.1645397851965287e-05 0 0.064979100764152628 -1.4224952196083301e-05 0 0.064989760067129296 -7.4901271130026623e-06 0 0.064982195046950311 -1.1645397851965287e-05 0 0.064985236249035086 -8.825409954199398e-06 0 0.064761386992111106 -0.00016208744405136471 0 0.064723688090812068 -0.00029310044465013629 0 0.064997404560718633 -7.8470450890941926e-06 0 0.064987955758804519 -3.3012079694324824e-05 0 0.064992505264127531 -4.1663391461505244e-05 0 0.064997404560718633 -7.8470450890941926e-06 0 0.064988522116513459 -9.5155333016958386e-06 0 0.064982110940155116 -1.2242639519326114e-05 0 0.064984968260541245 -1.0724240922593845e-05 0 0.064988522116513459 -9.5155333016958386e-06 0 0.064982110940155116 -1.2242639519326114e-05 0 0.064984968260541245 -1.0724240922593845e-05 0 0.064982110940155116 -1.2242639519326114e-05 0 0.064979100764152628 -1.4224952196083301e-05 0 0.064982110940155116 -1.2242639519326114e-05 0 0.064979100764152628 -1.4224952196083301e-05 0 0.064976526268385931 -1.6236728264026319e-05 0 0.065590295480814229 -0.00094043819200431374 0 0.065558256740109497 -0.00025405231136140546 0 0.066174672693191938 -0.00099344708460016124 0 0.064922707388068143 -0.00040075531291298538 0 0.064617744197439805 -0.00092702396408774336 0 0.064723688090812068 -0.00029310044465013629 0 0.064617744197439805 -0.00092702396408774336 0 0.064987955758804519 -3.3012079694324824e-05 0 0.064992505264127531 -4.1663391461505244e-05 0 0.064986745138461866 -9.24638527810967e-05 0 0.064982195046950311 -1.1645397851965287e-05 0 0.064968028224661301 -1.6545259429150967e-05 0 0.064985236249035086 -8.825409954199398e-06 0 0.064982195046950311 -1.1645397851965287e-05 0 0.064979100764152628 -1.4224952196083301e-05 0 0.064968028224661301 -1.6545259429150967e-05 0 0.064979100764152628 -1.4224952196083301e-05 0 0.064976526268385931 -1.6236728264026319e-05 0 0.064968028224661301 -1.6545259429150967e-05 0 0.064901604711312982 -0.00056972963456945064 0 0.064306998589519757 -0.0015350627699638455 0 0.064968028224661301 -1.6545259429150967e-05 0 0.064921194988625169 -4.2324994879830093e-05 0 0.064950272633799183 -3.5431912308179394e-05 0 0.064976526268385931 -1.6236728264026319e-05 0 0.064968028224661301 -1.6545259429150967e-05 0 0.064974176687445651 -1.4763756616056614e-05 0 0.064617744197439805 -0.00092702396408774336 0 0.064370970939745489 -0.001858046716332006 0 0.065590295480814229 -0.00094043819200431374 0 0.066174672693191938 -0.00099344708460016124 0 0.065976516069445934 -0.0013934761373404574 0 0.066174672693191938 -0.00099344708460016124 0 0.066477319530830858 -0.0017443494278676732 0 0.065976516069445934 -0.0013934761373404574 0 0.064617744197439805 -0.00092702396408774336 0 0.064306998589519757 -0.0015350627699638455 0 0.064973438271481138 -2.3513936632241337e-05 0 0.064975427228864055 -2.8667762179594644e-05 0 0.064966463654071535 -3.849884968465425e-05 0 0.064973438271481138 -2.3513936632241337e-05 0 0.064962289506769064 -3.1445657744377045e-05 0 0.064966463654071535 -3.849884968465425e-05 0 0.064962289506769064 -3.1445657744377045e-05 0 0.064968028224661301 -1.6545259429150967e-05 0 0.064950272633799183 -3.5431912308179394e-05 0 0.064973438271481138 -2.3513936632241337e-05 0 0.064962289506769064 -3.1445657744377045e-05 0 0.064968028224661301 -1.6545259429150967e-05 0 0.064968028224661301 -1.6545259429150967e-05 0 0.064983575113910938 -1.1240701805551567e-05 0 0.064985236249035086 -8.825409954199398e-06 0 0.064973438271481138 -2.3513936632241337e-05 0 0.064968028224661301 -1.6545259429150967e-05 0 0.064983575113910938 -1.1240701805551567e-05 0 0.064974121793331521 -2.7701747670818558e-06 0 0.064967119684747596 8.1631555350477828e-07 0 0.064973438271481138 -2.3513936632241337e-05 0 0.064983575113910938 -1.1240701805551567e-05 0 0.064979282993297374 -2.0083655281498978e-05 0 0.064983575113910938 -1.1240701805551567e-05 0 0.06499463836654705 -3.1037343327372004e-06 0 0.064995472762475109 -4.4306902722167693e-06 0 0.064983575113910938 -1.1240701805551567e-05 0 0.06499463836654705 -3.1037343327372004e-06 0 0.064985236249035086 -8.825409954199398e-06 0 0.06499463836654705 -3.1037343327372004e-06 0 0.064985236249035086 -8.825409954199398e-06 0 0.064994039802467776 -3.4930633233556426e-06 0 0.06499463836654705 -3.1037343327372004e-06 0 0.064999989230067418 1.939440601477698e-09 0 0.064994039802467776 -3.4930633233556426e-06 0 0.064999993007859039 -1.312198401874763e-08 0 0.064999989230067418 1.939440601477698e-09 0 0.064994039802467776 -3.4930633233556426e-06 0 0.06499463836654705 -3.1037343327372004e-06 0 0.064999989230067418 1.939440601477698e-09 0 0.064999990470653968 -9.2939623165348672e-09 0 0.06499463836654705 -3.1037343327372004e-06 0 0.064999990470653968 -9.2939623165348672e-09 0 0.064996638644291893 -2.7868615956399563e-06 0 0.064999993180523838 -1.6275437129182133e-09 0 0.064995511380734977 -1.0666069653750671e-07 0 0.064999990470653968 -9.2939623165348672e-09 0 0.064996638644291893 -2.7868615956399563e-06 0 0.064993582611095932 -5.4686589793499917e-06 0 0.064999998628992126 -8.5917942640684784e-10 0 0.065000003718713659 2.1167197203226039e-09 0 0.065000165618860656 4.7320194829324286e-07 0 0.064996638644291893 -2.7868615956399563e-06 0 0.064993582611095932 -5.4686589793499917e-06 0 0.064993998940138853 -3.0105275001060215e-06 0 0.064996638644291893 -2.7868615956399563e-06 0 0.064993998940138853 -3.0105275001060215e-06 0 0.064995603956871317 -3.0012274113557511e-06 0 0.064993998940138853 -3.0105275001060215e-06 0 0.06499247884529033 -6.3558302877481783e-07 0 0.064995603956871317 -3.0012274113557511e-06 0 0.06499463836654705 -3.1037343327372004e-06 0 0.064996638644291893 -2.7868615956399563e-06 0 0.064995603956871317 -3.0012274113557511e-06 0 0.06499463836654705 -3.1037343327372004e-06 0 0.064995603956871317 -3.0012274113557511e-06 0 0.064995472762475109 -4.4306902722167693e-06 0 0.064999988478259288 -3.8320905266925599e-09 0 0.064989898148036518 1.6158540783469139e-06 0 0.064999192784977969 2.5958108049072625e-06 0 0.065000003718713659 2.1167197203226039e-09 0 0.065000165618860656 4.7320194829324286e-07 0 0.064999192784977969 2.5958108049072625e-06 0 0.064993582611095932 -5.4686589793499917e-06 0 0.064993998940138853 -3.0105275001060215e-06 0 0.064984335965076995 -4.1574901132576399e-06 0 0.065000003718713659 2.1167197203226039e-09 0 0.064999988478259288 -3.8320905266925599e-09 0 0.064999192784977969 2.5958108049072625e-06 0 0.064995511380734977 -1.0666069653750671e-07 0 0.064991205767319135 3.1944678152455495e-07 0 0.064993998940138853 -3.0105275001060215e-06 0 0.06499247884529033 -6.3558302877481783e-07 0 0.064984335965076995 -4.1574901132576399e-06 0 0.06499247884529033 -6.3558302877481783e-07 0 0.064984335965076995 -4.1574901132576399e-06 0 0.064984765245063358 3.6166895365302725e-06 0 0.064991205767319135 3.1944678152455495e-07 0 0.064987134637446098 1.3358387991270973e-06 0 0.064984335965076995 -4.1574901132576399e-06 0 0.064977424339431059 2.826206439801108e-06 0 0.064974378646003444 2.5584579467198305e-06 0 0.064989898148036518 1.6158540783469139e-06 0 0.064999192784977969 2.5958108049072625e-06 0 0.064974378646003444 2.5584579467198305e-06 0 0.064984335965076995 -4.1574901132576399e-06 0 0.064977424339431059 2.826206439801108e-06 0 0.064984765245063358 3.6166895365302725e-06 0 0.064978226898647976 7.4198770778859368e-06 0 0.064984765245063358 3.6166895365302725e-06 0 0.064982913716611926 1.0617406027728509e-05 0 0.064978226898647976 7.4198770778859368e-06 0 0.064977424339431059 2.826206439801108e-06 0 0.064984765245063358 3.6166895365302725e-06 0 0.06499247884529033 -6.3558302877481783e-07 0 0.064984765245063358 3.6166895365302725e-06 0 0.064991446213474385 4.7419903044014217e-06 0 0.064992011769853489 -3.2171309892255338e-05 0 0.065000214881889951 -2.9129502746692132e-05 0 0.064988190220363132 -2.489420754364753e-05 0 0.06473716313552387 9.395642856759376e-05 0 0.06492295459725185 2.0190386738510518e-05 0 0.064984765245063358 3.6166895365302725e-06 0 0.064982913716611926 1.0617406027728509e-05 0 0.064991446213474385 4.7419903044014217e-06 0 0.064794091223329131 -6.8346540074282631e-05 0 0.064821826113203099 -0.00010134193256593636 0 0.064890139244629774 -8.1819269790579522e-05 0 0.064897402228869056 -2.4178822223585439e-05 0 0.064853245061703882 -6.4264328953154748e-05 0 0.064915781891632357 -5.1722372554774645e-05 0 0.06473716313552387 9.395642856759376e-05 0 0.064795176209111377 5.9807559594896061e-05 0 0.064853245061703882 -6.4264328953154748e-05 0 0.064890139244629774 -8.1819269790579522e-05 0 0.064915781891632357 -5.1722372554774645e-05 0 0.064798128769254851 7.8328699978677573e-05 0 0.06473716313552387 9.395642856759376e-05 0 0.06499247884529033 -6.3558302877481783e-07 0 0.064995472762475109 -4.4306902722167693e-06 0 0.064991446213474385 4.7419903044014217e-06 0 0.064967119684747596 8.1631555350477828e-07 0 0.06492295459725185 2.0190386738510518e-05 0 0.06499247884529033 -6.3558302877481783e-07 0 0.064995603956871317 -3.0012274113557511e-06 0 0.064995472762475109 -4.4306902722167693e-06 0 0.064992011769853489 -3.2171309892255338e-05 0 0.064988190220363132 -2.489420754364753e-05 0 0.064984843130442213 -3.4622574495667585e-05 0 0.064988190220363132 -2.489420754364753e-05 0 0.064980647271599828 -2.8103756956350796e-05 0 0.064984843130442213 -3.4622574495667585e-05 0 0.064979282993297374 -2.0083655281498978e-05 0 0.064988190220363132 -2.489420754364753e-05 0 0.064980647271599828 -2.8103756956350796e-05 0 0.064979282993297374 -2.0083655281498978e-05 0 0.064980647271599828 -2.8103756956350796e-05 0 0.064975427228864055 -2.8667762179594644e-05 0 0.064980647271599828 -2.8103756956350796e-05 0 0.064975427228864055 -2.8667762179594644e-05 0 0.064975608894029632 -3.8749294024950482e-05 0 0.064973438271481138 -2.3513936632241337e-05 0 0.064979282993297374 -2.0083655281498978e-05 0 0.064975427228864055 -2.8667762179594644e-05 0 0.064975427228864055 -2.8667762179594644e-05 0 0.064975608894029632 -3.8749294024950482e-05 0 0.064966463654071535 -3.849884968465425e-05 0 0.064975608894029632 -3.8749294024950482e-05 0 0.064967679698253483 -4.9513659973484796e-05 0 0.064973175921388765 -5.0742790227926724e-05 0 0.064975608894029632 -3.8749294024950482e-05 0 0.064967679698253483 -4.9513659973484796e-05 0 0.064966463654071535 -3.849884968465425e-05 0 0.064975608894029632 -3.8749294024950482e-05 0 0.064979328453947632 -4.7217399831977753e-05 0 0.064973175921388765 -5.0742790227926724e-05 0 0.064980647271599828 -2.8103756956350796e-05 0 0.064975608894029632 -3.8749294024950482e-05 0 0.064984843130442213 -3.4622574495667585e-05 0 0.064984843130442213 -3.4622574495667585e-05 0 0.064979328453947632 -4.7217399831977753e-05 0 0.064990962029963337 -4.2072549947837811e-05 0 0.064992011769853489 -3.2171309892255338e-05 0 0.064984843130442213 -3.4622574495667585e-05 0 0.064990962029963337 -4.2072549947837811e-05 0 0.064975608894029632 -3.8749294024950482e-05 0 0.064984843130442213 -3.4622574495667585e-05 0 0.064979328453947632 -4.7217399831977753e-05 0 0.064904190708392095 -4.8741869110065559e-05 0 0.064789549789975628 -0.00013282485287204434 0 0.06481603392941053 -7.2001430539721622e-05 0 0.064979328453947632 -4.7217399831977753e-05 0 0.064977117343676574 -6.0506316999258298e-05 0 0.064990962029963337 -4.2072549947837811e-05 0 0.0629893211325602 0.00025578302671846949 0 0.064209690147451259 0.00026755899259464915 0 0.064979328453947632 -4.7217399831977753e-05 0 0.064977117343676574 -6.0506316999258298e-05 0 0.064973263769480996 -5.9643408885855856e-05 0 0.0629893211325602 0.00025578302671846949 0 0.063058553684997895 0.00023358176577500557 0 0.064977278044456507 -6.1487494243316727e-05 0 0.064973263769480996 -5.9643408885855856e-05 0 0.064967729499354504 -6.3183558561752685e-05 0 0.064973263769480996 -5.9643408885855856e-05 0 0.064968795856666997 -5.6567890719189028e-05 0 0.064973175921388765 -5.0742790227926724e-05 0 0.064973263769480996 -5.9643408885855856e-05 0 0.064968795856666997 -5.6567890719189028e-05 0 0.064967729499354504 -6.3183558561752685e-05 0 0.064968795856666997 -5.6567890719189028e-05 0 0.064967679698253483 -4.9513659973484796e-05 0 0.064962151826507747 -6.0316955229338577e-05 0 0.064968795856666997 -5.6567890719189028e-05 0 0.064967729499354504 -6.3183558561752685e-05 0 0.064962151826507747 -6.0316955229338577e-05 0 0.064968795856666997 -5.6567890719189028e-05 0 0.064967679698253483 -4.9513659973484796e-05 0 0.064973175921388765 -5.0742790227926724e-05 0 0.064979328453947632 -4.7217399831977753e-05 0 0.064973263769480996 -5.9643408885855856e-05 0 0.064973175921388765 -5.0742790227926724e-05 0 0.064794091223329131 -6.8346540074282631e-05 0 0.064821826113203099 -0.00010134193256593636 0 0.064790193119441106 -0.00011845348443171704 0 0.064828020938823949 -0.0001326745826364746 0 0.064821826113203099 -0.00010134193256593636 0 0.064890139244629774 -8.1819269790579522e-05 0 0.064828020938823949 -0.0001326745826364746 0 0.064821826113203099 -0.00010134193256593636 0 0.064790193119441106 -0.00011845348443171704 0 0.06473716313552387 9.395642856759376e-05 0 0.064209690147451259 0.00026755899259464915 0 0.064992011769853489 -3.2171309892255338e-05 0 0.065000214881889951 -2.9129502746692132e-05 0 0.064990962029963337 -4.2072549947837811e-05 0 0.064794091223329131 -6.8346540074282631e-05 0 0.064790193119441106 -0.00011845348443171704 0 0.064789549789975628 -0.00013282485287204434 0 0.064790193119441106 -0.00011845348443171704 0 0.064789549789975628 -0.00013282485287204434 0 0.064738613710924445 -0.00010258008874258005 0 0.064789549789975628 -0.00013282485287204434 0 0.06481603392941053 -7.2001430539721622e-05 0 0.064738613710924445 -0.00010258008874258005 0 0.06481603392941053 -7.2001430539721622e-05 0 0.064738613710924445 -0.00010258008874258005 0 0.064821603631785046 1.5025445057452463e-05 0 0.064828020938823949 -0.0001326745826364746 0 0.064790193119441106 -0.00011845348443171704 0 0.064738613710924445 -0.00010258008874258005 0 0.064471358053240183 -0.00037848318560272979 0 0.064738613710924445 -0.00010258008874258005 0 0.064467683966865891 -5.3818710500746723e-05 0 0.06457110126068559 -0.00017916112891068058 0 0.0646247101701556 -0.00014286044579195402 0 0.064445291793679041 0.00014132886637307002 0 0.064641870745929225 0.00017284233206851918 0 0.064249307598032296 0.00033462360745923844 0 0.064738613710924445 -0.00010258008874258005 0 0.064467683966865891 -5.3818710500746723e-05 0 0.064638308388393309 0.00014630267377259472 0 0.064467683966865891 -5.3818710500746723e-05 0 0.064445291793679041 0.00014132886637307002 0 0.064638308388393309 0.00014630267377259472 0 0.062293160894340269 0.0008287916026253518 0 0.061880916718161455 0.00080875874050345751 0 0.062070393245806189 0.00062711319451336993 0 0.061875681601455769 0.00069786072201866829 0 0.061765174638482516 0.00056993331531773677 0 0.061880916718161455 0.00080875874050345751 0 0.060504482452407388 0.00067896377884347863 0 0.061880916718161455 0.00080875874050345751 0 0.062742431000666357 0.00043459991598370396 0 0.064738613710924445 -0.00010258008874258005 0 0.064638308388393309 0.00014630267377259472 0 0.064821603631785046 1.5025445057452463e-05 0 0.058510762333494053 0.0025722358675295126 0 0.058043496552551067 0.0025694371922022063 0 0.058282128495017897 0.0022741638195110415 0 0.061880916718161455 0.00080875874050345751 0 0.061594239119622689 0.001210109450663714 0 0.058510762333494053 0.0025722358675295126 0 0.058851458197891497 0.0023414993697266268 0 0.058707493236716195 0.0021477433183080801 0 0.058510762333494053 0.0025722358675295126 0 0.058707493236716195 0.0021477433183080801 0 0.058282128495017897 0.0022741638195110415 0 0.064977278044456507 -6.1487494243316727e-05 0 0.064967729499354504 -6.3183558561752685e-05 0 0.064958953605375278 -7.2845633968284632e-05 0 0.061680211663986621 0.00077121394749774311 0 0.061765174638482516 0.00056993331531773677 0 0.061456437045441688 0.00051419762702420565 0 0.0629893211325602 0.00025578302671846949 0 0.060665056456480702 0.00024696811749054135 0 0.064977278044456507 -6.1487494243316727e-05 0 0.064954306169926271 -8.7884743171030562e-05 0 0.064958953605375278 -7.2845633968284632e-05 0 0.064967729499354504 -6.3183558561752685e-05 0 0.064958953605375278 -7.2845633968284632e-05 0 0.064962151826507747 -6.0316955229338577e-05 0 0.061680211663986621 0.00077121394749774311 0 0.061875681601455769 0.00069786072201866829 0 0.061765174638482516 0.00056993331531773677 0 0.0629893211325602 0.00025578302671846949 0 0.062742431000666357 0.00043459991598370396 0 0.064904190708392095 -4.8741869110065559e-05 0 0.06481603392941053 -7.2001430539721622e-05 0 0.064821603631785046 1.5025445057452463e-05 0 0.058043496552551067 0.0025694371922022063 0 0.057858973402148163 0.002219961526893007 0 0.058282128495017897 0.0022741638195110415 0 0.058043496552551067 0.0025694371922022063 0 0.057551254351898187 0.0025144035598404983 0 0.057858973402148163 0.002219961526893007 0 0.060504482452407388 0.00067896377884347863 0 0.060665056456480702 0.00024696811749054135 0 0.059228951679650761 -5.9068876431125581e-05 0 0.058383861211087899 -0.00020643499718512234 0 0.058623796578539278 -0.00075317922676278301 0 0.060665056456480702 0.00024696811749054135 0 0.060644455307062549 -0.0006695035981107429 0 0.060665056456480702 0.00024696811749054135 0 0.058270984191448771 7.7979847025267017e-05 0 0.064954306169926271 -8.7884743171030562e-05 0 0.064938809742080883 -7.7924747382424633e-05 0 0.064933964076715811 -9.3792631106103466e-05 0 0.064958953605375278 -7.2845633968284632e-05 0 0.064951610726019016 -6.5558958262188985e-05 0 0.064938809742080883 -7.7924747382424633e-05 0 0.064954306169926271 -8.7884743171030562e-05 0 0.064958953605375278 -7.2845633968284632e-05 0 0.064938809742080883 -7.7924747382424633e-05 0 0.064958953605375278 -7.2845633968284632e-05 0 0.064951610726019016 -6.5558958262188985e-05 0 0.064962151826507747 -6.0316955229338577e-05 0 0.064938809742080883 -7.7924747382424633e-05 0 0.064917576290916393 -7.0500623552378317e-05 0 0.064942461692672537 -6.0636022053914894e-05 0 0.064951610726019016 -6.5558958262188985e-05 0 0.064938809742080883 -7.7924747382424633e-05 0 0.064942461692672537 -6.0636022053914894e-05 0 0.060644455307062549 -0.0006695035981107429 0 0.059325471435445837 -0.0018992617555393364 0 0.064938809742080883 -7.7924747382424633e-05 0 0.064933964076715811 -9.3792631106103466e-05 0 0.064910564667686715 -9.9059177373561912e-05 0 0.058383861211087899 -0.00020643499718512234 0 0.057929762474097868 -0.00042401779612384724 0 0.057548224520177327 -0.00035631984846476352 0 0.0582434268405089 -0.00055385598526894685 0 0.058383861211087899 -0.00020643499718512234 0 0.058623796578539278 -0.00075317922676278301 0 0.0582434268405089 -0.00055385598526894685 0 0.058383861211087899 -0.00020643499718512234 0 0.057929762474097868 -0.00042401779612384724 0 0.057929762474097868 -0.00042401779612384724 0 0.057548224520177327 -0.00035631984846476352 0 0.057569949245466143 -0.00045403284523091623 0 0.056531647927195311 -0.0034457982832426116 0 0.05760612064253582 -0.0033667331219800196 0 0.056384119123624336 -0.0027812682972730932 0 0.057929762474097868 -0.00042401779612384724 0 0.057567070227432224 -0.00045095605329366492 0 0.057615948263172609 -0.00067288010771800048 0 0.066356764554829792 -0.0050691506318647338 0 0.066165477083454494 -0.0048869728607939334 0 0.066248044834433931 -0.0046841218093567442 0 0.059325471435445837 -0.0018992617555393364 0 0.062080308717851078 -0.0030894125048606183 0 0.058400298361506571 -0.0016466868213999889 0 0.058450276038210139 -0.0016722763480105116 0 0.058450276038210139 -0.0016722763480105116 0 0.05718088008454985 -0.0015623577130731191 0 0.066356764554829792 -0.0050691506318647338 0 0.066364597126180619 -0.0051113086500878717 0 0.066203742230798404 -0.0051245355783900558 0 0.059325471435445837 -0.0018992617555393364 0 0.058450276038210139 -0.0016722763480105116 0 0.066356764554829792 -0.0050691506318647338 0 0.066176000771619239 -0.005092032995017556 0 0.066125513217173554 -0.0050006148441659355 0 0.066356764554829792 -0.0050691506318647338 0 0.066203742230798404 -0.0051245355783900558 0 0.066176000771619239 -0.005092032995017556 0 0.058450276038210139 -0.0016722763480105116 0 0.056794940152695358 -0.0021719935462742174 0 0.056794940152695358 -0.0021719935462742174 0 0.056839504756866735 -0.0022102849220515322 0 0.066356764554829792 -0.0050691506318647338 0 0.066165477083454494 -0.0048869728607939334 0 0.066125513217173554 -0.0050006148441659355 0 0.065602068580840875 -0.0052655577662750136 0 0.066204533808594923 -0.005121434873310216 0 0.06600275776141587 -0.0050534147979336393 0 0.055478239964724778 -0.0049115599105944161 0 0.056794940152695358 -0.0021719935462742174 0 0.065602068580840875 -0.0052655577662750136 0 0.06600275776141587 -0.0050534147979336393 0 0.065835629663185277 -0.004912332087487265 0 0.066176000771619239 -0.005092032995017556 0 0.06600275776141587 -0.0050534147979336393 0 0.066125513217173554 -0.0050006148441659355 0 0.066204533808594923 -0.005121434873310216 0 0.066176000771619239 -0.005092032995017556 0 0.06600275776141587 -0.0050534147979336393 0 0.06600275776141587 -0.0050534147979336393 0 0.066061985142072191 -0.0049243407165044653 0 0.066125513217173554 -0.0050006148441659355 0 0.066165477083454494 -0.0048869728607939334 0 0.066061985142072191 -0.0049243407165044653 0 0.066125513217173554 -0.0050006148441659355 0 0.066165477083454494 -0.0048869728607939334 0 0.066084838454793335 -0.004846644532504058 0 0.066117311213113664 -0.0047654669410601615 0 0.066165477083454494 -0.0048869728607939334 0 0.066061985142072191 -0.0049243407165044653 0 0.066084838454793335 -0.004846644532504058 0 0.066061985142072191 -0.0049243407165044653 0 0.066084838454793335 -0.004846644532504058 0 0.065993758502162908 -0.0048096672383403588 0 0.066061985142072191 -0.0049243407165044653 0 0.065835629663185277 -0.004912332087487265 0 0.065993758502162908 -0.0048096672383403588 0 0.06600275776141587 -0.0050534147979336393 0 0.066061985142072191 -0.0049243407165044653 0 0.065835629663185277 -0.004912332087487265 0 0.066059667642190623 -0.0045156879102959914 0 0.0661542320715819 -0.0046645070584180378 0 0.06611935707670806 -0.0042622318619962088 0 0.064151788574583132 -0.0037644717543892344 0 0.06388838025066787 -0.0033035228370811151 0 0.065835629663185277 -0.004912332087487265 0 0.065817063631452732 -0.0046776580653839729 0 0.065993758502162908 -0.0048096672383403588 0 0.065817063631452732 -0.0046776580653839729 0 0.066017971399024156 -0.0046655261062721826 0 0.065993758502162908 -0.0048096672383403588 0 0.066017971399024156 -0.0046655261062721826 0 0.065993758502162908 -0.0048096672383403588 0 0.066117311213113664 -0.0047654669410601615 0 0.066084838454793335 -0.004846644532504058 0 0.065993758502162908 -0.0048096672383403588 0 0.066117311213113664 -0.0047654669410601615 0 0.066017971399024156 -0.0046655261062721826 0 0.066117311213113664 -0.0047654669410601615 0 0.0661542320715819 -0.0046645070584180378 0 0.066017971399024156 -0.0046655261062721826 0 0.066059667642190623 -0.0045156879102959914 0 0.0661542320715819 -0.0046645070584180378 0 0.066059667642190623 -0.0045156879102959914 0 0.065943368210914677 -0.0045288929731325065 0 0.065989828559090483 -0.0043475664421378122 0 0.066017971399024156 -0.0046655261062721826 0 0.066059667642190623 -0.0045156879102959914 0 0.065943368210914677 -0.0045288929731325065 0 0.065817063631452732 -0.0046776580653839729 0 0.066017971399024156 -0.0046655261062721826 0 0.065943368210914677 -0.0045288929731325065 0 0.065760870606451916 -0.0043249796299552517 0 0.065817063631452732 -0.0046776580653839729 0 0.065943368210914677 -0.0045288929731325065 0 0.062237383541537912 -0.0022222948276903044 0 0.062231919626611329 -0.0020549565982618347 0 0.062361666454468438 -0.0023810754618540917 0 0.062084210095839469 -0.0017306919814606941 0 0.062237383541537912 -0.0022222948276903044 0 0.062231919626611329 -0.0020549565982618347 0 0.0661542320715819 -0.0046645070584180378 0 0.066248044834433931 -0.0046841218093567442 0 0.066101720842331291 -0.0042168586192930695 0 0.059325471435445837 -0.0018992617555393364 0 0.062211191577778407 -0.0015104825733550024 0 0.062080308717851078 -0.0030894125048606183 0 0.06388838025066787 -0.0033035228370811151 0 0.064938809742080883 -7.7924747382424633e-05 0 0.064910564667686715 -9.9059177373561912e-05 0 0.064917576290916393 -7.0500623552378317e-05 0 0.066165477083454494 -0.0048869728607939334 0 0.066117311213113664 -0.0047654669410601615 0 0.066248044834433931 -0.0046841218093567442 0 0.066117311213113664 -0.0047654669410601615 0 0.0661542320715819 -0.0046645070584180378 0 0.066248044834433931 -0.0046841218093567442 0 0.062237383541537912 -0.0022222948276903044 0 0.062361666454468438 -0.0023810754618540917 0 0.062377421718424315 -0.002712923321938687 0 0.062211191577778407 -0.0015104825733550024 0 0.064306998589519757 -0.0015350627699638455 0 0.064917576290916393 -7.0500623552378317e-05 0 0.064937722571103723 -5.1200940195325441e-05 0 0.064942461692672537 -6.0636022053914894e-05 0 0.064917576290916393 -7.0500623552378317e-05 0 0.064937722571103723 -5.1200940195325441e-05 0 0.064921194988625169 -4.2324994879830093e-05 0 0.065760870606451916 -0.0043249796299552517 0 0.066065710873525585 -0.0041034628592811623 0 0.066074717490831505 -0.0038917408861878456 0 0.06488162774174526 -0.0029123280590473877 0 0.064370970939745489 -0.001858046716332006 0 0.065760870606451916 -0.0043249796299552517 0 0.065943368210914677 -0.0045288929731325065 0 0.065989828559090483 -0.0043475664421378122 0 0.065760870606451916 -0.0043249796299552517 0 0.065989828559090483 -0.0043475664421378122 0 0.066065710873525585 -0.0041034628592811623 0 0.066059667642190623 -0.0045156879102959914 0 0.065989828559090483 -0.0043475664421378122 0 0.06611935707670806 -0.0042622318619962088 0 0.066114838429161674 -0.0042585762307086909 0 0.066065710873525585 -0.0041034628592811623 0 0.066074717490831505 -0.0038917408861878456 0 0.065989828559090483 -0.0043475664421378122 0 0.06611935707670806 -0.0042622318619962088 0 0.066065710873525585 -0.0041034628592811623 0 0.06388838025066787 -0.0033035228370811151 0 0.064370970939745489 -0.001858046716332006 0 0.06388838025066787 -0.0033035228370811151 0 0.063950462156305468 -0.0033907383343746364 0 0.065960853568708261 -0.0018513797810203406 0 0.066179130681154677 -0.0026114812995599703 0 0.066477319530830858 -0.0017443494278676732 0 0.064552140028968918 -0.0011057745282239504 0 0.064591005515081429 -0.0014939784684660964 0 0.064625828590672396 -0.0014478405147299517 0 0.062361666454468438 -0.0023810754618540917 0 0.062408480157005855 -0.0026692569790908649 0 0.062377421718424315 -0.002712923321938687 0 0.064370970939745489 -0.001858046716332006 0 0.064306998589519757 -0.0015350627699638455 0 0.065960853568708261 -0.0018513797810203406 0 0.066477319530830858 -0.0017443494278676732 0 0.065976516069445934 -0.0013934761373404574 0 0.064937722571103723 -5.1200940195325441e-05 0 0.064921194988625169 -4.2324994879830093e-05 0 0.064950272633799183 -3.5431912308179394e-05 0 0.064937722571103723 -5.1200940195325441e-05 0 0.064950272633799183 -3.5431912308179394e-05 0 0.064953665137861577 -4.5563289820691308e-05 0 0.064962289506769064 -3.1445657744377045e-05 0 0.064950272633799183 -3.5431912308179394e-05 0 0.064953665137861577 -4.5563289820691308e-05 0 0.064962289506769064 -3.1445657744377045e-05 0 0.064953665137861577 -4.5563289820691308e-05 0 0.064966463654071535 -3.849884968465425e-05 0 0.064967679698253483 -4.9513659973484796e-05 0 0.064966463654071535 -3.849884968465425e-05 0 0.064957595745683147 -5.3015540822746639e-05 0 0.064953665137861577 -4.5563289820691308e-05 0 0.064966463654071535 -3.849884968465425e-05 0 0.064957595745683147 -5.3015540822746639e-05 0 0.064967679698253483 -4.9513659973484796e-05 0 0.064957595745683147 -5.3015540822746639e-05 0 0.064962151826507747 -6.0316955229338577e-05 0 0.064951610726019016 -6.5558958262188985e-05 0 0.064957595745683147 -5.3015540822746639e-05 0 0.064962151826507747 -6.0316955229338577e-05 0 0.064951610726019016 -6.5558958262188985e-05 0 0.064957595745683147 -5.3015540822746639e-05 0 0.064942461692672537 -6.0636022053914894e-05 0 0.064937722571103723 -5.1200940195325441e-05 0 0.064953665137861577 -4.5563289820691308e-05 0 0.064942461692672537 -6.0636022053914894e-05 0 0.064953665137861577 -4.5563289820691308e-05 0 0.064957595745683147 -5.3015540822746639e-05 0 0.064942461692672537 -6.0636022053914894e-05 0 0.064996363245798744 -2.7292741288362202e-06 0 0.062994349665600982 -0.00044686428936701082 0 0.058314944457016307 -6.6758070863775704e-05 0 0.064996363245798744 -2.7292741288362202e-06 0 0.054285247814473005 2.5077903386499155e-06 0 0.058314944457016307 -6.6758070863775704e-05 0 0.062994349665600982 -0.00044686428936701082 0 0.061287144176102808 -0.00039180887907991281 0 0.058314944457016307 -6.6758070863775704e-05 0 0.058431090715313237 -0.0013866629725235472 0 0.056788297007485902 -0.00094980869320277037 0 0.064996363245798744 -2.7292741288362202e-06 0 0.062994349665600982 -0.00044686428936701082 0 0.064991532399288246 1.6255516460588801e-06 0 0.062994349665600982 -0.00044686428936701082 0 0.0629145775828375 -0.00055802054830510716 0 0.061601972213271725 -0.0013371647242641648 0 0.062994349665600982 -0.00044686428936701082 0 0.064991532399288246 1.6255516460588801e-06 0 0.0629145775828375 -0.00055802054830510716 0 0.064997796621401163 -8.7009944755866306e-07 0 0.063687668005798961 -0.00078671401066223205 0 0.064991532399288246 1.6255516460588801e-06 0 0.0629145775828375 -0.00055802054830510716 0 0.061240782880697633 -0.00059130013710315176 0 0.0629145775828375 -0.00055802054830510716 0 0.061601972213271725 -0.0013371647242641648 0 0.061240782880697633 -0.00059130013710315176 0 0.061601972213271725 -0.0013371647242641648 0 0.060144965373821579 -0.0017370004155696686 0 0.060518744148846164 -0.0016024852384895129 0 0.059042973479749405 -0.0014942133551496112 0 0.058431090715313237 -0.0013866629725235472 0 0.062994349665600982 -0.00044686428936701082 0 0.061601972213271725 -0.0013371647242641648 0 0.061287144176102808 -0.00039180887907991281 0 0.058291234861625726 -0.0021502105804986696 0 0.060144965373821579 -0.0017370004155696686 0 0.057833343748189422 -0.0010982388804230796 0 0.061601972213271725 -0.0013371647242641648 0 0.058291234861625726 -0.0021502105804986696 0 0.060144965373821579 -0.0017370004155696686 0 0.060144965373821579 -0.0017370004155696686 0 0.059734836362842519 -0.001976361149589411 0 0.060518744148846164 -0.0016024852384895129 0 0.060144965373821579 -0.0017370004155696686 0 0.059734836362842519 -0.001976361149589411 0 0.059841594140836465 -0.00096185010177861374 0 0.059734836362842519 -0.001976361149589411 0 0.059717894529299327 -0.0016886615602405624 0 0.060518744148846164 -0.0016024852384895129 0 0.063187856697850431 -0.001032837315353044 0 0.06357560160179028 -0.00077795801622139503 0 0.059734836362842519 -0.001976361149589411 0 0.059717894529299327 -0.0016886615602405624 0 0.059843129848952299 -0.0018957290228117506 0 0.064996123067028538 -4.6171780398716781e-05 0 0.064986892182339107 -2.7969590797109899e-05 0 0.065003830554559119 -9.7641920611533904e-06 0 0.064996123067028538 -4.6171780398716781e-05 0 0.064986892182339107 -2.7969590797109899e-05 0 0.064938975851183828 -6.2356116292299884e-05 0 0.061601972213271725 -0.0013371647242641648 0 0.060518744148846164 -0.0016024852384895129 0 0.061240782880697633 -0.00059130013710315176 0 0.059717894529299327 -0.0016886615602405624 0 0.060518744148846164 -0.0016024852384895129 0 0.061240782880697633 -0.00059130013710315176 0 0.063187856697850431 -0.001032837315353044 0 0.063687668005798961 -0.00078671401066223205 0 0.065000005668618549 -6.5107472496158042e-10 0 0.065003830554559119 -9.7641920611533904e-06 0 0.065000002593937761 -4.6392862907816863e-09 0 0.065000002593937761 -4.6392862907816863e-09 0 0.064994094469763272 -8.2316595789532492e-06 0 0.064999970439282961 -2.1472497998002094e-09 0 0.065003830554559119 -9.7641920611533904e-06 0 0.065000002593937761 -4.6392862907816863e-09 0 0.064994094469763272 -8.2316595789532492e-06 0 0.064986892182339107 -2.7969590797109899e-05 0 0.065003830554559119 -9.7641920611533904e-06 0 0.064994094469763272 -8.2316595789532492e-06 0 0.064986892182339107 -2.7969590797109899e-05 0 0.064994094469763272 -8.2316595789532492e-06 0 0.064982894065856153 -1.5340569663862691e-05 0 0.064984303474016195 6.6244446292401487e-06 0 0.064982217837681849 3.5786887686759628e-06 0 0.064970484033465836 -7.1853588014086561e-07 0 0.064984303474016195 6.6244446292401487e-06 0 0.064999968812086278 6.3755824029873962e-09 0 0.064990336914596242 2.5180921992444929e-06 0 0.064994094469763272 -8.2316595789532492e-06 0 0.064982894065856153 -1.5340569663862691e-05 0 0.064999970439282961 -2.1472497998002094e-09 0 0.064718392397403596 -5.9197045957829809e-05 0 0.06499943777710121 -6.4573856113602749e-08 0 0.064999988478259288 -3.8320905266925599e-09 0 0.064999968812086278 6.3755824029873962e-09 0 0.064990336914596242 2.5180921992444929e-06 0 0.064999988478259288 -3.8320905266925599e-09 0 0.064989898148036518 1.6158540783469139e-06 0 0.064990336914596242 2.5180921992444929e-06 0 0.064989898148036518 1.6158540783469139e-06 0 0.064982217837681849 3.5786887686759628e-06 0 0.064974378646003444 2.5584579467198305e-06 0 0.064989898148036518 1.6158540783469139e-06 0 0.064990336914596242 2.5180921992444929e-06 0 0.064982217837681849 3.5786887686759628e-06 0 0.064984303474016195 6.6244446292401487e-06 0 0.064990336914596242 2.5180921992444929e-06 0 0.064982217837681849 3.5786887686759628e-06 0 0.064982217837681849 3.5786887686759628e-06 0 0.064974378646003444 2.5584579467198305e-06 0 0.064970484033465836 -7.1853588014086561e-07 0 0.064966708847264173 3.1582559906803044e-06 0 0.064974378646003444 2.5584579467198305e-06 0 0.064970484033465836 -7.1853588014086561e-07 0 0.064977424339431059 2.826206439801108e-06 0 0.064966708847264173 3.1582559906803044e-06 0 0.064974378646003444 2.5584579467198305e-06 0 0.064978226898647976 7.4198770778859368e-06 0 0.064977424339431059 2.826206439801108e-06 0 0.064966708847264173 3.1582559906803044e-06 0 0.064798128769254851 7.8328699978677573e-05 0 0.064818352381924557 7.4235811637187618e-05 0 0.064897402228869056 -2.4178822223585439e-05 0 0.06494930961212729 -2.613244520775562e-05 0 0.064915781891632357 -5.1722372554774645e-05 0 0.064897402228869056 -2.4178822223585439e-05 0 0.064966708847264173 3.1582559906803044e-06 0 0.06494930961212729 -2.613244520775562e-05 0 0.064966708847264173 3.1582559906803044e-06 0 0.06494930961212729 -2.613244520775562e-05 0 0.064970484033465836 -7.1853588014086561e-07 0 0.064986892182339107 -2.7969590797109899e-05 0 0.064982894065856153 -1.5340569663862691e-05 0 0.064977699867758532 -3.6371633136799188e-05 0 0.064718392397403596 -5.9197045957829809e-05 0 0.064314671173716892 -0.00021233316420093436 0 0.064984303474016195 6.6244446292401487e-06 0 0.064970484033465836 -7.1853588014086561e-07 0 0.064986896825174376 -3.17566896874645e-05 0 0.064476371292703671 -9.9958742130579586e-05 0 0.064314671173716892 -0.00021233316420093436 0 0.06494930961212729 -2.613244520775562e-05 0 0.064970484033465836 -7.1853588014086561e-07 0 0.064986896825174376 -3.17566896874645e-05 0 0.064996123067028538 -4.6171780398716781e-05 0 0.064938975851183828 -6.2356116292299884e-05 0 0.064940390506101398 -0.00013239952197474652 0 0.064314671173716892 -0.00021233316420093436 0 0.06357560160179028 -0.00077795801622139503 0 0.063952552567134294 -0.0008790197912312179 0 0.064208071679745057 -0.00063108401570100101 0 0.063935700455380717 -0.00056571593914916864 0 0.064314671173716892 -0.00021233316420093436 0 0.064458489456401313 -0.0002223048192582575 0 0.06494930961212729 -2.613244520775562e-05 0 0.064934376055994669 -8.1087008032756133e-05 0 0.064915781891632357 -5.1722372554774645e-05 0 0.06494930961212729 -2.613244520775562e-05 0 0.064986896825174376 -3.17566896874645e-05 0 0.064934376055994669 -8.1087008032756133e-05 0 0.064934376055994669 -8.1087008032756133e-05 0 0.064890139244629774 -8.1819269790579522e-05 0 0.064915781891632357 -5.1722372554774645e-05 0 0.064209970115493828 -0.00043066549806256889 0 0.063935700455380717 -0.00056571593914916864 0 0.064228714926856417 -0.0001468901191316649 0 0.064471358053240183 -0.00037848318560272979 0 0.064208071679745057 -0.00063108401570100101 0 0.064209970115493828 -0.00043066549806256889 0 0.064828020938823949 -0.0001326745826364746 0 0.064934376055994669 -8.1087008032756133e-05 0 0.064890139244629774 -8.1819269790579522e-05 0 0.06457110126068559 -0.00017916112891068058 0 0.064458489456401313 -0.0002223048192582575 0 0.064208071679745057 -0.00063108401570100101 0 0.064209970115493828 -0.00043066549806256889 0 0.063935700455380717 -0.00056571593914916864 0 0.06357560160179028 -0.00077795801622139503 0 0.063905177688150516 -0.00039266205550112995 0 0.06357560160179028 -0.00077795801622139503 0 0.062399355710643652 -7.5588025330080381e-05 0 0.063908940981550269 -0.00059733937532966926 0 0.06388212516612915 -5.1183364992380918e-05 0 0.064228714926856417 -0.0001468901191316649 0 0.064471358053240183 -0.00037848318560272979 0 0.064209970115493828 -0.00043066549806256889 0 0.064228714926856417 -0.0001468901191316649 0 0.064471358053240183 -0.00037848318560272979 0 0.064467683966865891 -5.3818710500746723e-05 0 0.064228714926856417 -0.0001468901191316649 0 0.064467683966865891 -5.3818710500746723e-05 0 0.064445291793679041 0.00014132886637307002 0 0.064210328688416293 9.3616092390382596e-05 0 0.06388212516612915 -5.1183364992380918e-05 0 0.064228714926856417 -0.0001468901191316649 0 0.064210328688416293 9.3616092390382596e-05 0 0.064467683966865891 -5.3818710500746723e-05 0 0.064228714926856417 -0.0001468901191316649 0 0.064210328688416293 9.3616092390382596e-05 0 0.064445291793679041 0.00014132886637307002 0 0.064210328688416293 9.3616092390382596e-05 0 0.064249307598032296 0.00033462360745923844 0 0.064210328688416293 9.3616092390382596e-05 0 0.064249307598032296 0.00033462360745923844 0 0.06384847278677154 0.00049072749114952127 0 0.061594239119622689 0.001210109450663714 0 0.061592356243355989 0.0014616405537978094 0 0.058851458197891497 0.0023414993697266268 0 0.059089938464550816 0.0019636429323894363 0 0.059010739648898754 0.0020059102995900117 0 0.061592356243355989 0.0014616405537978094 0 0.061511031824758533 0.0014865487001943381 0 0.059120339795530025 0.0018346622549868807 0 0.059107119648281269 0.0018843345246083709 0 0.059160459646401271 0.0016560003599397711 0 0.061592356243355989 0.0014616405537978094 0 0.061583466685918527 0.0014681586769014696 0 0.06388212516612915 -5.1183364992380918e-05 0 0.064210328688416293 9.3616092390382596e-05 0 0.06384847278677154 0.00049072749114952127 0 0.062399355710643652 -7.5588025330080381e-05 0 0.061592356243355989 0.0014616405537978094 0 0.059894975939974983 -0.00060490876046247091 0 0.058682043980083386 0.00088708443867817376 0 0.058346264864133857 -0.00052266503771032755 0 0.059894975939974983 -0.00060490876046247091 0 0.059533789045802379 0.0014787903016028317 0 0.058682043980083386 0.00088708443867817376 0 0.058682043980083386 0.00088708443867817376 0 0.05804069181193592 0.0018774668719283066 0 0.058652321477447804 0.0017222732215285955 0 0.058682043980083386 0.00088708443867817376 0 0.059160459646401271 0.0016560003599397711 0 0.058652321477447804 0.0017222732215285955 0 0.059533789045802379 0.0014787903016028317 0 0.058682043980083386 0.00088708443867817376 0 0.059160459646401271 0.0016560003599397711 0 0.058682043980083386 0.00088708443867817376 0 0.057424413305127577 0.00061237605771934632 0 0.05804069181193592 0.0018774668719283066 0 0.058682043980083386 0.00088708443867817376 0 0.058346264864133857 -0.00052266503771032755 0 0.057424413305127577 0.00061237605771934632 0 0.058346264864133857 -0.00052266503771032755 0 0.059206643322680962 -0.0014886026434025989 0 0.057558934865056789 -0.0018995733300564172 0 0.059843129848952299 -0.0018957290228117506 0 0.059894975939974983 -0.00060490876046247091 0 0.059206643322680962 -0.0014886026434025989 0 0.059894975939974983 -0.00060490876046247091 0 0.058346264864133857 -0.00052266503771032755 0 0.059206643322680962 -0.0014886026434025989 0 0.059734836362842519 -0.001976361149589411 0 0.059843129848952299 -0.0018957290228117506 0 0.059206643322680962 -0.0014886026434025989 0 0.058435530106928965 -0.0016518843701781259 0 0.057824321485243198 -0.0013683386439726072 0 0.059734836362842519 -0.001976361149589411 0 0.059206643322680962 -0.0014886026434025989 0 0.057558934865056789 -0.0018995733300564172 0 0.060144965373821579 -0.0017370004155696686 0 0.059841594140836465 -0.00096185010177861374 0 0.057833343748189422 -0.0010982388804230796 0 0.059841594140836465 -0.00096185010177861374 0 0.057833343748189422 -0.0010982388804230796 0 0.056497477179505429 0.00026023632243823497 0 0.057824321485243198 -0.0013683386439726072 0 0.056317988048953646 -0.00068454739671954456 0 0.057558934865056789 -0.0018995733300564172 0 0.055406773699678051 -0.0012329657554959507 0 0.056917099572440129 -0.00055029925133584501 0 0.058346264864133857 -0.00052266503771032755 0 0.057558934865056789 -0.0018995733300564172 0 0.056917099572440129 -0.00055029925133584501 0 0.058346264864133857 -0.00052266503771032755 0 0.056917099572440129 -0.00055029925133584501 0 0.057424413305127577 0.00061237605771934632 0 0.056917099572440129 -0.00055029925133584501 0 0.057424413305127577 0.00061237605771934632 0 0.055629896915557246 0.00048061751387767833 0 0.057424413305127577 0.00061237605771934632 0 0.056500503308922673 0.0016368559416994055 0 0.05804069181193592 0.0018774668719283066 0 0.057424413305127577 0.00061237605771934632 0 0.055629896915557246 0.00048061751387767833 0 0.056500503308922673 0.0016368559416994055 0 0.055629896915557246 0.00048061751387767833 0 0.05403493320424315 0.0024209895708817261 0 0.056500503308922673 0.0016368559416994055 0 0.055406773699678051 -0.0012329657554959507 0 0.056917099572440129 -0.00055029925133584501 0 0.055629896915557246 0.00048061751387767833 0 0.056317988048953646 -0.00068454739671954456 0 0.055275158467108364 -0.00021869720670042285 0 0.055406773699678051 -0.0012329657554959507 0 0.055629896915557246 0.00048061751387767833 0 0.052955691394511749 -0.00016583964378070142 0 0.055629896915557246 0.00048061751387767833 0 0.052955691394511749 -0.00016583964378070142 0 0.05403493320424315 0.0024209895708817261 0 0.048891364047666669 5.9479187179899184e-06 0 0.052955691394511749 -0.00016583964378070142 0 0.05403493320424315 0.0024209895708817261 0 0.048891364047666669 5.9479187179899184e-06 0 0.051581398169774063 -1.2721584685097057e-06 0 0.052955691394511749 -0.00016583964378070142 0 0.051581398169774063 -1.2721584685097057e-06 0 0.052955691394511749 -0.00016583964378070142 0 0.05426845060900258 -2.2515487890825372e-06 0 0.056497477179505429 0.00026023632243823497 0 0.05426845060900258 -2.2515487890825372e-06 0 0.055779741437608943 -0.0011652406025018794 0 0.056497477179505429 0.00026023632243823497 0 0.052955691394511749 -0.00016583964378070142 0 0.05426845060900258 -2.2515487890825372e-06 0 0.057833343748189422 -0.0010982388804230796 0 0.056497477179505429 0.00026023632243823497 0 0.055779741437608943 -0.0011652406025018794 0 0.058291234861625726 -0.0021502105804986696 0 0.057833343748189422 -0.0010982388804230796 0 0.055779741437608943 -0.0011652406025018794 0 0.054277955249068255 -6.2210808554983507e-07 0 0.056788297007485902 -0.00094980869320277037 0 0.041879179540530588 -6.0385657711602645e-07 0 0.041256799297717264 -0.00021085036649099359 0 0.039476240402153355 -0.00050821598957224122 0 0.041256799297717264 -0.00021085036649099359 0 0.039182268086634137 -0.00060939160552568312 0 0.039476240402153355 -0.00050821598957224122 0 0.041879179540530588 -6.0385657711602645e-07 0 0.041256799297717264 -0.00021085036649099359 0 0.045382560932893064 -1.4073048022370177e-06 0 0.048877816672113529 5.8236937046144265e-06 0 0.045382560932893064 -1.4073048022370177e-06 0 0.042687493482336657 0.0014922307196840467 0 0.048883629164785385 1.4420360049433805e-06 0 0.048252580773825285 0.00076532402650902193 0 0.041256799297717264 -0.00021085036649099359 0 0.045382560932893064 -1.4073048022370177e-06 0 0.042687493482336657 0.0014922307196840467 0 0.041256799297717264 -0.00021085036649099359 0 0.042687493482336657 0.0014922307196840467 0 0.039338567660273126 0.0010660191233729313 0 0.048252580773825285 0.00076532402650902193 0 0.048120733173361706 0.0011740282452253677 0 0.05403493320424315 0.0024209895708817261 0 0.056500503308922673 0.0016368559416994055 0 0.056703411153977687 0.0028729488740396741 0 0.056500503308922673 0.0016368559416994055 0 0.056703411153977687 0.0028729488740396741 0 0.05804069181193592 0.0018774668719283066 0 0.039338567660273126 0.0010660191233729313 0 0.039043804283269895 -0.00010480381598429926 0 0.037862810213078954 0.00028172484705387118 0 0.041256799297717264 -0.00021085036649099359 0 0.039338567660273126 0.0010660191233729313 0 0.039043804283269895 -0.00010480381598429926 0 0.041256799297717264 -0.00021085036649099359 0 0.039043804283269895 -0.00010480381598429926 0 0.039182268086634137 -0.00060939160552568312 0 0.039043804283269895 -0.00010480381598429926 0 0.039182268086634137 -0.00060939160552568312 0 0.038129824246474514 -0.00053076299445591675 0 0.039182268086634137 -0.00060939160552568312 0 0.038129824246474514 -0.00053076299445591675 0 0.038060703369042208 -0.00083806869057778037 0 0.038129824246474514 -0.00053076299445591675 0 0.037585200473810039 -0.0005103486606158875 0 0.037613377562637454 -0.00081755533229340685 0 0.037585200473810039 -0.0005103486606158875 0 0.037862810213078954 0.00028172484705387118 0 0.037393817254192434 -0.00013610010997082921 0 0.048091692999030863 0.0011332459379772583 0 0.047998204735937633 0.00083807758674421724 0 0.039043804283269895 -0.00010480381598429926 0 0.038129824246474514 -0.00053076299445591675 0 0.037862810213078954 0.00028172484705387118 0 0.038129824246474514 -0.00053076299445591675 0 0.037585200473810039 -0.0005103486606158875 0 0.037862810213078954 0.00028172484705387118 0 0.056703411153977687 0.0028729488740396741 0 0.058437944876100177 0.0027084069414875342 0 0.05804069181193592 0.0018774668719283066 0 0.048120733173361706 0.0011740282452253677 0 0.048091692999030863 0.0011332459379772583 0 0.05804069181193592 0.0018774668719283066 0 0.058652321477447804 0.0017222732215285955 0 0.05886988836354879 0.0020870648585319712 0 0.058994402268462948 0.001895460644518546 0 0.058652321477447804 0.0017222732215285955 0 0.05886988836354879 0.0020870648585319712 0 0.059160459646401271 0.0016560003599397711 0 0.058994402268462948 0.001895460644518546 0 0.058652321477447804 0.0017222732215285955 0 0.059107119648281269 0.0018843345246083709 0 0.059160459646401271 0.0016560003599397711 0 0.058994402268462948 0.001895460644518546 0 0.058994402268462948 0.001895460644518546 0 0.05886988836354879 0.0020870648585319712 0 0.058998790689370861 0.0019567519341248309 0 0.058437944876100177 0.0027084069414875342 0 0.05886988836354879 0.0020870648585319712 0 0.058943885463484752 0.0021407738571655502 0 0.058437944876100177 0.0027084069414875342 0 0.05804069181193592 0.0018774668719283066 0 0.05886988836354879 0.0020870648585319712 0 0.058437944876100177 0.0027084069414875342 0 0.058943885463484752 0.0021407738571655502 0 0.058953798918765149 0.0020833904728851343 0 0.058943885463484752 0.0021407738571655502 0 0.058897146702705336 0.0020532435669621267 0 0.058953798918765149 0.0020833904728851343 0 0.058943885463484752 0.0021407738571655502 0 0.059010739648898754 0.0020059102995900117 0 0.058897146702705336 0.0020532435669621267 0 0.05886988836354879 0.0020870648585319712 0 0.059010739648898754 0.0020059102995900117 0 0.058998790689370861 0.0019567519341248309 0 0.05886988836354879 0.0020870648585319712 0 0.058943885463484752 0.0021407738571655502 0 0.059010739648898754 0.0020059102995900117 0 0.059107119648281269 0.0018843345246083709 0 0.059010739648898754 0.0020059102995900117 0 0.058998790689370861 0.0019567519341248309 0 0.059089938464550816 0.0019636429323894363 0 0.059107119648281269 0.0018843345246083709 0 0.059010739648898754 0.0020059102995900117 0 0.059107119648281269 0.0018843345246083709 0 0.058994402268462948 0.001895460644518546 0 0.058998790689370861 0.0019567519341248309 0 0.058851458197891497 0.0023414993697266268 0 0.059010739648898754 0.0020059102995900117 0 0.058707493236716195 0.0021477433183080801 0 0.059010739648898754 0.0020059102995900117 0 0.058897146702705336 0.0020532435669621267 0 0.058707493236716195 0.0021477433183080801 0 0.058897146702705336 0.0020532435669621267 0 0.058953798918765149 0.0020833904728851343 0 0.058693514823224179 0.0019124442363882381 0 0.058897146702705336 0.0020532435669621267 0 0.058707493236716195 0.0021477433183080801 0 0.058693514823224179 0.0019124442363882381 0 0.047998204735937633 0.00083807758674421724 0 0.047719827410460519 0.00038548573056319401 0 0.058953798918765149 0.0020833904728851343 0 0.058693514823224179 0.0019124442363882381 0 0.058662906189239292 0.0015928013680539805 0 0.037585200473810039 -0.0005103486606158875 0 0.037393817254192434 -0.00013610010997082921 0 0.037399168082962723 -0.00078436215923400601 0 0.037393817254192434 -0.00013610010997082921 0 0.037399168082962723 -0.00078436215923400601 0 0.036900454611839502 -0.00031396220068376945 0 0.037399168082962723 -0.00078436215923400601 0 0.036900454611839502 -0.00031396220068376945 0 0.036877558396817327 -0.00085020988591118641 0 0.037399168082962723 -0.00078436215923400601 0 0.037013883889752672 -0.0014023173888504819 0 0.036877558396817327 -0.00085020988591118641 0 0.037585200473810039 -0.0005103486606158875 0 0.037399168082962723 -0.00078436215923400601 0 0.037613377562637454 -0.00081755533229340685 0 0.037399168082962723 -0.00078436215923400601 0 0.037515565425497749 -0.00076296222451149908 0 0.037613377562637454 -0.00081755533229340685 0 0.037515565425497749 -0.00076296222451149908 0 0.037569458786683045 -0.00062462755576234911 0 0.037518059307506499 -0.00074533280092472273 0 0.037515565425497749 -0.00076296222451149908 0 0.037711597978911167 -0.00074087503566065249 0 0.037640217294213046 -0.00065026742226475436 0 0.037399168082962723 -0.00078436215923400601 0 0.037515565425497749 -0.00076296222451149908 0 0.037711597978911167 -0.00074087503566065249 0 0.032488209008536863 0.00039326192586551289 0 0.030574140899337961 -0.00061102000778384268 0 0.037711597978911167 -0.00074087503566065249 0 0.037750329446452104 -0.00058737619510535822 0 0.037640217294213046 -0.00065026742226475436 0 0.037750329446452104 -0.00058737619510535822 0 0.037640217294213046 -0.00065026742226475436 0 0.03767268862339547 -0.00052892657702721072 0 0.037750329446452104 -0.00058737619510535822 0 0.03767268862339547 -0.00052892657702721072 0 0.037775544883324227 -0.00044592237311294876 0 0.03767268862339547 -0.00052892657702721072 0 0.037775544883324227 -0.00044592237311294876 0 0.037687537578337246 -0.00033254837026737536 0 0.037775544883324227 -0.00044592237311294876 0 0.037687537578337246 -0.00033254837026737536 0 0.037839794848272358 -0.00023506962800169234 0 0.037583779465005483 -0.00021396940774186127 0 0.03758372953498005 -0.00045660510813245921 0 0.037429913774572138 -0.00032160432903553273 0 0.037687537578337246 -0.00033254837026737536 0 0.037583779465005483 -0.00021396940774186127 0 0.037652067188360422 -9.4333084483569439e-05 0 0.037687537578337246 -0.00033254837026737536 0 0.037583779465005483 -0.00021396940774186127 0 0.03758372953498005 -0.00045660510813245921 0 0.03767268862339547 -0.00052892657702721072 0 0.037687537578337246 -0.00033254837026737536 0 0.03758372953498005 -0.00045660510813245921 0 0.03758372953498005 -0.00045660510813245921 0 0.037569458786683045 -0.00062462755576234911 0 0.037496621042993165 -0.00059797920899931601 0 0.03767268862339547 -0.00052892657702721072 0 0.03758372953498005 -0.00045660510813245921 0 0.037569458786683045 -0.00062462755576234911 0 0.037515565425497749 -0.00076296222451149908 0 0.037640217294213046 -0.00065026742226475436 0 0.037569458786683045 -0.00062462755576234911 0 0.037640217294213046 -0.00065026742226475436 0 0.03767268862339547 -0.00052892657702721072 0 0.037569458786683045 -0.00062462755576234911 0 0.037569458786683045 -0.00062462755576234911 0 0.037496621042993165 -0.00059797920899931601 0 0.037518059307506499 -0.00074533280092472273 0 0.037496621042993165 -0.00059797920899931601 0 0.037429913774572138 -0.00032160432903553273 0 0.037357175187843046 -0.0007362181834294297 0 0.037496621042993165 -0.00059797920899931601 0 0.037357175187843046 -0.0007362181834294297 0 0.037518059307506499 -0.00074533280092472273 0 0.03758372953498005 -0.00045660510813245921 0 0.037496621042993165 -0.00059797920899931601 0 0.037429913774572138 -0.00032160432903553273 0 0.037583779465005483 -0.00021396940774186127 0 0.037429913774572138 -0.00032160432903553273 0 0.037484662701814088 -8.1426681638984124e-05 0 0.037429913774572138 -0.00032160432903553273 0 0.03700898898203428 -0.00033581540176706276 0 0.037269809647414776 -3.5707635249036131e-06 0 0.037429913774572138 -0.00032160432903553273 0 0.03700898898203428 -0.00033581540176706276 0 0.037357175187843046 -0.0007362181834294297 0 0.03700898898203428 -0.00033581540176706276 0 0.037357175187843046 -0.0007362181834294297 0 0.036719617784939623 -0.00073023183924574833 0 0.037357175187843046 -0.0007362181834294297 0 0.037613377562637454 -0.00081755533229340685 0 0.03741875713820883 -0.00085737590311674877 0 0.037613377562637454 -0.00081755533229340685 0 0.038060703369042208 -0.00083806869057778037 0 0.03741875713820883 -0.00085737590311674877 0 0.037515565425497749 -0.00076296222451149908 0 0.037518059307506499 -0.00074533280092472273 0 0.037613377562637454 -0.00081755533229340685 0 0.037357175187843046 -0.0007362181834294297 0 0.037518059307506499 -0.00074533280092472273 0 0.037613377562637454 -0.00081755533229340685 0 0.038129824246474514 -0.00053076299445591675 0 0.037613377562637454 -0.00081755533229340685 0 0.038060703369042208 -0.00083806869057778037 0 0.039182268086634137 -0.00060939160552568312 0 0.038060703369042208 -0.00083806869057778037 0 0.037386822564322894 -0.00084408447341570263 0 0.038060703369042208 -0.00083806869057778037 0 0.037386822564322894 -0.00084408447341570263 0 0.03741875713820883 -0.00085737590311674877 0 0.037357175187843046 -0.0007362181834294297 0 0.03741875713820883 -0.00085737590311674877 0 0.036719617784939623 -0.00073023183924574833 0 0.037386822564322894 -0.00084408447341570263 0 0.03741875713820883 -0.00085737590311674877 0 0.036719617784939623 -0.00073023183924574833 0 0.03700898898203428 -0.00033581540176706276 0 0.036719617784939623 -0.00073023183924574833 0 0.035963299438217543 1.0518031372550697e-05 0 0.036719617784939623 -0.00073023183924574833 0 0.035348102927673312 -0.00055542600318520051 0 0.035963299438217543 1.0518031372550697e-05 0 0.037386822564322894 -0.00084408447341570263 0 0.036719617784939623 -0.00073023183924574833 0 0.035348102927673312 -0.00055542600318520051 0 0.037386822564322894 -0.00084408447341570263 0 0.035348102927673312 -0.00055542600318520051 0 0.035801921934300568 -0.00055875231040055631 0 0.035348102927673312 -0.00055542600318520051 0 0.035801921934300568 -0.00055875231040055631 0 0.033485497506812748 -0.00025238418080106116 0 0.035348102927673312 -0.00055542600318520051 0 0.033485497506812748 -0.00025238418080106116 0 0.033064955124512019 8.4850733035027402e-05 0 0.033485497506812748 -0.00025238418080106116 0 0.034875604998487186 -8.9927521749197717e-07 0 0.031372725072057094 2.1210991017183562e-07 0 0.035801921934300568 -0.00055875231040055631 0 0.033485497506812748 -0.00025238418080106116 0 0.034875604998487186 -8.9927521749197717e-07 0 0.035801921934300568 -0.00055875231040055631 0 0.034875604998487186 -8.9927521749197717e-07 0 0.038377186571362659 -1.1665799018689614e-06 0 0.037386822564322894 -0.00084408447341570263 0 0.035801921934300568 -0.00055875231040055631 0 0.038377186571362659 -1.1665799018689614e-06 0 0.037386822564322894 -0.00084408447341570263 0 0.038377186571362659 -1.1665799018689614e-06 0 0.039476240402153355 -0.00050821598957224122 0 0.039182268086634137 -0.00060939160552568312 0 0.037386822564322894 -0.00084408447341570263 0 0.039476240402153355 -0.00050821598957224122 0 0.041879179540530588 -6.0385657711602645e-07 0 0.038377186571362659 -1.1665799018689614e-06 0 0.039476240402153355 -0.00050821598957224122 0 0.056074199060627015 0.0020195464359328641 0 0.056673832096079665 0.0020493742601019257 0 0.055932903170413086 0.0028677683177531724 0 0.056074199060627015 0.0020195464359328641 0 0.055988785302193284 0.0018367470930116497 0 0.055845231929330684 0.0025424071264619958 0 0.048754400742995793 -0.002232149006641663 0 0.053752857491183872 -0.0017955111164722648 0 0.048754400742995793 -0.002232149006641663 0 0.050040432138366363 -0.0017071272560245747 0 0.056074199060627015 0.0020195464359328641 0 0.055988785302193284 0.0018367470930116497 0 0.056374855892410224 0.0019491365353967252 0 0.055910140061202637 0.0017933572704129182 0 0.056374855892410224 0.0019491365353967252 0 0.056370222338005829 0.0015329782532400576 0 0.057371599736510091 0.0016069546387674524 0 0.057356501464994353 0.0018423322770629571 0 0.057596748785007548 0.0017940995888463438 0 0.056673832096079665 0.0020493742601019257 0 0.056374855892410224 0.0019491365353967252 0 0.056724539522952894 0.0015922575933814567 0 0.056074199060627015 0.0020195464359328641 0 0.056673832096079665 0.0020493742601019257 0 0.056374855892410224 0.0019491365353967252 0 0.056370222338005829 0.0015329782532400576 0 0.056724539522952894 0.0015922575933814567 0 0.056778932157757298 0.0012759570871620745 0 0.056724539522952894 0.0015922575933814567 0 0.056778932157757298 0.0012759570871620745 0 0.057590375256039078 0.0010984629899926295 0 0.056673832096079665 0.0020493742601019257 0 0.056724539522952894 0.0015922575933814567 0 0.057590375256039078 0.0010984629899926295 0 0.056374855892410224 0.0019491365353967252 0 0.056370222338005829 0.0015329782532400576 0 0.056724539522952894 0.0015922575933814567 0 0.056778932157757298 0.0012759570871620745 0 0.05606286892640993 0.0010391771000397617 0 0.056740409540504189 0.00087653504330124606 0 0.056370222338005829 0.0015329782532400576 0 0.056778932157757298 0.0012759570871620745 0 0.05606286892640993 0.0010391771000397617 0 0.039313331411010455 -0.0083724518342723295 0 0.039382815587471205 -0.0082309657639523994 0 0.039256223821746802 -0.0081783253218193266 0 0.055910140061202637 0.0017933572704129182 0 0.056370222338005829 0.0015329782532400576 0 0.05606286892640993 0.0010391771000397617 0 0.048754400742995793 -0.002232149006641663 0 0.045535729059268663 -0.0038161609814489142 0 0.048754400742995793 -0.002232149006641663 0 0.04509991440937608 -0.0050020553553300528 0 0.039313331411010455 -0.0083724518342723295 0 0.039382815587471205 -0.0082309657639523994 0 0.039514977305908416 -0.0083160508820275744 0 0.039382815587471205 -0.0082309657639523994 0 0.039514977305908416 -0.0083160508820275744 0 0.039452852936701539 -0.0081255581959010763 0 0.039514977305908416 -0.0083160508820275744 0 0.039588141155018193 -0.0081733626588626745 0 0.039452852936701539 -0.0081255581959010763 0 0.04509991440937608 -0.0050020553553300528 0 0.043784522153729147 -0.0064661000494746169 0 0.039514977305908416 -0.0083160508820275744 0 0.039751508833259813 -0.0082801946389915067 0 0.039588141155018193 -0.0081733626588626745 0 0.048259980977944615 -0.0055572455638574301 0 0.04587326376251908 -0.0064107493945049767 0 0.047930325714572022 -0.0040515738369954774 0 0.043784522153729147 -0.0064661000494746169 0 0.047633627914731975 -0.0051907484041579721 0 0.045203181393722432 -0.0072950929031032289 0 0.044764764803503852 -0.0072680020914344286 0 0.045056789816145734 -0.0077052709588665063 0 0.045203181393722432 -0.0072950929031032289 0 0.045112902292542105 -0.0068062240703237369 0 0.044764764803503852 -0.0072680020914344286 0 0.05063578423955907 -0.0047040014570757923 0 0.048259980977944615 -0.0055572455638574301 0 0.047930325714572022 -0.0040515738369954774 0 0.047633627914731975 -0.0051907484041579721 0 0.053752857491183872 -0.0017955111164722648 0 0.05063578423955907 -0.0047040014570757923 0 0.047930325714572022 -0.0040515738369954774 0 0.049979313896573153 -0.0017016120514504673 0 0.044764764803503852 -0.0072680020914344286 0 0.044725565218759984 -0.0076876020338415658 0 0.044438584737819455 -0.0076908499238111071 0 0.044725565218759984 -0.0076876020338415658 0 0.044509195279936568 -0.0079832383368862447 0 0.044438584737819455 -0.0076908499238111071 0 0.055957908413568964 -0.0014878815042609827 0 0.053752857491183872 -0.0017955111164722648 0 0.044764764803503852 -0.0072680020914344286 0 0.044725565218759984 -0.0076876020338415658 0 0.045056789816145734 -0.0077052709588665063 0 0.044725565218759984 -0.0076876020338415658 0 0.045056789816145734 -0.0077052709588665063 0 0.044793621660263482 -0.0079857768746660913 0 0.04537650522982415 -0.0082467375386610815 0 0.044753688604757327 -0.0082652637621495953 0 0.045062427100785764 -0.0080269589162354181 0 0.045329603203492774 -0.0079315956580877384 0 0.045056789816145734 -0.0077052709588665063 0 0.045062427100785764 -0.0080269589162354181 0 0.045056789816145734 -0.0077052709588665063 0 0.045062427100785764 -0.0080269589162354181 0 0.044793621660263482 -0.0079857768746660913 0 0.044753688604757327 -0.0082652637621495953 0 0.045062427100785764 -0.0080269589162354181 0 0.044793621660263482 -0.0079857768746660913 0 0.055121868780693119 -0.0022234625843251142 0 0.054872076440223572 -0.001930054284279534 0 0.054569155585097465 0.00024158967956190133 0 0.056646178733976441 -0.0013419488861933595 0 0.056611477296502538 -0.0013016496177589104 0 0.056697060908903696 -0.0015601154279343242 0 0.055957908413568964 -0.0014878815042609827 0 0.055939515198121799 -0.0013191428682719141 0 0.044725565218759984 -0.0076876020338415658 0 0.044509195279936568 -0.0079832383368862447 0 0.044793621660263482 -0.0079857768746660913 0 0.044753688604757327 -0.0082652637621495953 0 0.044509195279936568 -0.0079832383368862447 0 0.044793621660263482 -0.0079857768746660913 0 0.055957908413568964 -0.0014878815042609827 0 0.05718088008454985 -0.0015623577130731191 0 0.05760612064253582 -0.0033667331219800196 0 0.056126654088310191 -0.0016205007194887917 0 0.056384119123624336 -0.0027812682972730932 0 0.056794940152695358 -0.0021719935462742174 0 0.055957908413568964 -0.0014878815042609827 0 0.055939515198121799 -0.0013191428682719141 0 0.05718088008454985 -0.0015623577130731191 0 0.057929762474097868 -0.00042401779612384724 0 0.057615948263172609 -0.00067288010771800048 0 0.058037693748072328 -0.00083200761935091783 0 0.057075609312619728 0.0019856849720803556 0 0.05738729036000792 0.0019823274286136696 0 0.057302576285899812 0.0022478923020796049 0 0.057760357624143978 -0.0011307747836357693 0 0.057615948263172609 -0.00067288010771800048 0 0.058037693748072328 -0.00083200761935091783 0 0.0582434268405089 -0.00055385598526894685 0 0.057929762474097868 -0.00042401779612384724 0 0.058037693748072328 -0.00083200761935091783 0 0.0582434268405089 -0.00055385598526894685 0 0.058037693748072328 -0.00083200761935091783 0 0.058623796578539278 -0.00075317922676278301 0 0.058037693748072328 -0.00083200761935091783 0 0.05802152842035882 -0.0014402467353788497 0 0.058623796578539278 -0.00075317922676278301 0 0.055742156083652045 -0.00056063854813074936 0 0.058270984191448771 7.7979847025267017e-05 0 0.057760357624143978 -0.0011307747836357693 0 0.058037693748072328 -0.00083200761935091783 0 0.05802152842035882 -0.0014402467353788497 0 0.055939515198121799 -0.0013191428682719141 0 0.055742156083652045 -0.00056063854813074936 0 0.055939515198121799 -0.0013191428682719141 0 0.05479703851794588 -0.0010499577399569694 0 0.05471571087892816 0.00022508098204852822 0 0.05479703851794588 -0.0010499577399569694 0 0.056074199060627015 0.0020195464359328641 0 0.055890058432487753 0.002593429212424613 0 0.055845231929330684 0.0025424071264619958 0 0.054872076440223572 -0.001930054284279534 0 0.054280363598331438 -9.214911281825535e-05 0 0.054569155585097465 0.00024158967956190133 0 0.056229957402454053 0.00079784520042808541 0 0.055742156083652045 -0.00056063854813074936 0 0.05542515516075646 -0.0015335576324356705 0 0.054783895544715175 0.00046880852093409553 0 0.054249149605385259 -0.00014841294540745575 0 0.056074199060627015 0.0020195464359328641 0 0.055835433494806457 0.0027545547610433405 0 0.055932903170413086 0.0028677683177531724 0 0.05479703851794588 -0.0010499577399569694 0 0.055742156083652045 -0.00056063854813074936 0 0.05479703851794588 -0.0010499577399569694 0 0.053752857491183872 -0.0017955111164722648 0 0.05738729036000792 0.0019823274286136696 0 0.057583861175955785 0.0021200486249944436 0 0.057596748785007548 0.0017940995888463438 0 0.057075609312619728 0.0019856849720803556 0 0.057356501464994353 0.0018423322770629571 0 0.05738729036000792 0.0019823274286136696 0 0.057371599736510091 0.0016069546387674524 0 0.057075609312619728 0.0019856849720803556 0 0.057356501464994353 0.0018423322770629571 0 0.057356501464994353 0.0018423322770629571 0 0.05738729036000792 0.0019823274286136696 0 0.057596748785007548 0.0017940995888463438 0 0.057551254351898187 0.0025144035598404983 0 0.057302576285899812 0.0022478923020796049 0 0.057583861175955785 0.0021200486249944436 0 0.05738729036000792 0.0019823274286136696 0 0.057302576285899812 0.0022478923020796049 0 0.057583861175955785 0.0021200486249944436 0 0.057551254351898187 0.0025144035598404983 0 0.057583861175955785 0.0021200486249944436 0 0.057858973402148163 0.002219961526893007 0 0.057583861175955785 0.0021200486249944436 0 0.057858973402148163 0.002219961526893007 0 0.057798278107052375 0.0019772456496156133 0 0.057858973402148163 0.002219961526893007 0 0.0581141351600468 0.0020020351791118461 0 0.057798278107052375 0.0019772456496156133 0 0.057858973402148163 0.002219961526893007 0 0.0581141351600468 0.0020020351791118461 0 0.058282128495017897 0.0022741638195110415 0 0.0581141351600468 0.0020020351791118461 0 0.058297622314648967 0.0017233049893924008 0 0.057905398128582107 0.0017265322009204916 0 0.0581141351600468 0.0020020351791118461 0 0.057798278107052375 0.0019772456496156133 0 0.057905398128582107 0.0017265322009204916 0 0.057596748785007548 0.0017940995888463438 0 0.057798278107052375 0.0019772456496156133 0 0.057905398128582107 0.0017265322009204916 0 0.057583861175955785 0.0021200486249944436 0 0.057596748785007548 0.0017940995888463438 0 0.057798278107052375 0.0019772456496156133 0 0.058707493236716195 0.0021477433183080801 0 0.058282128495017897 0.0022741638195110415 0 0.058445003892309978 0.0020295630481340248 0 0.0581141351600468 0.0020020351791118461 0 0.058282128495017897 0.0022741638195110415 0 0.058445003892309978 0.0020295630481340248 0 0.0581141351600468 0.0020020351791118461 0 0.058445003892309978 0.0020295630481340248 0 0.058297622314648967 0.0017233049893924008 0 0.058445003892309978 0.0020295630481340248 0 0.058693514823224179 0.0019124442363882381 0 0.058297622314648967 0.0017233049893924008 0 0.058707493236716195 0.0021477433183080801 0 0.058445003892309978 0.0020295630481340248 0 0.058693514823224179 0.0019124442363882381 0 0.058693514823224179 0.0019124442363882381 0 0.058297622314648967 0.0017233049893924008 0 0.058662906189239292 0.0015928013680539805 0 0.036156774782840601 -0.00065447590969650818 0 0.036900454611839502 -0.00031396220068376945 0 0.036494458661093271 -0.00076707727699664059 0 0.04726061671154002 -0.00030139625422144397 0 0.047719827410460519 0.00038548573056319401 0 0.058297622314648967 0.0017233049893924008 0 0.058203982283122485 0.0012331617816780456 0 0.058662906189239292 0.0015928013680539805 0 0.036900454611839502 -0.00031396220068376945 0 0.036877558396817327 -0.00085020988591118641 0 0.036494458661093271 -0.00076707727699664059 0 0.057596748785007548 0.0017940995888463438 0 0.057669246597514726 0.0015298730066689932 0 0.057905398128582107 0.0017265322009204916 0 0.057371599736510091 0.0016069546387674524 0 0.057596748785007548 0.0017940995888463438 0 0.057669246597514726 0.0015298730066689932 0 0.058297622314648967 0.0017233049893924008 0 0.057905398128582107 0.0017265322009204916 0 0.05793864695919175 0.0014592254662042078 0 0.057669246597514726 0.0015298730066689932 0 0.057905398128582107 0.0017265322009204916 0 0.05793864695919175 0.0014592254662042078 0 0.058203982283122485 0.0012331617816780456 0 0.05793864695919175 0.0014592254662042078 0 0.057590375256039078 0.0010984629899926295 0 0.058297622314648967 0.0017233049893924008 0 0.058203982283122485 0.0012331617816780456 0 0.05793864695919175 0.0014592254662042078 0 0.057669246597514726 0.0015298730066689932 0 0.05793864695919175 0.0014592254662042078 0 0.057590375256039078 0.0010984629899926295 0 0.056229957402454053 0.00079784520042808541 0 0.05666171802526563 0.00080208002215392219 0 0.056778932157757298 0.0012759570871620745 0 0.057590375256039078 0.0010984629899926295 0 0.057153114382054448 0.0010105232498362861 0 0.057371599736510091 0.0016069546387674524 0 0.057669246597514726 0.0015298730066689932 0 0.057590375256039078 0.0010984629899926295 0 0.057590375256039078 0.0010984629899926295 0 0.057490052389539685 0.000789955216478187 0 0.057153114382054448 0.0010105232498362861 0 0.057490052389539685 0.000789955216478187 0 0.057153114382054448 0.0010105232498362861 0 0.056740409540504189 0.00087653504330124606 0 0.036156774782840601 -0.00065447590969650818 0 0.036135542810480599 -0.0008282542516326295 0 0.036129570810728526 -0.00080832183902164304 0 0.036135542810480599 -0.0008282542516326295 0 0.036138175555935424 -0.00080312849264951836 0 0.036129570810728526 -0.00080832183902164304 0 0.058203982283122485 0.0012331617816780456 0 0.057590375256039078 0.0010984629899926295 0 0.057490052389539685 0.000789955216478187 0 0.036328102486992607 -0.0035539375423131346 0 0.036103585238905486 -0.0029489574235370469 0 0.04726061671154002 -0.00030139625422144397 0 0.046306202316287119 -0.0015992500445081565 0 0.033282603496056787 -0.0012471922313060083 0 0.034707486293255096 -0.0016705732829826404 0 0.036129570810728526 -0.00080832183902164304 0 0.034707486293255096 -0.0016705732829826404 0 0.035598207257654294 -0.0015212123666048635 0 0.036129570810728526 -0.00080832183902164304 0 0.034707486293255096 -0.0016705732829826404 0 0.035598207257654294 -0.0015212123666048635 0 0.035682352816739669 -0.0023169230159824452 0 0.035598207257654294 -0.0015212123666048635 0 0.035682352816739669 -0.0023169230159824452 0 0.036092511175429193 -0.0011976453668706352 0 0.034707486293255096 -0.0016705732829826404 0 0.035682352816739669 -0.0023169230159824452 0 0.035008346670388331 -0.0032875113319524264 0 0.034707486293255096 -0.0016705732829826404 0 0.033710965646517273 -0.0024177985278724377 0 0.035008346670388331 -0.0032875113319524264 0 0.033710965646517273 -0.0024177985278724377 0 0.032769702143549115 -0.0021118833131291304 0 0.032228129693936992 -0.0031375424090553318 0 0.033282603496056787 -0.0012471922313060083 0 0.032769702143549115 -0.0021118833131291304 0 0.033617604390871532 -0.0018615778729837852 0 0.034707486293255096 -0.0016705732829826404 0 0.033710965646517273 -0.0024177985278724377 0 0.033617604390871532 -0.0018615778729837852 0 0.033282603496056787 -0.0012471922313060083 0 0.034707486293255096 -0.0016705732829826404 0 0.033617604390871532 -0.0018615778729837852 0 0.033710965646517273 -0.0024177985278724377 0 0.032769702143549115 -0.0021118833131291304 0 0.033617604390871532 -0.0018615778729837852 0 0.036877558396817327 -0.00085020988591118641 0 0.036551512998831359 -0.0010193506805554636 0 0.036494458661093271 -0.00076707727699664059 0 0.036877558396817327 -0.00085020988591118641 0 0.036551512998831359 -0.0010193506805554636 0 0.036740760669609684 -0.0011885732059706592 0 0.036362241881422654 -0.00099743418573950749 0 0.036494458661093271 -0.00076707727699664059 0 0.036129570810728526 -0.00080832183902164304 0 0.036362241881422654 -0.00099743418573950749 0 0.036092511175429193 -0.0011976453668706352 0 0.036415167276846676 -0.001265319019899384 0 0.036551512998831359 -0.0010193506805554636 0 0.036362241881422654 -0.00099743418573950749 0 0.036494458661093271 -0.00076707727699664059 0 0.036551512998831359 -0.0010193506805554636 0 0.036362241881422654 -0.00099743418573950749 0 0.036415167276846676 -0.001265319019899384 0 0.036156774782840601 -0.00065447590969650818 0 0.036494458661093271 -0.00076707727699664059 0 0.036129570810728526 -0.00080832183902164304 0 0.036362241881422654 -0.00099743418573950749 0 0.036129570810728526 -0.00080832183902164304 0 0.036092511175429193 -0.0011976453668706352 0 0.035598207257654294 -0.0015212123666048635 0 0.036129570810728526 -0.00080832183902164304 0 0.036092511175429193 -0.0011976453668706352 0 0.036092511175429193 -0.0011976453668706352 0 0.036415167276846676 -0.001265319019899384 0 0.036412147207922942 -0.001597237347251392 0 0.035682352816739669 -0.0023169230159824452 0 0.036092511175429193 -0.0011976453668706352 0 0.037232232052256349 -0.0031060742650931496 0 0.035682352816739669 -0.0023169230159824452 0 0.037232232052256349 -0.0031060742650931496 0 0.035008346670388331 -0.0032875113319524264 0 0.025522891392514992 -0.0056033757300393396 0 0.023006981065787618 -0.0050922307133853106 0 0.036415167276846676 -0.001265319019899384 0 0.036522470812746601 -0.00144722911962106 0 0.036412147207922942 -0.001597237347251392 0 0.023613181625203039 -0.0045528912598527772 0 0.023006981065787618 -0.0050922307133853106 0 0.037013883889752672 -0.0014023173888504819 0 0.036877558396817327 -0.00085020988591118641 0 0.036740760669609684 -0.0011885732059706592 0 0.037013883889752672 -0.0014023173888504819 0 0.036522470812746601 -0.00144722911962106 0 0.036577828690566104 -0.0019825592193568201 0 0.036555753769800546 -0.0012429046388899147 0 0.036522470812746601 -0.00144722911962106 0 0.036740760669609684 -0.0011885732059706592 0 0.036551512998831359 -0.0010193506805554636 0 0.036555753769800546 -0.0012429046388899147 0 0.036740760669609684 -0.0011885732059706592 0 0.036551512998831359 -0.0010193506805554636 0 0.036415167276846676 -0.001265319019899384 0 0.036555753769800546 -0.0012429046388899147 0 0.036415167276846676 -0.001265319019899384 0 0.036555753769800546 -0.0012429046388899147 0 0.036522470812746601 -0.00144722911962106 0 0.037013883889752672 -0.0014023173888504819 0 0.036522470812746601 -0.00144722911962106 0 0.036740760669609684 -0.0011885732059706592 0 0.030574140899337961 -0.00061102000778384268 0 0.022387087700275594 -0.0062541702058195288 0 0.037711597978911167 -0.00074087503566065249 0 0.037750329446452104 -0.00058737619510535822 0 0.037940232325962435 -0.00054186094563236486 0 0.036522470812746601 -0.00144722911962106 0 0.036577828690566104 -0.0019825592193568201 0 0.036373584276680068 -0.0016291602918711643 0 0.037750329446452104 -0.00058737619510535822 0 0.037775544883324227 -0.00044592237311294876 0 0.037940232325962435 -0.00054186094563236486 0 0.022387087700275594 -0.0062541702058195288 0 0.023006981065787618 -0.0050922307133853106 0 0.023006981065787618 -0.0050922307133853106 0 0.021959621308217565 -0.0080523354325282657 0 0.0089749294732746308 -0.012565832979882686 0 0.0089096762081703456 -0.012422631924298051 0 0.0087176764532798916 -0.012707180497130445 0 0.037232232052256349 -0.0031060742650931496 0 0.035008346670388331 -0.0032875113319524264 0 0.035540875297245228 -0.0053682613701920758 0 0.022387087700275594 -0.0062541702058195288 0 0.013521559881730255 -0.013261445100313126 0 0.0089749294732746308 -0.012565832979882686 0 0.0087294786832662185 -0.012765911185954566 0 0.0087176764532798916 -0.012707180497130445 0 0.005936178308960433 -0.016241248553172067 0 0.0072128486929060164 -0.01450960753583698 0 0.0059867451552608865 -0.013979516661697531 0 0.037775544883324227 -0.00044592237311294876 0 0.037940232325962435 -0.00054186094563236486 0 0.037839794848272358 -0.00023506962800169234 0 0.005936178308960433 -0.016241248553172067 0 0.0059867451552608865 -0.013979516661697531 0 0.0047481620173513419 -0.014367684846224735 0 0.022387087700275594 -0.0062541702058195288 0 0.021853702905243976 -0.0065655649776796181 0 0.033710965646517273 -0.0024177985278724377 0 0.033276287151696268 -0.004794886682312283 0 0.035008346670388331 -0.0032875113319524264 0 0.033710965646517273 -0.0024177985278724377 0 0.033276287151696268 -0.004794886682312283 0 0.032228129693936992 -0.0031375424090553318 0 0.033276287151696268 -0.004794886682312283 0 0.035008346670388331 -0.0032875113319524264 0 0.035540875297245228 -0.0053682613701920758 0 0.021959621308217565 -0.0080523354325282657 0 0.021788728206340681 -0.0091399722551277728 0 0.033276287151696268 -0.004794886682312283 0 0.035540875297245228 -0.0053682613701920758 0 0.033846763278728889 -0.0076254098143991892 0 0.0087294786832662185 -0.012765911185954566 0 0.0087176764532798916 -0.012707180497130445 0 0.0088309681367241943 -0.01279410327453687 0 0.033276287151696268 -0.004794886682312283 0 0.031585557652674297 -0.0072006017458415431 0 0.033846763278728889 -0.0076254098143991892 0 0.035324648990464592 -0.0059726679618525838 0 0.030577397769794127 -0.007329403994111223 0 0.038502141423569253 -0.0069256636953115768 0 0.038178337264230824 -0.0073697053064986492 0 0.03798993361047278 -0.0066774111402715282 0 0.033276287151696268 -0.004794886682312283 0 0.031020372008683385 -0.0045229645486294179 0 0.031585557652674297 -0.0072006017458415431 0 0.038502141423569253 -0.0069256636953115768 0 0.038693496287533137 -0.0072667699735686278 0 0.038178337264230824 -0.0073697053064986492 0 0.038502141423569253 -0.0069256636953115768 0 0.038693496287533137 -0.0072667699735686278 0 0.038868228652237366 -0.0068580834634632808 0 0.038693496287533137 -0.0072667699735686278 0 0.038624672991985756 -0.0076504149148722929 0 0.038178337264230824 -0.0073697053064986492 0 0.038624672991985756 -0.0076504149148722929 0 0.038178337264230824 -0.0073697053064986492 0 0.038350213778127973 -0.0080862425122923461 0 0.038693496287533137 -0.0072667699735686278 0 0.038624672991985756 -0.0076504149148722929 0 0.038959520694590133 -0.0075063973185513777 0 0.033276287151696268 -0.004794886682312283 0 0.031020372008683385 -0.0045229645486294179 0 0.032228129693936992 -0.0031375424090553318 0 0.031020372008683385 -0.0045229645486294179 0 0.032228129693936992 -0.0031375424090553318 0 0.030442386276747758 -0.0018429019026057385 0 0.035324648990464592 -0.0059726679618525838 0 0.040557117702706827 -0.0050553731553678359 0 0.036328102486992607 -0.0035539375423131346 0 0.040557117702706827 -0.0050553731553678359 0 0.032769702143549115 -0.0021118833131291304 0 0.032228129693936992 -0.0031375424090553318 0 0.030442386276747758 -0.0018429019026057385 0 0.033282603496056787 -0.0012471922313060083 0 0.032769702143549115 -0.0021118833131291304 0 0.030442386276747758 -0.0018429019026057385 0 0.036138175555935424 -0.00080312849264951836 0 0.036360663508599782 -0.00080884206325097764 0 0.03636479381725468 -0.00082915750466717325 0 0.038624672991985756 -0.0076504149148722929 0 0.038710234362535498 -0.0080169922497879062 0 0.038350213778127973 -0.0080862425122923461 0 0.038624672991985756 -0.0076504149148722929 0 0.038710234362535498 -0.0080169922497879062 0 0.038959875710580939 -0.0079668920459433773 0 0.0404344655348629 -0.0056950030926090156 0 0.041745592547202948 -0.005260962936321137 0 0.039337027685254926 -0.0079164434178769644 0 0.039206853670654768 -0.0079745179288729599 0 0.039340559741303731 -0.0080731289028624365 0 0.040652671690924506 -0.0064426140225598214 0 0.042068333597167606 -0.0061531338530815939 0 0.042001929645520623 -0.005852834258797757 0 0.0404344655348629 -0.0056950030926090156 0 0.040557117702706827 -0.0050553731553678359 0 0.040557117702706827 -0.0050553731553678359 0 0.041745592547202948 -0.005260962936321137 0 0.041745592547202948 -0.005260962936321137 0 0.045535729059268663 -0.0038161609814489142 0 0.039206853670654768 -0.0079745179288729599 0 0.039340559741303731 -0.0080731289028624365 0 0.039256223821746802 -0.0081783253218193266 0 0.05621226095267131 0.00021453954870196459 0 0.05606286892640993 0.0010391771000397617 0 0.056740409540504189 0.00087653504330124606 0 0.039382815587471205 -0.0082309657639523994 0 0.039340559741303731 -0.0080731289028624365 0 0.039256223821746802 -0.0081783253218193266 0 0.057490052389539685 0.000789955216478187 0 0.05621226095267131 0.00021453954870196459 0 0.056740409540504189 0.00087653504330124606 0 0.036135542810480599 -0.0008282542516326295 0 0.036138175555935424 -0.00080312849264951836 0 0.03636479381725468 -0.00082915750466717325 0 0.046306202316287119 -0.0015992500445081565 0 0.041745592547202948 -0.005260962936321137 0 0.056778932157757298 0.0012759570871620745 0 0.057153114382054448 0.0010105232498362861 0 0.056740409540504189 0.00087653504330124606 0 0.039536105627131841 -0.0080086216060887717 0 0.039704725268305416 -0.008063704669182643 0 0.039588141155018193 -0.0081733626588626745 0 0.039751508833259813 -0.0082801946389915067 0 0.039704725268305416 -0.008063704669182643 0 0.039588141155018193 -0.0081733626588626745 0 0.039536105627131841 -0.0080086216060887717 0 0.039588141155018193 -0.0081733626588626745 0 0.039452852936701539 -0.0081255581959010763 0 0.039382815587471205 -0.0082309657639523994 0 0.039340559741303731 -0.0080731289028624365 0 0.039452852936701539 -0.0081255581959010763 0 0.039337027685254926 -0.0079164434178769644 0 0.039340559741303731 -0.0080731289028624365 0 0.039417974606555058 -0.0080038092986666632 0 0.039340559741303731 -0.0080731289028624365 0 0.039452852936701539 -0.0081255581959010763 0 0.039417974606555058 -0.0080038092986666632 0 0.039536105627131841 -0.0080086216060887717 0 0.039452852936701539 -0.0081255581959010763 0 0.039417974606555058 -0.0080038092986666632 0 0.039536105627131841 -0.0080086216060887717 0 0.039417974606555058 -0.0080038092986666632 0 0.039423868118392373 -0.0078954481513029678 0 0.0404344655348629 -0.0056950030926090156 0 0.039967221103376839 -0.0060494742260311504 0 0.039337027685254926 -0.0079164434178769644 0 0.039417974606555058 -0.0080038092986666632 0 0.039423868118392373 -0.0078954481513029678 0 0.039967221103376839 -0.0060494742260311504 0 0.039642441097545694 -0.0063689852177790099 0 0.039536105627131841 -0.0080086216060887717 0 0.039423868118392373 -0.0078954481513029678 0 0.039622640953262428 -0.0077969191568753966 0 0.039536105627131841 -0.0080086216060887717 0 0.039704725268305416 -0.008063704669182643 0 0.039622640953262428 -0.0077969191568753966 0 0.038959875710580939 -0.0079668920459433773 0 0.039622640953262428 -0.0077969191568753966 0 0.039352435587489278 -0.0074565957227824449 0 0.039622640953262428 -0.0077969191568753966 0 0.039352435587489278 -0.0074565957227824449 0 0.039659378739869806 -0.0072892784169337893 0 0.039352435587489278 -0.0074565957227824449 0 0.039659378739869806 -0.0072892784169337893 0 0.039187551990650521 -0.0072001256976180579 0 0.038693496287533137 -0.0072667699735686278 0 0.038959520694590133 -0.0075063973185513777 0 0.039187551990650521 -0.0072001256976180579 0 0.038959875710580939 -0.0079668920459433773 0 0.039352435587489278 -0.0074565957227824449 0 0.038959520694590133 -0.0075063973185513777 0 0.038624672991985756 -0.0076504149148722929 0 0.038959875710580939 -0.0079668920459433773 0 0.038959520694590133 -0.0075063973185513777 0 0.039352435587489278 -0.0074565957227824449 0 0.038959520694590133 -0.0075063973185513777 0 0.039187551990650521 -0.0072001256976180579 0 0.038693496287533137 -0.0072667699735686278 0 0.039187551990650521 -0.0072001256976180579 0 0.038868228652237366 -0.0068580834634632808 0 0.039187551990650521 -0.0072001256976180579 0 0.038868228652237366 -0.0068580834634632808 0 0.039387343748962432 -0.0067450878391338486 0 0.039950249973556777 -0.006842328106467818 0 0.039659378739869806 -0.0072892784169337893 0 0.039387343748962432 -0.0067450878391338486 0 0.039659378739869806 -0.0072892784169337893 0 0.039187551990650521 -0.0072001256976180579 0 0.039387343748962432 -0.0067450878391338486 0 0.039950249973556777 -0.006842328106467818 0 0.039387343748962432 -0.0067450878391338486 0 0.03970871208766772 -0.0063841905906403826 0 0.039387343748962432 -0.0067450878391338486 0 0.039273479312188123 -0.0061663596137821542 0 0.03970871208766772 -0.0063841905906403826 0 0.039387343748962432 -0.0067450878391338486 0 0.038897615247555743 -0.0064592903127935223 0 0.039273479312188123 -0.0061663596137821542 0 0.038868228652237366 -0.0068580834634632808 0 0.039387343748962432 -0.0067450878391338486 0 0.038897615247555743 -0.0064592903127935223 0 0.038868228652237366 -0.0068580834634632808 0 0.038897615247555743 -0.0064592903127935223 0 0.03854906333188441 -0.0065661013775697216 0 0.038805814828129823 -0.0060697816414323254 0 0.039227533618641085 -0.0057868794562793181 0 0.038382407415102869 -0.0057308575652186399 0 0.038897615247555743 -0.0064592903127935223 0 0.038805814828129823 -0.0060697816414323254 0 0.039273479312188123 -0.0061663596137821542 0 0.038805814828129823 -0.0060697816414323254 0 0.039273479312188123 -0.0061663596137821542 0 0.039227533618641085 -0.0057868794562793181 0 0.039273479312188123 -0.0061663596137821542 0 0.039583648446391666 -0.0060568156874989442 0 0.03970871208766772 -0.0063841905906403826 0 0.039273479312188123 -0.0061663596137821542 0 0.039583648446391666 -0.0060568156874989442 0 0.039227533618641085 -0.0057868794562793181 0 0.037330680561233204 -0.004686932538847363 0 0.035324399119571734 -0.0062124397045747346 0 0.035587083238679727 -0.0025979388373392892 0 0.036070869210849489 -0.0062694122266973677 0 0.037547295043105507 -0.0061582919147249171 0 0.039583648446391666 -0.0060568156874989442 0 0.039227533618641085 -0.0057868794562793181 0 0.039839411898769495 -0.0058176694583933685 0 0.037330680561233204 -0.004686932538847363 0 0.035324399119571734 -0.0062124397045747346 0 0.03900399422584961 -0.0056393195996762438 0 0.035324399119571734 -0.0062124397045747346 0 0.03900399422584961 -0.0056393195996762438 0 0.039839411898769495 -0.0058176694583933685 0 0.037330680561233204 -0.004686932538847363 0 0.035587083238679727 -0.0025979388373392892 0 0.039927174843637094 -0.0045964813697068401 0 0.031770811573304629 -0.0093154438016034204 0 0.035920828910338536 -0.0087437418076103234 0 0.036070869210849489 -0.0062694122266973677 0 0.032189056202211533 -0.0065853735124673188 0 0.035324399119571734 -0.0062124397045747346 0 0.031886088265797995 -0.0047720212467841552 0 0.030564523693777584 -0.00646129333313174 0 0.035324399119571734 -0.0062124397045747346 0 0.031886088265797995 -0.0047720212467841552 0 0.032576725252706461 -0.0031991445296735916 0 0.035324399119571734 -0.0062124397045747346 0 0.032576725252706461 -0.0031991445296735916 0 0.035587083238679727 -0.0025979388373392892 0 0.031770811573304629 -0.0093154438016034204 0 0.022805193316985908 -0.008078626756514988 0 0.032484910315154263 -0.016332542948140752 0 0.030930132603285566 -0.015610048415541308 0 0.032271180793822234 -0.015336395101456691 0 0.032576725252706461 -0.0031991445296735916 0 0.035587083238679727 -0.0025979388373392892 0 0.031074676966113397 -0.00052836522155345314 0 0.032484910315154263 -0.016332542948140752 0 0.034029761435937361 -0.017036068757765168 0 0.033503452120439127 -0.015922069567251399 0 0.032484910315154263 -0.016332542948140752 0 0.032920412410257088 -0.015524080790020918 0 0.032271180793822234 -0.015336395101456691 0 0.032484910315154263 -0.016332542948140752 0 0.032920412410257088 -0.015524080790020918 0 0.033503452120439127 -0.015922069567251399 0 0.032920412410257088 -0.015524080790020918 0 0.033503452120439127 -0.015922069567251399 0 0.033487685030131241 -0.01530766381568109 0 0.010783100023998645 -0.0041894653923208918 0 0.011744284744391993 -0.0046599812726515399 0 0.011119835442691434 -0.0049561741464517707 0 0.010783100023998645 -0.0041894653923208918 0 0.011119835442691434 -0.0049561741464517707 0 0.010544739359802654 -0.0050259510990272949 0 0.010783100023998645 -0.0041894653923208918 0 0.011744284744391993 -0.0046599812726515399 0 0.011775953202280108 -0.0036678982200927801 0 0.011744284744391993 -0.0046599812726515399 0 0.011775953202280108 -0.0036678982200927801 0 0.012443799861748818 -0.0041564201651073289 0 0.011744284744391993 -0.0046599812726515399 0 0.011585426394812231 -0.0053975152316048111 0 0.01276310961286471 -0.005595740156415719 0 0.011744284744391993 -0.0046599812726515399 0 0.011585426394812231 -0.0053975152316048111 0 0.011119835442691434 -0.0049561741464517707 0 0.011585426394812231 -0.0053975152316048111 0 0.011119835442691434 -0.0049561741464517707 0 0.010968561721295582 -0.005596702818009237 0 0.011119835442691434 -0.0049561741464517707 0 0.010593355076923189 -0.0053012450019532201 0 0.010544739359802654 -0.0050259510990272949 0 0.010968561721295582 -0.005596702818009237 0 0.010593355076923189 -0.0053012450019532201 0 0.010472594828334358 -0.0056675427144068109 0 0.011119835442691434 -0.0049561741464517707 0 0.010968561721295582 -0.005596702818009237 0 0.010593355076923189 -0.0053012450019532201 0 0.022345695659766816 -0.0067034486158142554 0 0.021702109030126999 -0.0074784643619246775 0 0.010783100023998645 -0.0041894653923208918 0 0.010544739359802654 -0.0050259510990272949 0 0.0096918424874645123 -0.0056568443364897886 0 0.010593355076923189 -0.0053012450019532201 0 0.010544739359802654 -0.0050259510990272949 0 0.0096918424874645123 -0.0056568443364897886 0 0.010593355076923189 -0.0053012450019532201 0 0.0096918424874645123 -0.0056568443364897886 0 0.010472594828334358 -0.0056675427144068109 0 0.022805193316985908 -0.008078626756514988 0 0.023967679032337739 -0.0067194893637479366 0 0.031074676966113397 -0.00052836522155345314 0 0.031045050213200046 -0.0023970734763552712 0 0.029563208567751225 -0.0025311074998768711 0 0.031009109830449046 -0.00061782977324427381 0 0.029563208567751225 -0.0025311074998768711 0 0.030547464772120711 -0.00040152810193726349 0 0.022805193316985908 -0.008078626756514988 0 0.021702109030126999 -0.0074784643619246775 0 0.032576725252706461 -0.0031991445296735916 0 0.031074676966113397 -0.00052836522155345314 0 0.031045050213200046 -0.0023970734763552712 0 0.03096473383857341 -0.003327679453880448 0 0.029563208567751225 -0.0025311074998768711 0 0.029984356320455513 -0.0042384304413409122 0 0.031045050213200046 -0.0023970734763552712 0 0.03096473383857341 -0.003327679453880448 0 0.029563208567751225 -0.0025311074998768711 0 0.032576725252706461 -0.0031991445296735916 0 0.031045050213200046 -0.0023970734763552712 0 0.03096473383857341 -0.003327679453880448 0 0.028234755151834275 -0.0034845968329600091 0 0.029563208567751225 -0.0025311074998768711 0 0.030547464772120711 -0.00040152810193726349 0 0.028234755151834275 -0.0034845968329600091 0 0.029563208567751225 -0.0025311074998768711 0 0.029984356320455513 -0.0042384304413409122 0 0.028234755151834275 -0.0034845968329600091 0 0.029984356320455513 -0.0042384304413409122 0 0.029089382232675966 -0.0048690416858022719 0 0.029984356320455513 -0.0042384304413409122 0 0.029089382232675966 -0.0048690416858022719 0 0.030564523693777584 -0.00646129333313174 0 0.028234755151834275 -0.0034845968329600091 0 0.029089382232675966 -0.0048690416858022719 0 0.028196637921874802 -0.0055717114233910063 0 0.031886088265797995 -0.0047720212467841552 0 0.029984356320455513 -0.0042384304413409122 0 0.030564523693777584 -0.00646129333313174 0 0.031886088265797995 -0.0047720212467841552 0 0.03096473383857341 -0.003327679453880448 0 0.029984356320455513 -0.0042384304413409122 0 0.031886088265797995 -0.0047720212467841552 0 0.032576725252706461 -0.0031991445296735916 0 0.03096473383857341 -0.003327679453880448 0 0.029089382232675966 -0.0048690416858022719 0 0.030564523693777584 -0.00646129333313174 0 0.028196637921874802 -0.0055717114233910063 0 0.032189056202211533 -0.0065853735124673188 0 0.023446794201283629 -0.0072800956534002786 0 0.030564523693777584 -0.00646129333313174 0 0.028196637921874802 -0.0055717114233910063 0 0.025844890987413615 -0.0066614954881571093 0 0.028234755151834275 -0.0034845968329600091 0 0.028196637921874802 -0.0055717114233910063 0 0.025844890987413615 -0.0066614954881571093 0 0.022345695659766816 -0.0067034486158142554 0 0.023446794201283629 -0.0072800956534002786 0 0.011775953202280108 -0.0036678982200927801 0 0.012140082878070613 -0.0027105190725709755 0 0.012443799861748818 -0.0041564201651073289 0 0.010783100023998645 -0.0041894653923208918 0 0.011775953202280108 -0.0036678982200927801 0 0.011901054521819471 -0.0027202276693480214 0 0.011775953202280108 -0.0036678982200927801 0 0.011901054521819471 -0.0027202276693480214 0 0.012140082878070613 -0.0027105190725709755 0 0.023446794201283629 -0.0072800956534002786 0 0.021999785302675625 -0.007278535925585204 0 0.019651392062680538 -0.012666177850934893 0 0.027590021904306965 -0.012314969074410272 0 0.025802212543188409 -0.0045610220565508374 0 0.023303415836806465 -0.00768347058101278 0 0.030577397769794127 -0.007329403994111223 0 0.037320999590467238 -0.0057495738101803525 0 0.037228086758171769 -0.0058677812232882315 0 0.038116186587853519 -0.0062320945492041454 0 0.023303415836806465 -0.00768347058101278 0 0.03230754809679174 -0.0090851407674246657 0 0.037787289618869818 -0.0059596190741391039 0 0.038362184323431962 -0.0062034648011556753 0 0.03798993361047278 -0.0066774111402715282 0 0.021999785302675625 -0.007278535925585204 0 0.023303415836806465 -0.00768347058101278 0 0.023446794201283629 -0.0072800956534002786 0 0.023303415836806465 -0.00768347058101278 0 0.034493174045733418 -0.009272887844638214 0 0.03230754809679174 -0.0090851407674246657 0 0.038805814828129823 -0.0060697816414323254 0 0.038382407415102869 -0.0057308575652186399 0 0.038116186587853519 -0.0062320945492041454 0 0.038897615247555743 -0.0064592903127935223 0 0.038805814828129823 -0.0060697816414323254 0 0.038116186587853519 -0.0062320945492041454 0 0.038382407415102869 -0.0057308575652186399 0 0.037320999590467238 -0.0057495738101803525 0 0.038116186587853519 -0.0062320945492041454 0 0.038897615247555743 -0.0064592903127935223 0 0.038362184323431962 -0.0062034648011556753 0 0.03854906333188441 -0.0065661013775697216 0 0.038502141423569253 -0.0069256636953115768 0 0.03854906333188441 -0.0065661013775697216 0 0.03798993361047278 -0.0066774111402715282 0 0.038362184323431962 -0.0062034648011556753 0 0.03854906333188441 -0.0065661013775697216 0 0.03798993361047278 -0.0066774111402715282 0 0.038502141423569253 -0.0069256636953115768 0 0.038868228652237366 -0.0068580834634632808 0 0.03854906333188441 -0.0065661013775697216 0 0.032151658065168343 -0.0098754914765017392 0 0.031585557652674297 -0.0072006017458415431 0 0.033846763278728889 -0.0076254098143991892 0 0.013521559881730255 -0.013261445100313126 0 0.011895733849388626 -0.014011053692829602 0 0.0087294786832662185 -0.012765911185954566 0 0.0088309681367241943 -0.01279410327453687 0 0.0085695492132464475 -0.012597273878851392 0 0.0088309681367241943 -0.01279410327453687 0 0.0085695492132464475 -0.012597273878851392 0 0.0090840295327524623 -0.012093364074711057 0 0.0085695492132464475 -0.012597273878851392 0 0.0077884713125139461 -0.011885684651102634 0 0.0073573473480413633 -0.012444990825422499 0 0.0085695492132464475 -0.012597273878851392 0 0.0077884713125139461 -0.011885684651102634 0 0.0083858154631355781 -0.0117823002932938 0 0.0077884713125139461 -0.011885684651102634 0 0.0083858154631355781 -0.0117823002932938 0 0.0076097156344485644 -0.011264054517344817 0 0.0083858154631355781 -0.0117823002932938 0 0.0090840295327524623 -0.012093364074711057 0 0.0091102466353737248 -0.011662301343460269 0 0.0085695492132464475 -0.012597273878851392 0 0.0083858154631355781 -0.0117823002932938 0 0.0090840295327524623 -0.012093364074711057 0 0.0098750497242884074 -0.01184328587548529 0 0.0088309681367241943 -0.01279410327453687 0 0.0090840295327524623 -0.012093364074711057 0 0.023303415836806465 -0.00768347058101278 0 0.021788728206340681 -0.0091399722551277728 0 0.0090840295327524623 -0.012093364074711057 0 0.0096073234070446108 -0.011695698164498464 0 0.0091102466353737248 -0.011662301343460269 0 0.0098750497242884074 -0.01184328587548529 0 0.0090840295327524623 -0.012093364074711057 0 0.0096073234070446108 -0.011695698164498464 0 0.023303415836806465 -0.00768347058101278 0 0.020032159279352698 -0.007477232189812489 0 0.0051696674989746595 -0.013231123564755032 0 0.0059867451552608865 -0.013979516661697531 0 0.0047481620173513419 -0.014367684846224735 0 0.0051696674989746595 -0.013231123564755032 0 0.0059867451552608865 -0.013979516661697531 0 0.0062553291721995762 -0.012724474495036673 0 0.0072128486929060164 -0.01450960753583698 0 0.0085695492132464475 -0.012597273878851392 0 0.0070657126885029804 -0.013252751521622773 0 0.0059867451552608865 -0.013979516661697531 0 0.0070657126885029804 -0.013252751521622773 0 0.0062553291721995762 -0.012724474495036673 0 0.0072128486929060164 -0.01450960753583698 0 0.0059867451552608865 -0.013979516661697531 0 0.0070657126885029804 -0.013252751521622773 0 0.0085695492132464475 -0.012597273878851392 0 0.0070657126885029804 -0.013252751521622773 0 0.0073573473480413633 -0.012444990825422499 0 0.0077884713125139461 -0.011885684651102634 0 0.0068962988600228831 -0.01179035000952376 0 0.0076097156344485644 -0.011264054517344817 0 0.0077884713125139461 -0.011885684651102634 0 0.0073573473480413633 -0.012444990825422499 0 0.0068962988600228831 -0.01179035000952376 0 0.0068962988600228831 -0.01179035000952376 0 0.0058777578146813241 -0.012041855922099868 0 0.0060967837591517464 -0.011382815355910087 0 0.0068962988600228831 -0.01179035000952376 0 0.0062553291721995762 -0.012724474495036673 0 0.0058777578146813241 -0.012041855922099868 0 0.0073573473480413633 -0.012444990825422499 0 0.0068962988600228831 -0.01179035000952376 0 0.0062553291721995762 -0.012724474495036673 0 0.0070657126885029804 -0.013252751521622773 0 0.0073573473480413633 -0.012444990825422499 0 0.0062553291721995762 -0.012724474495036673 0 0.0062553291721995762 -0.012724474495036673 0 0.0058777578146813241 -0.012041855922099868 0 0.0051747618866179413 -0.01237300739156715 0 0.0058777578146813241 -0.012041855922099868 0 0.0051747618866179413 -0.01237300739156715 0 0.0050733775195264917 -0.011449053101746215 0 0.0051747618866179413 -0.01237300739156715 0 0.0050733775195264917 -0.011449053101746215 0 0.0042550211338302059 -0.011927910465004238 0 0.0051696674989746595 -0.013231123564755032 0 0.0051747618866179413 -0.01237300739156715 0 0.0047342896840694201 -0.012657519181032575 0 0.0051696674989746595 -0.013231123564755032 0 0.0062553291721995762 -0.012724474495036673 0 0.0051747618866179413 -0.01237300739156715 0 0.0050733775195264917 -0.011449053101746215 0 0.0056068620895772863 -0.010539624982575501 0 0.0045756590679844975 -0.010458677038583939 0 0.0058777578146813241 -0.012041855922099868 0 0.0050733775195264917 -0.011449053101746215 0 0.0060967837591517464 -0.011382815355910087 0 0.0060967837591517464 -0.011382815355910087 0 0.0056068620895772863 -0.010539624982575501 0 0.0068223751482936155 -0.010908561685694096 0 0.0050733775195264917 -0.011449053101746215 0 0.0060967837591517464 -0.011382815355910087 0 0.0056068620895772863 -0.010539624982575501 0 0.0050376337705787108 -0.0078374027560519574 0 0.0081108385011251331 -0.0078957846345858451 0 0.0068223751482936155 -0.010908561685694096 0 0.0064587133415597835 -0.0098085486076633921 0 0.0082661800660847259 -0.010607902088308533 0 0.0056068620895772863 -0.010539624982575501 0 0.0068223751482936155 -0.010908561685694096 0 0.0064587133415597835 -0.0098085486076633921 0 0.0068962988600228831 -0.01179035000952376 0 0.0060967837591517464 -0.011382815355910087 0 0.0068223751482936155 -0.010908561685694096 0 0.0068223751482936155 -0.010908561685694096 0 0.0076097156344485644 -0.011264054517344817 0 0.0082661800660847259 -0.010607902088308533 0 0.0068962988600228831 -0.01179035000952376 0 0.0068223751482936155 -0.010908561685694096 0 0.0076097156344485644 -0.011264054517344817 0 -0.00043869718488076504 -0.0083600004430932247 0 0.00015153630061268155 -0.0081991225631211535 0 -0.00076640528963219361 -0.0078038212970388664 0 -0.00043869718488076504 -0.0083600004430932247 0 -0.00012646225126337714 -0.0087880153717697345 0 -0.00082347505437104374 -0.0088665656670736549 0 -0.00043869718488076504 -0.0083600004430932247 0 -0.00012646225126337714 -0.0087880153717697345 0 0.00015153630061268155 -0.0081991225631211535 0 0.0056068620895772863 -0.010539624982575501 0 0.0045756590679844975 -0.010458677038583939 0 0.004546956045836539 -0.0090651293597739258 0 -0.00012646225126337714 -0.0087880153717697345 0 0.00015153630061268155 -0.0081991225631211535 0 0.0010924838337470395 -0.0083955361772541075 0 0.0050376337705787108 -0.0078374027560519574 0 0.0038681403371538642 -0.007954714329959766 0 0.0056068620895772863 -0.010539624982575501 0 0.0064587133415597835 -0.0098085486076633921 0 0.004546956045836539 -0.0090651293597739258 0 0.020032159279352698 -0.007477232189812489 0 0.0081108385011251331 -0.0078957846345858451 0 0.013625857409649446 -0.0055880117236213082 0 0.014455394707190749 -0.0059686930046146574 0 0.013581612293883534 -0.0061576839964239743 0 0.0097586800251286548 -0.011661738291738005 0 0.0091102466353737248 -0.011662301343460269 0 0.0081624468645890291 -0.010810925713303613 0 0.021999785302675625 -0.007278535925585204 0 0.015577446368101742 -0.0066138730782426686 0 0.013466712365561045 -0.0055955241803827722 0 0.013625857409649446 -0.0055880117236213082 0 0.013581612293883534 -0.0061576839964239743 0 0.021999785302675625 -0.007278535925585204 0 0.020032159279352698 -0.007477232189812489 0 0.020264807677052344 -0.0076294912559612058 0 0.019527416344853044 -0.0044266170591343431 0 0.025986391523359763 -0.0073753118984363738 0 0.020032159279352698 -0.007477232189812489 0 0.018763395521854215 -0.0076485027838912086 0 0.0083858154631355781 -0.0117823002932938 0 0.0091102466353737248 -0.011662301343460269 0 0.0081624468645890291 -0.010810925713303613 0 0.0083858154631355781 -0.0117823002932938 0 0.0076097156344485644 -0.011264054517344817 0 0.0081624468645890291 -0.010810925713303613 0 0.0079248598844775808 -0.0081831570986262599 0 0.0081108385011251331 -0.0078957846345858451 0 -0.00043869718488076504 -0.0083600004430932247 0 -0.00076640528963219361 -0.0078038212970388664 0 -0.00082347505437104374 -0.0088665656670736549 0 0.0081108385011251331 -0.0078957846345858451 0 0.0099182949271773829 -0.007476752841827067 0 -0.00076640528963219361 -0.0078038212970388664 0 -0.00082347505437104374 -0.0088665656670736549 0 -0.001865494028240919 -0.0089206687112940858 0 0.014455394707190749 -0.0059686930046146574 0 0.013581612293883534 -0.0061576839964239743 0 0.013699813966739225 -0.006720678206269576 0 0.015577446368101742 -0.0066138730782426686 0 0.0099182949271773829 -0.007476752841827067 0 0.011744284744391993 -0.0046599812726515399 0 0.012443799861748818 -0.0041564201651073289 0 0.01276310961286471 -0.005595740156415719 0 -0.001865494028240919 -0.0089206687112940858 0 -0.0011615981732916347 -0.0094919324429452671 0 -0.001403643285995489 -0.01035019483575104 0 -0.0012850629129715723 -0.010905057398278628 0 -0.001208669655651771 -0.010623360441305872 0 -0.001403643285995489 -0.01035019483575104 0 0.0099182949271773829 -0.007476752841827067 0 0.008192390792346781 -0.0079356456790850172 0 -0.00082347505437104374 -0.0088665656670736549 0 -0.001865494028240919 -0.0089206687112940858 0 -0.0011615981732916347 -0.0094919324429452671 0 -0.00071727622698233092 -0.0097445338410602333 0 -0.0011615981732916347 -0.0094919324429452671 0 -0.001403643285995489 -0.01035019483575104 0 -0.00012646225126337714 -0.0087880153717697345 0 -0.00082347505437104374 -0.0088665656670736549 0 -0.00071727622698233092 -0.0097445338410602333 0 -0.00082347505437104374 -0.0088665656670736549 0 -0.00071727622698233092 -0.0097445338410602333 0 -0.0011615981732916347 -0.0094919324429452671 0 -0.00071727622698233092 -0.0097445338410602333 0 -0.00076653232464157415 -0.010371678109304838 0 -0.0013106831636958605 -0.010543954729229274 0 -0.00071727622698233092 -0.0097445338410602333 0 -0.001403643285995489 -0.01035019483575104 0 -0.0013106831636958605 -0.010543954729229274 0 -0.001403643285995489 -0.01035019483575104 0 -0.0013106831636958605 -0.010543954729229274 0 -0.0012044670280304251 -0.010656234226340698 0 -0.001208669655651771 -0.010623360441305872 0 -0.001403643285995489 -0.01035019483575104 0 -0.0012044670280304251 -0.010656234226340698 0 -0.00012646225126337714 -0.0087880153717697345 0 0.00013770439675401641 -0.0093029648822962451 0 0.0010924838337470395 -0.0083955361772541075 0 0.00013770439675401641 -0.0093029648822962451 0 0.00070202750961772132 -0.0095257677072373721 0 0.0010924838337470395 -0.0083955361772541075 0 0.00070202750961772132 -0.0095257677072373721 0 0.0010924838337470395 -0.0083955361772541075 0 0.00139668367129643 -0.0092863134181686013 0 -0.00012646225126337714 -0.0087880153717697345 0 -0.00071727622698233092 -0.0097445338410602333 0 0.00013770439675401641 -0.0093029648822962451 0 -0.00071727622698233092 -0.0097445338410602333 0 0.00013770439675401641 -0.0093029648822962451 0 -9.8173666206535898e-05 -0.0099741523000290988 0 -0.00071727622698233092 -0.0097445338410602333 0 -9.8173666206535898e-05 -0.0099741523000290988 0 -0.00076653232464157415 -0.010371678109304838 0 0.00013770439675401641 -0.0093029648822962451 0 -9.8173666206535898e-05 -0.0099741523000290988 0 0.00070202750961772132 -0.0095257677072373721 0 -9.8173666206535898e-05 -0.0099741523000290988 0 0.00061704179439275744 -0.010173501162083829 0 0.00070202750961772132 -0.0095257677072373721 0 0.00061704179439275744 -0.010173501162083829 0 0.00070202750961772132 -0.0095257677072373721 0 0.0011949768230562182 -0.0098462896047025478 0 0.00057198547134900064 -0.010716657000716948 0 -0.00016626222357962435 -0.010799816974845309 0 0.00087361590040749781 -0.011258929680803414 0 -9.8173666206535898e-05 -0.0099741523000290988 0 0.00061704179439275744 -0.010173501162083829 0 -0.00016626222357962435 -0.010799816974845309 0 0.00057198547134900064 -0.010716657000716948 0 0.00087361590040749781 -0.011258929680803414 0 0.0013683360848487521 -0.01052008418366319 0 0.00061704179439275744 -0.010173501162083829 0 0.00057198547134900064 -0.010716657000716948 0 0.0013683360848487521 -0.01052008418366319 0 0.00061704179439275744 -0.010173501162083829 0 0.00057198547134900064 -0.010716657000716948 0 -0.00016626222357962435 -0.010799816974845309 0 -0.00076653232464157415 -0.010371678109304838 0 -0.00016626222357962435 -0.010799816974845309 0 -0.0012507720947652276 -0.010765629784808071 0 -9.8173666206535898e-05 -0.0099741523000290988 0 -0.00076653232464157415 -0.010371678109304838 0 -0.00016626222357962435 -0.010799816974845309 0 -0.00079252500500108091 -0.011077482557008246 0 0.00025619926320791708 -0.011619693038270327 0 -0.00052982137206304659 -0.011773520774759842 0 -0.00016626222357962435 -0.010799816974845309 0 -0.00079252500500108091 -0.011077482557008246 0 -0.0012507720947652276 -0.010765629784808071 0 -0.00016626222357962435 -0.010799816974845309 0 -0.00079252500500108091 -0.011077482557008246 0 0.00025619926320791708 -0.011619693038270327 0 -0.00079252500500108091 -0.011077482557008246 0 -0.0016397074148792508 -0.011031594790057222 0 -0.00052982137206304659 -0.011773520774759842 0 -0.00016626222357962435 -0.010799816974845309 0 0.00025619926320791708 -0.011619693038270327 0 0.00087361590040749781 -0.011258929680803414 0 0.00025619926320791708 -0.011619693038270327 0 0.00087361590040749781 -0.011258929680803414 0 0.0015347553733039161 -0.011789436703629901 0 -0.0012502257697480619 -0.010736194876906861 0 -0.0013106831636958605 -0.010543954729229274 0 -0.0012044670280304251 -0.010656234226340698 0 -0.0013988883277646763 -0.010720528915379607 0 -0.0012502257697480619 -0.010736194876906861 0 -0.0012773471242060212 -0.010734438278250796 0 -0.0013988883277646763 -0.010720528915379607 0 -0.0012502257697480619 -0.010736194876906861 0 -0.0013106831636958605 -0.010543954729229274 0 -0.00076653232464157415 -0.010371678109304838 0 -0.0013106831636958605 -0.010543954729229274 0 -0.0012507720947652276 -0.010765629784808071 0 -0.0013988883277646763 -0.010720528915379607 0 -0.0013106831636958605 -0.010543954729229274 0 -0.0012507720947652276 -0.010765629784808071 0 -0.0013988883277646763 -0.010720528915379607 0 -0.0012507720947652276 -0.010765629784808071 0 -0.0016336146085359461 -0.010778836437488348 0 -0.0012507720947652276 -0.010765629784808071 0 -0.0016397074148792508 -0.011031594790057222 0 -0.0016336146085359461 -0.010778836437488348 0 -0.00079252500500108091 -0.011077482557008246 0 -0.0012507720947652276 -0.010765629784808071 0 -0.0016397074148792508 -0.011031594790057222 0 -0.0016397074148792508 -0.011031594790057222 0 -0.0016336146085359461 -0.010778836437488348 0 -0.0020059840263664925 -0.01052352786301064 0 -0.0013988883277646763 -0.010720528915379607 0 -0.0016336146085359461 -0.010778836437488348 0 -0.0012773471242060212 -0.010734438278250796 0 -0.0016336146085359461 -0.010778836437488348 0 -0.0013201945888078898 -0.010485249287594055 0 -0.0018236375027885546 -0.010249831977151446 0 -0.0016336146085359461 -0.010778836437488348 0 -0.0012773471242060212 -0.010734438278250796 0 -0.0013201945888078898 -0.010485249287594055 0 -0.0013201945888078898 -0.010485249287594055 0 -0.00081329064570477907 -0.010662614226506214 0 -0.00082354529423572169 -0.010196318040879788 0 -0.00081329064570477907 -0.010662614226506214 0 -0.00032077836942767196 -0.01042718012979716 0 -0.00082354529423572169 -0.010196318040879788 0 -0.0012773471242060212 -0.010734438278250796 0 -0.0013201945888078898 -0.010485249287594055 0 -0.00081329064570477907 -0.010662614226506214 0 -0.0012773471242060212 -0.010734438278250796 0 -0.00081329064570477907 -0.010662614226506214 0 -0.0009940601292787064 -0.010808051246995937 0 -0.0012502257697480619 -0.010736194876906861 0 -0.0012773471242060212 -0.010734438278250796 0 -0.0009940601292787064 -0.010808051246995937 0 -0.0009940601292787064 -0.010808051246995937 0 -0.00084033653355999102 -0.010845530927170454 0 -0.00062319548892194329 -0.01085162459946374 0 -0.00081329064570477907 -0.010662614226506214 0 -0.0009940601292787064 -0.010808051246995937 0 -0.00062319548892194329 -0.01085162459946374 0 -0.0009940601292787064 -0.010808051246995937 0 -0.00084033653355999102 -0.010845530927170454 0 -0.0012044670280304251 -0.010656234226340698 0 -0.0012502257697480619 -0.010736194876906861 0 -0.0009940601292787064 -0.010808051246995937 0 -0.0012044670280304251 -0.010656234226340698 0 -0.00084033653355999102 -0.010845530927170454 0 -0.00033392854500838368 -0.011053378611728785 0 -0.00062319548892194329 -0.01085162459946374 0 -0.00033392854500838368 -0.011053378611728785 0 -0.00062319548892194329 -0.01085162459946374 0 -0.00017044954365626268 -0.010811727984820833 0 -0.00081329064570477907 -0.010662614226506214 0 -0.00062319548892194329 -0.01085162459946374 0 -0.00017044954365626268 -0.010811727984820833 0 -0.00081329064570477907 -0.010662614226506214 0 -0.00017044954365626268 -0.010811727984820833 0 -0.00032077836942767196 -0.01042718012979716 0 -0.00017044954365626268 -0.010811727984820833 0 0.00029758639545118918 -0.010503155961417592 0 -0.00032077836942767196 -0.01042718012979716 0 -0.00033392854500838368 -0.011053378611728785 0 -0.00017044954365626268 -0.010811727984820833 0 0.00062706873819306423 -0.010830282994464801 0 -0.00041754167393486528 -0.016057795267183671 0 0.00086992259341815107 -0.013373285098798484 0 0.0015835378961350363 -0.014091174368576513 0 -0.00017044954365626268 -0.010811727984820833 0 0.00062706873819306423 -0.010830282994464801 0 0.00029758639545118918 -0.010503155961417592 0 0.00086992259341815107 -0.013373285098798484 0 0.0015835378961350363 -0.014091174368576513 0 0.0037800050412722494 -0.0120244308986389 0 0.0078756380092861074 -0.0096649525181611608 0 0.0070669235754466419 -0.0098229918896635283 0 0.006773451687486642 -0.010333608262318399 0 0.0049169345630075897 -0.011099400533421871 0 0.0052957800934441013 -0.010876323916557221 0 0.0078756380092861074 -0.0096649525181611608 0 0.0070669235754466419 -0.0098229918896635283 0 0.0074371674245857847 -0.0092265661001053774 0 0.0070669235754466419 -0.0098229918896635283 0 0.0068376475672749489 -0.0092498474158004482 0 0.0074371674245857847 -0.0092265661001053774 0 0.020183084652193345 -0.010483161440239912 0 0.020626803617091259 -0.010343467612316666 0 0.0068376475672749489 -0.0092498474158004482 0 0.0077182220774250311 -0.0086200311236538842 0 0.0080536128556546842 -0.0075378772069415127 0 0.03344084553685988 -0.012348440993401032 0 0.032190866564227538 -0.01398353077597128 0 0.033367743418345773 -0.013579795013605071 0 0.0068376475672749489 -0.0092498474158004482 0 0.0074371674245857847 -0.0092265661001053774 0 0.0077182220774250311 -0.0086200311236538842 0 0.0078756380092861074 -0.0096649525181611608 0 0.0074371674245857847 -0.0092265661001053774 0 0.0077182220774250311 -0.0086200311236538842 0 0.0091744952971922963 -0.0086132166663344667 0 0.0078756380092861074 -0.0096649525181611608 0 0.0077182220774250311 -0.0086200311236538842 0 0.0091744952971922963 -0.0086132166663344667 0 0.0077182220774250311 -0.0086200311236538842 0 0.0082381342364534812 -0.0081420866449091953 0 0.0052109306706510572 -0.01042132045971531 0 0.0031795350123911804 -0.011781707242760146 0 0.0052109306706510572 -0.01042132045971531 0 0.0049169345630075897 -0.011099400533421871 0 0.0091744952971922963 -0.0086132166663344667 0 0.0086544313939358776 -0.0078063900195729629 0 0.0093458015052781916 -0.0074939005817414263 0 0.0091744952971922963 -0.0086132166663344667 0 0.0086544313939358776 -0.0078063900195729629 0 0.0082381342364534812 -0.0081420866449091953 0 0.0086544313939358776 -0.0078063900195729629 0 0.0082381342364534812 -0.0081420866449091953 0 0.0080536128556546842 -0.0075378772069415127 0 0.0077182220774250311 -0.0086200311236538842 0 0.0082381342364534812 -0.0081420866449091953 0 0.0080536128556546842 -0.0075378772069415127 0 0.0086544313939358776 -0.0078063900195729629 0 0.0080536128556546842 -0.0075378772069415127 0 0.0085969759461650627 -0.0072239207776126106 0 0.0086544313939358776 -0.0078063900195729629 0 0.0085969759461650627 -0.0072239207776126106 0 0.0093458015052781916 -0.0074939005817414263 0 0.0085969759461650627 -0.0072239207776126106 0 0.0092375740204147985 -0.0070843329389286567 0 0.0093458015052781916 -0.0074939005817414263 0 0.032190866564227538 -0.01398353077597128 0 0.033367743418345773 -0.013579795013605071 0 0.032814858828144659 -0.014286706819101448 0 0.032190866564227538 -0.01398353077597128 0 0.032814858828144659 -0.014286706819101448 0 0.032238031536215114 -0.014742117639871164 0 0.033367743418345773 -0.013579795013605071 0 0.032814858828144659 -0.014286706819101448 0 0.033398866829812905 -0.014285037631658693 0 0.032937332114032922 -0.014781553156089753 0 0.03377536595624786 -0.014749685601040039 0 0.033487685030131241 -0.01530766381568109 0 0.033398866829812905 -0.014285037631658693 0 0.032937332114032922 -0.014781553156089753 0 0.03377536595624786 -0.014749685601040039 0 0.032814858828144659 -0.014286706819101448 0 0.033398866829812905 -0.014285037631658693 0 0.032937332114032922 -0.014781553156089753 0 0.032814858828144659 -0.014286706819101448 0 0.032937332114032922 -0.014781553156089753 0 0.032238031536215114 -0.014742117639871164 0 0.032937332114032922 -0.014781553156089753 0 0.032238031536215114 -0.014742117639871164 0 0.032271180793822234 -0.015336395101456691 0 0.032937332114032922 -0.014781553156089753 0 0.032920412410257088 -0.015524080790020918 0 0.032271180793822234 -0.015336395101456691 0 0.032937332114032922 -0.014781553156089753 0 0.032920412410257088 -0.015524080790020918 0 0.033487685030131241 -0.01530766381568109 0 0.030930132603285566 -0.015610048415541308 0 0.032238031536215114 -0.014742117639871164 0 0.032271180793822234 -0.015336395101456691 0 0.022805193316985908 -0.008078626756514988 0 0.020626803617091259 -0.010343467612316666 0 0.030930132603285566 -0.015610048415541308 0 0.032190866564227538 -0.01398353077597128 0 0.032238031536215114 -0.014742117639871164 0 0.0085969759461650627 -0.0072239207776126106 0 0.0097229200447784339 -0.0057382691283465242 0 0.0094090361107980226 -0.006678158573866143 0 0.0097162020540472269 -0.0054493249104737478 0 0.0080536128556546842 -0.0075378772069415127 0 0.0085969759461650627 -0.0072239207776126106 0 0.017920269946942576 -0.0092971427095976129 0 0.021702109030126999 -0.0074784643619246775 0 0.0085969759461650627 -0.0072239207776126106 0 0.0092375740204147985 -0.0070843329389286567 0 0.0094090361107980226 -0.006678158573866143 0 0.0097229200447784339 -0.0057382691283465242 0 0.0098445386515556618 -0.0063037728986517876 0 0.0094090361107980226 -0.006678158573866143 0 0.0097162020540472269 -0.0054493249104737478 0 0.0085969759461650627 -0.0072239207776126106 0 0.0099305968179042164 -0.0055475782150267083 0 0.0097229200447784339 -0.0057382691283465242 0 0.0098445386515556618 -0.0063037728986517876 0 0.010096348668436141 -0.0061094073520250834 0 0.0096052650077457537 -0.0069388993607644722 0 0.010413459684561734 -0.0065011361493615095 0 0.0093458015052781916 -0.0074939005817414263 0 0.0098445386515556618 -0.0063037728986517876 0 0.0094090361107980226 -0.006678158573866143 0 0.0098479965662541247 -0.006634039147549722 0 0.0094090361107980226 -0.006678158573866143 0 0.0098479965662541247 -0.006634039147549722 0 0.0096052650077457537 -0.0069388993607644722 0 0.0092375740204147985 -0.0070843329389286567 0 0.0094090361107980226 -0.006678158573866143 0 0.0096052650077457537 -0.0069388993607644722 0 0.0098479965662541247 -0.006634039147549722 0 0.0096052650077457537 -0.0069388993607644722 0 0.010413459684561734 -0.0065011361493615095 0 0.0098479965662541247 -0.006634039147549722 0 0.010063840096089524 -0.006445869839914015 0 0.010413459684561734 -0.0065011361493615095 0 0.0098445386515556618 -0.0063037728986517876 0 0.0098479965662541247 -0.006634039147549722 0 0.010063840096089524 -0.006445869839914015 0 0.010063840096089524 -0.006445869839914015 0 0.010413459684561734 -0.0065011361493615095 0 0.010184802984527855 -0.0062721177976428769 0 0.0096918424874645123 -0.0056568443364897886 0 0.010472594828334358 -0.0056675427144068109 0 0.010647226915905953 -0.0061144622108775457 0 0.0097229200447784339 -0.0057382691283465242 0 0.010096348668436141 -0.0061094073520250834 0 0.010647226915905953 -0.0061144622108775457 0 0.010184802984527855 -0.0062721177976428769 0 0.010096348668436141 -0.0061094073520250834 0 0.010647226915905953 -0.0061144622108775457 0 0.010413459684561734 -0.0065011361493615095 0 0.010184802984527855 -0.0062721177976428769 0 0.010647226915905953 -0.0061144622108775457 0 0.021702109030126999 -0.0074784643619246775 0 0.019868777434055952 -0.0068136669949537387 0 0.0098445386515556618 -0.0063037728986517876 0 0.010184802984527855 -0.0062721177976428769 0 0.010096348668436141 -0.0061094073520250834 0 0.0098445386515556618 -0.0063037728986517876 0 0.010063840096089524 -0.006445869839914015 0 0.010184802984527855 -0.0062721177976428769 0 0.01276310961286471 -0.005595740156415719 0 0.011395203303708881 -0.0061755358095553223 0 0.010937001730092993 -0.0074266567256366994 0 0.010968561721295582 -0.005596702818009237 0 0.010472594828334358 -0.0056675427144068109 0 0.010647226915905953 -0.0061144622108775457 0 0.011585426394812231 -0.0053975152316048111 0 0.010968561721295582 -0.005596702818009237 0 0.011395203303708881 -0.0061755358095553223 0 -0.0012850629129715723 -0.010905057398278628 0 -0.001208669655651771 -0.010623360441305872 0 -0.00097478967929314679 -0.010772390531068972 0 0.010968561721295582 -0.005596702818009237 0 0.011395203303708881 -0.0061755358095553223 0 0.010647226915905953 -0.0061144622108775457 0 0.0099182949271773829 -0.007476752841827067 0 0.0064709254818985668 -0.009500035799358493 0 0.010413459684561734 -0.0065011361493615095 0 0.010647226915905953 -0.0061144622108775457 0 0.010846753581726929 -0.0065494459887902494 0 0.011395203303708881 -0.0061755358095553223 0 0.010647226915905953 -0.0061144622108775457 0 0.010846753581726929 -0.0065494459887902494 0 0.011585426394812231 -0.0053975152316048111 0 0.01276310961286471 -0.005595740156415719 0 0.011395203303708881 -0.0061755358095553223 0 0.011395203303708881 -0.0061755358095553223 0 0.010846753581726929 -0.0065494459887902494 0 0.010937001730092993 -0.0074266567256366994 0 0.010413459684561734 -0.0065011361493615095 0 0.010846753581726929 -0.0065494459887902494 0 0.010937001730092993 -0.0074266567256366994 0 -0.001208669655651771 -0.010623360441305872 0 -0.00097478967929314679 -0.010772390531068972 0 -0.0012044670280304251 -0.010656234226340698 0 -0.00084033653355999102 -0.010845530927170454 0 -0.00097478967929314679 -0.010772390531068972 0 -0.0012044670280304251 -0.010656234226340698 0 0.0089484674820883327 -0.0093752008287694248 0 0.010413459684561734 -0.0065011361493615095 0 0.010937001730092993 -0.0074266567256366994 0 0.0052109306706510572 -0.01042132045971531 0 0.0064709254818985668 -0.009500035799358493 0 -0.00084033653355999102 -0.010845530927170454 0 -0.00033392854500838368 -0.011053378611728785 0 -0.00097478967929314679 -0.010772390531068972 0 0.0052109306706510572 -0.01042132045971531 0 0.0075611128065714598 -0.0075635532783446934 0 0.0091744952971922963 -0.0086132166663344667 0 0.010413459684561734 -0.0065011361493615095 0 0.0093458015052781916 -0.0074939005817414263 0 0.0092375740204147985 -0.0070843329389286567 0 0.0096052650077457537 -0.0069388993607644722 0 0.0093458015052781916 -0.0074939005817414263 0 0.027870662124510299 1.9413689984841536e-06 0 0.02678620224887119 -0.00018984574802412992 0 0.024367291884985546 -2.4086676074523031e-06 0 0.025519072178780931 -0.00034316888783342026 0 0.02678620224887119 -0.00018984574802412992 0 0.024367291884985546 -2.4086676074523031e-06 0 0.025519072178780931 -0.00034316888783342026 0 0.025301480255794415 -0.00024088015510114816 0 0.024023368791562454 -0.00086307364951455261 0 0.025519072178780931 -0.00034316888783342026 0 0.025301480255794415 -0.00024088015510114816 0 0.02678620224887119 -0.00018984574802412992 0 0.02611788976287021 0.00069480910657548195 0 0.02678620224887119 -0.00018984574802412992 0 0.029385318035795339 0.0011606440310267454 0 0.025301480255794415 -0.00024088015510114816 0 0.02611788976287021 0.00069480910657548195 0 0.02678620224887119 -0.00018984574802412992 0 0.027870662124510299 1.9413689984841536e-06 0 0.02678620224887119 -0.00018984574802412992 0 0.029385318035795339 0.0011606440310267454 0 0.027870662124510299 1.9413689984841536e-06 0 0.031174952571009901 0.0003488889013242585 0 0.031372725072057094 2.1210991017183562e-07 0 0.027870662124510299 1.9413689984841536e-06 0 0.031174952571009901 0.0003488889013242585 0 0.029385318035795339 0.0011606440310267454 0 0.033485497506812748 -0.00025238418080106116 0 0.031174952571009901 0.0003488889013242585 0 0.031372725072057094 2.1210991017183562e-07 0 0.033485497506812748 -0.00025238418080106116 0 0.031174952571009901 0.0003488889013242585 0 0.033064955124512019 8.4850733035027402e-05 0 0.033064955124512019 8.4850733035027402e-05 0 0.029385318035795339 0.0011606440310267454 0 0.034969141414348821 0.0017104751113538868 0 0.02611788976287021 0.00069480910657548195 0 0.029385318035795339 0.0011606440310267454 0 0.023676279561366916 0.0024755694170973779 0 0.031174952571009901 0.0003488889013242585 0 0.033064955124512019 8.4850733035027402e-05 0 0.029385318035795339 0.0011606440310267454 0 0.029150156793112069 0.00067304694729418131 0 0.028807878938775851 0.00050786352697057416 0 0.02611788976287021 0.00069480910657548195 0 0.023676279561366916 0.0024755694170973779 0 0.021160279384711871 0.0010591390679865059 0 0.035348102927673312 -0.00055542600318520051 0 0.033064955124512019 8.4850733035027402e-05 0 0.034805944639835357 0.00019520103394170108 0 0.034969141414348821 0.0017104751113538868 0 0.034805944639835357 0.00019520103394170108 0 0.035963299438217543 1.0518031372550697e-05 0 0.035348102927673312 -0.00055542600318520051 0 0.034805944639835357 0.00019520103394170108 0 0.035963299438217543 1.0518031372550697e-05 0 0.033064955124512019 8.4850733035027402e-05 0 0.034969141414348821 0.0017104751113538868 0 0.034805944639835357 0.00019520103394170108 0 0.035963299438217543 1.0518031372550697e-05 0 0.036788276908173316 0.00098668043551399789 0 0.03690937602801217 0.0001875377517428818 0 0.03700898898203428 -0.00033581540176706276 0 0.035963299438217543 1.0518031372550697e-05 0 0.03690937602801217 0.0001875377517428818 0 0.028807878938775851 0.00050786352697057416 0 0.027990805037782281 -0.00030937310635848148 0 0.021160279384711871 0.0010591390679865059 0 0.018146858158858761 -0.00015983297679990046 0 0.019063557305401994 0.0028051144004446614 0 0.023676279561366916 0.0024755694170973779 0 0.021160279384711871 0.0010591390679865059 0 0.019063557305401994 0.0028051144004446614 0 0.034969141414348821 0.0017104751113538868 0 0.035963299438217543 1.0518031372550697e-05 0 0.036788276908173316 0.00098668043551399789 0 0.020727696867295371 -0.0017328546234206279 0 0.021160279384711871 0.0010591390679865059 0 0.018146858158858761 -0.00015983297679990046 0 0.024000903087201431 -0.00028154863620009576 0 0.022399897407294544 -0.0011221278013642533 0 0.02611788976287021 0.00069480910657548195 0 0.020727696867295371 -0.0017328546234206279 0 0.021160279384711871 0.0010591390679865059 0 0.025301480255794415 -0.00024088015510114816 0 0.02611788976287021 0.00069480910657548195 0 0.022854536373856468 -0.00019806993593983723 0 0.025301480255794415 -0.00024088015510114816 0 0.022854536373856468 -0.00019806993593983723 0 0.024023368791562454 -0.00086307364951455261 0 0.022854536373856468 -0.00019806993593983723 0 0.02266386218790252 -0.0007623385244129486 0 0.022817816450981947 -0.00078560144237257523 0 0.022854536373856468 -0.00019806993593983723 0 0.023111659635113004 -0.00083954564673236192 0 0.022817816450981947 -0.00078560144237257523 0 0.022854536373856468 -0.00019806993593983723 0 0.024023368791562454 -0.00086307364951455261 0 0.023111659635113004 -0.00083954564673236192 0 0.020727696867295371 -0.0017328546234206279 0 0.015796158008719776 -0.004154418458445424 0 0.017465625509978017 -0.00162422252637561 0 0.022399897407294544 -0.0011221278013642533 0 0.021899034815917182 -0.0016868210261096503 0 0.022854536373856468 -0.00019806993593983723 0 0.02249890483731521 -0.00066924487216854522 0 0.02266386218790252 -0.0007623385244129486 0 0.015796158008719776 -0.004154418458445424 0 0.015212600926478659 -0.0004575954101744545 0 0.017465625509978017 -0.00162422252637561 0 0.020370386035285452 -0.0036042196737058095 0 0.020699388058018173 -0.0048710664867488412 0 0.021899034815917182 -0.0016868210261096503 0 0.025172172239534777 -0.0011596326972105912 0 0.036999281889623648 0.00094849558825766593 0 0.037118643543138374 0.0010087474481467115 0 0.037119359480545913 0.00050392977583150881 0 0.037118643543138374 0.0010087474481467115 0 0.037119359480545913 0.00050392977583150881 0 0.037451101599877107 0.00054238701150330772 0 0.021899034815917182 -0.0016868210261096503 0 0.020370386035285452 -0.0036042196737058095 0 0.037119359480545913 0.00050392977583150881 0 0.03739326303457461 0.000285159824961598 0 0.037451101599877107 0.00054238701150330772 0 0.015212600926478659 -0.0004575954101744545 0 0.017465625509978017 -0.00162422252637561 0 0.018146858158858761 -0.00015983297679990046 0 0.015212600926478659 -0.0004575954101744545 0 0.018146858158858761 -0.00015983297679990046 0 0.016728393644292759 0.001186565003150236 0 0.020727696867295371 -0.0017328546234206279 0 0.017465625509978017 -0.00162422252637561 0 0.018146858158858761 -0.00015983297679990046 0 0.018146858158858761 -0.00015983297679990046 0 0.016728393644292759 0.001186565003150236 0 0.019063557305401994 0.0028051144004446614 0 0.036788276908173316 0.00098668043551399789 0 0.037189397838189309 0.00036798834047600939 0 0.037521104218658008 0.0003919169255022578 0 0.027990805037782281 -0.00030937310635848148 0 0.028317206459308034 -0.0023386251425183361 0 0.016728393644292759 0.001186565003150236 0 0.019063557305401994 0.0028051144004446614 0 0.014646803486799411 0.0032336976369387324 0 0.036788276908173316 0.00098668043551399789 0 0.03690937602801217 0.0001875377517428818 0 0.037189397838189309 0.00036798834047600939 0 0.03690937602801217 0.0001875377517428818 0 0.037189397838189309 0.00036798834047600939 0 0.037269809647414776 -3.5707635249036131e-06 0 0.03700898898203428 -0.00033581540176706276 0 0.03690937602801217 0.0001875377517428818 0 0.037269809647414776 -3.5707635249036131e-06 0 0.037429913774572138 -0.00032160432903553273 0 0.037269809647414776 -3.5707635249036131e-06 0 0.037484662701814088 -8.1426681638984124e-05 0 0.037269809647414776 -3.5707635249036131e-06 0 0.037484662701814088 -8.1426681638984124e-05 0 0.037499730841944169 0.00015765987939143322 0 0.037189397838189309 0.00036798834047600939 0 0.037499730841944169 0.00015765987939143322 0 0.037521104218658008 0.0003919169255022578 0 0.037189397838189309 0.00036798834047600939 0 0.037269809647414776 -3.5707635249036131e-06 0 0.037499730841944169 0.00015765987939143322 0 0.037484662701814088 -8.1426681638984124e-05 0 0.037499730841944169 0.00015765987939143322 0 0.03754094922394445 -3.1655414220430445e-05 0 0.025172172239534777 -0.0011596326972105912 0 0.028317206459308034 -0.0023386251425183361 0 0.037499730841944169 0.00015765987939143322 0 0.037504356708429436 0.00011110054570076255 0 0.037463564691211836 9.8132436117046653e-05 0 0.037239466725736109 9.9230319086240175e-05 0 0.03739326303457461 0.000285159824961598 0 0.037463564691211836 9.8132436117046653e-05 0 0.028317206459308034 -0.0023386251425183361 0 0.029366332539914334 -0.0023440303896054906 0 0.037119359480545913 0.00050392977583150881 0 0.037239466725736109 9.9230319086240175e-05 0 0.03739326303457461 0.000285159824961598 0 0.015212600926478659 -0.0004575954101744545 0 0.016728393644292759 0.001186565003150236 0 0.014646803486799411 0.0032336976369387324 0 0.028444436204597686 -0.0022536846642712337 0 0.028317206459308034 -0.0023386251425183361 0 0.03739326303457461 0.000285159824961598 0 0.037706715509996755 0.00011851414959528661 0 0.037451101599877107 0.00054238701150330772 0 0.03739326303457461 0.000285159824961598 0 0.037463564691211836 9.8132436117046653e-05 0 0.037706715509996755 0.00011851414959528661 0 0.021213527525352906 -0.0058910063993669196 0 0.020699388058018173 -0.0048710664867488412 0 0.037463564691211836 9.8132436117046653e-05 0 0.037652067188360422 -9.4333084483569439e-05 0 0.03754094922394445 -3.1655414220430445e-05 0 0.037499730841944169 0.00015765987939143322 0 0.037463564691211836 9.8132436117046653e-05 0 0.03754094922394445 -3.1655414220430445e-05 0 0.037463564691211836 9.8132436117046653e-05 0 0.037652067188360422 -9.4333084483569439e-05 0 0.037706715509996755 0.00011851414959528661 0 0.037583779465005483 -0.00021396940774186127 0 0.037484662701814088 -8.1426681638984124e-05 0 0.03754094922394445 -3.1655414220430445e-05 0 0.037583779465005483 -0.00021396940774186127 0 0.037652067188360422 -9.4333084483569439e-05 0 0.03754094922394445 -3.1655414220430445e-05 0 0.021853702905243976 -0.0065655649776796181 0 0.021213527525352906 -0.0058910063993669196 0 0.037652067188360422 -9.4333084483569439e-05 0 0.037839794848272358 -0.00023506962800169234 0 0.037706715509996755 0.00011851414959528661 0 0.0047481620173513419 -0.014367684846224735 0 0.0043195039380014228 -0.013067796522502364 0 0.0037821290950591701 -0.01259892074729173 0 0.037687537578337246 -0.00033254837026737536 0 0.037652067188360422 -9.4333084483569439e-05 0 0.037839794848272358 -0.00023506962800169234 0 0.0051696674989746595 -0.013231123564755032 0 0.0047481620173513419 -0.014367684846224735 0 0.0043195039380014228 -0.013067796522502364 0 0.0043195039380014228 -0.013067796522502364 0 0.0047342896840694201 -0.012657519181032575 0 0.0042550211338302059 -0.011927910465004238 0 0.0043195039380014228 -0.013067796522502364 0 0.0042550211338302059 -0.011927910465004238 0 0.0028739656417980358 -0.010832484039562856 0 0.0043195039380014228 -0.013067796522502364 0 0.0037821290950591701 -0.01259892074729173 0 0.0035538804474914238 -0.010924171302168743 0 0.0051696674989746595 -0.013231123564755032 0 0.0043195039380014228 -0.013067796522502364 0 0.0047342896840694201 -0.012657519181032575 0 0.0078751186821838012 -0.0097512340448783763 0 0.0088885330082792494 -0.0081198909808818612 0 0.0051747618866179413 -0.01237300739156715 0 0.0047342896840694201 -0.012657519181032575 0 0.0042550211338302059 -0.011927910465004238 0 0.0050733775195264917 -0.011449053101746215 0 0.0042550211338302059 -0.011927910465004238 0 0.0040595754196259366 -0.010965192256537288 0 0.0050733775195264917 -0.011449053101746215 0 0.0040595754196259366 -0.010965192256537288 0 0.0045756590679844975 -0.010458677038583939 0 0.0040595754196259366 -0.010965192256537288 0 0.0045756590679844975 -0.010458677038583939 0 0.003521303220856295 -0.010163940795406589 0 0.0040595754196259366 -0.010965192256537288 0 0.0028739656417980358 -0.010832484039562856 0 0.003521303220856295 -0.010163940795406589 0 0.0042550211338302059 -0.011927910465004238 0 0.0040595754196259366 -0.010965192256537288 0 0.0028739656417980358 -0.010832484039562856 0 0.0037821290950591701 -0.01259892074729173 0 0.0029916307537131521 -0.010861403111347845 0 0.0035538804474914238 -0.010924171302168743 0 0.0088885330082792494 -0.0081198909808818612 0 0.013993234095958264 -0.0048444374266958228 0 0.0028739656417980358 -0.010832484039562856 0 0.002240786037008397 -0.0093121640214775692 0 0.003521303220856295 -0.010163940795406589 0 0.0021169561290301682 -0.0092794252221122236 0 0.0035538804474914238 -0.010924171302168743 0 0.0027135029484983411 -0.0089778810408897292 0 0.002240786037008397 -0.0093121640214775692 0 0.0032917069458939852 -0.0093658459058471952 0 0.003521303220856295 -0.010163940795406589 0 0.0028739656417980358 -0.010832484039562856 0 0.002240786037008397 -0.0093121640214775692 0 0.0016746927123198422 -0.0085805916512722499 0 0.0021169561290301682 -0.0092794252221122236 0 0.0029916307537131521 -0.010861403111347845 0 0.0035538804474914238 -0.010924171302168743 0 0.002240786037008397 -0.0093121640214775692 0 0.0026933874970204103 -0.0091029182539165542 0 0.0032917069458939852 -0.0093658459058471952 0 0.002240786037008397 -0.0093121640214775692 0 0.0026933874970204103 -0.0091029182539165542 0 0.0022146916697764044 -0.0086631005402046622 0 0.0026933874970204103 -0.0091029182539165542 0 0.0032917069458939852 -0.0093658459058471952 0 0.0024722321524629615 -0.0086703994469621744 0 0.0032917069458939852 -0.0093658459058471952 0 0.004546956045836539 -0.0090651293597739258 0 0.0024722321524629615 -0.0086703994469621744 0 0.0045756590679844975 -0.010458677038583939 0 0.004546956045836539 -0.0090651293597739258 0 0.003521303220856295 -0.010163940795406589 0 0.0032917069458939852 -0.0093658459058471952 0 0.004546956045836539 -0.0090651293597739258 0 0.003521303220856295 -0.010163940795406589 0 0.0010924838337470395 -0.0083955361772541075 0 0.0018783616736636199 -0.0089878134845562084 0 0.00139668367129643 -0.0092863134181686013 0 0.0038681403371538642 -0.007954714329959766 0 0.0035354220820549898 -0.0080011154915612375 0 0.0010924838337470395 -0.0083955361772541075 0 0.0018783616736636199 -0.0089878134845562084 0 0.0024722321524629615 -0.0086703994469621744 0 0.0018783616736636199 -0.0089878134845562084 0 0.0024191268587040538 -0.0088310874725588753 0 0.0019145392180373612 -0.0097323142154288507 0 0.0018783616736636199 -0.0089878134845562084 0 0.00139668367129643 -0.0092863134181686013 0 0.0019145392180373612 -0.0097323142154288507 0 0.0018783616736636199 -0.0089878134845562084 0 0.0024722321524629615 -0.0086703994469621744 0 0.0024191268587040538 -0.0088310874725588753 0 0.0027713156786939187 -0.008653004108944002 0 0.0024191268587040538 -0.0088310874725588753 0 0.0027970050090552648 -0.010067637499150642 0 0.0026933874970204103 -0.0091029182539165542 0 0.0024722321524629615 -0.0086703994469621744 0 0.0022146916697764044 -0.0086631005402046622 0 0.0024722321524629615 -0.0086703994469621744 0 0.0022146916697764044 -0.0086631005402046622 0 0.0024191268587040538 -0.0088310874725588753 0 0.011809143974047897 -0.0048410748488689551 0 0.011131516286462731 -0.0051682351885540944 0 0.011443280196190293 -0.005352333475769455 0 0.011809143974047897 -0.0048410748488689551 0 0.002240786037008397 -0.0093121640214775692 0 0.0016746927123198422 -0.0085805916512722499 0 0.0020969264493878744 -0.0083649459983634097 0 0.013993234095958264 -0.0048444374266958228 0 0.011809143974047897 -0.0048410748488689551 0 0.0024191268587040538 -0.0088310874725588753 0 0.0027970050090552648 -0.010067637499150642 0 0.0019145392180373612 -0.0097323142154288507 0 0.011809143974047897 -0.0048410748488689551 0 0.010693702558062344 -0.0052541708601773892 0 0.0027970050090552648 -0.010067637499150642 0 0.0019145392180373612 -0.0097323142154288507 0 0.0021828282329886214 -0.01065933415426982 0 0.00139668367129643 -0.0092863134181686013 0 0.0019145392180373612 -0.0097323142154288507 0 0.0011949768230562182 -0.0098462896047025478 0 0.00070202750961772132 -0.0095257677072373721 0 0.00139668367129643 -0.0092863134181686013 0 0.0011949768230562182 -0.0098462896047025478 0 0.00061704179439275744 -0.010173501162083829 0 0.0011949768230562182 -0.0098462896047025478 0 0.0013683360848487521 -0.01052008418366319 0 0.0019145392180373612 -0.0097323142154288507 0 0.0011949768230562182 -0.0098462896047025478 0 0.0013683360848487521 -0.01052008418366319 0 0.0019145392180373612 -0.0097323142154288507 0 0.0013683360848487521 -0.01052008418366319 0 0.0021828282329886214 -0.01065933415426982 0 0.0013683360848487521 -0.01052008418366319 0 0.0015915175838726817 -0.011157547949071929 0 0.0021828282329886214 -0.01065933415426982 0 0.00087361590040749781 -0.011258929680803414 0 0.0013683360848487521 -0.01052008418366319 0 0.0015915175838726817 -0.011157547949071929 0 0.00087361590040749781 -0.011258929680803414 0 0.0015915175838726817 -0.011157547949071929 0 0.0015347553733039161 -0.011789436703629901 0 0.0015915175838726817 -0.011157547949071929 0 0.0015347553733039161 -0.011789436703629901 0 0.0022373747748414652 -0.011264783257197505 0 0.0023060889233131928 -0.011773760494869043 0 0.0022373747748414652 -0.011264783257197505 0 0.0029323275460355256 -0.011346907073555656 0 0.0023060889233131928 -0.011773760494869043 0 0.0029323275460355256 -0.011346907073555656 0 0.0030055770069140203 -0.011848726177056472 0 0.0015347553733039161 -0.011789436703629901 0 0.0023060889233131928 -0.011773760494869043 0 0.0022373747748414652 -0.011264783257197505 0 0.0015915175838726817 -0.011157547949071929 0 0.0022373747748414652 -0.011264783257197505 0 0.0021828282329886214 -0.01065933415426982 0 0.0022373747748414652 -0.011264783257197505 0 0.0021828282329886214 -0.01065933415426982 0 0.0029215494316352929 -0.011365200272054359 0 0.0073020055664596798 -0.0053049449885997592 0 0.0083887492840124412 -0.0050468945707903886 0 0.0027970050090552648 -0.010067637499150642 0 0.0021828282329886214 -0.01065933415426982 0 0.0029215494316352929 -0.011365200272054359 0 0.010693702558062344 -0.0052541708601773892 0 0.0083887492840124412 -0.0050468945707903886 0 0.022847874644497935 -0.00047458075292441059 0 0.022751437661458335 -0.00042730475181622943 0 0.022757771565458804 -0.00032536332674151184 0 0.022847874644497935 -0.00047458075292441059 0 0.022757771565458804 -0.00032536332674151184 0 0.022801833073057619 -0.00022598607384694718 0 0.022751437661458335 -0.00042730475181622943 0 0.022708005974792816 -0.0003818396855459712 0 0.022757771565458804 -0.00032536332674151184 0 0.022708005974792816 -0.0003818396855459712 0 0.022587311132417374 -0.00054082077211040579 0 0.022697241819675341 -0.00046299294018988495 0 0.022751437661458335 -0.00042730475181622943 0 0.022708005974792816 -0.0003818396855459712 0 0.022697241819675341 -0.00046299294018988495 0 0.022708005974792816 -0.0003818396855459712 0 0.022757771565458804 -0.00032536332674151184 0 0.022687434072692757 -0.00027167769760019339 0 0.022757771565458804 -0.00032536332674151184 0 0.022801833073057619 -0.00022598607384694718 0 0.02272168880300085 -0.00021746971085983907 0 0.022757771565458804 -0.00032536332674151184 0 0.02272168880300085 -0.00021746971085983907 0 0.022687434072692757 -0.00027167769760019339 0 0.0083887492840124412 -0.0050468945707903886 0 0.011280862389668763 -0.0028577253901447409 0 0.00084214263283958568 0.0044225514557967652 0 -0.00078907559367622914 0.0033242917499942451 0 0.00018293792620747794 0.0022484946838496186 0 0.011280862389668763 -0.0028577253901447409 0 0.0066862079696856343 -0.0043528351081995494 0 0.0077880935122954728 -0.003595406490459791 0 0.0069049124417621252 -0.0034623645885047669 0 0.0076958385068694891 -0.0029446392018680819 0 0.0083887492840124412 -0.0050468945707903886 0 0.0066862079696856343 -0.0043528351081995494 0 0.02272168880300085 -0.00021746971085983907 0 0.022687434072692757 -0.00027167769760019339 0 0.02254205031322757 -0.0002025391695759806 0 0.011280862389668763 -0.0028577253901447409 0 0.013184025234432456 -0.0004416039366595887 0 0.00084214263283958568 0.0044225514557967652 0 0.0050002190921964373 0.0038835768522056556 0 0.0030562798587872773 0.0019490432672608167 0 0.011280862389668763 -0.0028577253901447409 0 0.017472917161276049 0.00013700427599964458 0 0.02368736253149506 0.00057251175000990146 0 0.02254205031322757 -0.0002025391695759806 0 0.02228008542858384 0.00083579552456268893 0 0.022708005974792816 -0.0003818396855459712 0 0.022687434072692757 -0.00027167769760019339 0 0.022587311132417374 -0.00054082077211040579 0 0.021641755197009872 -0.0010911550396926579 0 0.021551390444461985 -0.0013462586919832898 0 0.022687434072692757 -0.00027167769760019339 0 0.022677550940184484 -0.00043494339859551534 0 0.02254205031322757 -0.0002025391695759806 0 0.022687434072692757 -0.00027167769760019339 0 0.022677550940184484 -0.00043494339859551534 0 0.022812769422549003 -0.00055677774562141417 0 0.022677550940184484 -0.00043494339859551534 0 0.022704982058854833 -0.00058135366992479657 0 0.022608193097002287 -0.00069623908515583917 0 0.02273919661979297 -0.00076909427625779312 0 0.022812769422549003 -0.00055677774562141417 0 0.022763821436423515 -0.00085437576910495777 0 0.022677550940184484 -0.00043494339859551534 0 0.022704982058854833 -0.00058135366992479657 0 0.022812769422549003 -0.00055677774562141417 0 0.021551390444461985 -0.0013462586919832898 0 0.021270786142094 -0.0021981490162229366 0 0.022712967407188971 -0.00068560272486609911 0 0.022702319276655909 -0.00080096766300443128 0 0.022608193097002287 -0.00069623908515583917 0 0.022704982058854833 -0.00058135366992479657 0 0.022712967407188971 -0.00068560272486609911 0 0.022608193097002287 -0.00069623908515583917 0 0.022712967407188971 -0.00068560272486609911 0 0.02273919661979297 -0.00076909427625779312 0 0.022702319276655909 -0.00080096766300443128 0 0.022712967407188971 -0.00068560272486609911 0 0.02273919661979297 -0.00076909427625779312 0 0.022812769422549003 -0.00055677774562141417 0 0.022704982058854833 -0.00058135366992479657 0 0.022712967407188971 -0.00068560272486609911 0 0.022812769422549003 -0.00055677774562141417 0 0.022697241819675341 -0.00046299294018988495 0 0.022753989677304867 -0.00052853352397936031 0 0.022736285726406829 -0.00064136786629865944 0 0.022870498012786629 -0.00081267291542698168 0 0.022847874644497935 -0.00047458075292441059 0 0.022736285726406829 -0.00064136786629865944 0 0.022587311132417374 -0.00054082077211040579 0 0.022697241819675341 -0.00046299294018988495 0 0.022915379629144739 -0.00088733833548148091 0 0.016634801292394714 -0.0036313976434881939 0 0.016024623515627709 -0.0039588924383336041 0 0.022587311132417374 -0.00054082077211040579 0 0.022915379629144739 -0.00088733833548148091 0 0.022627758494999792 -0.0010763501723305225 0 0.022751437661458335 -0.00042730475181622943 0 0.022697241819675341 -0.00046299294018988495 0 0.022753989677304867 -0.00052853352397936031 0 0.022847874644497935 -0.00047458075292441059 0 0.022751437661458335 -0.00042730475181622943 0 0.022753989677304867 -0.00052853352397936031 0 0.022847874644497935 -0.00047458075292441059 0 0.022753989677304867 -0.00052853352397936031 0 0.022736285726406829 -0.00064136786629865944 0 0.022915379629144739 -0.00088733833548148091 0 0.022627758494999792 -0.0010763501723305225 0 0.02289290812616188 -0.0012164633381414069 0 0.013993234095958264 -0.0048444374266958228 0 0.016024623515627709 -0.0039588924383336041 0 0.022807816554427939 -0.00084511403513095273 0 0.022870498012786629 -0.00081267291542698168 0 0.022736285726406829 -0.00064136786629865944 0 0.023153958523723601 -0.0013830679242181614 0 0.022915379629144739 -0.00088733833548148091 0 0.02289290812616188 -0.0012164633381414069 0 0.020370386035285452 -0.0036042196737058095 0 0.013993234095958264 -0.0048444374266958228 0 0.022877279426841396 -0.0015227172710378027 0 0.023153958523723601 -0.0013830679242181614 0 0.02289290812616188 -0.0012164633381414069 0 0.020370386035285452 -0.0036042196737058095 0 0.021270786142094 -0.0021981490162229366 0 0.021899034815917182 -0.0016868210261096503 0 0.021270786142094 -0.0021981490162229366 0 0.022877279426841396 -0.0015227172710378027 0 0.022627758494999792 -0.0010763501723305225 0 0.02289290812616188 -0.0012164633381414069 0 0.020992763221399719 -0.0049771612490052772 0 0.022131013998686236 -0.0044025913961080422 0 0.020473220869182206 -0.0017051452505617037 0 0.02249890483731521 -0.00066924487216854522 0 0.022660588192602207 -0.00079853468592624803 0 0.02266386218790252 -0.0007623385244129486 0 0.02266386218790252 -0.0007623385244129486 0 0.022702319276655909 -0.00080096766300443128 0 0.022817816450981947 -0.00078560144237257523 0 0.02266386218790252 -0.0007623385244129486 0 0.022702319276655909 -0.00080096766300443128 0 0.022694037487577867 -0.00079314990811522391 0 0.02273919661979297 -0.00076909427625779312 0 0.022702319276655909 -0.00080096766300443128 0 0.022694037487577867 -0.00079314990811522391 0 0.022660588192602207 -0.00079853468592624803 0 0.02266386218790252 -0.0007623385244129486 0 0.022694037487577867 -0.00079314990811522391 0 0.02273919661979297 -0.00076909427625779312 0 0.022660588192602207 -0.00079853468592624803 0 0.022694037487577867 -0.00079314990811522391 0 0.021278488445401405 -0.002166203180340913 0 0.021270786142094 -0.0021981490162229366 0 0.022778076369330127 -0.00082790554305222784 0 0.022580342862512169 -0.00083031509452945705 0 0.022608193097002287 -0.00069623908515583917 0 0.022702319276655909 -0.00080096766300443128 0 0.022778076369330127 -0.00082790554305222784 0 0.022817816450981947 -0.00078560144237257523 0 0.022702319276655909 -0.00080096766300443128 0 0.022778076369330127 -0.00082790554305222784 0 0.022608193097002287 -0.00069623908515583917 0 0.023111659635113004 -0.00083954564673236192 0 0.022778076369330127 -0.00082790554305222784 0 0.022817816450981947 -0.00078560144237257523 0 0.023111659635113004 -0.00083954564673236192 0 0.022778076369330127 -0.00082790554305222784 0 0.022580342862512169 -0.00083031509452945705 0 0.024023368791562454 -0.00086307364951455261 0 0.023111659635113004 -0.00083954564673236192 0 0.022580342862512169 -0.00083031509452945705 0 0.024023368791562454 -0.00086307364951455261 0 0.022580342862512169 -0.00083031509452945705 0 0.021395545078667311 -0.00082540505878537368 0 0.022580342862512169 -0.00083031509452945705 0 0.022269577184804393 -0.00047621773185773021 0 0.021431189170824826 -0.00036774451385636857 0 0.022580342862512169 -0.00083031509452945705 0 0.022608193097002287 -0.00069623908515583917 0 0.022269577184804393 -0.00047621773185773021 0 0.022677550940184484 -0.00043494339859551534 0 0.022608193097002287 -0.00069623908515583917 0 0.022269577184804393 -0.00047621773185773021 0 0.022677550940184484 -0.00043494339859551534 0 0.022269577184804393 -0.00047621773185773021 0 0.02254205031322757 -0.0002025391695759806 0 0.022269577184804393 -0.00047621773185773021 0 0.02254205031322757 -0.0002025391695759806 0 0.021769334936883288 8.7770210472705367e-05 0 0.02254205031322757 -0.0002025391695759806 0 0.02228008542858384 0.00083579552456268893 0 0.021769334936883288 8.7770210472705367e-05 0 0.013184025234432456 -0.0004416039366595887 0 0.014587366651727988 0.00024040361268475377 0 0.02228008542858384 0.00083579552456268893 0 0.021769334936883288 8.7770210472705367e-05 0 0.02025190575589287 0.00092837797775645824 0 0.021431189170824826 -0.00036774451385636857 0 0.021769334936883288 8.7770210472705367e-05 0 0.02025190575589287 0.00092837797775645824 0 0.022269577184804393 -0.00047621773185773021 0 0.021431189170824826 -0.00036774451385636857 0 0.021769334936883288 8.7770210472705367e-05 0 0.021431189170824826 -0.00036774451385636857 0 0.020259822850469004 -0.00028293517176474772 0 0.02025190575589287 0.00092837797775645824 0 0.018259269249567549 -1.8082599421371345e-06 0 0.020259822850469004 -0.00028293517176474772 0 0.02025190575589287 0.00092837797775645824 0 0.018259269249567549 -1.8082599421371345e-06 0 0.01566278070792905 4.8042615880053125e-06 0 0.02025190575589287 0.00092837797775645824 0 0.018259269249567549 -1.8082599421371345e-06 0 0.020259822850469004 -0.00028293517176474772 0 0.020862002650772083 -1.0215345349058797e-06 0 0.020867410947840503 -8.0244648549169489e-07 0 0.022266228487979042 -0.00062871293367211577 0 0.020259822850469004 -0.00028293517176474772 0 0.020862002650772083 -1.0215345349058797e-06 0 0.021395545078667311 -0.00082540505878537368 0 0.022580342862512169 -0.00083031509452945705 0 0.021431189170824826 -0.00036774451385636857 0 0.021395545078667311 -0.00082540505878537368 0 0.021431189170824826 -0.00036774451385636857 0 0.020259822850469004 -0.00028293517176474772 0 0.021395545078667311 -0.00082540505878537368 0 0.02259888668459898 -0.00067527866764429268 0 0.022266228487979042 -0.00062871293367211577 0 0.025519072178780931 -0.00034316888783342026 0 0.024023368791562454 -0.00086307364951455261 0 0.024937277046186316 -0.00025522320635937729 0 0.020869387039692957 2.4135380300548487e-06 0 0.024937277046186316 -0.00025522320635937729 0 0.024367291884985546 -2.4086676074523031e-06 0 0.025519072178780931 -0.00034316888783342026 0 0.024937277046186316 -0.00025522320635937729 0 0.024367291884985546 -2.4086676074523031e-06 0 0.0087511352730618962 -0.00067203345114380877 0 0.0089869404104962625 -2.1518230521071252e-06 0 0.0098283055387848005 -0.00023337853122992283 0 0.0087511352730618962 -0.00067203345114380877 0 0.0083449797713124295 -0.00039146261180869927 0 0.0098283055387848005 -0.00023337853122992283 0 0.0087511352730618962 -0.00067203345114380877 0 0.008032677228814367 -0.0007442556727731449 0 0.0082420617048285048 -0.001203461984352171 0 0.0087511352730618962 -0.00067203345114380877 0 0.0089869404104962625 -2.1518230521071252e-06 0 0.008032677228814367 -0.0007442556727731449 0 0.006656932751694186 -0.00090146502970159823 0 0.0083449797713124295 -0.00039146261180869927 0 0.0049826942514557999 2.4317014217761826e-05 0 0.0037215535927953942 -0.002003114618437888 0 0.0082937071482473996 -0.0022448504563700789 0 0.0081270880987661751 -0.0016771614721925324 0 0.0087511352730618962 -0.00067203345114380877 0 0.0082420617048285048 -0.001203461984352171 0 0.008074513788370109 -0.00097982850179084593 0 0.0082420617048285048 -0.001203461984352171 0 0.0079593959329177875 -0.0013249770611347392 0 0.0081270880987661751 -0.0016771614721925324 0 0.0082420617048285048 -0.001203461984352171 0 0.0079593959329177875 -0.0013249770611347392 0 0.008074513788370109 -0.00097982850179084593 0 0.0079593959329177875 -0.0013249770611347392 0 0.0070673680790601977 -0.0013288286816652793 0 0.0081270880987661751 -0.0016771614721925324 0 0.0079593959329177875 -0.0013249770611347392 0 0.0070673680790601977 -0.0013288286816652793 0 0.008074513788370109 -0.00097982850179084593 0 0.0070673680790601977 -0.0013288286816652793 0 0.006656932751694186 -0.00090146502970159823 0 0.008074513788370109 -0.00097982850179084593 0 0.006656932751694186 -0.00090146502970159823 0 0.008074513788370109 -0.00097982850179084593 0 0.0083449797713124295 -0.00039146261180869927 0 0.0087511352730618962 -0.00067203345114380877 0 0.008074513788370109 -0.00097982850179084593 0 0.0083449797713124295 -0.00039146261180869927 0 0.010346597145953729 -0.00099367932276485773 0 0.0067166593819698939 -0.0017395757132665827 0 0.011142919122722361 -0.0017921090972676218 0 0.0078875859732700903 -0.0015731138268415686 0 0.0071831221848983329 -0.0034413842538800858 0 0.0083449797713124295 -0.00039146261180869927 0 0.0098283055387848005 -0.00023337853122992283 0 0.0095294166669052174 0.0010930213782840551 0 0.0083449797713124295 -0.00039146261180869927 0 0.0095294166669052174 0.0010930213782840551 0 0.0049826942514557999 2.4317014217761826e-05 0 0.011797824983294274 3.2382266644007167e-08 0 0.0098283055387848005 -0.00023337853122992283 0 0.0095294166669052174 0.0010930213782840551 0 0.0089869404104962625 -2.1518230521071252e-06 0 0.011797824983294274 3.2382266644007167e-08 0 0.0098283055387848005 -0.00023337853122992283 0 0.01461176670438934 -4.5177035468148659e-06 0 0.0120617547034787 0.0002878484854290071 0 0.011142919122722361 -0.0017921090972676218 0 0.011797824983294274 3.2382266644007167e-08 0 0.014601941451655821 2.7964699771392955e-06 0 0.0095294166669052174 0.0010930213782840551 0 0.014600446981598101 1.232559585119229e-07 0 0.010346597145953729 -0.00099367932276485773 0 0.01461176670438934 -4.5177035468148659e-06 0 0.015648835379491109 6.3665207255261994e-06 0 0.0120617547034787 0.0002878484854290071 0 0.015648835379491109 6.3665207255261994e-06 0 0.0120617547034787 0.0002878484854290071 0 0.0098495333010232295 0.0030239758442454166 0 0.015654330965934202 6.2670030695654151e-07 0 0.014587366651727988 0.00024040361268475377 0 0.0120617547034787 0.0002878484854290071 0 0.0098495333010232295 0.0030239758442454166 0 0.0078395719648519692 0.00035127866999086293 0 0.011142919122722361 -0.0017921090972676218 0 0.0078875859732700903 -0.0015731138268415686 0 0.0078395719648519692 0.00035127866999086293 0 0.0120617547034787 0.0002878484854290071 0 0.011142919122722361 -0.0017921090972676218 0 0.0078395719648519692 0.00035127866999086293 0 0.0078875859732700903 -0.0015731138268415686 0 0.0078395719648519692 0.00035127866999086293 0 0.0055414196431776089 -0.0013645317297106701 0 0.0050002190921964373 0.0038835768522056556 0 0.0098495333010232295 0.0030239758442454166 0 0.0078395719648519692 0.00035127866999086293 0 0.0050002190921964373 0.0038835768522056556 0 0.0043395114430018027 0.00047402542016956981 0 0.0030562798587872773 0.0019490432672608167 0 0.0050002190921964373 0.0038835768522056556 0 0.0078395719648519692 0.00035127866999086293 0 0.0043395114430018027 0.00047402542016956981 0 0.0078395719648519692 0.00035127866999086293 0 0.0043395114430018027 0.00047402542016956981 0 0.0055414196431776089 -0.0013645317297106701 0 0.0043395114430018027 0.00047402542016956981 0 0.0035628129780552031 -0.001560968330107547 0 0.0026205850968791405 -0.00059610795906366813 0 0.0043395114430018027 0.00047402542016956981 0 0.0055414196431776089 -0.0013645317297106701 0 0.0035628129780552031 -0.001560968330107547 0 0.0055414196431776089 -0.0013645317297106701 0 0.0035628129780552031 -0.001560968330107547 0 0.0045504996738290962 -0.0028666225364582581 0 0.0055414196431776089 -0.0013645317297106701 0 0.0045504996738290962 -0.0028666225364582581 0 0.0071831221848983329 -0.0034413842538800858 0 0.0035628129780552031 -0.001560968330107547 0 0.0045504996738290962 -0.0028666225364582581 0 0.0027029376110402452 -0.0031068773591697131 0 0.0078875859732700903 -0.0015731138268415686 0 0.0055414196431776089 -0.0013645317297106701 0 0.0071831221848983329 -0.0034413842538800858 0 0.0037215535927953942 -0.002003114618437888 0 0.0032803758871025671 -0.0022728669842696065 0 0.0023595284083905597 -0.001806201329060283 0 0.0034547752634381179 -0.00022837887045723906 0 0.0036588994799586004 1.1479437347104785e-05 0 0.0070673680790601977 -0.0013288286816652793 0 0.0037215535927953942 -0.002003114618437888 0 0.0081270880987661751 -0.0016771614721925324 0 0.0049826942514557999 2.4317014217761826e-05 0 0.0037215535927953942 -0.002003114618437888 0 0.0032803758871025671 -0.0022728669842696065 0 0.006656932751694186 -0.00090146502970159823 0 0.0049826942514557999 2.4317014217761826e-05 0 0.0037215535927953942 -0.002003114618437888 0 0.0070673680790601977 -0.0013288286816652793 0 0.006656932751694186 -0.00090146502970159823 0 0.0037215535927953942 -0.002003114618437888 0 0.0067166593819698939 -0.0017395757132665827 0 0.0035147963677554161 -0.0022664967751089317 0 0.0045504996738290962 -0.0028666225364582581 0 0.0071831221848983329 -0.0034413842538800858 0 0.0038712051298053123 -0.0046915357194653833 0 0.0045504996738290962 -0.0028666225364582581 0 0.0038712051298053123 -0.0046915357194653833 0 0.0027029376110402452 -0.0031068773591697131 0 0.0017628906951600899 -0.00432873600998516 0 0.00073383360124882181 -0.0032275321826214028 0 0.0027029376110402452 -0.0031068773591697131 0 0.0038712051298053123 -0.0046915357194653833 0 0.0017628906951600899 -0.00432873600998516 0 0.0027029376110402452 -0.0031068773591697131 0 0.00073383360124882181 -0.0032275321826214028 0 -0.0014514954901749223 -0.0031521536570711575 0 0.00029387238898567444 -0.004629489914635309 0 0.0017628906951600899 -0.00432873600998516 0 0.00073383360124882181 -0.0032275321826214028 0 0.00029387238898567444 -0.004629489914635309 0 0.00073383360124882181 -0.0032275321826214028 0 -0.00045008029232707346 -0.00178421284832311 0 -0.0014514954901749223 -0.0031521536570711575 0 0.00073383360124882181 -0.0032275321826214028 0 -0.00045008029232707346 -0.00178421284832311 0 0.0015195025957479493 -0.0017418120985027237 0 -0.00045008029232707346 -0.00178421284832311 0 0.00043873124322199196 -0.0010787999894633379 0 -0.00024646681202166338 -0.00042865372410836184 0 -0.00045008029232707346 -0.00178421284832311 0 0.0015195025957479493 -0.0017418120985027237 0 0.00043873124322199196 -0.0010787999894633379 0 0.0015195025957479493 -0.0017418120985027237 0 0.001416728853647911 -0.00063008200730075984 0 0.00043873124322199196 -0.0010787999894633379 0 0.00073383360124882181 -0.0032275321826214028 0 0.0015195025957479493 -0.0017418120985027237 0 0.0027029376110402452 -0.0031068773591697131 0 0.0035628129780552031 -0.001560968330107547 0 0.0015195025957479493 -0.0017418120985027237 0 0.0027029376110402452 -0.0031068773591697131 0 0.0035628129780552031 -0.001560968330107547 0 0.0015195025957479493 -0.0017418120985027237 0 0.0026205850968791405 -0.00059610795906366813 0 0.0026205850968791405 -0.00059610795906366813 0 0.001416728853647911 -0.00063008200730075984 0 0.0023008038878354672 0.00049444122997643674 0 0.0015195025957479493 -0.0017418120985027237 0 0.0026205850968791405 -0.00059610795906366813 0 0.001416728853647911 -0.00063008200730075984 0 0.0023008038878354672 0.00049444122997643674 0 0.0016143022187049601 0.0012932732543422107 0 0.00087507172119502042 0.00028582029175935149 0 0.001416728853647911 -0.00063008200730075984 0 0.0023008038878354672 0.00049444122997643674 0 0.00087507172119502042 0.00028582029175935149 0 0.0043395114430018027 0.00047402542016956981 0 0.0026205850968791405 -0.00059610795906366813 0 0.0023008038878354672 0.00049444122997643674 0 0.0023008038878354672 0.00049444122997643674 0 0.0030562798587872773 0.0019490432672608167 0 0.0016143022187049601 0.0012932732543422107 0 0.00084214263283958568 0.0044225514557967652 0 0.0030562798587872773 0.0019490432672608167 0 0.0012249252968256183 0.0023443953681027839 0 0.0043395114430018027 0.00047402542016956981 0 0.0023008038878354672 0.00049444122997643674 0 0.0030562798587872773 0.0019490432672608167 0 0.0030562798587872773 0.0019490432672608167 0 0.0016143022187049601 0.0012932732543422107 0 0.0012249252968256183 0.0023443953681027839 0 0.0016143022187049601 0.0012932732543422107 0 0.0012249252968256183 0.0023443953681027839 0 0.00064318349614533529 0.0014236639706683967 0 -0.00078907559367622914 0.0033242917499942451 0 0.00018293792620747794 0.0022484946838496186 0 -0.00045234298285403481 0.0010166450259256512 0 0.0066862079696856343 -0.0043528351081995494 0 0.0036665396644274852 -0.0024592383106613867 0 0.00084214263283958568 0.0044225514557967652 0 0.0012249252968256183 0.0023443953681027839 0 0.00018293792620747794 0.0022484946838496186 0 0.00018293792620747794 0.0022484946838496186 0 0.00064318349614533529 0.0014236639706683967 0 -0.00045234298285403481 0.0010166450259256512 0 0.0012249252968256183 0.0023443953681027839 0 0.00018293792620747794 0.0022484946838496186 0 0.00064318349614533529 0.0014236639706683967 0 0.0016143022187049601 0.0012932732543422107 0 0.00064318349614533529 0.0014236639706683967 0 0.00087507172119502042 0.00028582029175935149 0 0.00064318349614533529 0.0014236639706683967 0 -0.00045234298285403481 0.0010166450259256512 0 0.0002297310841560015 0.00057128386060487546 0 -0.00045234298285403481 0.0010166450259256512 0 0.0002297310841560015 0.00057128386060487546 0 -0.00024646681202166338 -0.00042865372410836184 0 0.0036665396644274852 -0.0024592383106613867 0 0.003469167252890067 -0.0020671960652588876 0 -0.00049506208959238462 0.00043811235995747051 0 -0.00024646681202166338 -0.00042865372410836184 0 -0.0013066877722935589 -0.00012770761460828895 0 0.00064318349614533529 0.0014236639706683967 0 0.0002297310841560015 0.00057128386060487546 0 0.00087507172119502042 0.00028582029175935149 0 0.0002297310841560015 0.00057128386060487546 0 0.00087507172119502042 0.00028582029175935149 0 -0.00024646681202166338 -0.00042865372410836184 0 0.00087507172119502042 0.00028582029175935149 0 0.00043873124322199196 -0.0010787999894633379 0 -0.00024646681202166338 -0.00042865372410836184 0 0.001416728853647911 -0.00063008200730075984 0 0.00087507172119502042 0.00028582029175935149 0 0.00043873124322199196 -0.0010787999894633379 0 -0.00045008029232707346 -0.00178421284832311 0 -0.00024646681202166338 -0.00042865372410836184 0 -0.0017464503972942336 -0.00090122759439292984 0 -0.0017464503972942336 -0.00090122759439292984 0 -0.0013066877722935589 -0.00012770761460828895 0 -0.0026317926257076489 0.00030132718858022836 0 -0.00024646681202166338 -0.00042865372410836184 0 -0.0017464503972942336 -0.00090122759439292984 0 -0.0013066877722935589 -0.00012770761460828895 0 -0.00049506208959238462 0.00043811235995747051 0 -0.0013066877722935589 -0.00012770761460828895 0 -0.0026317926257076489 0.00030132718858022836 0 0.0066862079696856343 -0.0043528351081995494 0 0.00090720526424990571 -0.0042210841509185363 0 0.0036665396644274852 -0.0024592383106613867 0 0.00090720526424990571 -0.0042210841509185363 0 0.0051216138469220903 -0.003355112427667993 0 0.0052837086246530426 -0.004531512012489752 0 0.0035343283924613497 -0.0043853087151646238 0 0.0023060889233131928 -0.011773760494869043 0 0.0030055770069140203 -0.011848726177056472 0 0.0018094858616189778 -0.012629081252261783 0 0.0015347553733039161 -0.011789436703629901 0 0.0018094858616189778 -0.012629081252261783 0 0.00028921976743738286 -0.012496022996329971 0 0.00090720526424990571 -0.0042210841509185363 0 -0.0012228619519391937 -0.0057973310215195199 0 0.0015347553733039161 -0.011789436703629901 0 0.0023060889233131928 -0.011773760494869043 0 0.0018094858616189778 -0.012629081252261783 0 0.00090720526424990571 -0.0042210841509185363 0 -0.00093195461800017927 -0.0038174533349582614 0 -0.0026317926257076489 0.00030132718858022836 0 -0.0030407820599053182 -0.0014639114695874839 0 -0.0040080751846862384 -0.0012877505207217099 0 -0.0017464503972942336 -0.00090122759439292984 0 -0.0026317926257076489 0.00030132718858022836 0 -0.0030407820599053182 -0.0014639114695874839 0 -0.0030407820599053182 -0.0014639114695874839 0 -0.0020405649815641194 -0.0019543533554612666 0 -0.0031057059619860341 -0.0025281280139063198 0 -0.0030407820599053182 -0.0014639114695874839 0 -0.0031057059619860341 -0.0025281280139063198 0 -0.0037343018841586198 -0.0022154640084695713 0 -0.0017464503972942336 -0.00090122759439292984 0 -0.0030407820599053182 -0.0014639114695874839 0 -0.0020405649815641194 -0.0019543533554612666 0 -0.00045008029232707346 -0.00178421284832311 0 -0.0020405649815641194 -0.0019543533554612666 0 -0.0014514954901749223 -0.0031521536570711575 0 -0.00045008029232707346 -0.00178421284832311 0 -0.0017464503972942336 -0.00090122759439292984 0 -0.0020405649815641194 -0.0019543533554612666 0 -0.0014514954901749223 -0.0031521536570711575 0 -0.0031057059619860341 -0.0025281280139063198 0 -0.0034634098058414142 -0.0031977117998701907 0 -0.0020405649815641194 -0.0019543533554612666 0 -0.0014514954901749223 -0.0031521536570711575 0 -0.0031057059619860341 -0.0025281280139063198 0 -0.0031057059619860341 -0.0025281280139063198 0 -0.0037278088995557732 -0.0027459640488332257 0 -0.0034634098058414142 -0.0031977117998701907 0 -0.0031057059619860341 -0.0025281280139063198 0 -0.0037278088995557732 -0.0027459640488332257 0 -0.0037343018841586198 -0.0022154640084695713 0 -0.0037278088995557732 -0.0027459640488332257 0 -0.0039922681152387866 -0.0023077459663014637 0 -0.0040896714895847308 -0.0022719782923368071 0 -0.0037278088995557732 -0.0027459640488332257 0 -0.0034634098058414142 -0.0031977117998701907 0 -0.0039922681152387866 -0.0023077459663014637 0 -0.0034634098058414142 -0.0031977117998701907 0 -0.0041979998282134596 -0.0022345740523720412 0 -0.0045462984198343928 -0.0023508018863453474 0 -0.0014514954901749223 -0.0031521536570711575 0 -0.0034634098058414142 -0.0031977117998701907 0 -0.0011153442056319113 -0.0050674762147676451 0 -0.0016746566170427236 -0.002653946135764672 0 -0.0012762377128325746 -0.0026173116652569734 0 -0.0041979998282134596 -0.0022345740523720412 0 -0.0045362220366676545 -0.0018641927168536259 0 -0.0045462984198343928 -0.0023508018863453474 0 -0.0034634098058414142 -0.0031977117998701907 0 -0.0041979998282134596 -0.0022345740523720412 0 -0.0039922681152387866 -0.0023077459663014637 0 -0.0041979998282134596 -0.0022345740523720412 0 -0.0044725512326726615 -0.0018298495637498239 0 -0.0039922681152387866 -0.0023077459663014637 0 -0.0041979998282134596 -0.0022345740523720412 0 -0.0044725512326726615 -0.0018298495637498239 0 -0.0045362220366676545 -0.0018641927168536259 0 -0.0044725512326726615 -0.0018298495637498239 0 -0.0039922681152387866 -0.0023077459663014637 0 -0.0044251615671481864 -0.0018680455564426238 0 -0.0039922681152387866 -0.0023077459663014637 0 -0.0044251615671481864 -0.0018680455564426238 0 -0.0040896714895847308 -0.0022719782923368071 0 -0.0044251615671481864 -0.0018680455564426238 0 -0.0048130176371619987 -0.0015967579626038745 0 -0.0043988288902856313 -0.0017727575810379847 0 -0.0048094226680401647 -0.0012572772035557764 0 -0.0048130176371619987 -0.0015967579626038745 0 -0.0043988288902856313 -0.0017727575810379847 0 -0.0044725512326726615 -0.0018298495637498239 0 -0.0048130176371619987 -0.0015967579626038745 0 -0.0046093699586863563 -0.0015701123827789904 0 -0.0044725512326726615 -0.0018298495637498239 0 -0.0044251615671481864 -0.0018680455564426238 0 -0.0048130176371619987 -0.0015967579626038745 0 -0.0048130176371619987 -0.0015967579626038745 0 -0.0046093699586863563 -0.0015701123827789904 0 -0.0045482908565566112 -0.0016609107564079966 0 -0.0053160172579865246 -0.0011782778313260479 0 -0.0048130176371619987 -0.0015967579626038745 0 -0.0056598055308889426 -0.001254776979777655 0 -0.0048291414282256254 -0.0013451806607824184 0 -0.0048591787202992114 -0.0012727886306434057 0 -0.0048591787202992114 -0.0012727886306434057 0 -0.0046489491228668906 -0.001087437459977103 0 -0.0046093699586863563 -0.0015701123827789904 0 -0.0045482908565566112 -0.0016609107564079966 0 -0.0042256020222352893 -0.001244072735492872 0 -0.0045482908565566112 -0.0016609107564079966 0 -0.0042256020222352893 -0.001244072735492872 0 -0.0037615313122069285 -0.0013347653205327871 0 -0.0046093699586863563 -0.0015701123827789904 0 -0.0042256020222352893 -0.001244072735492872 0 -0.0044368090710085574 -0.0013087315156121004 0 -0.0044368090710085574 -0.0013087315156121004 0 -0.0045605010576292831 -0.001373155385270585 0 -0.003944863986409166 -0.00060067265795218136 0 -0.0044368090710085574 -0.0013087315156121004 0 -0.004669155665865659 -0.0016476651112048201 0 -0.0045605010576292831 -0.001373155385270585 0 -0.0044725512326726615 -0.0018298495637498239 0 -0.0046093699586863563 -0.0015701123827789904 0 -0.0045362220366676545 -0.0018641927168536259 0 -0.0046093699586863563 -0.0015701123827789904 0 -0.0044368090710085574 -0.0013087315156121004 0 -0.004669155665865659 -0.0016476651112048201 0 -0.0046093699586863563 -0.0015701123827789904 0 -0.0045362220366676545 -0.0018641927168536259 0 -0.004669155665865659 -0.0016476651112048201 0 -0.0012762377128325746 -0.0026173116652569734 0 -6.1574153245654045e-05 -0.0024390736652123131 0 -0.004669155665865659 -0.0016476651112048201 0 -0.0045462984198343928 -0.0023508018863453474 0 -0.0047984256558677657 -0.0017289668393324444 0 -0.0011153442056319113 -0.0050674762147676451 0 0.00029387238898567444 -0.004629489914635309 0 0.0011283154143201411 -0.0060495743678709865 0 -0.00023341035448515331 -0.0025074111166200961 0 -6.1574153245654045e-05 -0.0024390736652123131 0 -0.0045362220366676545 -0.0018641927168536259 0 -0.004669155665865659 -0.0016476651112048201 0 -0.0045462984198343928 -0.0023508018863453474 0 -0.0014514954901749223 -0.0031521536570711575 0 -0.0011153442056319113 -0.0050674762147676451 0 0.00029387238898567444 -0.004629489914635309 0 -6.1574153245654045e-05 -0.0024390736652123131 0 -0.00053415233855077192 -0.0014800545423210741 0 0.0035147963677554161 -0.0022664967751089317 0 -6.1574153245654045e-05 -0.0024390736652123131 0 0.0038712051298053123 -0.0046915357194653833 0 0.0017628906951600899 -0.00432873600998516 0 0.0011283154143201411 -0.0060495743678709865 0 0.0017628906951600899 -0.00432873600998516 0 0.00029387238898567444 -0.004629489914635309 0 0.0011283154143201411 -0.0060495743678709865 0 0.0032803758871025671 -0.0022728669842696065 0 0.0047742224232669005 -0.0011187930720072022 0 0.0031056881050721169 -0.0005544612074943866 0 0.0032803758871025671 -0.0022728669842696065 0 0.0023595284083905597 -0.001806201329060283 0 0.0031056881050721169 -0.0005544612074943866 0 0.0023595284083905597 -0.001806201329060283 0 0.00048986994853455438 -0.001073397362507616 0 0.0031056881050721169 -0.0005544612074943866 0 0.0037215535927953942 -0.002003114618437888 0 0.0023595284083905597 -0.001806201329060283 0 -0.00065050148989987376 -0.0024130561103316303 0 0.0023595284083905597 -0.001806201329060283 0 0.00048986994853455438 -0.001073397362507616 0 7.2212034167344131e-05 -0.0016181635003939645 0 -0.00053415233855077192 -0.0014800545423210741 0 -0.0010802286412653849 -0.0010932900180045087 0 0.00048986994853455438 -0.001073397362507616 0 0.0031056881050721169 -0.0005544612074943866 0 -0.0021412820785415708 -5.6541966931054139e-05 0 -0.003944863986409166 -0.00060067265795218136 0 -0.0035763077889370263 -0.00086596417219200826 0 -0.0021412820785415708 -5.6541966931054139e-05 0 -0.0042256020222352893 -0.001244072735492872 0 -0.0044368090710085574 -0.0013087315156121004 0 -0.003944863986409166 -0.00060067265795218136 0 -0.0042256020222352893 -0.001244072735492872 0 -0.003944863986409166 -0.00060067265795218136 0 -0.0035763077889370263 -0.00086596417219200826 0 -0.0042256020222352893 -0.001244072735492872 0 -0.0037615313122069285 -0.0013347653205327871 0 -0.0035763077889370263 -0.00086596417219200826 0 -0.0057626553054273945 -0.00097802969831434368 0 -0.0056598055308889426 -0.001254776979777655 0 -0.0056376771205271688 -0.00067141770641883293 0 -0.0056376771205271688 -0.00067141770641883293 0 -0.0037933238264758881 -0.00050945341580727499 0 -0.0045932102889070141 -0.00072304546583017192 0 -0.0051896089800902139 -0.00085242872713755722 0 -0.0056376771205271688 -0.00067141770641883293 0 -0.0045932102889070141 -0.00072304546583017192 0 -0.0057626553054273945 -0.00097802969831434368 0 -0.0051896089800902139 -0.00085242872713755722 0 -0.0056376771205271688 -0.00067141770641883293 0 -0.0046489491228668906 -0.001087437459977103 0 -0.0043682491692597124 -0.00096244929952498325 0 -0.0037615313122069285 -0.0013347653205327871 0 -0.0035763077889370263 -0.00086596417219200826 0 -0.0032072492670642918 -0.00051282474970507346 0 -0.0037615313122069285 -0.0013347653205327871 0 -0.0032072492670642918 -0.00051282474970507346 0 -0.0037933238264758881 -0.00050945341580727499 0 -0.0037933238264758881 -0.00050945341580727499 0 -0.0040946788749872155 -0.00064062541105379671 0 -0.0025496144322498956 2.9541756681102288e-05 0 -0.00016948499964732669 -0.00039052481945151831 0 0.0014596837989035373 -2.3602040542825846e-05 0 -0.0032072492670642918 -0.00051282474970507346 0 -0.0037933238264758881 -0.00050945341580727499 0 -0.0025496144322498956 2.9541756681102288e-05 0 -0.0037933238264758881 -0.00050945341580727499 0 -0.0045932102889070141 -0.00072304546583017192 0 -0.0040946788749872155 -0.00064062541105379671 0 -0.0048493605217000109 -0.00071625209712919717 0 -0.0045932102889070141 -0.00072304546583017192 0 -0.0040946788749872155 -0.00064062541105379671 0 -0.0051896089800902139 -0.00085242872713755722 0 -0.0048493605217000109 -0.00071625209712919717 0 -0.0045932102889070141 -0.00072304546583017192 0 -0.0053162557244764092 -0.00059001274178213583 0 -0.0048493605217000109 -0.00071625209712919717 0 -0.0040946788749872155 -0.00064062541105379671 0 -0.0013709650488533533 -0.00074464078996691651 0 -0.00016948499964732669 -0.00039052481945151831 0 -0.0014933377628302477 9.8551199746482387e-07 0 0.0020795388879586174 -0.00011684711066889249 0 0.0023441361225975056 -1.661352965567427e-06 0 0.0023441361225975056 -1.661352965567427e-06 0 0.0030801713071053273 -0.00025490556203715004 0 0.0061740785540059231 2.0936656816194016e-06 0 0.0020795388879586174 -0.00011684711066889249 0 0.0030801713071053273 -0.00025490556203715004 0 0.0036214368711497765 -0.00037749327881013954 0 0.0020795388879586174 -0.00011684711066889249 0 0.0023441361225975056 -1.661352965567427e-06 0 0.0030801713071053273 -0.00025490556203715004 0 0.0030801713071053273 -0.00025490556203715004 0 0.0036214368711497765 -0.00037749327881013954 0 0.0061740785540059231 2.0936656816194016e-06 0 -0.0035763077889370263 -0.00086596417219200826 0 -0.0032072492670642918 -0.00051282474970507346 0 -0.0021412820785415708 -5.6541966931054139e-05 0 -0.0032072492670642918 -0.00051282474970507346 0 -0.0021412820785415708 -5.6541966931054139e-05 0 -0.0025496144322498956 2.9541756681102288e-05 0 0.00048986994853455438 -0.001073397362507616 0 -0.0021412820785415708 -5.6541966931054139e-05 0 -0.0010653017228457232 -0.00099842194318248002 0 -0.0025496144322498956 2.9541756681102288e-05 0 -0.0010653017228457232 -0.00099842194318248002 0 -0.0010028426012236571 -0.0014030672621642396 0 -0.0021412820785415708 -5.6541966931054139e-05 0 -0.0025496144322498956 2.9541756681102288e-05 0 -0.0010653017228457232 -0.00099842194318248002 0 0.0023595284083905597 -0.001806201329060283 0 7.2212034167344131e-05 -0.0016181635003939645 0 -0.00065050148989987376 -0.0024130561103316303 0 -0.0025496144322498956 2.9541756681102288e-05 0 -0.0010028426012236571 -0.0014030672621642396 0 -0.00065050148989987376 -0.0024130561103316303 0 0.0014596837989035373 -2.3602040542825846e-05 0 0.0036588994799586004 1.1479437347104785e-05 0 0.00048986994853455438 -0.001073397362507616 0 -0.0010653017228457232 -0.00099842194318248002 0 7.2212034167344131e-05 -0.0016181635003939645 0 -0.0010028426012236571 -0.0014030672621642396 0 7.2212034167344131e-05 -0.0016181635003939645 0 -0.00065050148989987376 -0.0024130561103316303 0 -0.0010653017228457232 -0.00099842194318248002 0 -0.0010028426012236571 -0.0014030672621642396 0 7.2212034167344131e-05 -0.0016181635003939645 0 0.0036588994799586004 1.1479437347104785e-05 0 0.0036833345099103248 -1.967332133116946e-05 0 0.008032677228814367 -0.0007442556727731449 0 0.0082420617048285048 -0.001203461984352171 0 0.0083763225352927323 -0.0012309421284993206 0 0.0082420617048285048 -0.001203461984352171 0 0.0083763225352927323 -0.0012309421284993206 0 0.0081270880987661751 -0.0016771614721925324 0 0.0089869404104962625 -2.1518230521071252e-06 0 0.008032677228814367 -0.0007442556727731449 0 0.0061840800297658398 3.7713172400394786e-07 0 0.0036588994799586004 1.1479437347104785e-05 0 0.0061772402198711183 -9.4926296481266614e-07 0 0.0036214368711497765 -0.00037749327881013954 0 0.0033679375948809142 0.0016885405769852372 0 0.0061740785540059231 2.0936656816194016e-06 0 0.008032677228814367 -0.0007442556727731449 0 0.0083763225352927323 -0.0012309421284993206 0 0.0061840800297658398 3.7713172400394786e-07 0 -0.00070027007270659803 -0.0080291329008738092 0 -0.00155466154544727 -0.0060687644626298198 0 -0.00016598572703291085 -0.0066965915002621086 0 -0.00070027007270659803 -0.0080291329008738092 0 0.00085408344026561005 -0.0080509010883917619 0 0.00022756997441343284 -0.0091671424683230918 0 -0.00070027007270659803 -0.0080291329008738092 0 -0.00016598572703291085 -0.0066965915002621086 0 0.00085408344026561005 -0.0080509010883917619 0 -0.00070027007270659803 -0.0080291329008738092 0 -0.0018396308782129638 -0.0076228008824260713 0 -0.00155466154544727 -0.0060687644626298198 0 -0.00070027007270659803 -0.0080291329008738092 0 -0.0018396308782129638 -0.0076228008824260713 0 -0.0015493088002279153 -0.0088880283127253136 0 -0.00155466154544727 -0.0060687644626298198 0 -0.00016598572703291085 -0.0066965915002621086 0 -0.00050232240040285424 -0.0050414064986133017 0 -0.00016598572703291085 -0.0066965915002621086 0 0.0012144096609797048 -0.0056543188390733752 0 -0.00050232240040285424 -0.0050414064986133017 0 0.0012144096609797048 -0.0056543188390733752 0 0.00099940848949382289 -0.0069475233866059666 0 0.0021814054990301197 -0.0073915650673104048 0 -0.00016598572703291085 -0.0066965915002621086 0 0.0012144096609797048 -0.0056543188390733752 0 0.00099940848949382289 -0.0069475233866059666 0 0.0012144096609797048 -0.0056543188390733752 0 0.0027817154163173366 -0.0062896940754892609 0 0.0021814054990301197 -0.0073915650673104048 0 0.0027817154163173366 -0.0062896940754892609 0 0.0033731918780749372 -0.0053592356514886768 0 0.0041354899919936322 -0.0063668804200155285 0 0.0012144096609797048 -0.0056543188390733752 0 0.0027817154163173366 -0.0062896940754892609 0 0.0022955958042388822 -0.0052418384370319458 0 0.0027817154163173366 -0.0062896940754892609 0 0.0033731918780749372 -0.0053592356514886768 0 0.0022955958042388822 -0.0052418384370319458 0 0.0027817154163173366 -0.0062896940754892609 0 0.0037359688388974147 -0.007457037681084913 0 0.0021814054990301197 -0.0073915650673104048 0 0.0027817154163173366 -0.0062896940754892609 0 0.0037359688388974147 -0.007457037681084913 0 0.0041354899919936322 -0.0063668804200155285 0 0.0037359688388974147 -0.007457037681084913 0 0.0021814054990301197 -0.0073915650673104048 0 0.0036093787155680756 -0.0085491735614967434 0 0.0021814054990301197 -0.0073915650673104048 0 0.0036093787155680756 -0.0085491735614967434 0 0.0023655351422243367 -0.0088393887910894718 0 -0.00016598572703291085 -0.0066965915002621086 0 0.00099940848949382289 -0.0069475233866059666 0 0.00085408344026561005 -0.0080509010883917619 0 0.00099940848949382289 -0.0069475233866059666 0 0.0021814054990301197 -0.0073915650673104048 0 0.00085408344026561005 -0.0080509010883917619 0 0.0021814054990301197 -0.0073915650673104048 0 0.00085408344026561005 -0.0080509010883917619 0 0.0023655351422243367 -0.0088393887910894718 0 0.00085408344026561005 -0.0080509010883917619 0 0.0012530953824959499 -0.0093179122066862734 0 0.00022756997441343284 -0.0091671424683230918 0 0.00085408344026561005 -0.0080509010883917619 0 0.0012530953824959499 -0.0093179122066862734 0 0.0023655351422243367 -0.0088393887910894718 0 0.0012530953824959499 -0.0093179122066862734 0 0.0022662292635673622 -0.010379523960176398 0 0.00077516515325613301 -0.010048284008677003 0 0.0012530953824959499 -0.0093179122066862734 0 0.00077516515325613301 -0.010048284008677003 0 0.00022756997441343284 -0.0091671424683230918 0 0.0036093787155680756 -0.0085491735614967434 0 0.0035693340575856385 -0.0094245273386377552 0 0.0023655351422243367 -0.0088393887910894718 0 0.0012530953824959499 -0.0093179122066862734 0 0.0023655351422243367 -0.0088393887910894718 0 0.0022662292635673622 -0.010379523960176398 0 0.0035693340575856385 -0.0094245273386377552 0 0.0023655351422243367 -0.0088393887910894718 0 0.0022662292635673622 -0.010379523960176398 0 0.0035693340575856385 -0.0094245273386377552 0 0.0022662292635673622 -0.010379523960176398 0 0.0041477108898633 -0.010374944996468195 0 0.00086992259341815107 -0.013373285098798484 0 0.0022662292635673622 -0.010379523960176398 0 0.0037800050412722494 -0.0120244308986389 0 0.0022662292635673622 -0.010379523960176398 0 0.0037800050412722494 -0.0120244308986389 0 0.0041477108898633 -0.010374944996468195 0 0.0031795350123911804 -0.011781707242760146 0 0.0030212900709749176 -0.011414398976570591 0 0.00062706873819306423 -0.010830282994464801 0 0.0022662292635673622 -0.010379523960176398 0 0.0009711423790979409 -0.010461549935153774 0 0.0022662292635673622 -0.010379523960176398 0 0.00077516515325613301 -0.010048284008677003 0 0.0009711423790979409 -0.010461549935153774 0 0.00077516515325613301 -0.010048284008677003 0 0.0009711423790979409 -0.010461549935153774 0 0.00029758639545118918 -0.010503155961417592 0 0.00062706873819306423 -0.010830282994464801 0 0.0009711423790979409 -0.010461549935153774 0 0.00029758639545118918 -0.010503155961417592 0 0.00029758639545118918 -0.010503155961417592 0 -0.00032077836942767196 -0.01042718012979716 0 -0.00011025479805276465 -0.0099639271510926202 0 -0.00032077836942767196 -0.01042718012979716 0 -0.00011025479805276465 -0.0099639271510926202 0 -0.00082354529423572169 -0.010196318040879788 0 -0.00011025479805276465 -0.0099639271510926202 0 -0.00075687417152735985 -0.0093772316374842544 0 -0.00082354529423572169 -0.010196318040879788 0 0.00077516515325613301 -0.010048284008677003 0 0.00029758639545118918 -0.010503155961417592 0 -0.00011025479805276465 -0.0099639271510926202 0 0.00077516515325613301 -0.010048284008677003 0 -0.00011025479805276465 -0.0099639271510926202 0 0.00022756997441343284 -0.0091671424683230918 0 -0.00070027007270659803 -0.0080291329008738092 0 0.00022756997441343284 -0.0091671424683230918 0 -0.00075687417152735985 -0.0093772316374842544 0 -0.00011025479805276465 -0.0099639271510926202 0 0.00022756997441343284 -0.0091671424683230918 0 -0.00075687417152735985 -0.0093772316374842544 0 -0.00070027007270659803 -0.0080291329008738092 0 -0.0015493088002279153 -0.0088880283127253136 0 -0.00075687417152735985 -0.0093772316374842544 0 -0.0015493088002279153 -0.0088880283127253136 0 -0.00075687417152735985 -0.0093772316374842544 0 -0.0013798681241785783 -0.0098334239820270751 0 -0.00075687417152735985 -0.0093772316374842544 0 -0.0013798681241785783 -0.0098334239820270751 0 -0.00082354529423572169 -0.010196318040879788 0 -0.0013201945888078898 -0.010485249287594055 0 -0.0013798681241785783 -0.0098334239820270751 0 -0.00082354529423572169 -0.010196318040879788 0 -0.0013201945888078898 -0.010485249287594055 0 -0.0013798681241785783 -0.0098334239820270751 0 -0.0018236375027885546 -0.010249831977151446 0 -0.0013798681241785783 -0.0098334239820270751 0 -0.0018236375027885546 -0.010249831977151446 0 -0.0019276788518293377 -0.0094753976675414023 0 -0.0018236375027885546 -0.010249831977151446 0 -0.002514951084876474 -0.0095761209108742168 0 -0.0019276788518293377 -0.0094753976675414023 0 -0.0018236375027885546 -0.010249831977151446 0 -0.0022296655439591213 -0.0101266028986653 0 -0.002514951084876474 -0.0095761209108742168 0 -0.0018236375027885546 -0.010249831977151446 0 -0.0020059840263664925 -0.01052352786301064 0 -0.0022296655439591213 -0.0101266028986653 0 -0.0016336146085359461 -0.010778836437488348 0 -0.0018236375027885546 -0.010249831977151446 0 -0.0020059840263664925 -0.01052352786301064 0 -0.0016397074148792508 -0.011031594790057222 0 -0.0020059840263664925 -0.01052352786301064 0 -0.0027548607068000586 -0.010119445253503313 0 -0.0020059840263664925 -0.01052352786301064 0 -0.0027548607068000586 -0.010119445253503313 0 -0.0026347148369478685 -0.010124743802897037 0 -0.0020059840263664925 -0.01052352786301064 0 -0.0022296655439591213 -0.0101266028986653 0 -0.0026347148369478685 -0.010124743802897037 0 -0.0013575431442410604 -0.0079910652525512667 0 -0.001357883976559142 -0.0069817229918845468 0 -0.0016397074148792508 -0.011031594790057222 0 -0.001549081117134238 -0.012330339913347227 0 -0.00052982137206304659 -0.011773520774759842 0 -0.001357883976559142 -0.0069817229918845468 0 -0.0013677219882074446 -0.0069881530686913074 0 -0.0022296655439591213 -0.0101266028986653 0 -0.0026347148369478685 -0.010124743802897037 0 -0.002514951084876474 -0.0095761209108742168 0 -0.002877444022970532 -0.010099203451449625 0 -0.0026347148369478685 -0.010124743802897037 0 -0.002514951084876474 -0.0095761209108742168 0 -0.001357883976559142 -0.0069817229918845468 0 -0.0028054096720890342 -0.0049639572441377124 0 -0.002877444022970532 -0.010099203451449625 0 -0.002514951084876474 -0.0095761209108742168 0 -0.0038388268097477802 -0.0081392739230186101 0 -0.002514951084876474 -0.0095761209108742168 0 -0.0025236587224233783 -0.0085132255802021269 0 -0.0038388268097477802 -0.0081392739230186101 0 -0.0046723593403261814 -0.00088649368761770336 0 -0.0043320515709099998 -0.0012341463337612244 0 -0.0046494916270946882 -0.0015634205640570086 0 -0.0018396308782129638 -0.0076228008824260713 0 -0.0015493088002279153 -0.0088880283127253136 0 -0.0025236587224233783 -0.0085132255802021269 0 -0.0015493088002279153 -0.0088880283127253136 0 -0.0013798681241785783 -0.0098334239820270751 0 -0.0019276788518293377 -0.0094753976675414023 0 -0.0015493088002279153 -0.0088880283127253136 0 -0.0025236587224233783 -0.0085132255802021269 0 -0.0019276788518293377 -0.0094753976675414023 0 -0.002514951084876474 -0.0095761209108742168 0 -0.0025236587224233783 -0.0085132255802021269 0 -0.0019276788518293377 -0.0094753976675414023 0 0.00025619926320791708 -0.011619693038270327 0 0.0015347553733039161 -0.011789436703629901 0 0.00028921976743738286 -0.012496022996329971 0 -0.001549081117134238 -0.012330339913347227 0 0.00028921976743738286 -0.012496022996329971 0 -0.00052982137206304659 -0.011773520774759842 0 -0.001357883976559142 -0.0069817229918845468 0 -0.0012228619519391937 -0.0057973310215195199 0 -0.0046723593403261814 -0.00088649368761770336 0 -0.0040416167531985916 -0.00095074018510315095 0 -0.0043320515709099998 -0.0012341463337612244 0 0.00025619926320791708 -0.011619693038270327 0 0.00028921976743738286 -0.012496022996329971 0 -0.00052982137206304659 -0.011773520774759842 0 -0.0035149687702465057 -0.0010015507754467916 0 -0.0040416167531985916 -0.00095074018510315095 0 -0.0040080751846862384 -0.0012877505207217099 0 -0.0040416167531985916 -0.00095074018510315095 0 -0.0043320515709099998 -0.0012341463337612244 0 -0.0040080751846862384 -0.0012877505207217099 0 -0.0030407820599053182 -0.0014639114695874839 0 -0.0040080751846862384 -0.0012877505207217099 0 -0.0037343018841586198 -0.0022154640084695713 0 -0.0040080751846862384 -0.0012877505207217099 0 -0.0042201485507830762 -0.0018936259109946637 0 -0.0037343018841586198 -0.0022154640084695713 0 -0.0043320515709099998 -0.0012341463337612244 0 -0.0040080751846862384 -0.0012877505207217099 0 -0.0042201485507830762 -0.0018936259109946637 0 -0.0042201485507830762 -0.0018936259109946637 0 -0.0046494916270946882 -0.0015634205640570086 0 -0.004422930930031611 -0.0022474383981848506 0 -0.0043320515709099998 -0.0012341463337612244 0 -0.0042201485507830762 -0.0018936259109946637 0 -0.0046494916270946882 -0.0015634205640570086 0 -0.0042201485507830762 -0.0018936259109946637 0 -0.004422930930031611 -0.0022474383981848506 0 -0.0040428628579473854 -0.0025133641756896301 0 -0.0042201485507830762 -0.0018936259109946637 0 -0.0037343018841586198 -0.0022154640084695713 0 -0.0040428628579473854 -0.0025133641756896301 0 -0.0037278088995557732 -0.0027459640488332257 0 -0.0037343018841586198 -0.0022154640084695713 0 -0.0040428628579473854 -0.0025133641756896301 0 -0.0018396308782129638 -0.0076228008824260713 0 -0.0025236587224233783 -0.0085132255802021269 0 -0.0028874043809356694 -0.0068069588888953507 0 -0.0038388268097477802 -0.0081392739230186101 0 -0.0044058349655092879 -0.0058684416961550852 0 -0.0028874043809356694 -0.0068069588888953507 0 -0.0028054096720890342 -0.0049639572441377124 0 -0.0035320971005969666 -0.0039455719020261943 0 -0.0025236587224233783 -0.0085132255802021269 0 -0.0038388268097477802 -0.0081392739230186101 0 -0.0028874043809356694 -0.0068069588888953507 0 -0.0044058349655092879 -0.0058684416961550852 0 -0.0028874043809356694 -0.0068069588888953507 0 -0.0030942551936948104 -0.0044348827444192461 0 -0.00155466154544727 -0.0060687644626298198 0 -0.0028874043809356694 -0.0068069588888953507 0 -0.0030942551936948104 -0.0044348827444192461 0 -0.0018396308782129638 -0.0076228008824260713 0 -0.00155466154544727 -0.0060687644626298198 0 -0.0028874043809356694 -0.0068069588888953507 0 -0.0035320971005969666 -0.0039455719020261943 0 -0.0038412159802709042 -0.0031610737878768353 0 -0.0044058349655092879 -0.0058684416961550852 0 -0.0030942551936948104 -0.0044348827444192461 0 -0.0045183596207129051 -0.0036257538566925479 0 -0.0030942551936948104 -0.0044348827444192461 0 -0.0036347051796745094 -0.0027966096269711276 0 -0.0045183596207129051 -0.0036257538566925479 0 -0.0036347051796745094 -0.0027966096269711276 0 -0.0045183596207129051 -0.0036257538566925479 0 -0.0041018082520710751 -0.0019544046923441159 0 -0.0038412159802709042 -0.0031610737878768353 0 -0.0039182519612475236 -0.0027506194794389978 0 -0.0030942551936948104 -0.0044348827444192461 0 -0.0036347051796745094 -0.0027966096269711276 0 -0.0027996801792714468 -0.0028617203225597843 0 -0.0030942551936948104 -0.0044348827444192461 0 -0.0027996801792714468 -0.0028617203225597843 0 -0.0018248191604419719 -0.0039530533609592146 0 -0.0037278088995557732 -0.0027459640488332257 0 -0.0040428628579473854 -0.0025133641756896301 0 -0.0040896714895847308 -0.0022719782923368071 0 -0.004422930930031611 -0.0022474383981848506 0 -0.0040885240891147265 -0.0023965660489954645 0 -0.0040428628579473854 -0.0025133641756896301 0 -0.0040885240891147265 -0.0023965660489954645 0 -0.0041397496751317204 -0.0022078416493785035 0 -0.0041018082520710751 -0.0019544046923441159 0 -0.0040885240891147265 -0.0023965660489954645 0 -0.0040428628579473854 -0.0025133641756896301 0 -0.0041397496751317204 -0.0022078416493785035 0 -0.0040428628579473854 -0.0025133641756896301 0 -0.0041397496751317204 -0.0022078416493785035 0 -0.0040896714895847308 -0.0022719782923368071 0 -0.0044251615671481864 -0.0018680455564426238 0 -0.0040896714895847308 -0.0022719782923368071 0 -0.0043988288902856313 -0.0017727575810379847 0 -0.0041397496751317204 -0.0022078416493785035 0 -0.0040896714895847308 -0.0022719782923368071 0 -0.0043988288902856313 -0.0017727575810379847 0 -0.0041397496751317204 -0.0022078416493785035 0 -0.0043988288902856313 -0.0017727575810379847 0 -0.0041018082520710751 -0.0019544046923441159 0 -0.0044985775571835503 -0.0012267347715686921 0 -0.0043988288902856313 -0.0017727575810379847 0 -0.0041018082520710751 -0.0019544046923441159 0 -0.0037267535582166601 -0.0011177448642989661 0 -0.0044985775571835503 -0.0012267347715686921 0 -0.0041018082520710751 -0.0019544046923441159 0 -0.0044985775571835503 -0.0012267347715686921 0 -0.0048094226680401647 -0.0012572772035557764 0 -0.0043988288902856313 -0.0017727575810379847 0 -0.0027996801792714468 -0.0028617203225597843 0 -0.0033144116716639933 -0.0018387636139484921 0 -0.0020870359348194741 -0.0021612838586328818 0 -0.0036347051796745094 -0.0027966096269711276 0 -0.0027996801792714468 -0.0028617203225597843 0 -0.0033144116716639933 -0.0018387636139484921 0 -0.0033144116716639933 -0.0018387636139484921 0 -0.0026232457205225971 -0.0011422782842820437 0 -0.0020870359348194741 -0.0021612838586328818 0 -0.0036347051796745094 -0.0027966096269711276 0 -0.0033144116716639933 -0.0018387636139484921 0 -0.0041018082520710751 -0.0019544046923441159 0 -0.0037267535582166601 -0.0011177448642989661 0 -0.0033144116716639933 -0.0018387636139484921 0 -0.0041018082520710751 -0.0019544046923441159 0 -0.0037267535582166601 -0.0011177448642989661 0 -0.0033144116716639933 -0.0018387636139484921 0 -0.0026232457205225971 -0.0011422782842820437 0 -0.0026083554905406573 -0.00067077399068307924 0 -0.0026232457205225971 -0.0011422782842820437 0 -0.0022160959952960582 -0.00061162740339096939 0 -0.0026232457205225971 -0.0011422782842820437 0 -0.0022160959952960582 -0.00061162740339096939 0 -0.0017018279499526154 -0.0010921003521867029 0 -0.0022160959952960582 -0.00061162740339096939 0 -0.0016460995369165384 -0.00022244335571218872 0 -0.0017018279499526154 -0.0010921003521867029 0 -0.0021570850085634876 -0.00035070119798772553 0 -0.0022160959952960582 -0.00061162740339096939 0 -0.0016460995369165384 -0.00022244335571218872 0 -0.0016460995369165384 -0.00022244335571218872 0 -0.0017018279499526154 -0.0010921003521867029 0 -0.0009105627276318175 -0.00078727396113005544 0 -0.0017018279499526154 -0.0010921003521867029 0 -0.00098702359893849891 -0.0019594256406840812 0 -0.0020870359348194741 -0.0021612838586328818 0 -0.0017018279499526154 -0.0010921003521867029 0 -0.00098702359893849891 -0.0019594256406840812 0 -0.0009105627276318175 -0.00078727396113005544 0 -0.0026232457205225971 -0.0011422782842820437 0 -0.0017018279499526154 -0.0010921003521867029 0 -0.0020870359348194741 -0.0021612838586328818 0 -0.0027996801792714468 -0.0028617203225597843 0 -0.0020870359348194741 -0.0021612838586328818 0 -0.0018248191604419719 -0.0039530533609592146 0 -0.0020870359348194741 -0.0021612838586328818 0 -0.00084284700643736754 -0.0033412381259390312 0 -0.0018248191604419719 -0.0039530533609592146 0 -0.00098702359893849891 -0.0019594256406840812 0 -0.0020870359348194741 -0.0021612838586328818 0 -0.00084284700643736754 -0.0033412381259390312 0 -0.00098702359893849891 -0.0019594256406840812 0 -0.00084284700643736754 -0.0033412381259390312 0 -6.6970410054540674e-05 -0.0028209033047941348 0 -0.00084284700643736754 -0.0033412381259390312 0 0.00039376292151975376 -0.0042511070167637281 0 -6.6970410054540674e-05 -0.0028209033047941348 0 -0.00084284700643736754 -0.0033412381259390312 0 -0.00050232240040285424 -0.0050414064986133017 0 0.00039376292151975376 -0.0042511070167637281 0 -0.00084284700643736754 -0.0033412381259390312 0 -0.00050232240040285424 -0.0050414064986133017 0 -0.0018248191604419719 -0.0039530533609592146 0 -0.00155466154544727 -0.0060687644626298198 0 -0.00050232240040285424 -0.0050414064986133017 0 -0.0018248191604419719 -0.0039530533609592146 0 -0.00155466154544727 -0.0060687644626298198 0 -0.0030942551936948104 -0.0044348827444192461 0 -0.0018248191604419719 -0.0039530533609592146 0 0.0026819757724108944 -0.0044230345692668786 0 0.0020359786628393736 -0.0033838186449306733 0 0.0032069081897945976 -0.0034685703986142569 0 0.0026819757724108944 -0.0044230345692668786 0 0.0015622692014865896 -0.0044053609552301707 0 0.0020359786628393736 -0.0033838186449306733 0 0.0026819757724108944 -0.0044230345692668786 0 0.0032069081897945976 -0.0034685703986142569 0 0.0039651570376651561 -0.0043242165499163109 0 0.0026819757724108944 -0.0044230345692668786 0 0.0033731918780749372 -0.0053592356514886768 0 0.0039651570376651561 -0.0043242165499163109 0 0.0026819757724108944 -0.0044230345692668786 0 0.0022955958042388822 -0.0052418384370319458 0 0.0015622692014865896 -0.0044053609552301707 0 0.0026819757724108944 -0.0044230345692668786 0 0.0033731918780749372 -0.0053592356514886768 0 0.0022955958042388822 -0.0052418384370319458 0 0.0012144096609797048 -0.0056543188390733752 0 0.0022955958042388822 -0.0052418384370319458 0 0.0015622692014865896 -0.0044053609552301707 0 0.0012144096609797048 -0.0056543188390733752 0 -0.00050232240040285424 -0.0050414064986133017 0 0.00039376292151975376 -0.0042511070167637281 0 0.0012144096609797048 -0.0056543188390733752 0 0.00039376292151975376 -0.0042511070167637281 0 0.0015622692014865896 -0.0044053609552301707 0 0.0015622692014865896 -0.0044053609552301707 0 0.00089026488152172821 -0.00342675387810687 0 0.0020359786628393736 -0.0033838186449306733 0 0.00039376292151975376 -0.0042511070167637281 0 0.0015622692014865896 -0.0044053609552301707 0 0.00089026488152172821 -0.00342675387810687 0 0.00089026488152172821 -0.00342675387810687 0 0.0015061800000017033 -0.0019671111634675708 0 0.0020359786628393736 -0.0033838186449306733 0 0.00039376292151975376 -0.0042511070167637281 0 0.00089026488152172821 -0.00342675387810687 0 -6.6970410054540674e-05 -0.0028209033047941348 0 0.00089026488152172821 -0.00342675387810687 0 -6.6970410054540674e-05 -0.0028209033047941348 0 0.00015211937517068284 -0.0018365048795179581 0 -0.00098702359893849891 -0.0019594256406840812 0 -6.6970410054540674e-05 -0.0028209033047941348 0 0.00015211937517068284 -0.0018365048795179581 0 0.00089026488152172821 -0.00342675387810687 0 0.0015061800000017033 -0.0019671111634675708 0 0.00015211937517068284 -0.0018365048795179581 0 0.00249228183924214 -0.0025273945794552855 0 0.0015061800000017033 -0.0019671111634675708 0 0.0020359786628393736 -0.0033838186449306733 0 0.00249228183924214 -0.0025273945794552855 0 0.0015061800000017033 -0.0019671111634675708 0 0.0034011771580487295 -0.001597603843369236 0 0.00249228183924214 -0.0025273945794552855 0 0.0020359786628393736 -0.0033838186449306733 0 0.0032069081897945976 -0.0034685703986142569 0 0.0032069081897945976 -0.0034685703986142569 0 0.0034011771580487295 -0.001597603843369236 0 0.0045101796978231643 -0.0030433338217735039 0 0.00249228183924214 -0.0025273945794552855 0 0.0032069081897945976 -0.0034685703986142569 0 0.0034011771580487295 -0.001597603843369236 0 0.0015061800000017033 -0.0019671111634675708 0 0.0018310226420246831 -0.00053391177341904211 0 0.00025424462577200484 -0.00067412784582204668 0 0.0015061800000017033 -0.0019671111634675708 0 0.0034011771580487295 -0.001597603843369236 0 0.0018310226420246831 -0.00053391177341904211 0 0.0034011771580487295 -0.001597603843369236 0 0.0018310226420246831 -0.00053391177341904211 0 0.0032537641136561875 0.00047769995158143918 0 -0.00098702359893849891 -0.0019594256406840812 0 0.00015211937517068284 -0.0018365048795179581 0 -0.0009105627276318175 -0.00078727396113005544 0 0.0015061800000017033 -0.0019671111634675708 0 0.00015211937517068284 -0.0018365048795179581 0 0.00025424462577200484 -0.00067412784582204668 0 0.00025424462577200484 -0.00067412784582204668 0 -0.0009105627276318175 -0.00078727396113005544 0 -0.00088084557790201357 0.00033239011384722901 0 0.00015211937517068284 -0.0018365048795179581 0 0.00025424462577200484 -0.00067412784582204668 0 -0.0009105627276318175 -0.00078727396113005544 0 0.00071913623723421577 0.0049278993608979256 0 -0.00088084557790201357 0.00033239011384722901 0 0.0012250189118505081 0.0017979037091583113 0 -0.0016460995369165384 -0.00022244335571218872 0 -0.0009105627276318175 -0.00078727396113005544 0 -0.00088084557790201357 0.00033239011384722901 0 0.00025424462577200484 -0.00067412784582204668 0 -0.00088084557790201357 0.00033239011384722901 0 0.0012250189118505081 0.0017979037091583113 0 -0.0020826974905155367 -1.2890999894303969e-05 0 -0.0016460995369165384 -0.00022244335571218872 0 -0.00088084557790201357 0.00033239011384722901 0 0.0032537641136561875 0.00047769995158143918 0 0.0012250189118505081 0.0017979037091583113 0 0.0034626620804998664 0.0022857932556261417 0 0.0018310226420246831 -0.00053391177341904211 0 0.00025424462577200484 -0.00067412784582204668 0 0.0012250189118505081 0.0017979037091583113 0 0.0018310226420246831 -0.00053391177341904211 0 0.0032537641136561875 0.00047769995158143918 0 0.0012250189118505081 0.0017979037091583113 0 0.0026915662764585633 0.0033713218208759636 0 0.0012250189118505081 0.0017979037091583113 0 0.0034626620804998664 0.0022857932556261417 0 0.0026915662764585633 0.0033713218208759636 0 0.0038056573455289753 0.0038703717256162113 0 0.0034626620804998664 0.0022857932556261417 0 0.0034626620804998664 0.0022857932556261417 0 0.0047457239588717635 0.0029661248876253722 0 0.0050330436945075271 0.0014835132220335425 0 0.0038056573455289753 0.0038703717256162113 0 0.0034626620804998664 0.0022857932556261417 0 0.0047457239588717635 0.0029661248876253722 0 0.0032537641136561875 0.00047769995158143918 0 0.0034626620804998664 0.0022857932556261417 0 0.0050330436945075271 0.0014835132220335425 0 0.0050330436945075271 0.0014835132220335425 0 0.0073362232312836713 0.0019022126296339911 0 0.0060141781361422253 0.00018620687014234643 0 0.0047457239588717635 0.0029661248876253722 0 0.0050330436945075271 0.0014835132220335425 0 0.0062994569200946569 0.003282678649613797 0 0.0086053347813214148 0.0039173135440820185 0 0.0073362232312836713 0.0019022126296339911 0 0.010322684362346001 0.0022466177033556131 0 0.0086053347813214148 0.0039173135440820185 0 0.0062994569200946569 0.003282678649613797 0 0.0073362232312836713 0.0019022126296339911 0 0.0073362232312836713 0.0019022126296339911 0 0.0082315738122353387 0.00022500127107238875 0 0.010322684362346001 0.0022466177033556131 0 0.0050330436945075271 0.0014835132220335425 0 0.0062994569200946569 0.003282678649613797 0 0.0073362232312836713 0.0019022126296339911 0 0.0073362232312836713 0.0019022126296339911 0 0.0082315738122353387 0.00022500127107238875 0 0.0060141781361422253 0.00018620687014234643 0 0.0082315738122353387 0.00022500127107238875 0 0.0068791781619521146 -0.00093808829519204909 0 0.0078689565358685699 -0.0019994914961900278 0 0.0082315738122353387 0.00022500127107238875 0 0.0068791781619521146 -0.00093808829519204909 0 0.0060141781361422253 0.00018620687014234643 0 0.0068791781619521146 -0.00093808829519204909 0 0.0060141781361422253 0.00018620687014234643 0 0.0051402231755861942 -0.0015908563046266896 0 0.0045146752638237624 -0.00023838948497827879 0 0.0060141781361422253 0.00018620687014234643 0 0.0051402231755861942 -0.0015908563046266896 0 0.0034011771580487295 -0.001597603843369236 0 0.0045146752638237624 -0.00023838948497827879 0 0.0051402231755861942 -0.0015908563046266896 0 0.0034011771580487295 -0.001597603843369236 0 0.0032537641136561875 0.00047769995158143918 0 0.0045146752638237624 -0.00023838948497827879 0 0.0032537641136561875 0.00047769995158143918 0 0.0050330436945075271 0.0014835132220335425 0 0.0045146752638237624 -0.00023838948497827879 0 0.0050330436945075271 0.0014835132220335425 0 0.0045146752638237624 -0.00023838948497827879 0 0.0060141781361422253 0.00018620687014234643 0 0.013381279838280405 0.0047556874201703844 0 0.013175762946473954 0.0024256884463526506 0 0.010322684362346001 0.0022466177033556131 0 0.013175762946473954 0.0024256884463526506 0 0.010322684362346001 0.0022466177033556131 0 0.011742543951084757 0.00096954297344245858 0 0.0082315738122353387 0.00022500127107238875 0 0.010322684362346001 0.0022466177033556131 0 0.010422658468606542 -0.000665371980485848 0 0.010322684362346001 0.0022466177033556131 0 0.010422658468606542 -0.000665371980485848 0 0.011742543951084757 0.00096954297344245858 0 0.0082315738122353387 0.00022500127107238875 0 0.010422658468606542 -0.000665371980485848 0 0.0078689565358685699 -0.0019994914961900278 0 0.010422658468606542 -0.000665371980485848 0 0.011742543951084757 0.00096954297344245858 0 0.01310054648737435 -0.00011465024398260991 0 0.013175762946473954 0.0024256884463526506 0 0.011742543951084757 0.00096954297344245858 0 0.01310054648737435 -0.00011465024398260991 0 0.013175762946473954 0.0024256884463526506 0 0.01310054648737435 -0.00011465024398260991 0 0.015220945223770762 0.0017206543593572491 0 0.01310054648737435 -0.00011465024398260991 0 0.01228178688655855 -0.0026738374688797893 0 0.015736205189597355 -0.0010448470331412291 0 0.010422658468606542 -0.000665371980485848 0 0.01310054648737435 -0.00011465024398260991 0 0.01228178688655855 -0.0026738374688797893 0 0.01228178688655855 -0.0026738374688797893 0 0.009311681703312976 -0.0027989492817468674 0 0.010105905793834205 -0.0046295520323591816 0 0.010422658468606542 -0.000665371980485848 0 0.01228178688655855 -0.0026738374688797893 0 0.009311681703312976 -0.0027989492817468674 0 0.010422658468606542 -0.000665371980485848 0 0.009311681703312976 -0.0027989492817468674 0 0.0078689565358685699 -0.0019994914961900278 0 0.009311681703312976 -0.0027989492817468674 0 0.010105905793834205 -0.0046295520323591816 0 0.0083314205766984849 -0.0042820370551722069 0 0.0085798521249570107 -0.0055257921704384844 0 0.010105905793834205 -0.0046295520323591816 0 0.0083314205766984849 -0.0042820370551722069 0 0.0085798521249570107 -0.0055257921704384844 0 0.010105905793834205 -0.0046295520323591816 0 0.010589450903118126 -0.0063025165762893975 0 0.010105905793834205 -0.0046295520323591816 0 0.012157943870932239 -0.0047456086420140054 0 0.010589450903118126 -0.0063025165762893975 0 0.01228178688655855 -0.0026738374688797893 0 0.012157943870932239 -0.0047456086420140054 0 0.015253103645494565 -0.0041167767436510027 0 0.01228178688655855 -0.0026738374688797893 0 0.010105905793834205 -0.0046295520323591816 0 0.012157943870932239 -0.0047456086420140054 0 0.0059102027514179147 -0.0026862300244548569 0 0.0045101796978231643 -0.0030433338217735039 0 0.0054205660591716961 -0.0042444128425177729 0 0.0059102027514179147 -0.0026862300244548569 0 0.0069086942838330776 -0.0033606833786942849 0 0.0054205660591716961 -0.0042444128425177729 0 0.0034011771580487295 -0.001597603843369236 0 0.0045101796978231643 -0.0030433338217735039 0 0.0051402231755861942 -0.0015908563046266896 0 0.0059102027514179147 -0.0026862300244548569 0 0.0045101796978231643 -0.0030433338217735039 0 0.0051402231755861942 -0.0015908563046266896 0 0.0068791781619521146 -0.00093808829519204909 0 0.0059102027514179147 -0.0026862300244548569 0 0.0051402231755861942 -0.0015908563046266896 0 0.0068791781619521146 -0.00093808829519204909 0 0.0059102027514179147 -0.0026862300244548569 0 0.0078689565358685699 -0.0019994914961900278 0 0.009311681703312976 -0.0027989492817468674 0 0.0078689565358685699 -0.0019994914961900278 0 0.0069086942838330776 -0.0033606833786942849 0 0.0059102027514179147 -0.0026862300244548569 0 0.0078689565358685699 -0.0019994914961900278 0 0.0069086942838330776 -0.0033606833786942849 0 0.0069086942838330776 -0.0033606833786942849 0 0.0068107759700332272 -0.0050508851340370616 0 0.0054205660591716961 -0.0042444128425177729 0 0.0069086942838330776 -0.0033606833786942849 0 0.0083314205766984849 -0.0042820370551722069 0 0.0068107759700332272 -0.0050508851340370616 0 0.009311681703312976 -0.0027989492817468674 0 0.0069086942838330776 -0.0033606833786942849 0 0.0083314205766984849 -0.0042820370551722069 0 0.0085798521249570107 -0.0055257921704384844 0 0.0068107759700332272 -0.0050508851340370616 0 0.0074798330657583432 -0.0059462681624652429 0 0.0085798521249570107 -0.0055257921704384844 0 0.0083314205766984849 -0.0042820370551722069 0 0.0068107759700332272 -0.0050508851340370616 0 0.0068107759700332272 -0.0050508851340370616 0 0.0057084122414781356 -0.0054707618255466356 0 0.0054205660591716961 -0.0042444128425177729 0 0.0057084122414781356 -0.0054707618255466356 0 0.0054205660591716961 -0.0042444128425177729 0 0.0046190750976038714 -0.0053465395211544373 0 0.0032069081897945976 -0.0034685703986142569 0 0.0045101796978231643 -0.0030433338217735039 0 0.0039651570376651561 -0.0043242165499163109 0 0.0045101796978231643 -0.0030433338217735039 0 0.0054205660591716961 -0.0042444128425177729 0 0.0039651570376651561 -0.0043242165499163109 0 0.0033731918780749372 -0.0053592356514886768 0 0.0039651570376651561 -0.0043242165499163109 0 0.0046190750976038714 -0.0053465395211544373 0 0.0054205660591716961 -0.0042444128425177729 0 0.0039651570376651561 -0.0043242165499163109 0 0.0046190750976038714 -0.0053465395211544373 0 0.0033731918780749372 -0.0053592356514886768 0 0.0046190750976038714 -0.0053465395211544373 0 0.0041354899919936322 -0.0063668804200155285 0 0.0046190750976038714 -0.0053465395211544373 0 0.0041354899919936322 -0.0063668804200155285 0 0.0053755745072882177 -0.0063976501936811288 0 0.0057084122414781356 -0.0054707618255466356 0 0.0046190750976038714 -0.0053465395211544373 0 0.0053755745072882177 -0.0063976501936811288 0 0.0057084122414781356 -0.0054707618255466356 0 0.0053755745072882177 -0.0063976501936811288 0 0.0064965178365658455 -0.0061047554216730991 0 0.0053755745072882177 -0.0063976501936811288 0 0.0049761776102470638 -0.007310411814048348 0 0.0063797585106268066 -0.0072932944529436484 0 0.0037359688388974147 -0.007457037681084913 0 0.0041354899919936322 -0.0063668804200155285 0 0.0049761776102470638 -0.007310411814048348 0 0.0041354899919936322 -0.0063668804200155285 0 0.0053755745072882177 -0.0063976501936811288 0 0.0049761776102470638 -0.007310411814048348 0 0.0037359688388974147 -0.007457037681084913 0 0.0036093787155680756 -0.0085491735614967434 0 0.0047270895852510745 -0.0081959849785706758 0 0.0037359688388974147 -0.007457037681084913 0 0.0049761776102470638 -0.007310411814048348 0 0.0047270895852510745 -0.0081959849785706758 0 0.0049761776102470638 -0.007310411814048348 0 0.0047270895852510745 -0.0081959849785706758 0 0.0057477590871067028 -0.0080258216755847728 0 0.0049761776102470638 -0.007310411814048348 0 0.0057477590871067028 -0.0080258216755847728 0 0.0063797585106268066 -0.0072932944529436484 0 0.0047270895852510745 -0.0081959849785706758 0 0.0055867430832569932 -0.0087438397166744453 0 0.0047122000581855629 -0.0090498833141873687 0 0.0047270895852510745 -0.0081959849785706758 0 0.0057477590871067028 -0.0080258216755847728 0 0.0055867430832569932 -0.0087438397166744453 0 0.0057477590871067028 -0.0080258216755847728 0 0.0055867430832569932 -0.0087438397166744453 0 0.0064330053277406362 -0.0089098027501897954 0 0.0055867430832569932 -0.0087438397166744453 0 0.0064330053277406362 -0.0089098027501897954 0 0.0056350928725600906 -0.0094622188289140933 0 0.0055867430832569932 -0.0087438397166744453 0 0.0047122000581855629 -0.0090498833141873687 0 0.0056350928725600906 -0.0094622188289140933 0 0.0036093787155680756 -0.0085491735614967434 0 0.0047270895852510745 -0.0081959849785706758 0 0.0047122000581855629 -0.0090498833141873687 0 0.0074361881403901811 -0.0086044952412606436 0 0.0075093290747096694 -0.0092538212962203961 0 0.0064330053277406362 -0.0089098027501897954 0 0.0074361881403901811 -0.0086044952412606436 0 0.0075093290747096694 -0.0092538212962203961 0 0.008324294587110587 -0.0087475253961116287 0 0.0075093290747096694 -0.0092538212962203961 0 0.008324294587110587 -0.0087475253961116287 0 0.008300766876219532 -0.0092927838394996111 0 0.0075093290747096694 -0.0092538212962203961 0 0.008300766876219532 -0.0092927838394996111 0 0.0079027012289860175 -0.0097640248336096375 0 0.0075093290747096694 -0.0092538212962203961 0 0.0064330053277406362 -0.0089098027501897954 0 0.0063717994166398234 -0.010002804420893239 0 0.0074361881403901811 -0.0086044952412606436 0 0.0064330053277406362 -0.0089098027501897954 0 0.0069054801938924788 -0.0081124334271562605 0 0.0057477590871067028 -0.0080258216755847728 0 0.0069054801938924788 -0.0081124334271562605 0 0.0063797585106268066 -0.0072932944529436484 0 0.0057477590871067028 -0.0080258216755847728 0 0.0064330053277406362 -0.0089098027501897954 0 0.0069054801938924788 -0.0081124334271562605 0 0.0069054801938924788 -0.0081124334271562605 0 0.0073568895886109422 -0.0074995386624153613 0 0.0063797585106268066 -0.0072932944529436484 0 0.0069054801938924788 -0.0081124334271562605 0 0.0080609722908506678 -0.0079828658972460383 0 0.0073568895886109422 -0.0074995386624153613 0 0.0074361881403901811 -0.0086044952412606436 0 0.0069054801938924788 -0.0081124334271562605 0 0.0080609722908506678 -0.0079828658972460383 0 0.0074361881403901811 -0.0086044952412606436 0 0.0080609722908506678 -0.0079828658972460383 0 0.008324294587110587 -0.0087475253961116287 0 0.0080609722908506678 -0.0079828658972460383 0 0.0073568895886109422 -0.0074995386624153613 0 0.0085018022017270059 -0.0070116798455768844 0 0.0073127813873929085 -0.0067734766167322014 0 0.0074798330657583432 -0.0059462681624652429 0 0.0085018022017270059 -0.0070116798455768844 0 0.0073568895886109422 -0.0074995386624153613 0 0.0073127813873929085 -0.0067734766167322014 0 0.0085018022017270059 -0.0070116798455768844 0 0.0053755745072882177 -0.0063976501936811288 0 0.0063797585106268066 -0.0072932944529436484 0 0.0064965178365658455 -0.0061047554216730991 0 0.0073127813873929085 -0.0067734766167322014 0 0.0063797585106268066 -0.0072932944529436484 0 0.0064965178365658455 -0.0061047554216730991 0 0.0073568895886109422 -0.0074995386624153613 0 0.0073127813873929085 -0.0067734766167322014 0 0.0063797585106268066 -0.0072932944529436484 0 0.0068107759700332272 -0.0050508851340370616 0 0.0057084122414781356 -0.0054707618255466356 0 0.0064965178365658455 -0.0061047554216730991 0 0.0068107759700332272 -0.0050508851340370616 0 0.0064965178365658455 -0.0061047554216730991 0 0.0074798330657583432 -0.0059462681624652429 0 0.0073127813873929085 -0.0067734766167322014 0 0.0064965178365658455 -0.0061047554216730991 0 0.0074798330657583432 -0.0059462681624652429 0 0.0085798521249570107 -0.0055257921704384844 0 0.0074798330657583432 -0.0059462681624652429 0 0.0085018022017270059 -0.0070116798455768844 0 0.0085798521249570107 -0.0055257921704384844 0 0.010589450903118126 -0.0063025165762893975 0 0.0085018022017270059 -0.0070116798455768844 0 0.010589450903118126 -0.0063025165762893975 0 0.0085018022017270059 -0.0070116798455768844 0 0.0098796907529047646 -0.0078002061834238053 0 0.010589450903118126 -0.0063025165762893975 0 0.012067373451026852 -0.0082341500035436766 0 0.0098796907529047646 -0.0078002061834238053 0 0.012157943870932239 -0.0047456086420140054 0 0.010589450903118126 -0.0063025165762893975 0 0.013025673441963684 -0.0061086251404750191 0 0.010589450903118126 -0.0063025165762893975 0 0.013025673441963684 -0.0061086251404750191 0 0.012067373451026852 -0.0082341500035436766 0 0.012067373451026852 -0.0082341500035436766 0 0.012179999782079919 -0.010304951483945316 0 0.015399961819092312 -0.010060600007641925 0 0.012067373451026852 -0.0082341500035436766 0 0.0096512032826728648 -0.0090772120553424852 0 0.012179999782079919 -0.010304951483945316 0 0.0096512032826728648 -0.0090772120553424852 0 0.0087585124847436111 -0.01037744095819231 0 0.012179999782079919 -0.010304951483945316 0 0.0080609722908506678 -0.0079828658972460383 0 0.0085018022017270059 -0.0070116798455768844 0 0.0089312465748420528 -0.0082655759175591821 0 0.0089312465748420528 -0.0082655759175591821 0 0.0098796907529047646 -0.0078002061834238053 0 0.0096512032826728648 -0.0090772120553424852 0 0.0085018022017270059 -0.0070116798455768844 0 0.0089312465748420528 -0.0082655759175591821 0 0.0098796907529047646 -0.0078002061834238053 0 0.0080609722908506678 -0.0079828658972460383 0 0.0089312465748420528 -0.0082655759175591821 0 0.008324294587110587 -0.0087475253961116287 0 0.012067373451026852 -0.0082341500035436766 0 0.0098796907529047646 -0.0078002061834238053 0 0.0096512032826728648 -0.0090772120553424852 0 0.0089312465748420528 -0.0082655759175591821 0 0.0096512032826728648 -0.0090772120553424852 0 0.008324294587110587 -0.0087475253961116287 0 0.0096512032826728648 -0.0090772120553424852 0 0.008324294587110587 -0.0087475253961116287 0 0.008300766876219532 -0.0092927838394996111 0 0.0096512032826728648 -0.0090772120553424852 0 0.008300766876219532 -0.0092927838394996111 0 0.0088390980535365763 -0.0095744886284590009 0 0.0096512032826728648 -0.0090772120553424852 0 0.0088390980535365763 -0.0095744886284590009 0 0.0087585124847436111 -0.01037744095819231 0 0.008300766876219532 -0.0092927838394996111 0 0.0085908746902774134 -0.0098889845050117615 0 0.0079027012289860175 -0.0097640248336096375 0 0.008300766876219532 -0.0092927838394996111 0 0.0088390980535365763 -0.0095744886284590009 0 0.0085908746902774134 -0.0098889845050117615 0 0.0085908746902774134 -0.0098889845050117615 0 0.0087585124847436111 -0.01037744095819231 0 0.0079027012289860175 -0.0097640248336096375 0 0.0088390980535365763 -0.0095744886284590009 0 0.0085908746902774134 -0.0098889845050117615 0 0.0087585124847436111 -0.01037744095819231 0 0.020434122526347201 -0.0081286118855120014 0 0.024331300472440427 -0.0098023559818642692 0 0.035986498778400169 -0.0089830712482179761 0 0.036869279388824741 -0.0096299967437972808 0 0.037597253835373622 -0.0088343571683028969 0 0.035986498778400169 -0.0089830712482179761 0 0.03621589369434474 -0.009844349684854925 0 0.035702497813730555 -0.010265333583451048 0 0.035986498778400169 -0.0089830712482179761 0 0.036869279388824741 -0.0096299967437972808 0 0.03621589369434474 -0.009844349684854925 0 0.037597253835373622 -0.0088343571683028969 0 0.03782159302276783 -0.010169999226517118 0 0.038770209225519749 -0.0098284877822554361 0 0.036869279388824741 -0.0096299967437972808 0 0.037597253835373622 -0.0088343571683028969 0 0.03782159302276783 -0.010169999226517118 0 0.03782159302276783 -0.010169999226517118 0 0.037532350467342115 -0.010943230198091822 0 0.036574019474064023 -0.010508382901267564 0 0.036869279388824741 -0.0096299967437972808 0 0.03782159302276783 -0.010169999226517118 0 0.036574019474064023 -0.010508382901267564 0 0.03782159302276783 -0.010169999226517118 0 0.037532350467342115 -0.010943230198091822 0 0.038663336317936496 -0.010901358365788632 0 0.03621589369434474 -0.009844349684854925 0 0.036574019474064023 -0.010508382901267564 0 0.035702497813730555 -0.010265333583451048 0 0.036869279388824741 -0.0096299967437972808 0 0.03621589369434474 -0.009844349684854925 0 0.036574019474064023 -0.010508382901267564 0 0.036574019474064023 -0.010508382901267564 0 0.035702497813730555 -0.010265333583451048 0 0.035569175968941123 -0.01132538986246002 0 0.035702497813730555 -0.010265333583451048 0 0.034707819574924283 -0.010678197745708717 0 0.035569175968941123 -0.01132538986246002 0 0.035986498778400169 -0.0089830712482179761 0 0.035702497813730555 -0.010265333583451048 0 0.034707819574924283 -0.010678197745708717 0 0.006773451687486642 -0.010333608262318399 0 0.0061065277893753191 -0.010381960773793752 0 0.0060567273626030227 -0.010288950266281009 0 0.0070669235754466419 -0.0098229918896635283 0 0.006773451687486642 -0.010333608262318399 0 0.0061065277893753191 -0.010381960773793752 0 0.0037800050412722494 -0.0120244308986389 0 0.0060567273626030227 -0.010288950266281009 0 0.0041477108898633 -0.010374944996468195 0 0.0052957800934441013 -0.010876323916557221 0 0.0056059795946265152 -0.010604013247313596 0 0.0035693340575856385 -0.0094245273386377552 0 0.0041477108898633 -0.010374944996468195 0 0.0049103699492722627 -0.0097447314933197943 0 0.0060567273626030227 -0.010288950266281009 0 0.0041477108898633 -0.010374944996468195 0 0.0049103699492722627 -0.0097447314933197943 0 0.0035693340575856385 -0.0094245273386377552 0 0.0049103699492722627 -0.0097447314933197943 0 0.0047122000581855629 -0.0090498833141873687 0 0.0036093787155680756 -0.0085491735614967434 0 0.0035693340575856385 -0.0094245273386377552 0 0.0047122000581855629 -0.0090498833141873687 0 0.0060567273626030227 -0.010288950266281009 0 0.0049103699492722627 -0.0097447314933197943 0 0.0056350928725600906 -0.0094622188289140933 0 0.0049103699492722627 -0.0097447314933197943 0 0.0047122000581855629 -0.0090498833141873687 0 0.0056350928725600906 -0.0094622188289140933 0 0.0060567273626030227 -0.010288950266281009 0 0.0056350928725600906 -0.0094622188289140933 0 0.0063717994166398234 -0.010002804420893239 0 0.0064330053277406362 -0.0089098027501897954 0 0.0056350928725600906 -0.0094622188289140933 0 0.0063717994166398234 -0.010002804420893239 0 0.020434122526347201 -0.0081286118855120014 0 0.020193994370421586 -0.0098292150947113383 0 0.0067960023078049115 -0.010038340939732514 0 0.0061065277893753191 -0.010381960773793752 0 0.0060567273626030227 -0.010288950266281009 0 0.0067960023078049115 -0.010038340939732514 0 0.0060567273626030227 -0.010288950266281009 0 0.0063717994166398234 -0.010002804420893239 0 0.0075093290747096694 -0.0092538212962203961 0 0.0063717994166398234 -0.010002804420893239 0 0.0079027012289860175 -0.0097640248336096375 0 0.0087585124847436111 -0.01037744095819231 0 0.0063717994166398234 -0.010002804420893239 0 0.0079027012289860175 -0.0097640248336096375 0 0.020434122526347201 -0.0081286118855120014 0 0.016992567046205026 -0.008494644853880717 0 0.035609106806013674 -0.012369873361303622 0 0.037394958187408012 -0.013093210038020251 0 0.034390413181548521 -0.014001371897866197 0 0.035609106806013674 -0.012369873361303622 0 0.037394958187408012 -0.013093210038020251 0 0.036917167254979809 -0.011328707194453167 0 0.037394958187408012 -0.013093210038020251 0 0.034390413181548521 -0.014001371897866197 0 0.037071913658803878 -0.015364320771954338 0 0.034390413181548521 -0.014001371897866197 0 0.032633062536423264 -0.014001537143191396 0 0.031511911809777332 -0.015871048135596224 0 0.032633062536423264 -0.014001537143191396 0 0.031277641645729763 -0.014124013774022426 0 0.031511911809777332 -0.015871048135596224 0 0.031277641645729763 -0.014124013774022426 0 0.03335132652926677 -0.011981750699053965 0 0.030801479003605959 -0.011657839491410136 0 0.032633062536423264 -0.014001537143191396 0 0.031277641645729763 -0.014124013774022426 0 0.03335132652926677 -0.011981750699053965 0 0.034390413181548521 -0.014001371897866197 0 0.032633062536423264 -0.014001537143191396 0 0.03335132652926677 -0.011981750699053965 0 0.035609106806013674 -0.012369873361303622 0 0.034390413181548521 -0.014001371897866197 0 0.03335132652926677 -0.011981750699053965 0 0.03335132652926677 -0.011981750699053965 0 0.035913521812272954 -0.010715073778423281 0 0.034409684881713344 -0.0087405512403930276 0 0.03335132652926677 -0.011981750699053965 0 0.032201022436248818 -0.0099148806559124763 0 0.034409684881713344 -0.0087405512403930276 0 0.03335132652926677 -0.011981750699053965 0 0.032201022436248818 -0.0099148806559124763 0 0.030801479003605959 -0.011657839491410136 0 0.036923012317612802 -0.0094704380082958894 0 0.035913521812272954 -0.010715073778423281 0 0.034409684881713344 -0.0087405512403930276 0 0.036923012317612802 -0.0094704380082958894 0 0.035913521812272954 -0.010715073778423281 0 0.037288325042919492 -0.010187053281303513 0 0.035609106806013674 -0.012369873361303622 0 0.035913521812272954 -0.010715073778423281 0 0.036917167254979809 -0.011328707194453167 0 0.035609106806013674 -0.012369873361303622 0 0.03335132652926677 -0.011981750699053965 0 0.035913521812272954 -0.010715073778423281 0 0.037394958187408012 -0.013093210038020251 0 0.036917167254979809 -0.011328707194453167 0 0.038021188727938977 -0.010360663940968981 0 0.035913521812272954 -0.010715073778423281 0 0.036917167254979809 -0.011328707194453167 0 0.037288325042919492 -0.010187053281303513 0 0.036917167254979809 -0.011328707194453167 0 0.038021188727938977 -0.010360663940968981 0 0.037288325042919492 -0.010187053281303513 0 0.038021188727938977 -0.010360663940968981 0 0.037288325042919492 -0.010187053281303513 0 0.038035595227925302 -0.009129227882118349 0 0.036923012317612802 -0.0094704380082958894 0 0.037288325042919492 -0.010187053281303513 0 0.038035595227925302 -0.009129227882118349 0 0.036923012317612802 -0.0094704380082958894 0 0.038035595227925302 -0.009129227882118349 0 0.037577169601994247 -0.0081600459444395746 0 0.038264405378408792 -0.011401809681837924 0 0.038976543298031199 -0.0103874466368207 0 0.038564719648469421 -0.0092381390515229433 0 0.038968990412521005 -0.0095241827957856726 0 0.038978137152846558 -0.0082770346278746871 0 0.037394958187408012 -0.013093210038020251 0 0.03945071773154929 -0.010768773954178123 0 0.039442360487758912 -0.011018516730662788 0 0.037394958187408012 -0.013093210038020251 0 0.038968990412521005 -0.0095241827957856726 0 0.040341857544402809 -0.0087427850298326289 0 0.037394958187408012 -0.013093210038020251 0 0.038021188727938977 -0.010360663940968981 0 0.038968990412521005 -0.0095241827957856726 0 0.038021188727938977 -0.010360663940968981 0 0.038564719648469421 -0.0092381390515229433 0 0.038968990412521005 -0.0095241827957856726 0 0.038021188727938977 -0.010360663940968981 0 0.038035595227925302 -0.009129227882118349 0 0.038564719648469421 -0.0092381390515229433 0 0.038968990412521005 -0.0095241827957856726 0 0.040341857544402809 -0.0087427850298326289 0 0.039610279174789646 -0.0085087757978848395 0 0.03782159302276783 -0.010169999226517118 0 0.038663336317936496 -0.010901358365788632 0 0.038739083999500358 -0.010457670959161013 0 0.039442360487758912 -0.011018516730662788 0 0.038663336317936496 -0.010901358365788632 0 0.038739083999500358 -0.010457670959161013 0 0.03945071773154929 -0.010768773954178123 0 0.039442360487758912 -0.011018516730662788 0 0.038663336317936496 -0.010901358365788632 0 0.039442360487758912 -0.011018516730662788 0 0.038739083999500358 -0.010457670959161013 0 0.038770209225519749 -0.0098284877822554361 0 0.03782159302276783 -0.010169999226517118 0 0.038739083999500358 -0.010457670959161013 0 0.038770209225519749 -0.0098284877822554361 0 0.037597253835373622 -0.0088343571683028969 0 0.038770209225519749 -0.0098284877822554361 0 0.039307720144926526 -0.0086348821062835965 0 0.030184331819135539 -0.011806254272675945 0 0.02703844057099402 -0.011663503397717169 0 0.024331300472440427 -0.0098023559818642692 0 0.02703844057099402 -0.011663503397717169 0 0.039442360487758912 -0.011018516730662788 0 0.038770209225519749 -0.0098284877822554361 0 0.039307720144926526 -0.0086348821062835965 0 0.037394958187408012 -0.013093210038020251 0 0.040119845592074814 -0.014599386221523966 0 0.037071913658803878 -0.015364320771954338 0 0.037394958187408012 -0.013093210038020251 0 0.039442360487758912 -0.011018516730662788 0 0.040119845592074814 -0.014599386221523966 0 0.022623781135701192 -0.014103352497377509 0 0.01780517823515107 -0.01876932161161967 0 0.024365806016918803 -0.018174381011113957 0 0.022623781135701192 -0.014103352497377509 0 0.01780517823515107 -0.01876932161161967 0 0.017302684453726826 -0.012483852657225479 0 0.02703844057099402 -0.011663503397717169 0 0.029219428970422102 -0.013297255286940937 0 0.012067373451026852 -0.0082341500035436766 0 0.015399961819092312 -0.010060600007641925 0 0.015187064943654406 -0.0070031367905591755 0 0.02703844057099402 -0.011663503397717169 0 0.022369190391905557 -0.0090009456434194009 0 0.013025673441963684 -0.0061086251404750191 0 0.015187064943654406 -0.0070031367905591755 0 0.015253103645494565 -0.0041167767436510027 0 0.013025673441963684 -0.0061086251404750191 0 0.012067373451026852 -0.0082341500035436766 0 0.015187064943654406 -0.0070031367905591755 0 0.022623781135701192 -0.014103352497377509 0 0.017302684453726826 -0.012483852657225479 0 0.020342036973159786 -0.010054427572409309 0 0.017302684453726826 -0.012483852657225479 0 0.020342036973159786 -0.010054427572409309 0 0.016644718644818646 -0.0066079789685477225 0 0.022623781135701192 -0.014103352497377509 0 0.020342036973159786 -0.010054427572409309 0 0.023656047821065514 -0.01044133259626626 0 0.023656047821065514 -0.01044133259626626 0 0.027201714038945748 -0.011672103909789346 0 0.02604380462707109 -0.013278745155847666 0 0.023656047821065514 -0.01044133259626626 0 0.027201714038945748 -0.011672103909789346 0 0.024801973334368135 -0.0082716746839235859 0 0.027201714038945748 -0.011672103909789346 0 0.02604380462707109 -0.013278745155847666 0 0.02871066056399834 -0.014532585627702111 0 0.022623781135701192 -0.014103352497377509 0 0.023656047821065514 -0.01044133259626626 0 0.02604380462707109 -0.013278745155847666 0 0.034390413181548521 -0.014001371897866197 0 0.037071913658803878 -0.015364320771954338 0 0.031511911809777332 -0.015871048135596224 0 0.022623781135701192 -0.014103352497377509 0 0.026763315306178027 -0.015479920643637644 0 0.024365806016918803 -0.018174381011113957 0 0.029219428970422102 -0.013297255286940937 0 0.029890002058558615 -0.013734130660070763 0 0.022623781135701192 -0.014103352497377509 0 0.02604380462707109 -0.013278745155847666 0 0.026763315306178027 -0.015479920643637644 0 0.026763315306178027 -0.015479920643637644 0 0.024365806016918803 -0.018174381011113957 0 0.031511911809777332 -0.015871048135596224 0 0.02604380462707109 -0.013278745155847666 0 0.026763315306178027 -0.015479920643637644 0 0.02871066056399834 -0.014532585627702111 0 0.031277641645729763 -0.014124013774022426 0 0.031511911809777332 -0.015871048135596224 0 0.03161042279406065 -0.015733016611788928 0 0.026763315306178027 -0.015479920643637644 0 0.031511911809777332 -0.015871048135596224 0 0.02871066056399834 -0.014532585627702111 0 0.031511911809777332 -0.015871048135596224 0 0.02871066056399834 -0.014532585627702111 0 0.03161042279406065 -0.015733016611788928 0 -0.0012146778778542317 0.0062879133778902321 0 -0.0017626076281673103 0.0088530601387859856 0 -0.0029555973501530462 0.010099194926925053 0 0.015882969800297752 -0.0024103150396337799 0 0.012899087564404037 0.0011089348885144137 0 0.027201714038945748 -0.011672103909789346 0 0.03161042279406065 -0.015733016611788928 0 0.027719843479492631 -0.008304464179402709 0 -0.0012146778778542317 0.0062879133778902321 0 -0.0010769724501752756 0.0084119034912514164 0 -0.0017626076281673103 0.0088530601387859856 0 0.027201714038945748 -0.011672103909789346 0 0.02871066056399834 -0.014532585627702111 0 0.03161042279406065 -0.015733016611788928 0 -0.0010769724501752756 0.0084119034912514164 0 -0.0017626076281673103 0.0088530601387859856 0 -0.0017888031225508213 0.010624789030429444 0 -0.0017888031225508213 0.010624789030429444 0 -0.0029555973501530462 0.010099194926925053 0 -0.0039520431957512092 0.014242901875334616 0 -0.0035158694851649577 0.012037196726639299 0 -0.002797516264740688 0.013122309820985594 0 -0.0011812204965873981 0.011966335432970215 0 -0.0017626076281673103 0.0088530601387859856 0 -0.0017888031225508213 0.010624789030429444 0 -0.0029555973501530462 0.010099194926925053 0 0.027201714038945748 -0.011672103909789346 0 0.027719843479492631 -0.008304464179402709 0 0.024801973334368135 -0.0082716746839235859 0 0.023656047821065514 -0.01044133259626626 0 0.024801973334368135 -0.0082716746839235859 0 0.021596480699217258 -0.0067764743250055869 0 0.02403557839182395 -0.0053096397729510796 0 0.021596480699217258 -0.0067764743250055869 0 0.02183128402451982 -0.0043076034203495314 0 0.024801973334368135 -0.0082716746839235859 0 0.02403557839182395 -0.0053096397729510796 0 0.021596480699217258 -0.0067764743250055869 0 0.027719843479492631 -0.008304464179402709 0 0.024801973334368135 -0.0082716746839235859 0 0.02403557839182395 -0.0053096397729510796 0 0.027719843479492631 -0.008304464179402709 0 0.02403557839182395 -0.0053096397729510796 0 0.022624819064077283 -0.0018018745823542384 0 -0.0029555973501530462 0.010099194926925053 0 -0.0039520431957512092 0.014242901875334616 0 -0.0042364848049717971 0.014427683991012375 0 -0.0035158694851649577 0.012037196726639299 0 -0.0039520431957512092 0.014242901875334616 0 -0.0035900769757789132 0.013838980726592965 0 -0.0021547324744613629 0.010823130676488 0 -0.0032301856111164946 0.012194571480059485 0 0.012899087564404037 0.0011089348885144137 0 0.0098995159201897866 0.0055121134994455248 0 0.02403557839182395 -0.0053096397729510796 0 0.022447711926466767 -0.0035337128910336033 0 0.022624819064077283 -0.0018018745823542384 0 0.02403557839182395 -0.0053096397729510796 0 0.022447711926466767 -0.0035337128910336033 0 0.02183128402451982 -0.0043076034203495314 0 0.022447711926466767 -0.0035337128910336033 0 0.022624819064077283 -0.0018018745823542384 0 0.021340063559958471 -0.0027403974861703408 0 -0.0039520431957512092 0.014242901875334616 0 -0.003727723740000106 0.014413478741649409 0 -0.0039346094472790284 0.014535787702197239 0 -0.0039520431957512092 0.014242901875334616 0 -0.0042364848049717971 0.014427683991012375 0 -0.0039346094472790284 0.014535787702197239 0 -0.0039520431957512092 0.014242901875334616 0 -0.003727723740000106 0.014413478741649409 0 -0.0035900769757789132 0.013838980726592965 0 -0.003727723740000106 0.014413478741649409 0 -0.0035900769757789132 0.013838980726592965 0 -0.0034338965890063264 0.014518727505966843 0 -0.0035158694851649577 0.012037196726639299 0 -0.0035900769757789132 0.013838980726592965 0 -0.0033301826312701938 0.013694226055325914 0 -0.0035900769757789132 0.013838980726592965 0 -0.0033301826312701938 0.013694226055325914 0 -0.0034338965890063264 0.014518727505966843 0 -0.0028634509772568284 0.01463528363897962 0 -0.0033301826312701938 0.013694226055325914 0 -0.0034338965890063264 0.014518727505966843 0 -0.0028634509772568284 0.01463528363897962 0 -0.002797516264740688 0.013122309820985594 0 -0.0033301826312701938 0.013694226055325914 0 -0.0035158694851649577 0.012037196726639299 0 -0.002797516264740688 0.013122309820985594 0 -0.0033301826312701938 0.013694226055325914 0 0.022369190391905557 -0.0090009456434194009 0 0.01998574536180819 -0.0056900416936042962 0 0.012157943870932239 -0.0047456086420140054 0 0.013025673441963684 -0.0061086251404750191 0 0.015253103645494565 -0.0041167767436510027 0 0.020342036973159786 -0.010054427572409309 0 0.016644718644818646 -0.0066079789685477225 0 0.021596480699217258 -0.0067764743250055869 0 0.016644718644818646 -0.0066079789685477225 0 0.021596480699217258 -0.0067764743250055869 0 0.019165909727830673 -0.0036826104655857026 0 0.020342036973159786 -0.010054427572409309 0 0.023656047821065514 -0.01044133259626626 0 0.021596480699217258 -0.0067764743250055869 0 0.02183128402451982 -0.0043076034203495314 0 0.021340063559958471 -0.0027403974861703408 0 0.019165909727830673 -0.0036826104655857026 0 0.021596480699217258 -0.0067764743250055869 0 0.02183128402451982 -0.0043076034203495314 0 0.019165909727830673 -0.0036826104655857026 0 0.022447711926466767 -0.0035337128910336033 0 0.02183128402451982 -0.0043076034203495314 0 0.021340063559958471 -0.0027403974861703408 0 0.022624819064077283 -0.0018018745823542384 0 0.02109935856708417 -0.0018264583315104647 0 0.01977176736589353 -0.00049653113623273357 0 0.021340063559958471 -0.0027403974861703408 0 0.02010323159397186 -0.0020073949016008717 0 0.019165909727830673 -0.0036826104655857026 0 0.022624819064077283 -0.0018018745823542384 0 0.021340063559958471 -0.0027403974861703408 0 0.02109935856708417 -0.0018264583315104647 0 0.021340063559958471 -0.0027403974861703408 0 0.02109935856708417 -0.0018264583315104647 0 0.02010323159397186 -0.0020073949016008717 0 0.02109935856708417 -0.0018264583315104647 0 0.02010323159397186 -0.0020073949016008717 0 0.01977176736589353 -0.00049653113623273357 0 0.018165591451949192 -0.0014091687895114997 0 0.019165909727830673 -0.0036826104655857026 0 0.015736205189597355 -0.0010448470331412291 0 0.02010323159397186 -0.0020073949016008717 0 0.018165591451949192 -0.0014091687895114997 0 0.019165909727830673 -0.0036826104655857026 0 0.016644718644818646 -0.0066079789685477225 0 0.019165909727830673 -0.0036826104655857026 0 0.015736205189597355 -0.0010448470331412291 0 0.01228178688655855 -0.0026738374688797893 0 0.015253103645494565 -0.0041167767436510027 0 0.015736205189597355 -0.0010448470331412291 0 0.01998574536180819 -0.0056900416936042962 0 0.019225157594177412 -0.0038776002381601181 0 0.01310054648737435 -0.00011465024398260991 0 0.015220945223770762 0.0017206543593572491 0 0.015736205189597355 -0.0010448470331412291 0 0.018165591451949192 -0.0014091687895114997 0 0.015736205189597355 -0.0010448470331412291 0 0.01685024843156634 0.00074604461030562924 0 0.015220945223770762 0.0017206543593572491 0 0.01685024843156634 0.00074604461030562924 0 0.017587514506356334 0.0025386481906953346 0 0.015220945223770762 0.0017206543593572491 0 0.015736205189597355 -0.0010448470331412291 0 0.01685024843156634 0.00074604461030562924 0 -0.0042364848049717971 0.014427683991012375 0 -0.0037276758465908618 0.01508644284876747 0 -0.0038755279808756703 0.014751277734816905 0 0.022624819064077283 -0.0018018745823542384 0 0.01977176736589353 -0.00049653113623273357 0 0.018101907198700161 0.0032342246228936112 0 0.018286437015130014 0.0011547236026197756 0 0.01977176736589353 -0.00049653113623273357 0 0.018101907198700161 0.0032342246228936112 0 0.0098995159201897866 0.0055121134994455248 0 0.0071997241572814693 0.009741901731264789 0 0.01685024843156634 0.00074604461030562924 0 0.018286437015130014 0.0011547236026197756 0 0.017587514506356334 0.0025386481906953346 0 0.01685024843156634 0.00074604461030562924 0 0.018286437015130014 0.0011547236026197756 0 0.018395722068606877 -9.4947861777510217e-05 0 0.018165591451949192 -0.0014091687895114997 0 0.01685024843156634 0.00074604461030562924 0 0.018395722068606877 -9.4947861777510217e-05 0 0.018286437015130014 0.0011547236026197756 0 0.018395722068606877 -9.4947861777510217e-05 0 0.01977176736589353 -0.00049653113623273357 0 0.02010323159397186 -0.0020073949016008717 0 0.018165591451949192 -0.0014091687895114997 0 0.01977176736589353 -0.00049653113623273357 0 0.018165591451949192 -0.0014091687895114997 0 0.018395722068606877 -9.4947861777510217e-05 0 0.01977176736589353 -0.00049653113623273357 0 -0.0037276758465908618 0.01508644284876747 0 -0.0036803669252384336 0.014926121948145001 0 -0.0038755279808756703 0.014751277734816905 0 -0.0037276758465908618 0.01508644284876747 0 -0.0036803669252384336 0.014926121948145001 0 -0.0034196203704181488 0.015076954382271735 0 0.018286437015130014 0.0011547236026197756 0 0.018101907198700161 0.0032342246228936112 0 0.017587514506356334 0.0025386481906953346 0 0.017875601172505685 0.0029152462111852813 0 0.017587514506356334 0.0025386481906953346 0 0.015984984510107558 0.003799143995040511 0 0.0071997241572814693 0.009741901731264789 0 0.007273244582013982 0.0097250932929274087 0 0.007968262171506816 0.0091412103375601364 0 0.0071997241572814693 0.009741901731264789 0 0.015771617542283189 0.0056199250895426368 0 0.017875601172505685 0.0029152462111852813 0 0.015984984510107558 0.003799143995040511 0 0.015220945223770762 0.0017206543593572491 0 0.017587514506356334 0.0025386481906953346 0 0.015984984510107558 0.003799143995040511 0 0.013381279838280405 0.0047556874201703844 0 0.013175762946473954 0.0024256884463526506 0 0.015984984510107558 0.003799143995040511 0 0.013175762946473954 0.0024256884463526506 0 0.015220945223770762 0.0017206543593572491 0 0.015984984510107558 0.003799143995040511 0 -0.003393195130539494 0.014866303603897122 0 -0.0031164486241708244 0.015042947165344036 0 -0.003359678218838326 0.015061058655058279 0 -0.0028634509772568284 0.01463528363897962 0 -0.0031164486241708244 0.015042947165344036 0 -0.0034338965890063264 0.014518727505966843 0 -0.003393195130539494 0.014866303603897122 0 -0.0031164486241708244 0.015042947165344036 0 -0.0034338965890063264 0.014518727505966843 0 -0.003727723740000106 0.014413478741649409 0 -0.0034338965890063264 0.014518727505966843 0 -0.0036774273213863334 0.014748380420107126 0 -0.003393195130539494 0.014866303603897122 0 -0.0034338965890063264 0.014518727505966843 0 -0.0036774273213863334 0.014748380420107126 0 -0.003727723740000106 0.014413478741649409 0 -0.0036774273213863334 0.014748380420107126 0 -0.0039346094472790284 0.014535787702197239 0 -0.0042364848049717971 0.014427683991012375 0 -0.0039346094472790284 0.014535787702197239 0 -0.0038755279808756703 0.014751277734816905 0 -0.0036774273213863334 0.014748380420107126 0 -0.0039346094472790284 0.014535787702197239 0 -0.0038755279808756703 0.014751277734816905 0 -0.0036774273213863334 0.014748380420107126 0 -0.0036803669252384336 0.014926121948145001 0 -0.003359678218838326 0.015061058655058279 0 -0.0036774273213863334 0.014748380420107126 0 -0.0036803669252384336 0.014926121948145001 0 -0.0038755279808756703 0.014751277734816905 0 -0.003393195130539494 0.014866303603897122 0 -0.0036774273213863334 0.014748380420107126 0 -0.003359678218838326 0.015061058655058279 0 -0.0029115171409047152 0.015150501814254284 0 -0.003359678218838326 0.015061058655058279 0 -0.0034196203704181488 0.015076954382271735 0 -0.0029115171409047152 0.015150501814254284 0 -0.0037276758465908618 0.01508644284876747 0 -0.0034196203704181488 0.015076954382271735 0 -0.0029115171409047152 0.015150501814254284 0 -0.003359678218838326 0.015061058655058279 0 -0.0030165558183180611 0.01520365779401218 0 -0.0036803669252384336 0.014926121948145001 0 -0.003359678218838326 0.015061058655058279 0 -0.0034196203704181488 0.015076954382271735 0 -0.0031164486241708244 0.015042947165344036 0 -0.003359678218838326 0.015061058655058279 0 -0.0030165558183180611 0.01520365779401218 0 -0.0031164486241708244 0.015042947165344036 0 -0.0030165558183180611 0.01520365779401218 0 -0.0031909914732424285 0.015484182834262455 0 -0.0031164486241708244 0.015042947165344036 0 -0.0031909914732424285 0.015484182834262455 0 -0.0031834711263283733 0.015139251977487859 0 -0.0028634509772568284 0.01463528363897962 0 -0.0031164486241708244 0.015042947165344036 0 -0.0031834711263283733 0.015139251977487859 0 -0.0031834711263283733 0.015139251977487859 0 -0.0029957787996186024 0.015883681747789112 0 -0.0023993771001026331 0.015265482812438702 0 -0.0034128055896997288 0.015716495982659263 0 -0.0031909914732424285 0.015484182834262455 0 -0.0029957787996186024 0.015883681747789112 0 -0.0031909914732424285 0.015484182834262455 0 -0.0031834711263283733 0.015139251977487859 0 -0.0029957787996186024 0.015883681747789112 0 -0.0029957787996186024 0.015883681747789112 0 -0.0028944434962372362 0.016144671982073405 0 -0.0012539341963874787 0.017137189661143762 0 -0.0034128055896997288 0.015716495982659263 0 -0.0029957787996186024 0.015883681747789112 0 -0.0028944434962372362 0.016144671982073405 0 -0.0028944434962372362 0.016144671982073405 0 -0.0031860492292058707 0.016179752208585047 0 -0.0012539341963874787 0.017137189661143762 0 -0.0033738144424961978 0.015906211281652718 0 -0.0028944434962372362 0.016144671982073405 0 -0.0031860492292058707 0.016179752208585047 0 -0.00032015656051718452 0.018765621752099514 0 -0.00059061036708454536 0.018320338840277652 0 0.0012314723475865118 0.022662148759989748 0 -0.0012539341963874787 0.017137189661143762 0 0.0030198803826218513 0.018765595170397671 0 -0.0012539341963874787 0.017137189661143762 0 0.0030198803826218513 0.018765595170397671 0 0.0024915930275953911 0.014852174281898481 0 -0.0012539341963874787 0.017137189661143762 0 -0.0023993771001026331 0.015265482812438702 0 0.0024915930275953911 0.014852174281898481 0 -0.0029957787996186024 0.015883681747789112 0 -0.0012539341963874787 0.017137189661143762 0 -0.0023993771001026331 0.015265482812438702 0 -0.0023993771001026331 0.015265482812438702 0 -0.00054253413153380946 0.011904229053507853 0 -0.0033199988939572123 0.014361007143671644 0 0.0034618767948607107 0.011924036965450911 0 0.00015784787800992629 0.013227717396969858 0 -0.0023993771001026331 0.015265482812438702 0 -0.00054253413153380946 0.011904229053507853 0 0.0024915930275953911 0.014852174281898481 0 0.0061791640629264045 0.011841628113296098 0 0.01021251628790818 0.010163315170634854 0 0.0075166989683864401 0.0080935692498337458 0 0.0061791640629264045 0.011841628113296098 0 0.0017443851768099341 0.013509507096994203 0 0.003711589150347268 0.0086533651315128229 0 0.0009443127139982029 0.010562563514482459 0 -0.0011812204965873981 0.011966335432970215 0 0.0017443851768099341 0.013509507096994203 0 0.0009443127139982029 0.010562563514482459 0 0.0017443851768099341 0.013509507096994203 0 0.003711589150347268 0.0086533651315128229 0 -0.0035158694851649577 0.012037196726639299 0 -0.0011812204965873981 0.011966335432970215 0 -0.0005181505236314444 0.0080803710751144505 0 0.0009443127139982029 0.010562563514482459 0 -0.0011812204965873981 0.011966335432970215 0 -0.0005181505236314444 0.0080803710751144505 0 -0.0028634509772568284 0.01463528363897962 0 -0.002797516264740688 0.013122309820985594 0 -0.0011812204965873981 0.011966335432970215 0 -0.0028634509772568284 0.01463528363897962 0 -0.0011812204965873981 0.011966335432970215 0 0.0017443851768099341 0.013509507096994203 0 -0.0028634509772568284 0.01463528363897962 0 -0.0031834711263283733 0.015139251977487859 0 -0.0033199988939572123 0.014361007143671644 0 -0.0012763723651385281 0.01378225144070155 0 0.00015784787800992629 0.013227717396969858 0 -0.0031834711263283733 0.015139251977487859 0 -0.0023993771001026331 0.015265482812438702 0 -0.0033199988939572123 0.014361007143671644 0 0.019860587234471833 0.015785920327663069 0 0.016227396186724349 0.020674601746426012 0 0.015925170433326828 0.013939994709678971 0 0.01570092510488574 0.02332568016203761 0 0.01822056852258247 0.022875932704666702 0 0.016227396186724349 0.020674601746426012 0 0.016227396186724349 0.020674601746426012 0 0.011956997708442234 0.017965436246375428 0 0.010193630934318302 0.023721752067611519 0 0.011240005528616244 0.019127240929596612 0 0.0079560109306810334 0.019533399228264421 0 0.01570092510488574 0.02332568016203761 0 0.016227396186724349 0.020674601746426012 0 0.011951759022559209 0.022834769911954284 0 0.016227396186724349 0.020674601746426012 0 0.011956997708442234 0.017965436246375428 0 0.015925170433326828 0.013939994709678971 0 0.011956997708442234 0.017965436246375428 0 0.00713954271724209 0.018306413608638366 0 0.0099498132820555057 0.013796537464956586 0 0.011956997708442234 0.017965436246375428 0 0.00713954271724209 0.018306413608638366 0 0.010193630934318302 0.023721752067611519 0 0.00713954271724209 0.018306413608638366 0 0.010193630934318302 0.023721752067611519 0 0.0051117717315660605 0.022082005529602274 0 0.0035716592092228544 0.026958215861692288 0 0.0012314723475865118 0.022662148759989748 0 0.0051117717315660605 0.022082005529602274 0 0.0012314723475865118 0.022662148759989748 0 0.0051117717315660605 0.022082005529602274 0 0.0030198803826218513 0.018765595170397671 0 0.00713954271724209 0.018306413608638366 0 0.0030198803826218513 0.018765595170397671 0 0.0024915930275953911 0.014852174281898481 0 0.00713954271724209 0.018306413608638366 0 0.0051117717315660605 0.022082005529602274 0 0.0030198803826218513 0.018765595170397671 0 0.0024915930275953911 0.014852174281898481 0 0.0058934519189525764 0.0095980001019523222 0 0.0099498132820555057 0.013796537464956586 0 0.0034618767948607107 0.011924036965450911 0 0.0074960071566229809 0.010486292272589378 0 -0.00054253413153380946 0.011904229053507853 0 0.0024915930275953911 0.014852174281898481 0 0.0058934519189525764 0.0095980001019523222 0 0.0074960071566229809 0.010486292272589378 0 0.0099445115422648351 0.0097120501372986758 0 0.0058934519189525764 0.0095980001019523222 0 0.0099498132820555057 0.013796537464956586 0 0.013596069392264326 0.0087574245289839241 0 0.00713954271724209 0.018306413608638366 0 0.0024915930275953911 0.014852174281898481 0 0.0099498132820555057 0.013796537464956586 0 0.011956997708442234 0.017965436246375428 0 0.0099498132820555057 0.013796537464956586 0 0.015925170433326828 0.013939994709678971 0 0.0099498132820555057 0.013796537464956586 0 0.015925170433326828 0.013939994709678971 0 0.013596069392264326 0.0087574245289839241 0 0.020527780060496326 0.012103327590035009 0 0.015925170433326828 0.013939994709678971 0 0.018298745324440747 0.0090958409265191349 0 0.015925170433326828 0.013939994709678971 0 0.018298745324440747 0.0090958409265191349 0 0.013596069392264326 0.0087574245289839241 0 0.016974971098609137 0.0056158019956046345 0 0.013596069392264326 0.0087574245289839241 0 0.013795744976649744 0.003830882455212853 0 0.020067875217310596 0.0063098291603643697 0 0.016974971098609137 0.0056158019956046345 0 0.018298745324440747 0.0090958409265191349 0 0.020067875217310596 0.0063098291603643697 0 0.019585646769930905 0.0037353285567578607 0 0.016974971098609137 0.0056158019956046345 0 0.016974971098609137 0.0056158019956046345 0 0.018298745324440747 0.0090958409265191349 0 0.013596069392264326 0.0087574245289839241 0 0.013596069392264326 0.0087574245289839241 0 0.011266817792805486 0.0066720629460258673 0 0.013795744976649744 0.003830882455212853 0 0.011266817792805486 0.0066720629460258673 0 0.010987158457958088 0.0036380377801048815 0 0.013795744976649744 0.003830882455212853 0 0.01021251628790818 0.010163315170634854 0 0.013596069392264326 0.0087574245289839241 0 0.011266817792805486 0.0066720629460258673 0 0.01021251628790818 0.010163315170634854 0 0.011266817792805486 0.0066720629460258673 0 0.0075166989683864401 0.0080935692498337458 0 0.011266817792805486 0.0066720629460258673 0 0.0086366977307446215 0.0048221875839557808 0 0.0075166989683864401 0.0080935692498337458 0 0.011266817792805486 0.0066720629460258673 0 0.0086366977307446215 0.0048221875839557808 0 0.010987158457958088 0.0036380377801048815 0 0.0086366977307446215 0.0048221875839557808 0 0.0090623921578640351 0.0019213139946849104 0 0.010987158457958088 0.0036380377801048815 0 0.0090623921578640351 0.0019213139946849104 0 0.0070963452510843525 0.000610354712908126 0 0.0092817814633302156 -0.0010495902834810182 0 0.0090623921578640351 0.0019213139946849104 0 0.012233190003582131 0.00082776837779597451 0 0.0092817814633302156 -0.0010495902834810182 0 0.012233190003582131 0.00082776837779597451 0 0.011674943773143974 -0.0016225541185662942 0 0.0092817814633302156 -0.0010495902834810182 0 0.012233190003582131 0.00082776837779597451 0 0.014978095614669385 -0.0016602806771994637 0 0.011674943773143974 -0.0016225541185662942 0 0.0090623921578640351 0.0019213139946849104 0 0.012233190003582131 0.00082776837779597451 0 0.010987158457958088 0.0036380377801048815 0 0.012233190003582131 0.00082776837779597451 0 0.010987158457958088 0.0036380377801048815 0 0.013795744976649744 0.003830882455212853 0 0.012233190003582131 0.00082776837779597451 0 0.013795744976649744 0.003830882455212853 0 0.016826186926828697 0.0015157181808822769 0 0.016974971098609137 0.0056158019956046345 0 0.013795744976649744 0.003830882455212853 0 0.016826186926828697 0.0015157181808822769 0 0.012233190003582131 0.00082776837779597451 0 0.016826186926828697 0.0015157181808822769 0 0.014978095614669385 -0.0016602806771994637 0 0.020406018529228215 0.00070422087248524993 0 0.01941171169723439 -0.0026349473365834962 0 0.016826186926828697 0.0015157181808822769 0 0.019585646769930905 0.0037353285567578607 0 0.016974971098609137 0.0056158019956046345 0 0.016826186926828697 0.0015157181808822769 0 0.020406018529228215 0.00070422087248524993 0 0.019585646769930905 0.0037353285567578607 0 0.016826186926828697 0.0015157181808822769 0 0.0030177730256255577 0.0045624414775618793 0 0.00074036934992206599 0.0052277317547858833 0 0.0006092472708859565 0.0074588465956832266 0 0.0030177730256255577 0.0045624414775618793 0 -0.0005181505236314444 0.0080803710751144505 0 0.003711589150347268 0.0086533651315128229 0 0.0013897110591038931 0.0066750645036909931 0 1.0467351742040708e-06 0.0082453247220182126 0 -0.0012146778778542317 0.0062879133778902321 0 0.00074036934992206599 0.0052277317547858833 0 0.0004269418466792995 0.0044691078113447483 0 -0.0012146778778542317 0.0062879133778902321 0 -8.9781362649316284e-05 0.0065706214653081683 0 -0.00051327202045641082 0.0073101993539162044 0 -0.0012146778778542317 0.0062879133778902321 0 0.00074036934992206599 0.0052277317547858833 0 -8.9781362649316284e-05 0.0065706214653081683 0 0.00074036934992206599 0.0052277317547858833 0 -8.9781362649316284e-05 0.0065706214653081683 0 0.0006092472708859565 0.0074588465956832266 0 -0.0010769724501752756 0.0084119034912514164 0 -0.0017888031225508213 0.010624789030429444 0 0.0006092472708859565 0.0074588465956832266 0 -0.0021547324744613629 0.010823130676488 0 1.0467351742040708e-06 0.0082453247220182126 0 -0.0010769724501752756 0.0084119034912514164 0 0.0006092472708859565 0.0074588465956832266 0 -0.00051327202045641082 0.0073101993539162044 0 -8.9781362649316284e-05 0.0065706214653081683 0 0.0006092472708859565 0.0074588465956832266 0 -0.00051327202045641082 0.0073101993539162044 0 -0.0012146778778542317 0.0062879133778902321 0 -0.0010769724501752756 0.0084119034912514164 0 -0.00051327202045641082 0.0073101993539162044 0 0.0009443127139982029 0.010562563514482459 0 -0.0005181505236314444 0.0080803710751144505 0 0.003711589150347268 0.0086533651315128229 0 0.0061791640629264045 0.011841628113296098 0 0.003711589150347268 0.0086533651315128229 0 0.0075166989683864401 0.0080935692498337458 0 0.003711589150347268 0.0086533651315128229 0 0.0075166989683864401 0.0080935692498337458 0 0.0056254389108631852 0.0051752427561328421 0 0.0086366977307446215 0.0048221875839557808 0 0.0075166989683864401 0.0080935692498337458 0 0.0056254389108631852 0.0051752427561328421 0 0.0030177730256255577 0.0045624414775618793 0 0.003711589150347268 0.0086533651315128229 0 0.0056254389108631852 0.0051752427561328421 0 0.0030177730256255577 0.0045624414775618793 0 0.0056254389108631852 0.0051752427561328421 0 0.0038382142896271924 0.002700421963924358 0 0.0056254389108631852 0.0051752427561328421 0 0.0038382142896271924 0.002700421963924358 0 0.0065130262170630645 0.0025551433757748741 0 0.0038382142896271924 0.002700421963924358 0 0.0065130262170630645 0.0025551433757748741 0 0.0052440611678384553 0.00096076949387312056 0 0.0086366977307446215 0.0048221875839557808 0 0.0056254389108631852 0.0051752427561328421 0 0.0065130262170630645 0.0025551433757748741 0 0.0086366977307446215 0.0048221875839557808 0 0.0090623921578640351 0.0019213139946849104 0 0.0065130262170630645 0.0025551433757748741 0 0.0070963452510843525 0.000610354712908126 0 0.0055173539159219295 -0.0011095004956089281 0 0.0092817814633302156 -0.0010495902834810182 0 0.0090623921578640351 0.0019213139946849104 0 0.0065130262170630645 0.0025551433757748741 0 0.0070963452510843525 0.000610354712908126 0 0.0065130262170630645 0.0025551433757748741 0 0.0070963452510843525 0.000610354712908126 0 0.0052440611678384553 0.00096076949387312056 0 0.0070963452510843525 0.000610354712908126 0 0.0052440611678384553 0.00096076949387312056 0 0.0055173539159219295 -0.0011095004956089281 0 0.0038382142896271924 0.002700421963924358 0 0.0052440611678384553 0.00096076949387312056 0 0.0034275440696983389 0.00047670425912153499 0 0.010581063940465704 0.00013255005499332424 0 0.017944502488649611 -0.0034832837104670075 0 0.0052440611678384553 0.00096076949387312056 0 0.0034275440696983389 0.00047670425912153499 0 0.0055173539159219295 -0.0011095004956089281 0 0.029005054718000741 -0.013111013560598954 0 0.028569433821782852 -0.0098929762148578498 0 0.025692868773383896 -0.0077192197612180775 0 0.018715493334271936 -0.0032055316697564397 0 0.025019627419092565 -0.0040921983539337755 0 0.0038382142896271924 0.002700421963924358 0 0.0034275440696983389 0.00047670425912153499 0 0.0015376866480408861 0.0019279854588305193 0 0.0015376866480408861 0.0019279854588305193 0 0.00044254648299607097 0.0026828772472251637 0 0.0029678292912676076 -0.0019151094199064736 0 0.0041659573823909233 0.00016421411197906996 0 0.0015376866480408861 0.0019279854588305193 0 0.0029678292912676076 -0.0019151094199064736 0 0.010581063940465704 0.00013255005499332424 0 0.0083152730027487697 0.0012442108817544751 0 0.0030177730256255577 0.0045624414775618793 0 0.00074036934992206599 0.0052277317547858833 0 0.0017980869855532243 0.0036671655049519028 0 0.0038382142896271924 0.002700421963924358 0 0.0015376866480408861 0.0019279854588305193 0 0.0017980869855532243 0.0036671655049519028 0 0.0015376866480408861 0.0019279854588305193 0 0.0017980869855532243 0.0036671655049519028 0 0.00044254648299607097 0.0026828772472251637 0 0.00074036934992206599 0.0052277317547858833 0 0.0017980869855532243 0.0036671655049519028 0 0.0004269418466792995 0.0044691078113447483 0 0.0030177730256255577 0.0045624414775618793 0 0.0038382142896271924 0.002700421963924358 0 0.0017980869855532243 0.0036671655049519028 0 0.015882969800297752 -0.0024103150396337799 0 0.018715493334271936 -0.0032055316697564397 0 0.031277641645729763 -0.014124013774022426 0 0.03161042279406065 -0.015733016611788928 0 0.029005054718000741 -0.013111013560598954 0 -0.0012146778778542317 0.0062879133778902321 0 0.0004269418466792995 0.0044691078113447483 0 0.00044254648299607097 0.0026828772472251637 0 0.0017980869855532243 0.0036671655049519028 0 0.0004269418466792995 0.0044691078113447483 0 0.00044254648299607097 0.0026828772472251637 0 0.031277641645729763 -0.014124013774022426 0 0.029005054718000741 -0.013111013560598954 0 0.030801479003605959 -0.011657839491410136 0 0.029005054718000741 -0.013111013560598954 0 0.030801479003605959 -0.011657839491410136 0 0.028569433821782852 -0.0098929762148578498 0 0.032201022436248818 -0.0099148806559124763 0 0.030831387086753318 -0.0096662633855463202 0 0.031764974465998699 -0.007159294836752492 0 0.028569433821782852 -0.0098929762148578498 0 0.030831387086753318 -0.0096662633855463202 0 0.031764974465998699 -0.007159294836752492 0 0.032201022436248818 -0.0099148806559124763 0 0.030801479003605959 -0.011657839491410136 0 0.030831387086753318 -0.0096662633855463202 0 0.030801479003605959 -0.011657839491410136 0 0.028569433821782852 -0.0098929762148578498 0 0.030831387086753318 -0.0096662633855463202 0 0.028569433821782852 -0.0098929762148578498 0 0.025692868773383896 -0.0077192197612180775 0 0.031764974465998699 -0.007159294836752492 0 0.025019627419092565 -0.0040921983539337755 0 0.03384488548436948 -0.0051992321656377924 0 0.039664978588885028 -0.0066236159341553436 0 0.039826734277392938 -0.0063670448629811489 0 0.03941020712247445 -0.0064273782861609067 0 0.039456444315888427 -0.0067083238378125394 0 0.039664978588885028 -0.0066236159341553436 0 0.03941020712247445 -0.0064273782861609067 0 0.039664978588885028 -0.0066236159341553436 0 0.039549736142745241 -0.0066855910534742895 0 0.039631406957189946 -0.0066703408582457898 0 0.039456444315888427 -0.0067083238378125394 0 0.039549736142745241 -0.0066855910534742895 0 0.039478986539246405 -0.0067195012913976023 0 0.039456444315888427 -0.0067083238378125394 0 0.039664978588885028 -0.0066236159341553436 0 0.039549736142745241 -0.0066855910534742895 0 0.039664978588885028 -0.0066236159341553436 0 0.040324618125973245 -0.0065499360136137517 0 0.039772461740390133 -0.0067221520032721416 0 0.041133163874383184 -0.007012147592959741 0 0.041259650874230953 -0.0071360342844782052 0 0.039664978588885028 -0.0066236159341553436 0 0.039826734277392938 -0.0063670448629811489 0 0.040324618125973245 -0.0065499360136137517 0 0.039826734277392938 -0.0063670448629811489 0 0.039875082005498871 -0.0059651864094349373 0 0.03941020712247445 -0.0064273782861609067 0 0.039826734277392938 -0.0063670448629811489 0 0.039875082005498871 -0.0059651864094349373 0 0.040324618125973245 -0.0065499360136137517 0 0.03914653599891238 -0.0039182049550995869 0 0.041690014262523035 -0.0037387758203693885 0 0.042000273718808545 -0.0055975945807197761 0 0.0041659573823909233 0.00016421411197906996 0 0.0029678292912676076 -0.0019151094199064736 0 0.0068715144010793941 -0.0016851605910802919 0 0.025019627419092565 -0.0040921983539337755 0 0.017944502488649611 -0.0034832837104670075 0 0.017944502488649611 -0.0034832837104670075 0 0.01254508099042656 -0.0032916951677036876 0 0.0052002998856269375 -0.0013644111154376031 0 0.0092817814633302156 -0.0010495902834810182 0 0.0093211069460755469 -0.0042939731324881884 0 0.041690014262523035 -0.0037387758203693885 0 0.042000273718808545 -0.0055975945807197761 0 0.044619778024779025 -0.0060542055402196121 0 0.017944502488649611 -0.0034832837104670075 0 0.025313601067397978 -0.0058494490000513726 0 0.042000273718808545 -0.0055975945807197761 0 0.043354778909285588 -0.0071580203546677103 0 0.044619778024779025 -0.0060542055402196121 0 0.042000273718808545 -0.0055975945807197761 0 0.040991545467226609 -0.0070493530824820389 0 0.043354778909285588 -0.0071580203546677103 0 0.025019627419092565 -0.0040921983539337755 0 0.031188840435676223 -0.008316946673458581 0 0.039875082005498871 -0.0059651864094349373 0 0.040324618125973245 -0.0065499360136137517 0 0.040991545467226609 -0.0070493530824820389 0 0.040324618125973245 -0.0065499360136137517 0 0.040991545467226609 -0.0070493530824820389 0 0.039918812673913728 -0.0077635958399451428 0 0.03914653599891238 -0.0039182049550995869 0 0.042000273718808545 -0.0055975945807197761 0 0.040991545467226609 -0.0070493530824820389 0 0.040991545467226609 -0.0070493530824820389 0 0.040709164196910418 -0.0083393282506360224 0 0.039918812673913728 -0.0077635958399451428 0 0.040991545467226609 -0.0070493530824820389 0 0.040709164196910418 -0.0083393282506360224 0 0.042058575472553497 -0.0080025743036467745 0 0.040709164196910418 -0.0083393282506360224 0 0.042058575472553497 -0.0080025743036467745 0 0.041196053595056591 -0.0092880131509170925 0 0.040991545467226609 -0.0070493530824820389 0 0.043354778909285588 -0.0071580203546677103 0 0.042058575472553497 -0.0080025743036467745 0 0.042058575472553497 -0.0080025743036467745 0 0.043220948251244999 -0.0088550614541966725 0 0.041196053595056591 -0.0092880131509170925 0 0.043354778909285588 -0.0071580203546677103 0 0.042058575472553497 -0.0080025743036467745 0 0.043220948251244999 -0.0088550614541966725 0 0.043354778909285588 -0.0071580203546677103 0 0.043220948251244999 -0.0088550614541966725 0 0.044889507938417235 -0.0077994517828562223 0 0.043299677396114518 -0.0070122986955616258 0 0.04232563613573339 -0.007125706809756196 0 0.045472275025025259 -0.007882402786715554 0 0.045511359602182541 -0.0076501793599122294 0 0.045911237678612223 -0.0076668926752235852 0 0.045511359602182541 -0.0076501793599122294 0 0.045911237678612223 -0.0076668926752235852 0 0.045744973159364273 -0.0074813970424393739 0 0.043299677396114518 -0.0070122986955616258 0 0.043457593196922981 -0.0066854391274088687 0 0.045472275025025259 -0.007882402786715554 0 0.045511359602182541 -0.0076501793599122294 0 0.045135874543739012 -0.0077838291230572492 0 0.042795934807953365 -0.0069929218718419502 0 0.042817563315013241 -0.0069031656506961725 0 0.04251801990520581 -0.0069764942455051559 0 0.04232563613573339 -0.007125706809756196 0 0.041896664217370864 -0.0068632693269791963 0 0.040709164196910418 -0.0083393282506360224 0 0.041196053595056591 -0.0092880131509170925 0 0.039409937261581103 -0.009690114566769617 0 0.043119573314895361 -0.0068321546637531367 0 0.042795934807953365 -0.0069929218718419502 0 0.042817563315013241 -0.0069031656506961725 0 0.043457593196922981 -0.0066854391274088687 0 0.042675670999878561 -0.0064364819520892754 0 0.042795934807953365 -0.0069929218718419502 0 0.04251801990520581 -0.0069764942455051559 0 0.042474934304086429 -0.0071553262572641796 0 0.03951722014249192 -0.0065117147585157876 0 0.039606595187556687 -0.0064703822530030024 0 0.039609917505897541 -0.0066136341989182137 0 0.041896664217370864 -0.0068632693269791963 0 0.042675670999878561 -0.0064364819520892754 0 0.03951722014249192 -0.0065117147585157876 0 0.03966733260500889 -0.0061421027253836021 0 0.039606595187556687 -0.0064703822530030024 0 0.041799324248279424 -0.0055035050835675753 0 0.041412137231026942 -0.0055915005650181131 0 0.041756047814953352 -0.0056831258711312026 0 0.041896664217370864 -0.0068632693269791963 0 0.041094810261883462 -0.0065506132522311139 0 0.03966733260500889 -0.0061421027253836021 0 0.039606595187556687 -0.0064703822530030024 0 0.039798335242395698 -0.0064348891431022419 0 0.039606595187556687 -0.0064703822530030024 0 0.039594788023247306 -0.0066222225247031998 0 0.039609917505897541 -0.0066136341989182137 0 0.039594788023247306 -0.0066222225247031998 0 0.039631406957189946 -0.0066703408582457898 0 0.039609917505897541 -0.0066136341989182137 0 0.039606595187556687 -0.0064703822530030024 0 0.039594788023247306 -0.0066222225247031998 0 0.039798335242395698 -0.0064348891431022419 0 0.039549736142745241 -0.0066855910534742895 0 0.039594788023247306 -0.0066222225247031998 0 0.039478986539246405 -0.0067195012913976023 0 0.039549736142745241 -0.0066855910534742895 0 0.039594788023247306 -0.0066222225247031998 0 0.039631406957189946 -0.0066703408582457898 0 0.041896664217370864 -0.0068632693269791963 0 0.041259650874230953 -0.0071360342844782052 0 0.040709164196910418 -0.0083393282506360224 0 0.039409937261581103 -0.009690114566769617 0 0.039918812673913728 -0.0077635958399451428 0 0.039664978588885028 -0.0066236159341553436 0 0.039631406957189946 -0.0066703408582457898 0 0.039772461740390133 -0.0067221520032721416 0 0.039631406957189946 -0.0066703408582457898 0 0.039772461740390133 -0.0067221520032721416 0 0.039609917505897541 -0.0066136341989182137 0 0.03951722014249192 -0.0065117147585157876 0 0.039772461740390133 -0.0067221520032721416 0 0.039609917505897541 -0.0066136341989182137 0 0.01941171169723439 -0.0026349473365834962 0 0.019133246933535335 -0.0062768217403029458 0 0.015983371056543825 -0.0051841220875789677 0 0.01941171169723439 -0.0026349473365834962 0 0.014978095614669385 -0.0016602806771994637 0 0.015983371056543825 -0.0051841220875789677 0 0.01941171169723439 -0.0026349473365834962 0 0.016826186926828697 0.0015157181808822769 0 0.014978095614669385 -0.0016602806771994637 0 0.014978095614669385 -0.0016602806771994637 0 0.015983371056543825 -0.0051841220875789677 0 0.012629146728737033 -0.0040104611145503214 0 0.015983371056543825 -0.0051841220875789677 0 0.012629146728737033 -0.0040104611145503214 0 0.01352337992565914 -0.0073560851462942953 0 0.012629146728737033 -0.0040104611145503214 0 0.0093211069460755469 -0.0042939731324881884 0 0.01352337992565914 -0.0073560851462942953 0 0.044619778024779025 -0.0060542055402196121 0 0.044854096330309096 -0.0070351636798462033 0 0.045526388214096908 -0.007639113159201333 0 0.025313601067397978 -0.0058494490000513726 0 0.029229338549451655 -0.0071431887066523009 0 0.012629146728737033 -0.0040104611145503214 0 0.011674943773143974 -0.0016225541185662942 0 0.0093211069460755469 -0.0042939731324881884 0 0.014978095614669385 -0.0016602806771994637 0 0.012629146728737033 -0.0040104611145503214 0 0.011674943773143974 -0.0016225541185662942 0 0.011674943773143974 -0.0016225541185662942 0 0.0092817814633302156 -0.0010495902834810182 0 0.0093211069460755469 -0.0042939731324881884 0 0.043354778909285588 -0.0071580203546677103 0 0.044619778024779025 -0.0060542055402196121 0 0.044854096330309096 -0.0070351636798462033 0 0.043354778909285588 -0.0071580203546677103 0 0.044854096330309096 -0.0070351636798462033 0 0.044889507938417235 -0.0077994517828562223 0 0.044854096330309096 -0.0070351636798462033 0 0.044889507938417235 -0.0077994517828562223 0 0.045174752742845013 -0.0075919867532943108 0 0.044889507938417235 -0.0077994517828562223 0 0.045135874543739012 -0.0077838291230572492 0 0.045174752742845013 -0.0075919867532943108 0 0.043299677396114518 -0.0070122986955616258 0 0.043556525003549923 -0.0070079531441703336 0 0.045472275025025259 -0.007882402786715554 0 0.044889507938417235 -0.0077994517828562223 0 0.045135874543739012 -0.0077838291230572492 0 0.045135874543739012 -0.0077838291230572492 0 0.0451886014518217 -0.0076873731377499832 0 0.045174752742845013 -0.0075919867532943108 0 0.045511359602182541 -0.0076501793599122294 0 0.045135874543739012 -0.0077838291230572492 0 0.0451886014518217 -0.0076873731377499832 0 0.045511359602182541 -0.0076501793599122294 0 0.0451886014518217 -0.0076873731377499832 0 0.045421560805164705 -0.0075210851033666688 0 0.046712921090933467 -0.0068081442117535022 0 0.047191705945142486 -0.0063472993718211032 0 0.0451886014518217 -0.0076873731377499832 0 0.045174752742845013 -0.0075919867532943108 0 0.045031751868210415 -0.0076325228242005855 0 0.044854096330309096 -0.0070351636798462033 0 0.045526388214096908 -0.007639113159201333 0 0.045174752742845013 -0.0075919867532943108 0 0.045526388214096908 -0.007639113159201333 0 0.045174752742845013 -0.0075919867532943108 0 0.045527500758182293 -0.0075273187553613619 0 0.029229338549451655 -0.0071431887066523009 0 0.032340153633406372 -0.0078277125449128532 0 0.015983371056543825 -0.0051841220875789677 0 0.01352337992565914 -0.0073560851462942953 0 0.017886153785016637 -0.010411076573319489 0 0.045526388214096908 -0.007639113159201333 0 0.045219176692372819 -0.0076093420655188142 0 0.045527500758182293 -0.0075273187553613619 0 0.020944821327236574 -0.0082882427304909988 0 0.019133246933535335 -0.0062768217403029458 0 0.017886153785016637 -0.010411076573319489 0 0.019133246933535335 -0.0062768217403029458 0 0.015983371056543825 -0.0051841220875789677 0 0.017886153785016637 -0.010411076573319489 0 0.045099229645220437 -0.0070435650017270455 0 0.045274971499259756 -0.0070963246731283441 0 0.045234843759999976 -0.0068737394135772326 0 0.045274971499259756 -0.0070963246731283441 0 0.045331244254774049 -0.0069488075765038841 0 0.045234843759999976 -0.0068737394135772326 0 0.045099229645220437 -0.0070435650017270455 0 0.045274971499259756 -0.0070963246731283441 0 0.045225244183632482 -0.0073160816238687539 0 0.045002360669614466 -0.0072833453850029818 0 0.045099229645220437 -0.0070435650017270455 0 0.045225244183632482 -0.0073160816238687539 0 0.045002360669614466 -0.0072833453850029818 0 0.045219176692372819 -0.0076093420655188142 0 0.045225244183632482 -0.0073160816238687539 0 0.045219176692372819 -0.0076093420655188142 0 0.045225244183632482 -0.0073160816238687539 0 0.045527500758182293 -0.0075273187553613619 0 0.045274971499259756 -0.0070963246731283441 0 0.045225244183632482 -0.0073160816238687539 0 0.045527500758182293 -0.0075273187553613619 0 0.048705424149427863 -0.0039785890906059171 0 0.047191705945142486 -0.0063472993718211032 0 0.045274971499259756 -0.0070963246731283441 0 0.04546272933815345 -0.0070240017370320198 0 0.045527500758182293 -0.0075273187553613619 0 0.044599174245175538 -0.006884423750446571 0 0.044861925906778309 -0.0070734174306999933 0 0.045031751868210415 -0.0076325228242005855 0 0.045274971499259756 -0.0070963246731283441 0 0.04546272933815345 -0.0070240017370320198 0 0.045331244254774049 -0.0069488075765038841 0 0.044599174245175538 -0.006884423750446571 0 0.044703026669411235 -0.0068582347833262601 0 0.044751731562028253 -0.0069287262075968968 0 0.044599174245175538 -0.006884423750446571 0 0.044703026669411235 -0.0068582347833262601 0 0.04476625835289421 -0.0067048752593306792 0 0.044703026669411235 -0.0068582347833262601 0 0.044827243537392376 -0.0068803533303664934 0 0.04476625835289421 -0.0067048752593306792 0 0.044703026669411235 -0.0068582347833262601 0 0.044827243537392376 -0.0068803533303664934 0 0.044751731562028253 -0.0069287262075968968 0 0.044599174245175538 -0.006884423750446571 0 0.044751731562028253 -0.0069287262075968968 0 0.044861925906778309 -0.0070734174306999933 0 0.044827243537392376 -0.0068803533303664934 0 0.044751731562028253 -0.0069287262075968968 0 0.044861925906778309 -0.0070734174306999933 0 0.044963939145862233 -0.0069527471711274061 0 0.044966465652653879 -0.0067736229806904993 0 0.045252430397922642 -0.0068251002322108744 0 0.044827243537392376 -0.0068803533303664934 0 0.044963939145862233 -0.0069527471711274061 0 0.044861925906778309 -0.0070734174306999933 0 0.044827243537392376 -0.0068803533303664934 0 0.044963939145862233 -0.0069527471711274061 0 0.044966465652653879 -0.0067736229806904993 0 0.044827243537392376 -0.0068803533303664934 0 0.044966465652653879 -0.0067736229806904993 0 0.04476625835289421 -0.0067048752593306792 0 0.045252430397922642 -0.0068251002322108744 0 0.045132538567322286 -0.0070809914273618742 0 0.045422925939672149 -0.007097581551812282 0 0.044963939145862233 -0.0069527471711274061 0 0.045252430397922642 -0.0068251002322108744 0 0.045132538567322286 -0.0070809914273618742 0 0.045132538567322286 -0.0070809914273618742 0 0.045197761791180263 -0.0074439492557535746 0 0.045422925939672149 -0.007097581551812282 0 0.044963939145862233 -0.0069527471711274061 0 0.045132538567322286 -0.0070809914273618742 0 0.044861925906778309 -0.0070734174306999933 0 0.045132538567322286 -0.0070809914273618742 0 0.044861925906778309 -0.0070734174306999933 0 0.045197761791180263 -0.0074439492557535746 0 0.0451886014518217 -0.0076873731377499832 0 0.045031751868210415 -0.0076325228242005855 0 0.045197761791180263 -0.0074439492557535746 0 0.044861925906778309 -0.0070734174306999933 0 0.045031751868210415 -0.0076325228242005855 0 0.045197761791180263 -0.0074439492557535746 0 0.045197761791180263 -0.0074439492557535746 0 0.045487092415698031 -0.0073214718871934033 0 0.045422925939672149 -0.007097581551812282 0 0.045197761791180263 -0.0074439492557535746 0 0.045421560805164705 -0.0075210851033666688 0 0.045487092415698031 -0.0073214718871934033 0 0.0451886014518217 -0.0076873731377499832 0 0.045197761791180263 -0.0074439492557535746 0 0.045421560805164705 -0.0075210851033666688 0 0.045421560805164705 -0.0075210851033666688 0 0.045487092415698031 -0.0073214718871934033 0 0.045744973159364273 -0.0074813970424393739 0 0.046062013746910581 -0.0068304523848341254 0 0.046337558365315425 -0.0064008033981770582 0 0.045487092415698031 -0.0073214718871934033 0 0.045743132105076807 -0.0068707953475893816 0 0.046363250814835527 -0.006542345132857957 0 0.045487092415698031 -0.0073214718871934033 0 0.045422925939672149 -0.007097581551812282 0 0.045743132105076807 -0.0068707953475893816 0 0.045252430397922642 -0.0068251002322108744 0 0.045422925939672149 -0.007097581551812282 0 0.045743132105076807 -0.0068707953475893816 0 0.045743132105076807 -0.0068707953475893816 0 0.046264708200108008 -0.0062119043212251288 0 0.046363250814835527 -0.006542345132857957 0 0.045743132105076807 -0.0068707953475893816 0 0.045477283196278653 -0.0064571162246098365 0 0.045966086228077151 -0.0060532107834766254 0 0.046272380655994733 -0.0063702618167423512 0 0.046433315850559341 -0.0059628651678300384 0 0.045252430397922642 -0.0068251002322108744 0 0.045743132105076807 -0.0068707953475893816 0 0.045477283196278653 -0.0064571162246098365 0 0.045477283196278653 -0.0064571162246098365 0 0.045966086228077151 -0.0060532107834766254 0 0.045373471025569524 -0.0060459471656074699 0 0.046180081388337069 -0.0052018962753961877 0 0.045966086228077151 -0.0060532107834766254 0 0.045638841217761246 -0.0055852268629766749 0 0.045966086228077151 -0.0060532107834766254 0 0.045638841217761246 -0.0055852268629766749 0 0.045373471025569524 -0.0060459471656074699 0 0.045638841217761246 -0.0055852268629766749 0 0.045373471025569524 -0.0060459471656074699 0 0.044984656511538948 -0.0056517927958305457 0 0.045373471025569524 -0.0060459471656074699 0 0.044984656511538948 -0.0056517927958305457 0 0.04489505296581698 -0.0061927201449086524 0 0.04489505296581698 -0.0061927201449086524 0 0.045074526204038186 -0.006485412416417812 0 0.044694182130107479 -0.006497379547001152 0 0.045477283196278653 -0.0064571162246098365 0 0.045373471025569524 -0.0060459471656074699 0 0.045074526204038186 -0.006485412416417812 0 0.045373471025569524 -0.0060459471656074699 0 0.04489505296581698 -0.0061927201449086524 0 0.045074526204038186 -0.006485412416417812 0 0.044966465652653879 -0.0067736229806904993 0 0.045252430397922642 -0.0068251002322108744 0 0.045074526204038186 -0.006485412416417812 0 0.045252430397922642 -0.0068251002322108744 0 0.045477283196278653 -0.0064571162246098365 0 0.045074526204038186 -0.006485412416417812 0 0.044966465652653879 -0.0067736229806904993 0 0.045074526204038186 -0.006485412416417812 0 0.04476625835289421 -0.0067048752593306792 0 0.045074526204038186 -0.006485412416417812 0 0.044694182130107479 -0.006497379547001152 0 0.04476625835289421 -0.0067048752593306792 0 0.048777514077437002 -0.0032205924560424733 0 0.048922985171636485 -0.003622580471517802 0 0.049006440534191301 -0.0035463215096600289 0 0.048705424149427863 -0.0039785890906059171 0 0.049496843145573372 -0.0021957390142624488 0 0.044599174245175538 -0.006884423750446571 0 0.044694182130107479 -0.006497379547001152 0 0.044354437802244295 -0.0062740519812309924 0 0.044599174245175538 -0.006884423750446571 0 0.044694182130107479 -0.006497379547001152 0 0.04476625835289421 -0.0067048752593306792 0 0.048705424149427863 -0.0039785890906059171 0 0.049249483672673781 -0.0028811496957451329 0 0.04546272933815345 -0.0070240017370320198 0 0.045331244254774049 -0.0069488075765038841 0 0.045331319694323004 -0.0067878731173308523 0 0.049496843145573372 -0.0021957390142624488 0 0.049249483672673781 -0.0028811496957451329 0 0.04489505296581698 -0.0061927201449086524 0 0.044694182130107479 -0.006497379547001152 0 0.044354437802244295 -0.0062740519812309924 0 0.054426959265873383 0.0039725478526506748 0 0.053724990759566986 0.0059948812524532238 0 0.053460953108626801 0.0045807359006687469 0 0.052258116545143479 0.0047023045231781111 0 0.053724990759566986 0.0059948812524532238 0 0.053460953108626801 0.0045807359006687469 0 0.044984656511538948 -0.0056517927958305457 0 0.04489505296581698 -0.0061927201449086524 0 0.044354437802244295 -0.0062740519812309924 0 0.049118054874499897 -0.0015069874347131995 0 0.049496843145573372 -0.0021957390142624488 0 0.054426959265873383 0.0039725478526506748 0 0.053906821967475642 0.0054265908451920008 0 0.054680009954549712 0.004821794867492438 0 0.049901734780574476 0.0010223021246358605 0 0.049496843145573372 -0.0021957390142624488 0 0.050050061244586545 -0.0011683627549021068 0 0.049249483672673781 -0.0028811496957451329 0 0.055327444182711877 0.0039835300655071187 0 0.054877905449867391 0.0040075032702864147 0 0.054680009954549712 0.004821794867492438 0 0.051003395602728901 0.00028694865239108118 0 0.050050061244586545 -0.0011683627549021068 0 0.044999566021679621 -0.0067228148131263351 0 0.045195633874460218 -0.0064941696020919789 0 0.045193745279518069 -0.0066855920311254344 0 0.044999566021679621 -0.0067228148131263351 0 0.045193745279518069 -0.0066855920311254344 0 0.045234843759999976 -0.0068737394135772326 0 0.044999566021679621 -0.0067228148131263351 0 0.045099229645220437 -0.0070435650017270455 0 0.045234843759999976 -0.0068737394135772326 0 0.045193745279518069 -0.0066855920311254344 0 0.045367676103804759 -0.0067569215855177037 0 0.045234843759999976 -0.0068737394135772326 0 0.053906821967475642 0.0054265908451920008 0 0.054680009954549712 0.004821794867492438 0 0.054108809974101994 0.005609879807189893 0 0.045195633874460218 -0.0064941696020919789 0 0.045193745279518069 -0.0066855920311254344 0 0.045367676103804759 -0.0067569215855177037 0 0.045331244254774049 -0.0069488075765038841 0 0.045331319694323004 -0.0067878731173308523 0 0.045234843759999976 -0.0068737394135772326 0 0.049249483672673781 -0.0028811496957451329 0 0.048848099868762526 -0.0032570220528464625 0 0.046054023027062262 -0.0073444578479370404 0 0.046193420289999586 -0.007240647822913903 0 0.046080883491044139 -0.007122346856642473 0 0.044086616890178544 -0.0064099213523986509 0 0.042675670999878561 -0.0064364819520892754 0 0.046054023027062262 -0.0073444578479370404 0 0.045905098262028383 -0.0073142197028392818 0 0.046080883491044139 -0.007122346856642473 0 0.046054023027062262 -0.0073444578479370404 0 0.046193420289999586 -0.007240647822913903 0 0.046124395591934993 -0.007543742340574278 0 0.041859975617875536 -0.0059139429795283735 0 0.041730069110221993 -0.0058739103127634605 0 0.041763953015242286 -0.0057044991822658153 0 0.041859975617875536 -0.0059139429795283735 0 0.041730069110221993 -0.0058739103127634605 0 0.041779369492456045 -0.0059487577025220647 0 0.041412137231026942 -0.0055915005650181131 0 0.041394336073815201 -0.0058607531995559488 0 0.041756047814953352 -0.0056831258711312026 0 0.041859975617875536 -0.0059139429795283735 0 0.041763953015242286 -0.0057044991822658153 0 0.04195930763895251 -0.0056067280306381492 0 0.042096927526561509 -0.0063377595423113322 0 0.042675670999878561 -0.0064364819520892754 0 0.046054023027062262 -0.0073444578479370404 0 0.046124395591934993 -0.007543742340574278 0 0.045955896846563586 -0.0074830929024621564 0 0.045911237678612223 -0.0076668926752235852 0 0.046124395591934993 -0.007543742340574278 0 0.045955896846563586 -0.0074830929024621564 0 0.045955896846563586 -0.0074830929024621564 0 0.045744973159364273 -0.0074813970424393739 0 0.045905098262028383 -0.0073142197028392818 0 0.045911237678612223 -0.0076668926752235852 0 0.045955896846563586 -0.0074830929024621564 0 0.045744973159364273 -0.0074813970424393739 0 0.045487092415698031 -0.0073214718871934033 0 0.045744973159364273 -0.0074813970424393739 0 0.046105645954066014 -0.0069540719743038503 0 0.045511359602182541 -0.0076501793599122294 0 0.045421560805164705 -0.0075210851033666688 0 0.045744973159364273 -0.0074813970424393739 0 0.045944409842768971 -0.0069343280690591725 0 0.046061340526313971 -0.0067191000538129797 0 0.045487092415698031 -0.0073214718871934033 0 0.046105645954066014 -0.0069540719743038503 0 0.046065188543115122 -0.0063618985892792855 0 0.045744973159364273 -0.0074813970424393739 0 0.046105645954066014 -0.0069540719743038503 0 0.0467724097337043 -0.0069943324785948034 0 0.046054023027062262 -0.0073444578479370404 0 0.045955896846563586 -0.0074830929024621564 0 0.045905098262028383 -0.0073142197028392818 0 0.046105645954066014 -0.0069540719743038503 0 0.0467724097337043 -0.0069943324785948034 0 0.046583311572940031 -0.0065190459933928404 0 0.046061340526313971 -0.0067191000538129797 0 0.046108141760925092 -0.0062727420908490232 0 0.046583311572940031 -0.0065190459933928404 0 0.046875964693522419 -0.0060711757192502998 0 0.047546113570343176 -0.0063165871695535208 0 0.0467724097337043 -0.0069943324785948034 0 0.046583311572940031 -0.0065190459933928404 0 0.047546113570343176 -0.0063165871695535208 0 0.046583311572940031 -0.0065190459933928404 0 0.046065188543115122 -0.0063618985892792855 0 0.046875964693522419 -0.0060711757192502998 0 0.046105645954066014 -0.0069540719743038503 0 0.046583311572940031 -0.0065190459933928404 0 0.046065188543115122 -0.0063618985892792855 0 0.047033750295660391 -0.0057626605668710884 0 0.046649404846854009 -0.0055714728484779312 0 0.046264708200108008 -0.0062119043212251288 0 0.046786277223399321 -0.0057343211079995873 0 0.046337558365315425 -0.0064008033981770582 0 0.046854901568526321 -0.0054569325584714846 0 0.046065188543115122 -0.0063618985892792855 0 0.046875964693522419 -0.0060711757192502998 0 0.047033750295660391 -0.0057626605668710884 0 0.046264708200108008 -0.0062119043212251288 0 0.046363250814835527 -0.006542345132857957 0 0.046843634065938375 -0.0049647507460418728 0 0.046433315850559341 -0.0059628651678300384 0 0.046854901568526321 -0.0054569325584714846 0 0.046875964693522419 -0.0060711757192502998 0 0.047104582052591951 -0.005667618200340915 0 0.046875964693522419 -0.0060711757192502998 0 0.04743283104438524 -0.0057719487883547815 0 0.047546113570343176 -0.0063165871695535208 0 0.046875964693522419 -0.0060711757192502998 0 0.047104582052591951 -0.005667618200340915 0 0.04743283104438524 -0.0057719487883547815 0 0.047291948043583824 -0.0054754662718311071 0 0.047104582052591951 -0.005667618200340915 0 0.04743283104438524 -0.0057719487883547815 0 0.046108141760925092 -0.0062727420908490232 0 0.045639590418302178 -0.0058370782407980697 0 0.04743283104438524 -0.0057719487883547815 0 0.047546113570343176 -0.0063165871695535208 0 0.048041305439390523 -0.0057157728917227417 0 0.047585964608403947 -0.0053477297404896504 0 0.04743283104438524 -0.0057719487883547815 0 0.048041305439390523 -0.0057157728917227417 0 0.046193420289999586 -0.007240647822913903 0 0.046080883491044139 -0.007122346856642473 0 0.046263928860731447 -0.0069292293290387419 0 0.041859975617875536 -0.0059139429795283735 0 0.041850251893477387 -0.0059133515492126518 0 0.041779369492456045 -0.0059487577025220647 0 0.044086616890178544 -0.0064099213523986509 0 0.045639590418302178 -0.0058370782407980697 0 0.041850251893477387 -0.0059133515492126518 0 0.041943352552883867 -0.0059182135004305116 0 0.042281111775067583 -0.0058520611220410097 0 0.041943352552883867 -0.0059182135004305116 0 0.042281111775067583 -0.0058520611220410097 0 0.041891854709310478 -0.0058238091189743851 0 0.042256160108320069 -0.0057494376235706825 0 0.042281111775067583 -0.0058520611220410097 0 0.041891854709310478 -0.0058238091189743851 0 0.041943352552883867 -0.0059182135004305116 0 0.041615366241223736 -0.0058942199527196011 0 0.041891854709310478 -0.0058238091189743851 0 0.041850251893477387 -0.0059133515492126518 0 0.041943352552883867 -0.0059182135004305116 0 0.041779369492456045 -0.0059487577025220647 0 0.041943352552883867 -0.0059182135004305116 0 0.041615366241223736 -0.0058942199527196011 0 0.041779369492456045 -0.0059487577025220647 0 0.042096927526561509 -0.0063377595423113322 0 0.041907988196024565 -0.0063159542727198115 0 0.041615366241223736 -0.0058942199527196011 0 0.041779369492456045 -0.0059487577025220647 0 0.041394673365563676 -0.0058736918332474592 0 0.041730069110221993 -0.0058739103127634605 0 0.041763953015242286 -0.0057044991822658153 0 0.041394673365563676 -0.0058736918332474592 0 0.041730069110221993 -0.0058739103127634605 0 0.041779369492456045 -0.0059487577025220647 0 0.041394673365563676 -0.0058736918332474592 0 0.041615366241223736 -0.0058942199527196011 0 0.041394673365563676 -0.0058736918332474592 0 0.041256561617229702 -0.005843330727349585 0 0.041394673365563676 -0.0058736918332474592 0 0.041256561617229702 -0.005843330727349585 0 0.040788599747350586 -0.0058038535168290061 0 0.041256561617229702 -0.005843330727349585 0 0.040788599747350586 -0.0058038535168290061 0 0.041012164105329443 -0.005836938392392803 0 0.041412137231026942 -0.0055915005650181131 0 0.040788599747350586 -0.0058038535168290061 0 0.041239271999438311 -0.0058349341940956709 0 0.041394336073815201 -0.0058607531995559488 0 0.041394673365563676 -0.0058736918332474592 0 0.041239271999438311 -0.0058349341940956709 0 0.041394673365563676 -0.0058736918332474592 0 0.040788599747350586 -0.0058038535168290061 0 0.041239271999438311 -0.0058349341940956709 0 0.041094810261883462 -0.0065506132522311139 0 0.040968818576626438 -0.006429388875665222 0 0.041412137231026942 -0.0055915005650181131 0 0.041394336073815201 -0.0058607531995559488 0 0.041239271999438311 -0.0058349341940956709 0 0.041104325899430874 -0.0058444737189296356 0 0.041012164105329443 -0.005836938392392803 0 0.040949966118634447 -0.0059602908900136817 0 0.041104325899430874 -0.0058444737189296356 0 0.041012164105329443 -0.005836938392392803 0 0.04153775777881237 -0.0059098313994042336 0 0.041256561617229702 -0.005843330727349585 0 0.041012164105329443 -0.005836938392392803 0 0.04153775777881237 -0.0059098313994042336 0 0.041615366241223736 -0.0058942199527196011 0 0.041256561617229702 -0.005843330727349585 0 0.04153775777881237 -0.0059098313994042336 0 0.041104325899430874 -0.0058444737189296356 0 0.04153775777881237 -0.0059098313994042336 0 0.041162825393095299 -0.0059257325251914706 0 0.041593727487886874 -0.0061434174527613154 0 0.04153384710883911 -0.0062780818749897148 0 0.04153775777881237 -0.0059098313994042336 0 0.041316740240359993 -0.0064296785652909775 0 0.041162825393095299 -0.0059257325251914706 0 0.04153775777881237 -0.0059098313994042336 0 0.041891854709310478 -0.0058238091189743851 0 0.041845042878261865 -0.005679965388636272 0 0.041615366241223736 -0.0058942199527196011 0 0.04153775777881237 -0.0059098313994042336 0 0.041891854709310478 -0.0058238091189743851 0 0.042256160108320069 -0.0057494376235706825 0 0.041891854709310478 -0.0058238091189743851 0 0.041845042878261865 -0.005679965388636272 0 0.041364500459065381 -0.0066512788557163876 0 0.04153384710883911 -0.0062780818749897148 0 0.041026842557255451 -0.0069748794795603643 0 0.041316740240359993 -0.0064296785652909775 0 0.040761997906763534 -0.006490007294478667 0 0.040761997906763534 -0.006490007294478667 0 0.040984453182516055 -0.0061281055579174319 0 0.040684811203904943 -0.0059850168591187207 0 0.041316740240359993 -0.0064296785652909775 0 0.040984453182516055 -0.0061281055579174319 0 0.041162825393095299 -0.0059257325251914706 0 0.041316740240359993 -0.0064296785652909775 0 0.040761997906763534 -0.006490007294478667 0 0.040984453182516055 -0.0061281055579174319 0 0.039950249973556777 -0.006842328106467818 0 0.040214855549339179 -0.0063632512755277832 0 0.03970871208766772 -0.0063841905906403826 0 0.040482342021252823 -0.0069770555726992442 0 0.040761997906763534 -0.006490007294478667 0 0.040353403275353014 -0.0066662890922046343 0 0.039950249973556777 -0.006842328106467818 0 0.040353403275353014 -0.0066662890922046343 0 0.040214855549339179 -0.0063632512755277832 0 0.040761997906763534 -0.006490007294478667 0 0.040353403275353014 -0.0066662890922046343 0 0.040214855549339179 -0.0063632512755277832 0 0.040761997906763534 -0.006490007294478667 0 0.040214855549339179 -0.0063632512755277832 0 0.040684811203904943 -0.0059850168591187207 0 0.040214855549339179 -0.0063632512755277832 0 0.040106950820053264 -0.0059987409339825448 0 0.040684811203904943 -0.0059850168591187207 0 0.040214855549339179 -0.0063632512755277832 0 0.039907444839020222 -0.0061396426810435452 0 0.03970871208766772 -0.0063841905906403826 0 0.040106950820053264 -0.0059987409339825448 0 0.039907444839020222 -0.0061396426810435452 0 0.039839411898769495 -0.0058176694583933685 0 0.040214855549339179 -0.0063632512755277832 0 0.040106950820053264 -0.0059987409339825448 0 0.039907444839020222 -0.0061396426810435452 0 0.039583648446391666 -0.0060568156874989442 0 0.039907444839020222 -0.0061396426810435452 0 0.039839411898769495 -0.0058176694583933685 0 0.039583648446391666 -0.0060568156874989442 0 0.039907444839020222 -0.0061396426810435452 0 0.03970871208766772 -0.0063841905906403826 0 0.037330680561233204 -0.004686932538847363 0 0.039927174843637094 -0.0045964813697068401 0 0.03900399422584961 -0.0056393195996762438 0 0.035920828910338536 -0.0087437418076103234 0 0.036133598609184539 -0.0085067645580340166 0 0.039858892926691071 -0.0053661469986029733 0 0.03900399422584961 -0.0056393195996762438 0 0.039839411898769495 -0.0058176694583933685 0 0.040106950820053264 -0.0059987409339825448 0 0.039858892926691071 -0.0053661469986029733 0 0.039839411898769495 -0.0058176694583933685 0 0.040684811203904943 -0.0059850168591187207 0 0.040778776287346739 -0.005915830171205505 0 0.040920748833424739 -0.0058884443451517957 0 0.035920828910338536 -0.0087437418076103234 0 0.037586318434425017 -0.0086705920998473626 0 0.040106950820053264 -0.0059987409339825448 0 0.039858892926691071 -0.0053661469986029733 0 0.040684811203904943 -0.0059850168591187207 0 0.040666092593804146 -0.0059472681595504088 0 0.040684811203904943 -0.0059850168591187207 0 0.040778776287346739 -0.005915830171205505 0 0.035920828910338536 -0.0087437418076103234 0 0.037252597813140068 -0.0098108373016690398 0 0.040666092593804146 -0.0059472681595504088 0 0.040778776287346739 -0.005915830171205505 0 0.040870520687547068 -0.005839315370922281 0 0.040778776287346739 -0.005915830171205505 0 0.040920748833424739 -0.0058884443451517957 0 0.040870520687547068 -0.005839315370922281 0 0.034029761435937361 -0.017036068757765168 0 0.033503452120439127 -0.015922069567251399 0 0.034220873088841385 -0.015505677046860879 0 0.034029761435937361 -0.017036068757765168 0 0.034220873088841385 -0.015505677046860879 0 0.03533328197491839 -0.015545279818830124 0 0.033503452120439127 -0.015922069567251399 0 0.033487685030131241 -0.01530766381568109 0 0.034220873088841385 -0.015505677046860879 0 0.041162825393095299 -0.0059257325251914706 0 0.040986731648216125 -0.0059313213523876866 0 0.041055989858205175 -0.0058675044263562471 0 0.040984453182516055 -0.0061281055579174319 0 0.041162825393095299 -0.0059257325251914706 0 0.040986731648216125 -0.0059313213523876866 0 0.040984453182516055 -0.0061281055579174319 0 0.040684811203904943 -0.0059850168591187207 0 0.040986731648216125 -0.0059313213523876866 0 0.040684811203904943 -0.0059850168591187207 0 0.040986731648216125 -0.0059313213523876866 0 0.040920748833424739 -0.0058884443451517957 0 0.040920748833424739 -0.0058884443451517957 0 0.041055989858205175 -0.0058675044263562471 0 0.041055474621173177 -0.0058730081345947857 0 0.040986731648216125 -0.0059313213523876866 0 0.040920748833424739 -0.0058884443451517957 0 0.041055989858205175 -0.0058675044263562471 0 0.040920748833424739 -0.0058884443451517957 0 0.041055474621173177 -0.0058730081345947857 0 0.040870520687547068 -0.005839315370922281 0 0.041104325899430874 -0.0058444737189296356 0 0.041055989858205175 -0.0058675044263562471 0 0.041062602051034486 -0.0059139657317363306 0 0.041104325899430874 -0.0058444737189296356 0 0.041162825393095299 -0.0059257325251914706 0 0.041055989858205175 -0.0058675044263562471 0 0.041055989858205175 -0.0058675044263562471 0 0.041062602051034486 -0.0059139657317363306 0 0.041055474621173177 -0.0058730081345947857 0 0.041062602051034486 -0.0059139657317363306 0 0.041055474621173177 -0.0058730081345947857 0 0.041085325386704834 -0.0061584263887302058 0 0.040865340504512758 -0.0060638164042053416 0 0.040655520696592826 -0.0062483861597134012 0 0.041055474621173177 -0.0058730081345947857 0 0.041148058860479418 -0.0059824408550718513 0 0.040870520687547068 -0.005839315370922281 0 0.038383222049760093 -0.0098292933974579756 0 0.037252597813140068 -0.0098108373016690398 0 0.036672660878632989 -0.014069826588937507 0 0.03533328197491839 -0.015545279818830124 0 0.03553640837404428 -0.014278186847324847 0 0.036672660878632989 -0.014069826588937507 0 0.035888342284987114 -0.013360798324456327 0 0.036682995970879317 -0.01282020219342777 0 0.036672660878632989 -0.014069826588937507 0 0.035888342284987114 -0.013360798324456327 0 0.03553640837404428 -0.014278186847324847 0 0.041055474621173177 -0.0058730081345947857 0 0.041148058860479418 -0.0059824408550718513 0 0.040907323220315726 -0.0060347658246797638 0 0.041148058860479418 -0.0059824408550718513 0 0.040907323220315726 -0.0060347658246797638 0 0.041048216424648211 -0.0067724488965046938 0 0.03377536595624786 -0.014749685601040039 0 0.033487685030131241 -0.01530766381568109 0 0.034220873088841385 -0.015505677046860879 0 0.03377536595624786 -0.014749685601040039 0 0.034739140610111609 -0.014637674605452932 0 0.034100235169623475 -0.014026183034974922 0 0.03377536595624786 -0.014749685601040039 0 0.034220873088841385 -0.015505677046860879 0 0.034739140610111609 -0.014637674605452932 0 0.034739140610111609 -0.014637674605452932 0 0.03533328197491839 -0.015545279818830124 0 0.03553640837404428 -0.014278186847324847 0 0.034220873088841385 -0.015505677046860879 0 0.034739140610111609 -0.014637674605452932 0 0.03533328197491839 -0.015545279818830124 0 0.035888342284987114 -0.013360798324456327 0 0.035050666255018091 -0.013765599265201892 0 0.035176968240645062 -0.012935871287132679 0 0.035888342284987114 -0.013360798324456327 0 0.03553640837404428 -0.014278186847324847 0 0.035050666255018091 -0.013765599265201892 0 0.034739140610111609 -0.014637674605452932 0 0.035050666255018091 -0.013765599265201892 0 0.034100235169623475 -0.014026183034974922 0 0.034739140610111609 -0.014637674605452932 0 0.03553640837404428 -0.014278186847324847 0 0.035050666255018091 -0.013765599265201892 0 0.035050666255018091 -0.013765599265201892 0 0.034100235169623475 -0.014026183034974922 0 0.034324428242548589 -0.013068671637104626 0 0.033367743418345773 -0.013579795013605071 0 0.034100235169623475 -0.014026183034974922 0 0.034324428242548589 -0.013068671637104626 0 0.033398866829812905 -0.014285037631658693 0 0.03377536595624786 -0.014749685601040039 0 0.034100235169623475 -0.014026183034974922 0 0.033367743418345773 -0.013579795013605071 0 0.033398866829812905 -0.014285037631658693 0 0.034100235169623475 -0.014026183034974922 0 0.03344084553685988 -0.012348440993401032 0 0.033367743418345773 -0.013579795013605071 0 0.034324428242548589 -0.013068671637104626 0 0.03344084553685988 -0.012348440993401032 0 0.034324428242548589 -0.013068671637104626 0 0.034830050128177047 -0.012127284864135298 0 0.034324428242548589 -0.013068671637104626 0 0.035176968240645062 -0.012935871287132679 0 0.034830050128177047 -0.012127284864135298 0 0.035050666255018091 -0.013765599265201892 0 0.034324428242548589 -0.013068671637104626 0 0.035176968240645062 -0.012935871287132679 0 0.035888342284987114 -0.013360798324456327 0 0.035176968240645062 -0.012935871287132679 0 0.035795828069882525 -0.012351093978651475 0 0.035176968240645062 -0.012935871287132679 0 0.034830050128177047 -0.012127284864135298 0 0.035795828069882525 -0.012351093978651475 0 0.034707819574924283 -0.010678197745708717 0 0.035569175968941123 -0.01132538986246002 0 0.034830050128177047 -0.012127284864135298 0 0.035569175968941123 -0.01132538986246002 0 0.034830050128177047 -0.012127284864135298 0 0.035795828069882525 -0.012351093978651475 0 0.020183084652193345 -0.010483161440239912 0 0.020193994370421586 -0.0098292150947113383 0 0.03344084553685988 -0.012348440993401032 0 0.034707819574924283 -0.010678197745708717 0 0.034830050128177047 -0.012127284864135298 0 0.0070669235754466419 -0.0098229918896635283 0 0.0068376475672749489 -0.0092498474158004482 0 0.0061065277893753191 -0.010381960773793752 0 0.038383222049760093 -0.0098292933974579756 0 0.039050983125159783 -0.009827264826873074 0 0.036672660878632989 -0.014069826588937507 0 0.038081913121886538 -0.012569540859646089 0 0.036682995970879317 -0.01282020219342777 0 0.038081913121886538 -0.012569540859646089 0 0.036682995970879317 -0.01282020219342777 0 0.036940097170747664 -0.011745389197085605 0 0.035888342284987114 -0.013360798324456327 0 0.036682995970879317 -0.01282020219342777 0 0.035795828069882525 -0.012351093978651475 0 0.036682995970879317 -0.01282020219342777 0 0.035795828069882525 -0.012351093978651475 0 0.036940097170747664 -0.011745389197085605 0 0.036574019474064023 -0.010508382901267564 0 0.035569175968941123 -0.01132538986246002 0 0.036940097170747664 -0.011745389197085605 0 0.035569175968941123 -0.01132538986246002 0 0.035795828069882525 -0.012351093978651475 0 0.036940097170747664 -0.011745389197085605 0 0.038081913121886538 -0.012569540859646089 0 0.036940097170747664 -0.011745389197085605 0 0.038174292610485272 -0.011470075194437624 0 0.037532350467342115 -0.010943230198091822 0 0.036574019474064023 -0.010508382901267564 0 0.036940097170747664 -0.011745389197085605 0 0.037532350467342115 -0.010943230198091822 0 0.036940097170747664 -0.011745389197085605 0 0.038174292610485272 -0.011470075194437624 0 0.037532350467342115 -0.010943230198091822 0 0.038663336317936496 -0.010901358365788632 0 0.038174292610485272 -0.011470075194437624 0 0.038976543298031199 -0.0103874466368207 0 0.039050983125159783 -0.009827264826873074 0 0.03945071773154929 -0.010768773954178123 0 0.038663336317936496 -0.010901358365788632 0 0.038174292610485272 -0.011470075194437624 0 0.03945071773154929 -0.010768773954178123 0 0.038081913121886538 -0.012569540859646089 0 0.038174292610485272 -0.011470075194437624 0 0.040341857544402809 -0.0087427850298326289 0 0.041048216424648211 -0.0067724488965046938 0 0.03990451680301571 -0.0076876106551268149 0 0.041048216424648211 -0.0067724488965046938 0 0.039915881028492139 -0.0067269232167281451 0 0.03990451680301571 -0.0076876106551268149 0 0.040655520696592826 -0.0062483861597134012 0 0.039948132364043341 -0.006819518155855955 0 0.040907323220315726 -0.0060347658246797638 0 0.041048216424648211 -0.0067724488965046938 0 0.039915881028492139 -0.0067269232167281451 0 0.040700507965351053 -0.006677895834380978 0 0.0383536491796721 -0.0074994502119818916 0 0.039494496031421404 -0.0067388245081728181 0 0.040700507965351053 -0.006677895834380978 0 0.039494496031421404 -0.0067388245081728181 0 0.040198945606110772 -0.0063298114822132705 0 0.040700507965351053 -0.006677895834380978 0 0.0383536491796721 -0.0074994502119818916 0 0.037577169601994247 -0.0081600459444395746 0 0.039948132364043341 -0.006819518155855955 0 0.039169035198246022 -0.0074314403082093548 0 0.039915881028492139 -0.0067269232167281451 0 0.03990451680301571 -0.0076876106551268149 0 0.038978137152846558 -0.0082770346278746871 0 0.039915881028492139 -0.0067269232167281451 0 0.038978137152846558 -0.0082770346278746871 0 0.037577169601994247 -0.0081600459444395746 0 0.03990451680301571 -0.0076876106551268149 0 0.039610279174789646 -0.0085087757978848395 0 0.038978137152846558 -0.0082770346278746871 0 0.040341857544402809 -0.0087427850298326289 0 0.03990451680301571 -0.0076876106551268149 0 0.039610279174789646 -0.0085087757978848395 0 0.038968990412521005 -0.0095241827957856726 0 0.039610279174789646 -0.0085087757978848395 0 0.038978137152846558 -0.0082770346278746871 0 0.038035595227925302 -0.009129227882118349 0 0.038564719648469421 -0.0092381390515229433 0 0.038978137152846558 -0.0082770346278746871 0 0.0383536491796721 -0.0074994502119818916 0 0.037577169601994247 -0.0081600459444395746 0 0.034409684881713344 -0.0087405512403930276 0 0.038035595227925302 -0.009129227882118349 0 0.038978137152846558 -0.0082770346278746871 0 0.037577169601994247 -0.0081600459444395746 0 0.036923012317612802 -0.0094704380082958894 0 0.037577169601994247 -0.0081600459444395746 0 0.034409684881713344 -0.0087405512403930276 0 0.036153493816060575 -0.0055969239229965058 0 0.03384488548436948 -0.0051992321656377924 0 0.0383536491796721 -0.0074994502119818916 0 0.03941020712247445 -0.0064273782861609067 0 0.039142984703492957 -0.0069284486355742254 0 0.0383536491796721 -0.0074994502119818916 0 0.031764974465998699 -0.007159294836752492 0 0.034409684881713344 -0.0087405512403930276 0 0.032201022436248818 -0.0099148806559124763 0 0.031764974465998699 -0.007159294836752492 0 0.034409684881713344 -0.0087405512403930276 0 0.039142984703492957 -0.0069284486355742254 0 0.039478986539246405 -0.0067195012913976023 0 0.039751199270683352 -0.0065442375234211645 0 0.039456444315888427 -0.0067083238378125394 0 0.03941020712247445 -0.0064273782861609067 0 0.039142984703492957 -0.0069284486355742254 0 0.039456444315888427 -0.0067083238378125394 0 0.039142984703492957 -0.0069284486355742254 0 0.039478986539246405 -0.0067195012913976023 0 0.0383536491796721 -0.0074994502119818916 0 0.039142984703492957 -0.0069284486355742254 0 0.039494496031421404 -0.0067388245081728181 0 0.039142984703492957 -0.0069284486355742254 0 0.039494496031421404 -0.0067388245081728181 0 0.039751199270683352 -0.0065442375234211645 0 0.039751199270683352 -0.0065442375234211645 0 0.039798335242395698 -0.0064348891431022419 0 0.040381410351490954 -0.0061511994814405736 0 0.039494496031421404 -0.0067388245081728181 0 0.039751199270683352 -0.0065442375234211645 0 0.040198945606110772 -0.0063298114822132705 0 0.039751199270683352 -0.0065442375234211645 0 0.040381410351490954 -0.0061511994814405736 0 0.040198945606110772 -0.0063298114822132705 0 0.039594788023247306 -0.0066222225247031998 0 0.039478986539246405 -0.0067195012913976023 0 0.039644453534177136 -0.0065781646571620696 0 0.039478986539246405 -0.0067195012913976023 0 0.039751199270683352 -0.0065442375234211645 0 0.039644453534177136 -0.0065781646571620696 0 0.039751199270683352 -0.0065442375234211645 0 0.039644453534177136 -0.0065781646571620696 0 0.039798335242395698 -0.0064348891431022419 0 0.039594788023247306 -0.0066222225247031998 0 0.039644453534177136 -0.0065781646571620696 0 0.039798335242395698 -0.0064348891431022419 0 0.03966733260500889 -0.0061421027253836021 0 0.040788599747350586 -0.0058038535168290061 0 0.039798335242395698 -0.0064348891431022419 0 0.040788599747350586 -0.0058038535168290061 0 0.039798335242395698 -0.0064348891431022419 0 0.040381410351490954 -0.0061511994814405736 0 0.040788599747350586 -0.0058038535168290061 0 0.041012164105329443 -0.005836938392392803 0 0.040381410351490954 -0.0061511994814405736 0 0.041012164105329443 -0.005836938392392803 0 0.040652949430675912 -0.0060757935263273033 0 0.040949966118634447 -0.0059602908900136817 0 0.041012164105329443 -0.005836938392392803 0 0.040381410351490954 -0.0061511994814405736 0 0.040652949430675912 -0.0060757935263273033 0 0.040652949430675912 -0.0060757935263273033 0 0.040949966118634447 -0.0059602908900136817 0 0.040746305795840924 -0.0061993287541860847 0 0.041062602051034486 -0.0059139657317363306 0 0.041085325386704834 -0.0061584263887302058 0 0.040949966118634447 -0.0059602908900136817 0 0.041104325899430874 -0.0058444737189296356 0 0.041062602051034486 -0.0059139657317363306 0 0.040949966118634447 -0.0059602908900136817 0 0.041085325386704834 -0.0061584263887302058 0 0.040700507965351053 -0.006677895834380978 0 0.040746305795840924 -0.0061993287541860847 0 0.041085325386704834 -0.0061584263887302058 0 0.040949966118634447 -0.0059602908900136817 0 0.040746305795840924 -0.0061993287541860847 0 0.040700507965351053 -0.006677895834380978 0 0.040198945606110772 -0.0063298114822132705 0 0.040746305795840924 -0.0061993287541860847 0 0.040652949430675912 -0.0060757935263273033 0 0.040198945606110772 -0.0063298114822132705 0 0.040746305795840924 -0.0061993287541860847 0 0.040381410351490954 -0.0061511994814405736 0 0.040652949430675912 -0.0060757935263273033 0 0.040198945606110772 -0.0063298114822132705 0 
</DataArray>
</PointData>
<CellData Scalars="region_id,cross_section_updated," Vectors="" Tensors="stress,">
<DataArray type="Float64" Name="region_id" format="ascii">
5 5 5 5 5 6 5 5 5 5 5 5 5 6 5 5 5 5 6 5 5 6 5 5 5 5 6 5 5 5 5 6 5 5 5 5 5 5 5 5 5 5 5 5 5 6 5 5 6 5 5 5 5 5 6 5 5 5 5 5 5 5 6 5 5 5 5 6 5 5 5 5 5 5 5 5 5 6 5 5 6 5 5 6 5 5 5 5 6 5 5 5 5 5 5 5 6 6 6 5 5 6 5 5 5 5 5 6 5 5 5 5 5 5 5 5 5 5 5 5 5 6 5 5 5 6 5 5 5 5 5 5 6 5 5 5 5 5 5 5 5 5 5 5 5 5 5 5 5 5 5 5 5 5 5 5 5 5 6 5 5 5 6 5 5 6 5 5 5 5 5 5 5 5 5 5 5 6 5 5 5 5 5 5 5 5 6 5 5 5 5 5 5 5 5 6 5 5 5 5 5 5 5 5 5 6 5 5 5 5 5 5 5 5 5 5 5 5 5 5 5 5 5 5 5 5 5 5 5 6 5 5 5 6 5 6 5 6 5 5 6 5 5 5 6 5 6 5 6 5 6 6 5 6 5 5 6 5 6 5 5 5 6 5 6 6 5 5 6 5 5 5 6 5 6 6 6 5 6 5 5 5 6 5 6 6 6 5 5 6 6 5 5 5 5 6 5 6 5 5 6 5 5 5 6 5 6 6 6 5 5 5 6 5 6 6 6 6 5 5 5 6 6 5 5 6 6 6 5 6 5 5 5 5 6 5 5 5 5 5 5 5 6 5 5 5 5 5 5 6 6 5 5 5 6 5 5 5 6 5 6 5 6 6 5 5 5 5 6 5 5 6 5 5 5 5 6 5 6 5 5 5 5 5 6 6 5 5 5 5 5 5 5 5 6 5 5 5 6 5 5 6 5 6 5 5 5 5 5 5 5 5 5 5 5 6 5 6 5 6 5 5 5 6 5 6 5 6 5 5 5 5 5 5 6 5 6 5 5 5 6 5 5 5 6 5 6 6 5 5 5 5 6 5 5 5 5 6 6 5 5 6 5 6 5 6 6 5 5 5 6 5 5 5 5 6 5 5 5 5 5 5 5 5 5 5 5 6 5 5 5 5 6 5 5 5 6 5 6 6 6 5 5 5 6 6 5 6 5 5 6 5 5 5 5 6 5 5 5 5 5 5 5 5 5 5 5 6 6 5 5 6 5 5 5 6 5 5 5 5 5 5 6 5 5 5 6 5 5 5 6 5 5 5 5 5 5 5 5 5 5 5 6 5 5 5 6 5 5 5 5 5 5 5 6 5 5 5 5 5 6 5 5 5 5 5 5 5 5 5 5 5 5 5 5 5 5 5 5 5 6 5 5 5 5 6 5 5 6 5 5 5 5 5 5 5 6 5 5 5 5 5 5 5 5 6 5 6 5 5 6 5 5 5 6 5 5 6 5 5 5 6 5 6 5 5 6 5 6 5 5 5 5 5 5 5 5 5 5 5 5 5 5 5 5 5 5 5 5 5 5 6 5 6 5 6 5 5 5 5 5 5 5 5 5 5 5 5 5 5 5 6 5 5 5 5 5 5 5 5 5 6 5 5 5 5 5 5 5 5 5 5 5 5 5 5 5 5 5 5 5 5 5 5 5 5 5 5 5 5 5 6 5 5 6 5 5 5 6 6 5 6 5 5 5 5 5 6 5 5 5 5 5 6 5 5 5 5 5 5 5 5 5 5 5 5 5 5 5 5 5 5 5 5 5 5 5 5 5 5 5 5 5 5 5 5 5 5 5 5 5 5 5 5 5 5 5 5 5 5 5 5 5 6 5 5 5 5 5 5 5 5 5 5 5 5 5 5 5 6 5 5 5 5 6 5 5 5 5 5 5 5 5 5 5 5 5 5 5 5 5 5 5 5 5 5 5 5 5 5 5 5 6 5 5 6 5 6 6 6 6 5 5 6 5 5 5 5 5 5 5 5 5 5 5 5 5 5 5 5 5 6 5 5 6 5 6 5 5 5 5 6 5 6 5 5 5 5 6 5 5 5 6 5 5 5 5 5 6 5 6 5 5 6 6 5 6 5 5 5 5 5 5 5 5 5 5 5 6 5 5 5 6 5 5 5 6 5 5 6 6 6 5 5 5 5 5 5 5 5 5 5 5 6 5 5 5 5 5 5 5 5 6 6 6 5 5 5 5 5 5 5 5 6 6 5 5 5 6 5 5 6 5 5 5 5 5 5 5 5 5 5 5 6 5 5 5 5 5 5 5 5 6 5 5 5 5 5 5 5 5 5 5 6 5 6 6 6 5 5 5 5 5 5 5 6 6 5 6 5 5 5 5 5 6 5 6 6 5 5 5 6 5 6 5 5 5 5 6 5 5 5 5 5 5 5 5 5 5 5 5 5 5 5 5 5 6 5 5 5 6 5 5 5 5 5 6 5 5 5 5 5 5 6 5 6 5 5 5 5 5 5 5 5 6 5 5 5 6 5 5 5 5 5 5 5 5 5 5 5 5 5 5 5 5 5 5 5 5 5 5 5 5 5 6 6 6 5 5 5 5 6 5 5 5 5 6 5 5 5 5 5 5 5 6 5 5 5 5 5 5 5 5 6 5 5 5 5 5 5 5 5 5 5 5 5 6 5 5 5 5 5 5 6 5 5 5 5 5 5 5 5 6 5 5 5 6 5 5 5 5 5 5 5 5 5 5 5 5 6 5 5 5 5 5 5 5 5 5 5 5 5 5 5 5 5 5 5 5 5 5 5 5 5 5 5 5 5 5 5 5 5 5 5 5 5 5 5 5 5 5 5 5 5 5 5 5 6 5 5 5 5 5 5 5 5 5 5 5 5 5 5 5 5 5 5 5 5 5 5 5 5 6 5 5 5 5 5 5 5 5 5 5 6 5 5 6 5 5 5 5 5 5 5 5 5 6 5 6 5 5 5 5 6 5 5 6 5 6 5 5 5 5 5 6 5 5 5 5 5 5 5 5 6 5 5 5 5 5 5 5 5 5 5 5 5 5 5 6 5 6 6 5 5 5 5 5 6 5 5 5 5 5 5 5 5 5 5 5 5 5 5 5 6 5 5 5 5 5 5 5 5 5 5 5 5 5 5 5 5 6 5 5 5 5 5 6 6 5 5 6 5 5 5 5 5 5 5 5 5 5 6 5 5 5 5 5 5 5 5 5 6 5 6 5 5 5 5 5 6 5 5 5 5 6 5 5 5 6 5 5 5 6 5 5 6 5 5 5 5 5 5 5 5 5 5 5 5 5 5 5 5 6 5 5 5 5 5 5 5 6 5 5 5 5 5 5 5 5 5 5 5 5 5 5 5 5 5 5 5 5 5 5 5 5 5 5 5 6 5 5 5 5 6 5 5 5 6 5 5 5 5 5 5 5 5 5 6 5 6 5 5 5 5 5 5 5 5 5 5 5 5 5 5 5 5 5 5 6 6 5 5 5 6 5 5 6 5 5 6 5 5 5 6 5 5 6 5 5 5 5 5 5 5 5 5 5 5 5 5 5 5 5 5 5 5 5 6 5 6 5 5 5 5 5 5 5 5 5 5 5 6 5 6 5 5 5 6 5 5 5 5 5 6 5 5 5 5 5 5 6 5 5 5 5 5 5 5 5 5 5 5 6 5 5 5 5 5 5 5 5 6 5 5 5 6 5 5 6 5 5 5 5 5 6 5 5 5 5 5 5 5 5 5 6 5 5 6 5 6 5 6 6 6 5 6 5 5 5 5 5 5 6 5 5 5 5 5 5 6 5 5 5 5 5 5 5 6 5 5 5 5 6 5 5 5 5 5 6 5 6 5 5 5 5 5 5 5 5 5 5 6 5 5 5 5 5 5 5 6 5 5 5 5 5 5 5 6 5 6 5 5 5 5 5 5 5 5 6 5 5 5 6 6 5 5 5 5 5 6 6 5 6 5 5 6 5 5 6 5 5 5 5 5 5 5 5 6 5 5 5 5 5 6 5 5 5 5 6 5 5 6 5 5 5 5 5 5 5 5 5 5 5 5 5 5 5 5 5 5 5 5 5 5 5 5 5 5 5 5 5 5 5 5 5 5 5 5 5 5 5 5 5 6 5 5 6 5 5 5 5 5 6 5 5 5 5 6 5 5 5 5 5 5 5 5 5 5 5 5 5 5 5 5 5 5 5 5 5 5 5 5 6 5 5 5 6 5 5 5 5 5 5 6 5 5 5 5 5 5 5 5 5 5 5 6 5 6 6 5 5 6 5 5 5 5 5 5 5 5 5 5 5 6 5 5 6 5 5 5 5 5 5 5 5 5 5 5 5 5 5 5 6 5 5 5 5 5 5 5 6 5 6 5 5 5 5 6 5 6 5 5 5 5 5 5 5 5 5 6 5 5 5 5 5 5 5 5 5 5 5 5 5 5 5 5 5 6 5 5 5 5 5 5 5 5 5 5 5 5 5 5 5 5 5 5 5 5 5 5 5 5 5 6 6 5 5 5 5 5 5 5 5 5 5 5 6 5 5 5 5 6 5 5 5 5 6 5 5 5 5 5 5 5 5 6 5 5 5 5 5 5 5 5 5 6 5 5 5 5 5 5 5 5 5 5 5 5 5 5 5 5 5 5 5 5 6 5 5 5 5 5 5 5 5 5 5 5 5 5 5 6 5 6 5 5 5 5 5 5 5 5 6 5 5 6 5 5 5 5 5 5 5 5 5 5 5 5 5 5 5 5 5 5 5 5 5 5 5 5 5 5 5 5 5 5 5 5 5 5 5 5 6 5 5 6 5 5 5 5 6 5 6 5 5 6 5 6 5 5 5 5 5 6 5 5 5 5 5 5 5 5 5 5 5 5 6 5 5 5 6 5 5 5 5 5 5 5 5 5 6 5 5 5 5 6 6 5 5 5 5 5 5 5 5 6 5 5 5 5 5 6 5 5 5 6 5 5 5 6 5 5 5 5 6 5 5 5 5 5 5 5 5 5 5 5 5 5 5 6 5 5 5 5 5 5 6 5 6 6 5 6 5 6 5 5 5 5 6 5 5 5 5 6 5 5 5 5 5 5 5 5 5 6 5 5 5 5 5 5 5 5 5 5 5 5 5 5 6 5 5 5 6 5 5 5 6 5 6 5 5 5 5 5 5 5 5 5 5 5 5 5 5 5 5 6 5 5 5 5 5 5 6 5 5 5 5 5 5 5 5 5 5 5 5 5 5 5 5 5 5 6 5 5 5 5 5 5 5 5 5 5 5 5 5 5 5 5 5 5 5 5 5 5 5 5 5 5 5 5 5 5 5 5 5 5 6 5 5 5 5 6 5 5 5 5 5 5 5 6 5 5 5 5 5 5 5 5 5 6 5 5 6 5 5 5 5 5 6 5 5 5 6 5 5 6 5 5 5 5 5 5 5 5 5 5 5 5 5 5 5 5 5 5 5 5 6 5 5 5 5 5 5 5 5 5 5 6 6 5 6 5 5 5 5 5 6 5 5 5 5 6 5 5 5 5 5 6 5 6 5 5 6 5 5 5 5 5 5 5 5 6 5 5 5 5 5 5 6 5 5 5 5 5 5 6 5 5 5 5 6 5 5 6 5 6 5 5 6 5 5 5 5 5 5 6 5 5 5 5 6 5 5 5 5 5 5 5 5 6 6 5 5 5 5 5 5 5 5 6 5 5 5 5 5 5 6 5 5 5 5 5 5 5 6 5 5 5 6 5 5 5 5 5 5 5 5 5 5 5 5 6 5 5 5 5 6 5 5 6 5 5 5 5 6 5 5 5 6 6 5 5 5 6 5 5 5 6 5 5 5 5 5 5 5 5 5 6 5 5 5 6 5 5 5 5 5 5 5 5 5 5 5 5 6 5 6 5 5 6 5 5 6 5 5 5 5 5 5 5 6 5 5 5 5 5 6 5 6 5 5 5 6 6 5 6 6 5 6 5 5 5 5 5 5 6 5 6 5 5 5 5 5 5 5 5 5 5 5 5 5 6 5 5 6 5 6 5 5 6 5 5 5 6 6 5 5 6 5 5 5 5 5 5 5 5 5 5 5 5 5 5 5 5 5 5 5 5 5 5 5 6 6 5 6 5 6 5 5 6 6 5 5 6 5 5 6 5 5 6 5 6 5 5 5 5 6 5 5 5 5 6 5 6 6 5 6 5 5 6 6 5 5 5 6 5 5 5 5 6 6 5 5 5 5 5 6 5 5 5 5 5 5 5 5 5 5 5 6 5 6 5 6 5 5 6 5 6 5 5 5 5 5 5 5 5 6 5 5 6 5 5 5 5 6 5 5 5 5 5 5 5 5 5 5 5 5 6 5 5 5 5 5 5 5 5 5 5 5 6 5 5 5 5 5 5 6 5 6 5 5 6 5 5 5 5 5 5 5 5 5 5 5 5 5 5 5 5 5 6 6 5 5 5 6 5 5 6 5 5 5 5 5 5 5 5 5 5 5 5 5 5 5 5 5 5 5 5 5 5 5 5 5 6 6 5 5 5 5 5 5 5 5 5 5 5 6 5 5 5 5 5 5 5 5 5 5 5 5 5 5 5 5 5 5 5 5 5 5 5 5 5 5 5 5 5 5 5 5 5 6 5 5 5 5 5 6 5 5 6 5 5 6 6 5 5 5 5 5 5 5 5 5 5 5 5 5 6 5 5 6 5 5 5 5 5 5 6 5 5 6 5 5 5 5 5 5 5 5 5 5 5 5 5 6 5 5 5 5 5 5 5 6 5 5 5 5 5 5 5 5 5 5 5 5 6 5 5 6 5 5 5 5 5 5 5 5 5 5 5 5 5 5 5 5 5 5 5 5 6 5 5 6 5 6 5 5 5 6 5 5 6 5 6 5 5 5 6 5 5 5 5 6 5 5 5 5 5 5 5 6 5 5 5 6 5 5 5 5 5 5 5 5 5 5 5 5 6 5 5 5 5 5 5 5 5 6 5 5 5 5 5 5 5 5 5 5 5 6 5 5 5 5 5 5 5 5 5 5 5 5 5 5 5 5 5 5 5 6 6 5 5 5 6 5 5 5 5 5 5 5 5 5 5 5 5 6 5 5 5 5 5 5 5 5 5 6 5 5 5 5 5 5 5 5 5 5 5 5 5 5 5 5 6 5 6 5 5 5 5 5 6 5 5 5 5 6 5 5 5 6 5 5 5 6 5 5 5 5 5 5 5 5 5 6 5 5 5 6 5 5 6 5 5 5 5 5 5 6 5 5 5 5 5 5 5 5 6 5 5 5 6 5 5 5 5 5 5 5 5 5 5 5 5 5 5 5 5 5 5 5 5 5 5 5 5 5 5 5 6 5 5 5 5 5 5 5 6 5 5 5 5 5 5 5 5 5 5 5 5 5 5 5 5 5 5 5 5 5 5 5 5 5 6 5 6 5 5 5 5 5 5 6 5 5 5 6 5 5 6 5 5 5 5 5 5 5 5 5 5 5 5 6 5 5 5 5 5 6 5 5 5 5 5 5 5 5 5 5 5 5 5 6 5 5 5 6 5 5 5 5 5 5 5 5 5 5 5 5 6 6 5 5 5 5 6 5 5 5 5 5 5 5 5 5 6 6 5 5 5 5 5 6 5 5 5 5 5 6 5 5 5 5 5 6 5 6 5 5 5 5 6 5 6 5 6 6 5 5 5 5 5 5 5 6 6 5 5 5 5 5 5 6 6 6 5 6 6 5 5 5 6 5 5 5 5 5 6 6 6 5 6 5 5 5 6 5 6 6 5 5 5 5 5 5 5 6 6 5 5 6 6 6 5 5 5 5 5 5 5 5 5 5 5 5 5 5 5 5 5 5 5 5 5 5 5 5 5 5 5 5 5 5 5 5 5 5 5 5 5 5 5 5 6 5 5 5 5 5 5 5 5 5 5 6 5 5 5 5 5 5 6 5 5 6 5 5 5 5 5 5 5 5 5 5 5 5 5 6 5 6 5 5 5 5 6 5 5 5 6 5 5 6 5 5 5 6 5 5 6 5 5 5 5 5 6 5 5 5 5 5 5 5 6 5 5 5 5 5 5 5 6 5 5 6 5 5 5 5 6 5 6 5 5 5 5 5 6 5 5 5 5 6 5 5 5 5 5 5 6 6 5 5 5 5 5 6 5 5 6 5 5 5 5 5 5 5 5 5 5 6 5 5 5 5 5 5 5 5 5 5 5 5 5 5 5 5 5 5 6 5 5 5 5 5 5 6 5 5 5 5 5 5 5 6 6 5 5 5 5 6 5 5 5 5 5 5 5 6 5 5 6 5 6 6 6 5 5 5 5 5 5 6 5 5 5 5 5 6 5 5 5 5 6 5 5 5 6 5 5 5 6 5 5 5 5 5 5 5 5 5 5 5 5 5 5 5 5 5 5 5 5 5 5 5 5 5 6 5 5 5 5 5 5 5 6 5 6 5 5 5 5 5 5 6 5 5 6 5 5 5 6 5 5 6 5 5 5 5 5 6 5 5 5 6 6 5 5 5 5 5 5 5 5 5 5 5 5 6 5 5 5 5 5 5 5 5 5 6 5 5 5 5 5 6 6 5 5 5 5 5 5 5 5 5 6 5 5 5 5 5 5 5 5 6 5 5 5 5 5 5 5 5 5 5 5 5 5 5 5 5 5 5 6 5 5 5 5 6 5 6 5 6 5 5 5 5 5 5 5 5 5 5 5 5 5 5 5 5 5 6 5 5 5 5 5 6 5 5 5 6 6 5 5 5 5 5 6 5 5 5 5 6 5 5 5 5 5 5 5 5 6 5 5 5 5 5 5 5 6 5 5 5 5 5 5 5 5 5 6 5 5 5 5 5 5 5 5 5 5 5 5 5 5 5 5 5 5 6 5 5 5 5 5 5 5 5 5 5 5 5 5 6 5 5 5 5 5 5 6 5 5 6 5 5 6 5 5 5 5 5 5 5 5 5 5 5 5 5 5 5 5 5 5 5 5 5 5 5 5 5 5 6 5 6 5 6 6 5 5 5 6 5 5 5 5 5 5 5 5 5 6 6 5 6 5 5 5 5 5 5 5 5 5 5 5 5 5 5 6 5 6 6 5 6 5 5 5 5 5 5 5 5 5 6 6 5 5 5 5 5 5 5 5 5 5 5 5 5 5 5 5 5 5 5 5 5 5 6 5 5 5 5 5 6 5 5 5 5 5 6 5 5 5 6 5 5 5 5 5 5 5 5 5 6 5 5 5 5 6 5 5 5 5 5 5 6 5 5 5 5 5 5 5 6 5 5 5 5 6 5 5 5 5 5 5 5 5 5 5 6 5 5 5 5 6 5 5 5 6 5 5 5 5 5 6 5 5 5 5 5 5 5 5 5 5 5 5 5 5 6 6 5 5 6 5 5 5 5 5 5 5 6 5 5 5 5 5 5 6 5 5 5 5 5 5 5 5 5 5 5 5 5 5 5 5 5 5 5 5 5 5 5 6 5 5 5 5 5 5 5 5 6 5 5 5 5 6 5 5 5 5 5 6 5 6 5 6 5 5 5 5 5 5 5 6 5 5 5 6 5 5 5 5 5 6 5 5 5 5 5 6 5 6 5 5 6 5 6 5 5 5 5 5 6 5 5 5 6 5 5 5 5 5 5 5 5 5 5 6 5 5 5 5 5 5 5 5 5 5 5 5 5 5 5 5 5 5 5 5 5 5 6 5 5 5 5 5 5 5 5 5 5 5 5 5 5 5 5 5 5 6 5 5 5 6 5 5 5 5 5 5 6 5 5 5 6 6 5 6 5 6 6 5 6 5 5 6 5 5 6 6 5 5 5 5 5 5 5 5 6 5 6 5 5 5 5 5 5 5 5 5 5 5 5 5 5 5 5 5 5 5 5 5 5 6 5 5 5 5 5 5 5 5 6 5 5 6 5 5 6 6 5 5 6 5 5 5 5 5 5 5 5 5 5 5 5 5 5 5 5 5 5 5 5 5 5 5 5 5 5 5 5 5 5 5 5 5 5 5 5 5 5 5 6 5 6 5 5 5 5 5 5 5 5 5 5 5 5 5 5 5 5 5 5 5 5 5 5 5 5 5 5 5 5 5 5 5 5 5 5 5 5 5 5 5 5 6 5 5 6 5 5 5 5 5 6 5 6 5 5 6 5 5 5 5 5 5 6 5 5 5 5 5 5 5 5 5 5 5 6 5 5 6 6 5 6 5 5 6 5 5 5 5 6 5 5 5 5 5 5 5 5 5 6 5 6 5 5 5 5 5 5 5 6 5 6 5 5 5 5 5 5 5 5 5 6 5 6 5 5 5 5 5 5 5 5 5 5 6 5 5 5 6 5 5 6 5 5 6 5 5 5 5 6 5 5 5 6 5 5 5 5 5 5 5 5 5 5 5 5 5 5 6 5 5 5 5 5 5 6 5 6 5 6 5 5 5 6 5 5 5 5 5 5 5 5 6 5 5 5 5 5 6 5 5 6 5 5 5 5 5 5 5 5 5 6 5 5 5 6 5 5 5 5 5 5 6 5 5 5 5 5 5 5 5 5 5 5 5 5 5 5 5 5 5 5 5 5 5 5 5 5 5 5 5 5 5 5 6 5 5 5 5 5 6 5 5 6 6 5 5 5 5 6 5 5 5 5 5 6 5 5 5 5 5 5 5 5 5 5 5 5 5 5 5 5 6 5 5 5 5 5 5 5 5 6 6 5 5 5 5 5 5 6 5 5 5 5 6 5 5 5 5 5 5 5 5 5 5 5 5 5 5 5 5 5 5 5 5 5 5 5 5 6 5 5 6 5 5 5 5 5 5 5 5 5 5 5 5 5 5 5 5 5 5 5 5 5 5 5 5 5 5 5 6 5 6 5 5 5 5 5 6 5 5 5 5 5 5 5 5 5 5 5 5 5 5 5 5 5 5 5 5 6 6 5 6 5 5 5 5 5 5 5 5 5 5 5 5 5 5 5 5 6 5 5 5 6 5 5 5 5 5 5 5 5 5 5 5 5 5 6 5 5 5 5 5 5 5 5 5 5 5 5 5 5 5 5 5 5 5 5 5 5 6 5 5 5 5 5 5 5 5 5 5 5 5 5 6 5 6 5 5 6 6 5 5 5 5 5 5 5 5 5 5 5 5 5 5 5 5 5 5 5 5 6 5 5 6 5 5 5 6 5 5 5 5 5 5 6 5 5 5 6 5 5 5 5 5 5 5 5 6 5 5 6 5 5 6 5 6 5 5 5 5 6 6 5 5 6 6 5 5 6 5 5 5 5 6 5 5 6 6 5 6 5 5 5 5 5 5 5 5 5 5 5 5 5 5 5 5 5 5 5 5 6 5 5 5 5 6 5 5 5 5 6 6 5 5 5 5 5 5 5 5 5 5 5 5 6 5 5 5 6 5 5 5 5 5 5 5 6 5 5 5 6 5 5 6 6 5 5 5 6 5 5 5 6 5 5 5 5 5 5 5 5 5 5 5 5 5 5 5 5 5 5 6 5 5 5 5 5 5 5 5 5 5 5 5 5 5 5 5 5 5 6 6 5 5 5 5 5 6 6 5 6 5 5 5 5 5 5 5 5 5 6 5 5 5 6 5 5 5 5 5 5 5 5 5 5 5 5 5 5 6 5 5 5 5 5 5 5 6 5 5 6 5 5 5 5 5 5 6 5 5 5 5 6 5 5 5 5 5 5 6 5 5 5 5 5 5 5 5 6 6 5 5 5 6 6 5 5 5 5 5 6 5 5 5 5 5 5 6 5 5 5 5 6 5 5 5 5 5 6 5 5 5 5 6 5 5 5 5 5 5 5 5 5 5 5 5 5 5 5 5 5 5 5 5 5 5 5 5 5 6 5 5 5 5 6 5 6 5 6 5 5 6 5 5 6 5 5 6 5 5 5 5 5 5 6 5 5 6 5 6 6 6 5 5 6 5 6 6 5 5 5 6 5 6 5 5 5 5 5 5 6 5 5 5 6 5 5 5 5 5 5 5 6 5 5 5 6 5 6 6 5 5 5 5 5 5 5 6 5 5 5 5 5 5 5 5 6 6 5 5 5 5 6 5 5 6 5 5 5 6 5 5 5 6 6 5 5 5 5 6 5 5 5 5 5 6 6 5 5 5 5 5 5 5 5 5 5 5 5 5 5 5 5 5 5 5 5 5 5 5 5 5 5 5 5 5 5 5 6 5 5 5 6 5 5 5 5 5 5 5 5 5 5 5 5 5 5 5 6 5 6 6 5 5 6 5 5 5 5 5 5 5 5 5 5 5 5 5 5 5 5 5 5 5 5 5 5 5 6 5 5 6 6 5 5 5 5 5 5 5 6 5 5 5 6 5 5 5 5 6 6 5 5 5 5 5 5 5 6 5 5 5 5 6 5 5 5 5 6 5 5 5 5 5 5 5 5 5 5 5 5 5 5 5 5 5 5 5 6 5 5 5 5 5 5 5 5 5 5 5 5 5 5 5 5 6 5 5 5 6 5 5 5 5 5 5 5 5 5 6 5 5 5 5 5 5 5 5 5 5 5 5 5 5 5 5 5 5 5 5 5 6 5 5 5 5 5 5 5 5 5 5 5 5 5 5 5 5 5 6 5 5 5 5 5 6 5 5 5 5 5 5 5 5 5 5 5 5 5 5 5 5 5 5 5 5 5 5 5 5 5 5 5 6 5 5 6 5 5 5 6 5 5 5 5 5 5 5 5 5 5 5 5 5 5 5 6 5 6 5 5 5 5 5 5 5 5 5 6 5 5 5 5 5 5 5 5 5 6 6 5 5 5 5 5 5 5 5 5 5 5 5 5 5 5 5 5 5 5 5 5 5 5 5 5 5 5 5 5 5 5 5 5 5 5 5 5 5 5 5 5 5 5 5 5 5 5 5 5 5 5 5 5 5 5 5 5 5 5 5 5 5 5 5 5 5 5 5 5 5 5 6 5 5 5 5 5 5 6 5 5 5 5 5 5 5 5 5 6 5 6 5 5 5 5 5 5 5 5 5 5 5 5 5 5 5 5 5 5 5 5 5 5 5 5 5 5 5 5 5 5 5 5 5 5 6 5 5 5 6 6 5 5 5 5 5 5 5 5 5 5 5 5 5 5 5 5 5 5 5 5 5 5 6 6 5 5 5 5 5 5 5 5 6 5 5 5 5 5 5 6 5 5 5 5 5 6 5 5 5 5 6 5 5 5 6 5 5 5 6 5 5 6 5 5 5 5 5 5 5 5 5 5 5 5 5 6 5 5 5 5 5 5 5 5 6 5 5 5 5 5 5 5 5 5 5 5 6 5 5 5 6 5 5 5 5 6 5 5 5 5 5 5 5 5 6 5 6 5 5 6 5 5 5 5 5 6 5 5 5 5 5 5 5 5 5 5 5 5 6 5 5 5 5 5 5 5 5 5 6 5 5 5 5 5 5 6 5 5 5 5 5 5 5 6 5 5 5 5 5 6 5 5 5 5 5 5 5 5 5 5 5 5 5 5 5 5 5 5 5 5 5 5 5 5 5 5 5 5 5 5 5 5 5 5 5 5 5 5 5 5 5 5 5 5 5 5 5 6 5 6 5 5 5 5 5 5 5 5 5 5 5 5 5 5 6 5 5 5 5 5 5 5 5 5 5 5 5 5 5 5 6 5 5 6 5 6 5 5 5 5 5 6 5 5 5 5 5 5 5 5 5 5 5 5 5 5 5 5 5 5 5 5 6 5 5 5 5 5 5 5 5 5 5 5 6 5 6 5 5 6 5 6 5 5 5 5 5 5 5 6 5 6 5 5 5 5 6 5 5 5 5 6 6 5 5 6 5 5 5 5 5 5 5 5 5 5 5 5 5 5 5 5 6 5 5 5 5 5 5 5 5 5 5 5 5 5 5 6 5 6 5 5 5 5 5 5 5 6 5 6 5 5 5 5 5 5 5 5 5 6 6 5 5 5 6 5 5 5 5 6 5 6 5 5 6 5 6 6 6 5 5 6 5 5 5 6 6 6 5 5 5 5 5 5 5 5 5 5 5 6 5 5 5 5 5 5 6 5 5 5 6 5 5 5 5 5 5 5 5 6 5 5 5 6 5 5 5 5 5 5 5 5 5 5 5 5 5 5 5 5 5 5 5 5 5 5 5 5 5 5 5 5 5 5 5 5 5 5 5 5 5 5 5 5 5 5 5 5 5 5 5 5 5 5 5 5 5 5 5 5 5 5 5 5 6 5 5 5 5 5 6 5 5 5 5 6 5 5 5 6 5 5 5 5 5 5 5 5 5 5 5 5 5 5 5 5 5 5 5 5 5 5 5 5 5 5 5 5 5 5 5 5 5 5 5 5 5 5 5 5 6 5 5 6 5 5 5 5 5 5 5 6 5 5 5 5 5 5 5 5 5 5 5 6 5 5 6 5 6 5 5 5 6 5 5 5 5 5 5 5 5 6 5 5 5 5 6 5 5 5 5 6 5 6 5 5 5 5 5 5 5 5 5 5 5 5 6 5 6 5 5 5 5 5 5 5 5 5 5 5 5 5 6 5 5 5 5 5 5 5 5 5 6 5 5 5 6 5 5 5 5 5 5 5 5 5 5 5 5 5 5 5 5 5 5 5 5 5 5 5 5 5 5 5 5 5 5 5 5 5 5 5 6 5 5 6 5 5 5 5 6 5 5 5 5 5 5 5 5 5 5 5 5 5 5 5 6 5 5 5 5 5 5 5 5 5 6 5 6 5 5 5 5 5 5 5 6 5 5 5 5 5 5 5 5 5 5 5 5 5 5 6 5 5 5 5 5 5 5 5 5 5 5 6 5 5 5 5 5 5 5 5 5 5 5 5 5 5 5 5 5 5 5 5 5 5 5 6 5 6 5 5 5 5 5 5 6 5 6 5 5 5 6 5 5 5 6 5 5 5 6 5 5 6 5 5 5 5 5 5 5 6 5 5 5 5 5 5 5 6 5 5 5 5 5 5 5 5 5 5 5 5 5 6 5 5 5 5 5 5 5 5 6 5 5 5 5 5 5 5 5 5 5 5 5 5 5 5 5 5 5 5 5 6 5 5 5 5 5 5 5 5 5 5 5 5 5 5 5 5 5 5 5 5 5 5 5 5 5 5 5 5 5 5 5 5 5 5 5 5 5 5 5 5 5 5 5 5 5 5 5 5 5 5 6 5 6 5 5 5 6 5 5 6 6 5 6 5 5 5 5 5 5 5 5 5 5 5 5 5 5 5 5 5 5 5 5 5 5 5 5 5 5 5 5 5 5 5 5 5 5 5 6 5 5 5 5 6 5 5 6 5 5 5 6 5 5 5 5 6 5 6 6 5 5 5 5 6 5 5 5 6 5 5 5 6 5 5 5 5 5 5 6 5 5 5 5 5 5 5 5 5 5 5 5 5 5 5 5 5 5 5 5 6 5 5 5 5 5 5 5 5 5 5 5 5 5 5 5 5 5 5 6 5 5 6 5 5 6 5 5 5 5 5 5 5 5 5 5 5 6 5 5 5 5 6 5 5 5 5 6 5 5 5 6 5 5 5 5 5 5 5 5 5 5 5 5 5 5 5 5 5 5 5 5 5 5 5 5 5 6 5 5 5 5 5 5 5 5 6 5 5 5 6 5 5 5 5 5 5 5 5 5 5 5 5 5 5 5 5 5 5 5 5 5 5 5 5 6 5 5 5 6 5 5 5 5 5 5 5 5 6 5 5 6 5 5 5 5 6 5 5 5 5 5 5 5 6 5 6 5 5 6 5 5 6 6 5 5 5 5 5 5 5 5 5 5 5 5 5 5 5 5 5 5 5 5 5 6 5 5 5 5 6 5 5 5 5 5 5 5 5 5 5 5 5 5 6 5 5 6 5 5 5 5 5 5 5 5 5 5 5 5 5 5 5 5 5 5 5 5 5 5 5 5 5 5 5 5 5 5 5 5 5 5 5 5 5 5 5 5 5 5 5 5 5 5 5 5 5 5 5 5 5 5 5 5 5 5 5 5 5 5 5 5 5 5 5 5 5 5 5 5 5 5 5 5 5 5 5 5 5 5 5 5 5 5 5 5 5 5 5 5 5 5 5 5 5 5 5 5 5 5 5 5 5 5 5 5 5 5 5 5 5 5 5 5 5 5 5 5 5 5 5 5 5 5 5 5 6 5 5 5 5 5 5 5 6 5 5 5 5 5 5 5 5 5 6 5 6 5 5 5 6 5 5 6 5 5 5 5 5 5 5 5 5 5 5 5 5 5 5 5 5 5 5 5 5 5 5 5 5 5 5 5 5 5 5 5 5 5 5 5 5 6 5 5 6 6 5 5 6 5 5 6 5 5 5 6 5 5 5 5 5 5 5 5 5 6 5 5 5 5 5 5 6 5 5 5 5 5 5 5 5 5 5 5 5 5 5 5 5 5 5 5 5 5 5 5 5 5 5 5 5 5 5 5 6 5 5 5 5 5 5 5 5 5 5 5 5 5 5 5 5 5 5 5 5 5 5 5 5 5 5 5 5 5 5 5 5 5 5 5 5 5 5 5 5 5 5 5 5 5 5 6 5 6 5 5 5 5 6 5 5 5 5 6 5 5 5 5 6 5 5 5 5 5 5 5 5 6 5 5 6 5 6 5 5 5 5 6 5 5 6 6 5 5 5 5 5 5 6 5 5 5 5 5 5 5 5 5 5 6 6 5 5 5 5 5 6 5 5 6 5 5 5 5 6 5 5 6 5 5 5 5 5 5 5 5 5 5 5 5 5 5 5 5 5 5 5 5 5 5 5 5 5 5 5 5 5 6 5 6 5 5 5 5 5 5 5 5 5 5 5 5 5 6 5 5 5 5 6 6 5 5 5 5 5 5 5 5 5 5 5 5 5 5 5 5 5 5 5 5 5 5 5 5 5 5 5 5 5 5 5 5 5 5 5 5 5 5 5 5 5 5 6 5 5 5 6 5 5 5 5 5 5 5 5 5 5 5 5 5 5 5 5 5 5 5 5 6 5 5 6 5 5 5 5 5 5 5 5 5 6 5 5 5 5 5 6 5 5 5 5 5 6 5 6 5 5 5 5 5 5 5 5 5 5 5 5 5 6 5 5 5 6 6 5 5 5 5 5 5 5 5 6 5 5 6 5 5 6 6 5 5 5 5 5 6 5 5 5 5 5 5 5 6 5 5 6 6 5 5 5 5 5 5 6 6 5 5 5 6 5 5 5 5 5 5 5 6 5 5 5 5 5 5 5 5 5 5 5 5 5 5 5 5 5 5 5 5 5 5 5 5 5 5 6 5 5 5 5 5 5 5 6 5 5 5 5 5 5 5 5 5 5 5 6 5 5 5 5 5 5 5 5 6 5 5 5 5 5 5 5 5 5 5 5 5 5 5 5 5 6 5 5 5 6 5 5 5 5 5 6 5 5 5 5 5 5 5 5 5 5 5 5 5 5 6 5 5 5 5 6 5 5 6 5 5 5 5 5 6 5 5 5 5 5 5 5 5 5 5 5 5 5 5 6 5 6 5 5 5 6 5 6 5 6 5 5 5 5 5 5 6 6 5 5 5 5 5 5 6 5 6 5 5 5 5 5 5 5 5 5 5 5 5 5 5 5 5 5 6 5 5 5 6 6 5 5 5 5 5 6 5 5 6 6 5 5 5 5 5 5 5 5 5 5 5 5 5 5 5 5 5 5 5 5 5 5 5 5 5 5 5 5 5 5 5 5 5 5 5 5 5 5 5 5 5 5 5 5 6 5 5 6 6 6 5 5 5 5 5 5 6 5 5 5 5 5 5 5 5 5 6 5 5 5 6 5 5 5 5 5 5 5 5 5 5 5 5 5 5 5 5 5 5 5 5 6 5 5 5 5 6 5 5 5 5 5 5 5 5 5 5 5 5 5 5 5 5 5 5 5 5 5 5 5 5 5 5 5 5 5 5 5 5 5 5 6 5 6 5 5 5 5 5 5 5 5 6 5 5 5 6 5 6 5 5 5 5 5 5 5 5 6 5 5 5 5 6 5 5 5 5 6 5 5 5 5 5 5 5 6 5 5 5 5 6 5 5 5 5 5 5 5 5 5 5 5 5 5 5 5 5 5 5 5 5 5 5 5 5 5 5 5 5 5 5 5 5 5 5 5 5 5 5 5 5 5 5 5 5 5 5 6 5 5 5 5 6 6 5 5 6 6 5 5 5 5 5 5 5 5 5 5 5 5 5 5 5 5 5 5 5 6 5 5 5 6 6 5 5 5 5 5 5 5 5 5 5 5 5 5 5 5 5 5 5 5 5 5 5 5 5 5 5 5 6 5 5 5 5 5 5 5 6 5 5 5 5 5 5 5 5 5 5 5 5 5 5 5 6 5 5 5 5 5 5 5 5 6 5 6 6 5 5 5 5 5 5 5 5 5 5 5 5 6 5 5 5 5 5 5 5 5 5 5 5 5 5 5 5 5 5 5 6 5 5 5 6 5 5 5 5 5 5 5 5 6 5 5 5 5 5 5 5 5 5 5 5 5 5 5 5 6 5 5 5 6 5 5 5 5 5 5 5 5 5 5 5 5 5 5 5 5 5 5 5 5 5 5 5 5 5 5 5 5 5 5 5 5 5 6 5 6 5 5 5 5 5 5 5 5 6 5 5 5 5 5 5 5 5 5 6 5 5 6 5 5 5 5 5 6 5 5 5 5 6 5 5 5 5 6 5 5 5 6 5 6 5 5 6 5 5 5 5 5 5 5 5 5 5 5 5 5 5 6 5 5 6 5 6 5 5 5 6 5 5 6 5 5 5 5 6 5 6 5 5 5 5 5 5 6 5 6 5 5 5 5 5 6 5 5 5 5 6 5 5 5 5 5 5 6 5 5 5 5 5 5 5 5 5 5 5 5 5 5 5 5 5 5 5 5 5 5 5 5 5 5 5 5 5 5 5 5 5 6 6 5 5 5 5 5 5 5 5 5 5 6 5 5 6 6 5 6 5 5 5 5 5 5 5 6 5 5 5 5 5 5 5 5 5 5 5 5 6 5 5 5 5 6 5 5 5 5 5 5 5 5 5 5 5 5 6 5 5 5 5 5 5 5 5 5 5 5 5 5 5 5 5 5 6 5 5 5 5 5 6 5 5 5 6 5 5 5 5 5 5 6 5 6 5 5 5 6 5 5 5 5 5 5 5 5 5 6 5 5 6 5 5 5 5 5 5 5 6 5 5 5 5 5 5 5 5 5 5 5 5 5 6 5 5 6 5 5 5 5 5 5 6 5 5 5 5 5 5 6 5 5 5 5 5 5 5 6 5 5 5 5 5 5 5 5 5 5 5 5 5 5 5 5 5 5 5 5 5 5 6 5 5 5 5 5 5 5 5 5 5 6 5 5 5 5 6 6 5 5 5 5 6 5 5 5 5 5 5 5 5 5 6 5 5 5 5 5 5 5 5 5 5 5 6 5 5 5 6 5 5 5 6 5 5 5 5 5 5 5 5 5 5 5 5 6 5 5 5 5 5 6 5 5 6 5 5 5 5 5 5 5 5 5 5 5 5 5 5 6 5 5 5 5 5 5 5 6 5 5 5 6 5 5 5 5 5 6 5 5 5 5 5 5 5 5 5 6 5 5 5 5 5 5 5 5 6 5 5 5 5 5 6 5 5 5 5 5 5 5 6 5 5 5 5 5 5 5 5 5 5 5 5 5 5 5 5 5 5 5 5 5 5 5 5 5 5 5 5 5 5 5 5 5 5 5 5 5 5 5 5 5 5 5 5 5 5 5 5 6 5 5 5 5 5 5 5 6 5 5 5 5 5 5 5 5 5 5 5 5 5 5 5 5 5 5 5 5 5 5 6 6 5 5 6 6 5 5 5 5 5 5 5 6 5 5 5 5 5 5 5 5 5 5 5 5 5 5 6 5 5 5 5 5 5 5 5 6 5 5 6 5 5 5 6 5 5 5 5 5 5 5 5 5 5 5 5 5 5 5 5 5 5 5 5 5 5 5 5 5 5 5 5 6 5 5 5 5 5 5 5 5 6 5 5 5 5 5 5 6 6 5 5 5 5 6 5 5 6 5 5 6 5 5 5 5 5 5 6 5 5 5 5 5 5 5 5 6 5 5 5 5 5 5 5 5 5 5 5 6 5 5 6 5 5 5 5 5 5 5 6 5 5 5 6 5 6 5 6 5 5 5 5 5 5 5 5 5 5 5 5 5 5 5 5 5 6 5 6 5 5 5 5 5 5 5 5 5 5 6 5 5 5 5 5 5 5 6 5 5 5 6 5 6 6 5 5 6 5 5 5 5 6 5 5 5 6 5 5 5 6 5 6 6 5 5 5 5 5 5 6 5 5 5 5 5 5 5 5 6 6 6 5 6 5 5 6 6 5 5 6 5 5 5 5 5 5 5 5 5 5 5 6 5 5 5 5 5 5 5 5 5 5 5 5 5 6 6 5 5 5 5 6 5 5 5 6 5 5 5 5 5 6 6 5 5 5 6 5 5 5 5 5 5 5 5 5 5 5 5 5 5 5 6 5 5 5 6 5 5 5 6 5 5 5 5 5 5 6 5 5 5 5 5 6 5 5 5 5 5 5 5 5 6 5 5 5 5 5 5 5 5 5 6 5 5 5 5 6 5 6 5 5 6 5 6 5 5 5 5 5 5 6 5 6 6 5 5 5 5 5 5 5 5 6 5 6 5 6 5 6 5 5 5 5 5 5 5 5 5 5 5 6 5 5 5 6 5 5 5 5 5 5 5 5 6 5 5 5 5 5 5 5 5 5 6 5 5 5 5 6 5 5 6 5 5 5 5 5 5 5 5 5 6 5 5 5 6 5 5 5 5 5 5 5 5 5 5 5 5 5 5 5 5 5 5 5 6 5 5 5 5 5 5 5 5 5 5 6 5 5 5 5 5 5 5 5 5 5 5 5 5 5 5 5 5 5 5 5 5 5 5 5 5 5 5 5 5 5 5 5 5 5 5 5 5 5 5 5 5 5 5 5 5 6 6 5 5 5 5 5 5 5 5 5 5 5 5 5 6 6 5 5 5 6 5 5 6 5 5 5 6 5 5 5 6 5 5 5 5 5 5 5 5 6 5 5 6 5 6 6 5 5 5 5 5 5 6 5 6 6 6 5 5 6 5 5 6 6 5 5 5 5 5 5 5 5 5 5 5 5 5 5 5 5 5 5 5 5 5 6 5 5 5 5 5 5 5 5 5 6 5 5 5 5 5 5 5 6 6 5 5 5 5 5 5 5 5 5 5 5 5 5 5 5 5 5 5 5 5 5 5 5 6 5 6 5 5 5 5 5 5 5 6 5 5 5 6 6 5 5 6 5 5 5 5 6 5 5 5 6 5 5 5 6 5 5 5 5 5 5 5 5 5 6 6 5 5 5 5 5 6 5 5 6 6 6 5 5 5 5 5 6 5 5 5 5 5 5 5 5 5 6 5 6 5 5 5 5 5 5 5 5 5 5 5 5 5 5 5 5 5 5 5 5 5 5 5 5 6 5 5 5 5 6 6 5 5 5 6 5 5 5 5 5 5 5 5 5 5 5 5 5 5 5 5 6 5 5 5 6 5 5 6 5 5 5 5 5 5 5 5 5 5 5 5 5 6 5 5 6 5 5 5 6 5 6 5 6 5 6 6 6 5 5 5 5 5 5 5 5 6 5 5 5 5 5 5 5 5 6 5 5 6 5 5 5 5 5 5 5 5 5 5 5 5 5 5 5 5 5 5 5 5 5 6 5 5 5 5 5 5 5 5 5 5 6 5 6 5 5 6 5 6 5 6 5 5 6 5 6 5 5 6 5 5 5 6 5 5 5 5 5 5 5 5 5 5 5 5 5 5 5 5 5 5 5 5 5 5 5 5 5 5 5 5 5 5 5 5 5 5 5 5 5 5 5 5 5 5 5 5 5 5 5 5 5 5 5 5 5 5 5 5 5 5 5 5 5 6 5 5 6 5 5 5 5 5 5 6 6 5 5 5 5 5 5 5 5 5 5 5 5 5 5 5 5 5 5 6 5 5 5 6 5 5 5 5 5 5 5 5 5 5 5 5 5 5 5 5 6 5 5 5 5 5 5 5 6 5 5 5 5 5 5 5 5 6 5 6 5 5 5 5 5 5 5 5 5 5 5 5 5 5 5 5 6 5 5 5 5 5 5 5 6 5 5 5 5 6 5 5 5 5 5 5 5 6 5 5 6 6 5 5 6 5 5 5 5 5 5 6 5 5 5 5 5 5 5 5 5 6 5 5 6 5 5 6 5 5 6 5 5 5 5 5 6 5 5 5 5 5 5 5 5 6 5 5 5 5 5 5 5 6 5 5 5 5 5 5 5 5 5 5 5 5 6 5 5 5 5 5 5 5 6 6 5 6 5 6 5 5 5 5 5 5 5 5 5 5 5 5 5 5 5 6 5 6 5 5 5 5 5 5 5 5 6 5 6 5 6 5 6 5 6 5 5 6 5 5 5 5 5 6 5 5 5 5 5 5 5 5 6 5 5 5 5 5 6 5 5 6 5 6 6 5 5 5 5 5 5 5 5 6 5 5 5 5 5 5 5 5 5 5 5 5 5 6 5 5 5 5 5 5 5 6 5 5 5 6 5 5 5 5 5 5 5 5 5 5 5 5 5 5 5 5 5 6 5 5 5 5 5 5 5 6 5 5 6 5 5 5 5 5 5 5 5 5 5 5 5 5 5 5 6 5 5 5 5 6 5 5 5 5 5 5 5 5 5 5 5 5 5 5 5 5 5 5 5 5 5 5 5 5 5 6 5 5 5 5 5 5 6 5 5 5 5 5 5 5 5 5 6 6 5 5 5 6 5 6 5 5 5 5 5 5 5 5 5 5 5 5 5 5 5 6 5 5 5 5 5 5 5 5 5 5 5 5 6 6 5 5 5 5 5 5 5 5 6 5 5 6 5 5 6 6 5 5 5 5 5 5 5 6 5 5 5 5 5 5 5 5 5 6 5 5 5 6 5 5 5 5 5 6 5 5 5 5 5 5 5 5 5 5 5 5 6 5 5 5 6 5 5 5 6 5 5 5 5 5 5 5 5 5 5 5 5 5 5 5 5 5 5 5 5 5 5 5 5 5 5 5 5 5 5 5 5 6 5 5 5 5 5 5 5 5 5 5 5 5 5 5 5 5 5 5 5 5 5 5 5 5 6 5 6 5 5 6 5 5 5 5 5 5 5 5 5 6 5 5 5 5 5 5 5 5 5 5 5 5 5 5 6 5 5 5 5 6 5 5 5 6 5 5 5 5 5 5 5 5 5 5 5 5 5 5 5 5 5 5 5 5 5 5 5 5 5 5 5 5 5 5 5 5 5 5 5 5 5 5 5 5 5 5 5 5 5 5 5 5 5 5 5 5 5 5 5 5 5 5 5 5 5 5 5 5 5 5 5 5 5 5 5 5 5 5 5 5 5 5 5 5 5 5 5 5 5 5 5 5 5 5 5 5 5 5 5 5 5 5 5 5 5 5 5 5 5 5 5 5 5 5 5 5 5 5 5 5 5 5 5 5 5 5 5 5 5 5 5 5 5 5 5 5 5 5 5 5 5 5 5 5 5 5 5 5 5 5 5 5 5 5 5 5 5 5 5 5 5 5 5 5 5 5 5 5 5 5 5 5 5 5 5 5 5 5 5 5 5 5 5 5 5 5 5 5 5 5 5 5 5 6 5 5 5 5 5 5 5 5 5 5 5 5 5 5 5 5 6 5 5 5 5 5 5 5 5 6 5 5 5 5 6 5 5 5 5 5 5 5 5 5 5 5 5 5 5 5 5 5 5 5 5 5 5 6 5 5 5 5 5 5 5 5 5 5 5 5 5 6 6 5 5 5 5 5 6 5 6 5 5 5 5 5 5 5 5 5 5 5 6 5 5 5 5 5 5 5 6 5 5 5 5 5 5 5 5 5 5 5 5 5 5 5 6 6 5 5 5 5 5 5 5 5 5 5 5 5 6 5 5 5 5 5 5 5 5 5 5 5 5 5 5 5 5 6 5 5 5 5 5 5 5 6 5 5 5 5 5 5 5 5 5 5 6 6 5 5 5 5 5 5 5 5 5 5 5 5 5 5 5 5 5 5 5 5 5 5 5 5 5 5 5 5 5 5 6 5 5 5 5 5 6 5 5 5 5 5 5 5 5 5 5 6 5 5 5 5 6 5 5 5 5 5 5 5 5 5 5 6 5 6 5 5 5 5 5 5 5 5 5 5 5 5 5 5 5 5 5 5 5 5 5 5 5 5 5 5 5 5 5 5 5 6 5 5 5 5 5 6 5 5 5 5 5 5 5 5 5 5 5 5 5 5 5 5 5 5 6 5 5 6 5 5 5 6 5 5 5 5 5 6 5 5 5 5 5 5 5 5 5 5 6 5 5 5 5 5 5 6 5 5 5 5 5 6 6 5 5 6 5 5 6 5 5 5 5 5 5 5 5 5 5 6 5 5 6 5 5 6 5 5 6 5 5 6 5 5 6 5 5 5 5 5 5 6 5 5 5 5 5 5 5 5 5 5 5 6 5 5 5 5 5 5 5 6 5 5 5 5 6 5 5 5 6 5 5 5 5 5 5 5 5 5 5 5 6 5 5 5 5 5 5 5 5 5 5 5 5 5 5 5 5 5 5 5 5 5 5 5 5 6 5 5 5 5 5 6 5 5 5 5 5 5 5 5 5 5 5 5 5 5 6 5 5 6 5 6 5 5 5 5 6 5 6 6 5 6 5 5 5 5 5 5 5 6 5 6 5 5 5 5 5 5 6 5 5 5 5 5 5 6 5 5 5 5 6 5 5 5 5 5 6 5 5 6 5 5 5 5 6 5 5 5 5 6 5 5 5 5 5 5 6 5 5 5 5 5 5 5 5 5 6 5 5 5 5 5 5 6 5 5 5 5 6 5 5 5 5 5 5 5 5 5 5 5 5 5 5 5 5 6 5 5 5 6 5 5 6 5 5 5 5 5 5 5 5 5 5 5 5 5 5 5 5 6 5 6 5 5 5 5 5 5 5 5 5 5 5 5 5 5 5 5 5 5 5 5 5 5 5 5 5 5 6 5 5 6 5 5 5 5 5 5 5 5 5 5 6 5 5 5 5 6 5 5 5 5 6 5 5 5 5 5 5 5 5 5 6 5 5 5 5 5 5 5 5 5 5 5 5 5 5 5 5 5 5 5 5 5 5 5 5 5 5 5 5 
</DataArray>
<DataArray type="Float64" Name="stress" NumberOfComponents="9" format="ascii">
2171147365.1819153 -218005401.49971762 0 -218005401.49971762 -352179.47041443537 0 0 0 0 3665268640.8132248 -424225779.25469244 0 -424225779.25469244 -140348045.95129889 0 0 0 0 4089520753.8963242 -645973816.88502192 0 -645973816.88502192 -333148083.2038632 0 0 0 0 3475849556.2910309 -784698314.92977858 0 -784698314.92977858 120190147.00982563 0 0 0 0 2801949947.0193787 -1153843415.3009889 0 -1153843415.3009889 111833289.7186763 0 0 0 0 2665277.7873405218 -7066.0199111746624 0 -7066.0199111746624 22595.276645570266 0 0 0 0 46088992.286956787 184214433.49655026 0 184214433.49655026 344734805.01235783 0 0 0 0 921625585.8941803 323865221.9925549 0 323865221.9925549 152792716.05001706 0 0 0 0 2461101217.6311569 -172572402.73025462 0 -172572402.73025462 -32924858.548424721 0 0 0 0 1869640302.1378021 -1036541293.8428345 0 -1036541293.8428345 542340351.12655914 0 0 0 0 196710721.81004333 -97592206.097504139 0 -97592206.097504139 337894158.45834363 0 0 0 0 929043029.27410889 -617812796.91471505 0 -617812796.91471505 198980061.56088316 0 0 0 0 4552817.9448242188 -647874.77398550848 0 -647874.77398550848 -1364.7495357819819 0 0 0 0 2562137.9280303121 947206.78243818134 0 947206.78243818134 383692.70506663469 0 0 0 0 5067142.0692672729 -1662066.6465655831 0 -1662066.6465655831 -2058504.0551750273 0 0 0 0 2735870.9342193604 -2319788.5388764977 0 -2319788.5388764977 -2891.0457140337098 0 0 0 0 4720031.2579956055 -880296.44083483401 0 -880296.44083483401 -739505.75140496017 0 0 0 0 6718061.0112304688 -32620.299653675989 0 -32620.299653675989 -967442.10389290983 0 0 0 0 3911892.0329599306 1146263.244025901 0 1146263.244025901 -151971.84034210411 0 0 0 0 5149629.3954467773 -1145879.9621138137 0 -1145879.9621138137 -500619.88496288564 0 0 0 0 4322303.2428436279 -382538.14202949684 0 -382538.14202949684 -1201289.5845781621 0 0 0 0 4517382.7128287554 -532581.20540590119 0 -532581.20540590119 -342185.86465515802 0 0 0 0 -19492783.93951416 22280930.626179576 0 22280930.626179576 -17644301.003607154 0 0 0 0 -45365052.394256592 21933790.518138409 0 21933790.518138409 12742732.250052214 0 0 0 0 -17138565.365539551 5504058.1650173664 0 5504058.1650173664 -4329984.2719746828 0 0 0 0 6599995.7710952759 9516764.143237263 0 9516764.143237263 35578614.987420917 0 0 0 0 5428087.235174723 219791.5021288991 0 219791.5021288991 830969.92618390068 0 0 0 0 -36688346.014343262 28946721.747539639 0 28946721.747539639 29201229.910692215 0 0 0 0 4165204.8280334473 -9843388.4645211697 0 -9843388.4645211697 3784593.0865168571 0 0 0 0 -23461277.474136353 -7665500.6934756935 0 -7665500.6934756935 24041063.40144515 0 0 0 0 5633783.3598632812 -14105063.855880499 0 -14105063.855880499 -26679151.155841917 0 0 0 0 6294177.0998062193 264564.03965122718 0 264564.03965122718 -164463.59567275763 0 0 0 0 228914528.05750275 -157062942.63895917 0 -157062942.63895917 112302419.11994433 0 0 0 0 -121052594.90975952 -52636937.172923982 0 -52636937.172923982 189501938.82898319 0 0 0 0 -49690805.956298828 33853262.21162419 0 33853262.21162419 54862552.512834787 0 0 0 0 122567645.55915833 -121805309.87005764 0 -121805309.87005764 47154049.333355188 0 0 0 0 3937539.0334087908 -6007418.4777795067 0 -6007418.4777795067 206889032.82292745 0 0 0 0 18474485.656700134 242383243.97501659 0 242383243.97501659 222308568.40484983 0 0 0 0 -78444657.511962891 189967350.60727951 0 189967350.60727951 32975032.178848907 0 0 0 0 -97977813.982543945 44367770.873571932 0 44367770.873571932 59835733.053039312 0 0 0 0 4138529.0310946107 41540238.999030426 0 41540238.999030426 26734762.587453485 0 0 0 0 -147608712.63592529 52864318.127750874 0 52864318.127750874 158500463.29976839 0 0 0 0 -126105850.40429688 4809414.8028172851 0 4809414.8028172851 21594267.564335763 0 0 0 0 -161500013.83495712 109247617.63435772 0 109247617.63435772 30019652.554586649 0 0 0 0 7001836.9820556641 69470106.000674009 0 69470106.000674009 -89226303.617291987 0 0 0 0 1314768.4630317204 477757.22081248462 0 477757.22081248462 43111.112300451663 0 0 0 0 -158653633.93322754 186414739.17777377 0 186414739.17777377 -147941919.09652904 0 0 0 0 59465030.757556915 1165951.0950225042 0 1165951.0950225042 -34114998.18143329 0 0 0 0 1341703.116361469 224201.59939732403 0 224201.59939732403 -349003.26473769266 0 0 0 0 -370361864.42453003 123216971.19161996 0 123216971.19161996 5138127.3490519524 0 0 0 0 -97299032.079284668 16978431.627576366 0 16978431.627576366 -135423747.54066491 0 0 0 0 -362994430.83935547 118754199.03025472 0 118754199.03025472 -25154628.629317462 0 0 0 0 -77971168.75378418 183683162.34859669 0 183683162.34859669 -128875574.29320984 0 0 0 0 -34619076.342803955 63686788.912637711 0 63686788.912637711 13044589.405440241 0 0 0 0 2426237.696854284 4922647.7860120051 0 4922647.7860120051 1971997.5209519309 0 0 0 0 -26487764.112945557 60122542.778352171 0 60122542.778352171 -7491165.1818775535 0 0 0 0 80845692.785552979 91642517.493512809 0 91642517.493512809 -45628244.443124592 0 0 0 0 86497241.574364662 41056499.659678996 0 41056499.659678996 -253972314.94199187 0 0 0 0 -54854707.854660034 150359139.85480866 0 150359139.85480866 -69038799.394437194 0 0 0 0 6506979.7441253662 184962106.11425722 0 184962106.11425722 -50064486.63639307 0 0 0 0 50279258.609924316 32749722.563147925 0 32749722.563147925 -1733821.3032903075 0 0 0 0 -4636858.5032119751 -23270383.857712746 0 -23270383.857712746 5033587.6477558613 0 0 0 0 4940906.2368019 -401770.07238131762 0 -401770.07238131762 2347506.8035375373 0 0 0 0 40949355.826690674 13068655.911367834 0 13068655.911367834 5813421.7063737363 0 0 0 0 41114859.85320282 15220469.467161983 0 15220469.467161983 -6107086.61682868 0 0 0 0 6775268.1325378418 27974921.28422315 0 27974921.28422315 -3091770.1859526038 0 0 0 0 13997311.812789917 5437760.3247514963 0 5437760.3247514963 11373403.651871204 0 0 0 0 7714966.9498511925 -2864982.3283170834 0 -2864982.3283170834 -2251918.7539340947 0 0 0 0 23485717.870056152 6352551.1986396909 0 6352551.1986396909 -8853984.4973617047 0 0 0 0 10135814.430236816 15952435.769634783 0 15952435.769634783 1985346.331404686 0 0 0 0 30734737.357162476 20007480.953350797 0 20007480.953350797 9848084.3667725325 0 0 0 0 43522582.583221436 21030170.54669112 0 21030170.54669112 9164267.6055139899 0 0 0 0 43379676.215885162 -7344099.8428375274 0 -7344099.8428375274 9507760.6071764231 0 0 0 0 50727620.942947388 15344908.501176536 0 15344908.501176536 4362121.6768776178 0 0 0 0 43590477.528366089 -17783339.676694781 0 -17783339.676694781 -1845628.5527923107 0 0 0 0 59683420.020095825 5894683.5928160548 0 5894683.5928160548 -3724440.8159332275 0 0 0 0 15125299.538497925 14602643.246537805 0 14602643.246537805 24821835.007044673 0 0 0 0 12068383.249541067 -1582379.8420285098 0 -1582379.8420285098 -2044813.1070955885 0 0 0 0 7637125.8379020691 714757.04682549834 0 714757.04682549834 1251137.7614946365 0 0 0 0 8012170.526184082 1364751.782425046 0 1364751.782425046 1040063.3755674362 0 0 0 0 5883380.9928147122 322238.31228175887 0 322238.31228175887 4286785.660717139 0 0 0 0 27015595.469451904 2095629.3206592798 0 2095629.3206592798 -15200846.489370823 0 0 0 0 23165809.220876694 4493897.5998830944 0 4493897.5998830944 -2668406.6445784569 0 0 0 0 14056784.49793826 -3644529.9370906055 0 -3644529.9370906055 -551014.67042040662 0 0 0 0 20490899.26725769 -16965846.95879221 0 -16965846.95879221 1593442.9020047188 0 0 0 0 11581065.375900269 2142922.1723461151 0 2142922.1723461151 1061850.8829469681 0 0 0 0 8540019.9697799683 43991642.494552135 0 43991642.494552135 -13091597.470704556 0 0 0 0 35264857.914581299 8028550.7798253894 0 8028550.7798253894 -19126721.190279782 0 0 0 0 6742549.6129630096 5178224.5473409593 0 5178224.5473409593 1026602.3121359046 0 0 0 0 17849877.287536621 6772559.8358224332 0 6772559.8358224332 -3361885.288836062 0 0 0 0 23303912.904098511 11333650.070750773 0 11333650.070750773 -30514291.945921794 0 0 0 0 35205055.173912048 -4519229.0515387356 0 -4519229.0515387356 -10598834.120378613 0 0 0 0 53134582.805709839 -36649973.187515616 0 -36649973.187515616 -47056845.55793412 0 0 0 0 46671983.487792969 -49485178.466191888 0 -49485178.466191888 26554794.808148563 0 0 0 0 1904425751.9257355 -1260531940.3129265 0 -1260531940.3129265 717077733.77711785 0 0 0 0 35833308.983917236 9707200.7475596666 0 9707200.7475596666 -50804942.337897301 0 0 0 0 15141350.464433059 2909354.6857904792 0 2909354.6857904792 -1455407.0096275825 0 0 0 0 388553.28229967877 -155626.84231071919 0 -155626.84231071919 6392.4306712104008 0 0 0 0 546226.78833482414 -7712680.8123236112 0 -7712680.8123236112 -3915732.0170005579 0 0 0 0 37916359.293991089 -24077847.763519168 0 -24077847.763519168 -15423133.768113256 0 0 0 0 27499399.56918335 -5509701.604477942 0 -5509701.604477942 -5081503.5967852473 0 0 0 0 1175236.5077018179 -7967780.5417525135 0 -7967780.5417525135 -1676060.5358351767 0 0 0 0 24530730.239974976 -27691908.158741198 0 -27691908.158741198 -6090056.4628933817 0 0 0 0 18540802.62159729 -48551700.045139365 0 -48551700.045139365 93558.931509744376 0 0 0 0 15891506.089263916 -38211482.155703545 0 -38211482.155703545 172358608.44895557 0 0 0 0 13603680.30279541 -37383090.408787131 0 -37383090.408787131 51720819.103665411 0 0 0 0 35056524.223953247 -46493419.98423624 0 -46493419.98423624 -29032768.454347134 0 0 0 0 6617460.8490281105 -19868.651996046305 0 -19868.651996046305 -11430.945412552217 0 0 0 0 1214760934.3420258 1408238978.3828812 0 1408238978.3828812 1458975320.8288815 0 0 0 0 4088725146.4580383 -3065520887.5337605 0 -3065520887.5337605 2018802558.8051288 0 0 0 0 1935620588.8832016 -1274519888.1003225 0 -1274519888.1003225 529110081.67006952 0 0 0 0 2720857611.5778656 -1781446797.8213444 0 -1781446797.8213444 456485437.87848532 0 0 0 0 4097436318.709537 -1569794792.4619198 0 -1569794792.4619198 -176730151.23875403 0 0 0 0 1893185252.3986893 -908736420.32284451 0 -908736420.32284451 181050155.65186673 0 0 0 0 2078109810.674118 -1423880795.5776241 0 -1423880795.5776241 326754779.89944649 0 0 0 0 2239525672.4937134 -574196928.2690022 0 -574196928.2690022 -48341354.684922412 0 0 0 0 608939983.1151123 -136058339.59990966 0 -136058339.59990966 -45443227.698363028 0 0 0 0 218622210.99340916 -335627987.73528183 0 -335627987.73528183 -99528907.904415846 0 0 0 0 281070800.84066772 325182602.69779044 0 325182602.69779044 -112920136.14807081 0 0 0 0 -51658787.293945312 183940416.14643669 0 183940416.14643669 -494006321.05459118 0 0 0 0 712580384.37460327 134520929.27048504 0 134520929.27048504 -642347975.97393346 0 0 0 0 2810578.6449084207 -2925515.0343468301 0 -2925515.0343468301 -1707475.2890770389 0 0 0 0 229817593.04104614 -602685021.37026739 0 -602685021.37026739 348710387.61724889 0 0 0 0 462670895.01123047 -196008213.92667484 0 -196008213.92667484 -66343538.091859818 0 0 0 0 1802309294.0702209 -1056071553.7318124 0 -1056071553.7318124 -57799493.852982283 0 0 0 0 7830445.407699896 3065237.820140779 0 3065237.820140779 -1962120.8293174179 0 0 0 0 -337886983.27118111 -200637059.37811232 0 -200637059.37811232 476690156.65776682 0 0 0 0 -7843101.6547546387 40070287.750739634 0 40070287.750739634 -22723963.219341591 0 0 0 0 23010807.455558777 25816779.536681771 0 25816779.536681771 -18651055.630799949 0 0 0 0 22972189.905029297 27608429.170549452 0 27608429.170549452 -73883099.837241262 0 0 0 0 21953073.22530365 87603711.769034535 0 87603711.769034535 -6033486.7207664251 0 0 0 0 -14934938.312011719 40076300.69864995 0 40076300.69864995 -21856947.369964242 0 0 0 0 2348024.6384156402 488803.65416501462 0 488803.65416501462 -444459.38175245124 0 0 0 0 -173999024.42990112 63148130.951777264 0 63148130.951777264 60049351.06406644 0 0 0 0 173709051.77640152 302581734.68790483 0 302581734.68790483 366216572.84176314 0 0 0 0 308966683.09752083 154020982.94160897 0 154020982.94160897 28343030.00007619 0 0 0 0 360838656.46399689 490972457.83434063 0 490972457.83434063 136398782.20019308 0 0 0 0 147308411.1648407 63578815.749315903 0 63578815.749315903 250641.9286872735 0 0 0 0 -18236749.18006897 153106590.23365879 0 153106590.23365879 59040555.487990469 0 0 0 0 65102222.27268219 43580263.427692257 0 43580263.427692257 5379409.4574969709 0 0 0 0 104418386.19137573 33980104.699925132 0 33980104.699925132 27477412.750122905 0 0 0 0 63536140.013908386 62083809.198672734 0 62083809.198672734 69571273.95524238 0 0 0 0 148151509.35955048 21277801.437038925 0 21277801.437038925 -28747.202061465672 0 0 0 0 147771405.73944092 41134885.40626514 0 41134885.40626514 73471317.432901725 0 0 0 0 189390995.62353516 -41999711.533212766 0 -41999711.533212766 69892707.924805269 0 0 0 0 290850220.50827026 -30335864.840086401 0 -30335864.840086401 17166144.384598419 0 0 0 0 115599589.71768188 66874748.28259328 0 66874748.28259328 116808921.88183272 0 0 0 0 91430719.236999512 -648070.7349133566 0 -648070.7349133566 15873625.001591489 0 0 0 0 89372869.112304688 -37619953.164273858 0 -37619953.164273858 -88762671.502663732 0 0 0 0 67995441.946472168 6838349.3175814748 0 6838349.3175814748 -53581486.663787276 0 0 0 0 143827612.99902344 3731806.2548683435 0 3731806.2548683435 -58560295.62017554 0 0 0 0 63909558.398696899 41881623.814175367 0 41881623.814175367 -40207257.789397657 0 0 0 0 81817210.087890625 75123732.311811805 0 75123732.311811805 14519314.591979772 0 0 0 0 44591448.050949097 57607962.574955732 0 57607962.574955732 -49500678.900919586 0 0 0 0 45999861.267620325 -17946141.004129659 0 -17946141.004129659 -80104929.417575121 0 0 0 0 40449303.18069458 -28150.805423259735 0 -28150.805423259735 -98210431.418733537 0 0 0 0 39160902.72744751 -9886813.3711127639 0 -9886813.3711127639 -48724713.950721562 0 0 0 0 2699531.0850524902 -39150805.347521007 0 -39150805.347521007 -68410871.301085353 0 0 0 0 1360034.9153722972 693154.08666795492 0 693154.08666795492 331940.15444938268 0 0 0 0 17683241.097625732 27516216.080424905 0 27516216.080424905 178295.54892005026 0 0 0 0 -48826703.715553284 -108973517.26928754 0 -108973517.26928754 -66821961.867482722 0 0 0 0 1054036.1873626709 12919122.874813512 0 12919122.874813512 -9406326.417755723 0 0 0 0 2593239.3687563986 1041437.7940662652 0 1041437.7940662652 288780.16863337741 0 0 0 0 3176740.6044540405 8161599.9392986298 0 8161599.9392986298 -2659416.1436891556 0 0 0 0 11350902.312011719 20128514.841248155 0 20128514.841248155 -20455209.864040375 0 0 0 0 2543212.8305551372 949496.13212258369 0 949496.13212258369 -1412419.120102474 0 0 0 0 -77406354.033615112 -63448804.467684478 0 -63448804.467684478 -2816848.7000989914 0 0 0 0 7811857.2470626831 6219332.6175832152 0 6219332.6175832152 -13073592.528531551 0 0 0 0 7363130.7615509033 8585675.4304509759 0 8585675.4304509759 -25550213.86070919 0 0 0 0 32898501.178390503 -16205835.920379162 0 -16205835.920379162 -28425545.48301363 0 0 0 0 26336454.543304443 769656.9572994709 0 769656.9572994709 -72207563.045108318 0 0 0 0 83746904.779296875 -124549240.87192917 0 -124549240.87192917 -111699725.44247322 0 0 0 0 -55168501.573356628 -116035876.84532312 0 -116035876.84532312 -68300428.205888271 0 0 0 0 31126836.917266846 -62819791.30767563 0 -62819791.30767563 -69057690.351357818 0 0 0 0 59257558.024536133 -93631930.580710143 0 -93631930.580710143 -91079135.321698308 0 0 0 0 155424764.65390015 -8090104.8669919968 0 -8090104.8669919968 -80959106.10773477 0 0 0 0 4039424.76512146 -86447654.398500085 0 -86447654.398500085 304164991.39909357 0 0 0 0 449347.14166422188 -197638.94661838561 0 -197638.94661838561 -64187.138618051511 0 0 0 0 64369417.089508057 41867711.573845021 0 41867711.573845021 -9475084.0275544301 0 0 0 0 -31764485.742218018 217934366.11203289 0 217934366.11203289 71457191.702034146 0 0 0 0 20071645.699066162 -3671578.1000936148 0 -3671578.1000936148 28361.640470855011 0 0 0 0 85370750.482772827 11674210.977919573 0 11674210.977919573 -1959810.0020904206 0 0 0 0 142084137.47903442 47367756.351007119 0 47367756.351007119 -22464033.786503691 0 0 0 0 -16865476.811248779 9518738.2053413875 0 9518738.2053413875 7986325.2361461716 0 0 0 0 -17066631.574017227 -17911682.986615606 0 -17911682.986615606 -3739261.7939508781 0 0 0 0 6427251.5725250244 1866392.9933266714 0 1866392.9933266714 2782424.7150728432 0 0 0 0 1694560.3991390467 -413174.17786941584 0 -413174.17786941584 -196599.93249289354 0 0 0 0 3090654.546295166 -4324697.0366873518 0 -4324697.0366873518 -22932717.927532222 0 0 0 0 -11030295.350311279 -109726749.14309384 0 -109726749.14309384 96076165.615103006 0 0 0 0 54998974.336181641 -196695371.22451016 0 -196695371.22451016 -324356389.41185689 0 0 0 0 41564143.927734375 -146389976.84688807 0 -146389976.84688807 -33616051.828518599 0 0 0 0 2119898.1950531006 -2306267.7929052538 0 -2306267.7929052538 -3751204.7278575087 0 0 0 0 -3286696.6496276855 -6107165.6326302337 0 -6107165.6326302337 -3774.1530478852637 0 0 0 0 1661092.7947235107 -4733397.6242389558 0 -4733397.6242389558 -4338491.582602758 0 0 0 0 3542040.0853424072 -2153641.6456540101 0 -2153641.6456540101 -4542324.1909929365 0 0 0 0 3152067.056360364 -328131.28695925046 0 -328131.28695925046 -232096.89650726947 0 0 0 0 -20931548.843738556 -58885828.828108162 0 -58885828.828108162 34214549.55486083 0 0 0 0 158537632.59100342 34884928.408155441 0 34884928.408155441 -56090574.232398272 0 0 0 0 122626464.83004761 -30482368.221957922 0 -30482368.221957922 4347034.9090189934 0 0 0 0 -15832717.913726807 -20658116.350395083 0 -20658116.350395083 24895168.41169095 0 0 0 0 -7380701.041015625 -41628983.861541271 0 -41628983.861541271 -4031338.5063080788 0 0 0 0 20906029.850830078 -23970145.281169415 0 -23970145.281169415 5457093.5717823505 0 0 0 0 7256077.7964172363 -8323404.0396456718 0 -8323404.0396456718 -10238440.523864746 0 0 0 0 134836333.59326172 62107403.439950228 0 62107403.439950228 29055258.93129158 0 0 0 0 2583144.1877746582 875684.42664647102 0 875684.42664647102 21188384.673101842 0 0 0 0 475772.12993533909 263184.19643811509 0 263184.19643811509 422658.34570355632 0 0 0 0 40311873.881225586 23536126.211483479 0 23536126.211483479 34205139.609143257 0 0 0 0 11707495.869445801 -1702922.7577903271 0 -1702922.7577903271 -683144.01707315445 0 0 0 0 41936936.905014038 2090819.6071521044 0 2090819.6071521044 4868486.185090065 0 0 0 0 27828497.820556641 31685573.536339283 0 31685573.536339283 -8749352.9065208435 0 0 0 0 25388783.087310791 25320504.225340843 0 25320504.225340843 1852373.2037372589 0 0 0 0 38935815.28137207 30120803.776559591 0 30120803.776559591 -307991.54070186615 0 0 0 0 57152096.736236572 17185155.079247952 0 17185155.079247952 -10421160.757109642 0 0 0 0 37109462.567138672 -7811313.6483354568 0 -7811313.6483354568 -7438461.7457247972 0 0 0 0 20700118.802841187 -38273812.812722564 0 -38273812.812722564 12022350.772410393 0 0 0 0 96948319.523895264 6641326.1447570324 0 6641326.1447570324 -3955333.7553724051 0 0 0 0 17138342.797920227 1939620.9174672365 0 1939620.9174672365 -4345831.3227162361 0 0 0 0 22087288.703857422 -2412603.304602623 0 -2412603.304602623 -11380231.874701977 0 0 0 0 24131234.333938599 8353444.1443254948 0 8353444.1443254948 -1296430.0731992722 0 0 0 0 19596568.803207397 13424761.648452997 0 13424761.648452997 1188272.5485334396 0 0 0 0 39480687.94631958 12157397.611938 0 12157397.611938 -9332003.406578064 0 0 0 0 29326472.47845459 11557254.234151363 0 11557254.234151363 -2353913.7136497498 0 0 0 0 31085379.584320068 8403410.736543417 0 8403410.736543417 3172093.6820430756 0 0 0 0 27782030.083312988 8525236.860478878 0 8525236.860478878 -8250552.69903934 0 0 0 0 19613510.089179993 828973.45303761959 0 828973.45303761959 -6271802.8475809097 0 0 0 0 18960050.994308472 517521.1272342205 0 517521.1272342205 -6322082.205470562 0 0 0 0 21848202.891082764 9514509.59100914 0 9514509.59100914 10243424.355975151 0 0 0 0 41251462.19720459 11352068.863663673 0 11352068.863663673 -2435346.1352893114 0 0 0 0 34823238.561203003 -1492865.6866266727 0 -1492865.6866266727 377626.40390014648 0 0 0 0 -549460.01242402196 1461316.0243333112 0 1461316.0243333112 547936.22939222597 0 0 0 0 19185269.9269104 -2252844.0778264999 0 -2252844.0778264999 -2189516.471247673 0 0 0 0 8362255.7417602539 16141059.091321707 0 16141059.091321707 7465332.3716783524 0 0 0 0 5957361.6017303467 -10082858.771260738 0 -10082858.771260738 -5070021.0802035332 0 0 0 0 6207510.2292758375 -599987.03288184106 0 -599987.03288184106 3795876.5546229556 0 0 0 0 10742039.080612183 902051.7065782547 0 902051.7065782547 -670833.99110984802 0 0 0 0 74240.786575123668 373539.37018304883 0 373539.37018304883 869959.93805149337 0 0 0 0 28984546.885955811 28790973.695683718 0 28790973.695683718 32047801.262516662 0 0 0 0 6755937.2374159023 2455871.639332898 0 2455871.639332898 2835486.6137306499 0 0 0 0 14846402.870040894 9799991.8949187994 0 9799991.8949187994 9516185.9823446274 0 0 0 0 16559599.086654663 11309746.605285645 0 11309746.605285645 9380167.4771502316 0 0 0 0 11384204.517203793 -473563.44667613739 0 -473563.44667613739 1213872.7534451087 0 0 0 0 17093029.640899658 8897090.4472124577 0 8897090.4472124577 1039705.3428230286 0 0 0 0 7915324.357711792 1202806.5447232723 0 1202806.5447232723 -286381.23375988007 0 0 0 0 6483009.3430023193 792385.04879188538 0 792385.04879188538 1270704.9152526855 0 0 0 0 9473356.6109664291 -534526.24188178033 0 -534526.24188178033 979849.41992681799 0 0 0 0 -358781.91564941406 2329517.0555763245 0 2329517.0555763245 -1290104.8165529966 0 0 0 0 2297841.9720802978 1872440.2524887256 0 1872440.2524887256 5895013.0395634621 0 0 0 0 1279450.6772460938 174336.38339996338 0 174336.38339996338 -329129.57103192806 0 0 0 0 3611455.3009889871 599046.70423432323 0 599046.70423432323 5194929.3444151198 0 0 0 0 8907987.0845947266 320638.50433158875 0 320638.50433158875 153403.46199035645 0 0 0 0 7264574.675305672 3345424.5790379532 0 3345424.5790379532 4054442.806638916 0 0 0 0 9280298.8082045019 1003515.84320138 0 1003515.84320138 784242.82617651229 0 0 0 0 7236547.2048339844 772117.1603717804 0 772117.1603717804 -529805.96233892441 0 0 0 0 3983498.7849681824 1632710.0643730341 0 1632710.0643730341 3217757.6661760327 0 0 0 0 5431701.9803466797 1002383.7409579754 0 1002383.7409579754 1639010.1220741272 0 0 0 0 5788054.1482086182 1422279.2772798538 0 1422279.2772798538 1995280.1584514976 0 0 0 0 6756468.2136162892 -346995.77166100452 0 -346995.77166100452 5119525.5735062016 0 0 0 0 5821787.1620330811 1206160.3665840626 0 1206160.3665840626 1509839.1659946442 0 0 0 0 3637414.1178096235 -991420.83234404027 0 -991420.83234404027 3563029.6285097469 0 0 0 0 5006630.8637390137 -3860.2633943557739 0 -3860.2633943557739 1127441.9246253967 0 0 0 0 1438143.4568786621 -301425.04826164246 0 -301425.04826164246 2689751.8892745972 0 0 0 0 2441265.7716903687 212308.97151064873 0 212308.97151064873 2813109.7436447144 0 0 0 0 8430579.6374736279 3627139.211716298 0 3627139.211716298 3953193.2824830692 0 0 0 0 3569048.9085350037 310760.52918064594 0 310760.52918064594 1180897.190366745 0 0 0 0 8442447.400770992 2882835.5284695551 0 2882835.5284695551 2295490.9384000483 0 0 0 0 3026527.3230190426 639834.7598015042 0 639834.7598015042 2305917.1243494153 0 0 0 0 4095206.8478393555 976441.13073086739 0 976441.13073086739 1382333.6848883629 0 0 0 0 4511713.6092224121 665756.32126522064 0 665756.32126522064 406787.13687801361 0 0 0 0 3078306.5555237681 128899.17463855445 0 128899.17463855445 625773.91258011456 0 0 0 0 4636158.2654151917 1023235.5607136488 0 1023235.5607136488 556207.60536575317 0 0 0 0 3058989.6805725098 611859.28127288818 0 611859.28127288818 614502.31368255615 0 0 0 0 3612145.8075714111 1187190.7335629463 0 1187190.7335629463 414149.20946440101 0 0 0 0 7658238.8325290121 2284294.8914778829 0 2284294.8914778829 1205542.6898650955 0 0 0 0 3698622.9390411377 409137.55973243713 0 409137.55973243713 702832.35894536972 0 0 0 0 8513674.7071421929 2365577.3495189324 0 2365577.3495189324 982432.4141993653 0 0 0 0 5220988.2270284295 2690981.529874064 0 2690981.529874064 1031128.5178339398 0 0 0 0 6351860.5300770029 2076479.2183774933 0 2076479.2183774933 148946.74276246689 0 0 0 0 1099037.9809570312 933283.08942604065 0 933283.08942604065 -39540.057836532593 0 0 0 0 1464042.5122083575 1361285.5739522027 0 1361285.5739522027 1597555.9336217621 0 0 0 0 22107097.782180786 9066836.2040839195 0 9066836.2040839195 10376939.132494211 0 0 0 0 2924234.5031204224 1005509.4854810238 0 1005509.4854810238 -4454.0987706184387 0 0 0 0 2816585.9930496216 394478.77964711189 0 394478.77964711189 72177.303263187408 0 0 0 0 1830767.1111283451 561468.27406834811 0 561468.27406834811 95600.187727812445 0 0 0 0 9655835.6395263672 5127180.4073171616 0 5127180.4073171616 2820086.322599411 0 0 0 0 6708245.9819886535 3032472.8835209906 0 3032472.8835209906 523479.02496258402 0 0 0 0 6785289.2944229171 1259114.9109321423 0 1259114.9109321423 351742.66693414771 0 0 0 0 4545946.2298538536 2194028.5230642632 0 2194028.5230642632 1012922.5800311361 0 0 0 0 21007869.524734497 3046955.4353982806 0 3046955.4353982806 -2570519.7647194415 0 0 0 0 17859189.453666687 12918979.444878131 0 12918979.444878131 5821389.3455381393 0 0 0 0 7400714.4674998224 2301485.6685970509 0 2301485.6685970509 -519894.61356119986 0 0 0 0 8246935.4337949455 3262078.1171522187 0 3262078.1171522187 -214666.91944023254 0 0 0 0 15348254.637374878 -7768338.9733288884 0 -7768338.9733288884 -47294602.066098332 0 0 0 0 3832038.3539123535 2032703.0518274307 0 2032703.0518274307 -436221.10882377625 0 0 0 0 10227885.85307312 2282060.3289988935 0 2282060.3289988935 1954892.6351823807 0 0 0 0 4844290.4421386719 36848634.877397776 0 36848634.877397776 -49752481.011100173 0 0 0 0 11062650.610375673 3800917.7776227514 0 3800917.7776227514 392649.92410439893 0 0 0 0 5817434.729019165 6155079.72016716 0 6155079.72016716 175605.84155464172 0 0 0 0 2196119.4731077943 1471113.5598582104 0 1471113.5598582104 -373238.77091091382 0 0 0 0 15927725.351924896 -8235568.5101209097 0 -8235568.5101209097 -30412835.795268238 0 0 0 0 5135896.9613952637 5752188.2640318871 0 5752188.2640318871 1585783.3898534775 0 0 0 0 6990546.9696173556 2579025.9913327284 0 2579025.9913327284 1213358.391800276 0 0 0 0 4818253.2199668884 6117721.6258796453 0 6117721.6258796453 2429079.1161842346 0 0 0 0 5339899.7750244141 3809731.6383042336 0 3809731.6383042336 1725303.7299423218 0 0 0 0 4269206.4281158447 2459504.5392708778 0 2459504.5392708778 -21796.929304122925 0 0 0 0 4837377.1790850908 2811805.5813022368 0 2811805.5813022368 1026531.5854621888 0 0 0 0 4203302.4852142334 1414692.6450476646 0 1414692.6450476646 803522.69590187073 0 0 0 0 7513886.4780341685 3843481.0386988781 0 3843481.0386988781 2057842.8281243788 0 0 0 0 5459637.713563107 2816060.0848799422 0 2816060.0848799422 1553960.4986448102 0 0 0 0 7634705.4526235685 3856948.273566056 0 3856948.273566056 1046119.4238644396 0 0 0 0 2888424.6933898926 1159733.9851150513 0 1159733.9851150513 -379436.39351844788 0 0 0 0 2546782.6402893066 -118533.01195907593 0 -118533.01195907593 1175332.7006092072 0 0 0 0 4741520.4790649414 3020779.9509620667 0 3020779.9509620667 769537.57970011234 0 0 0 0 1649477.2371125966 1905527.1275212942 0 1905527.1275212942 3398028.9689638978 0 0 0 0 2160799.8271179199 1718832.0124740601 0 1718832.0124740601 453088.56631469727 0 0 0 0 6670203.428357251 3155506.8155058101 0 3155506.8155058101 2499697.0743280528 0 0 0 0 6848344.0069243815 2811609.8230366968 0 2811609.8230366968 3929499.3580635767 0 0 0 0 1578788.8438470662 292382.58188708592 0 292382.58188708592 8738275.4741930943 0 0 0 0 3826323.1023935825 -263646.18177420832 0 -263646.18177420832 2372352.0200822181 0 0 0 0 3904339.5728149414 2755949.023683548 0 2755949.023683548 2753947.698431015 0 0 0 0 1453504.1637878418 1429966.4257202148 0 1429966.4257202148 4120657.9863491058 0 0 0 0 5934169.664276123 5333184.3340454102 0 5333184.3340454102 1805827.6956710815 0 0 0 0 10269877.491767459 5085788.1287184097 0 5085788.1287184097 803288.43168619461 0 0 0 0 -194768.62507455051 289910.07696574554 0 289910.07696574554 324538.50061276928 0 0 0 0 1598143.8963623047 1079400.0445251465 0 1079400.0445251465 4790165.9228057861 0 0 0 0 -592493.21505737305 1653147.4721069336 0 1653147.4721069336 1120901.7849121094 0 0 0 0 4053501.158423841 3909718.9902178608 0 3909718.9902178608 2288796.435365418 0 0 0 0 4287026.8936351128 1617850.7658256628 0 1617850.7658256628 2567181.5844362061 0 0 0 0 1231353.9406853393 1058831.5936021768 0 1058831.5936021768 9095229.0406326503 0 0 0 0 2067252.2729492188 7427902.8329277039 0 7427902.8329277039 8726395.5237960815 0 0 0 0 845208.52831374109 3934456.2748219464 0 3934456.2748219464 7952362.0084691867 0 0 0 0 2658951.6455383301 5076746.7074260712 0 5076746.7074260712 6268035.7794723511 0 0 0 0 1647756.6390075684 3383383.4112596512 0 3383383.4112596512 -1347101.8834953308 0 0 0 0 4980454.2054443359 9682184.4247303009 0 9682184.4247303009 10406225.329124451 0 0 0 0 11010526.78144455 12414558.558787346 0 12414558.558787346 7325064.4001235962 0 0 0 0 105147.83148714155 785811.04850134254 0 785811.04850134254 704671.13583444618 0 0 0 0 -6019481.8295288086 4848565.9913110733 0 4848565.9913110733 9021890.9966583252 0 0 0 0 -3909791.4903259277 7591883.3061141968 0 7591883.3061141968 9920472.1104183197 0 0 0 0 -2459019.2063293457 4973507.1392498016 0 4973507.1392498016 13619945.987297058 0 0 0 0 332684.63763427734 3900027.4395885468 0 3900027.4395885468 15658675.98525238 0 0 0 0 474072.73406982422 5311759.5894908905 0 5311759.5894908905 9620652.6074256897 0 0 0 0 6304506.3172302246 15020568.476779938 0 15020568.476779938 -2022943.2617721558 0 0 0 0 -2277942.9276351929 9523687.7217388153 0 9523687.7217388153 24238020.585655212 0 0 0 0 4192908.8168883771 5924371.6484001055 0 5924371.6484001055 4784872.2202993054 0 0 0 0 253654.77606201172 5736443.0358333588 0 5736443.0358333588 2085316.9551420212 0 0 0 0 -1636609.6233825684 9935297.9071416855 0 9935297.9071416855 10639007.597160339 0 0 0 0 -1159992.5577850342 8063336.7165718079 0 8063336.7165718079 7027568.6695613861 0 0 0 0 1547695.5391845703 5968022.1860771179 0 5968022.1860771179 7656409.7635707855 0 0 0 0 -1207092.9931030273 6574842.3798503876 0 6574842.3798503876 2509521.0655956268 0 0 0 0 7560197.0248413086 879626.38872718811 0 879626.38872718811 -2617029.3905754089 0 0 0 0 12059061.831145782 4744055.5113617256 0 4744055.5113617256 -250423.14429703541 0 0 0 0 89087.025696985424 45426.919114317745 0 45426.919114317745 -21027.752614796162 0 0 0 0 5180186.3961486816 7091563.5541849136 0 7091563.5541849136 1629401.2527370453 0 0 0 0 4364438.4035987854 12700132.199570656 0 12700132.199570656 4254909.8417167664 0 0 0 0 7077044.3548250198 -3858797.5504826903 0 -3858797.5504826903 -7449736.7373332977 0 0 0 0 4224253.44850564 6616674.8498307206 0 6616674.8498307206 4786432.1297110785 0 0 0 0 6331836.5329589844 7553113.6228027344 0 7553113.6228027344 3772169.1184022427 0 0 0 0 10208386.372497559 27724912.062484741 0 27724912.062484741 14215533.739494324 0 0 0 0 12987633.617614746 5074387.5902843475 0 5074387.5902843475 -6339018.3537902832 0 0 0 0 183996.98195847496 1919471.8661376163 0 1919471.8661376163 734147.98944869265 0 0 0 0 913874.97101593018 4296337.3824224472 0 4296337.3824224472 11408746.494457245 0 0 0 0 1309578.9139757156 4774427.0551451668 0 4774427.0551451668 6059337.7681904351 0 0 0 0 -15407639.452865601 -11540431.665525436 0 -11540431.665525436 -1728152.1986083984 0 0 0 0 -6030989.6156837568 2433947.0203246837 0 2433947.0203246837 4671272.0223476719 0 0 0 0 6858628.7834902555 10187746.824320368 0 10187746.824320368 1640395.6618737075 0 0 0 0 -82146116.605422974 -1662496.119430542 0 -1662496.119430542 38936329.141895294 0 0 0 0 -147279852.74224091 18622451.1622715 0 18622451.1622715 38276773.912879944 0 0 0 0 -26370800.346572876 52449028.835439682 0 52449028.835439682 -27761932.191452026 0 0 0 0 -38854775.266571045 -105494281.3432312 0 -105494281.3432312 -139589239.49869919 0 0 0 0 280997.84157288074 2841301.2220430616 0 2841301.2220430616 2433820.0216442742 0 0 0 0 -28009163.329879761 162318239.2172451 0 162318239.2172451 -192227465.86144638 0 0 0 0 34980982.523834229 33524326.828102112 0 33524326.828102112 -65956218.663982391 0 0 0 0 10681972.412919715 9881099.6707021408 0 9881099.6707021408 522082.95381980389 0 0 0 0 9626890.6798095703 6853902.3704123497 0 6853902.3704123497 1136013.9892416 0 0 0 0 6974147.8745727539 6762190.8600606918 0 6762190.8600606918 1133088.1000599265 0 0 0 0 -284274147.32920837 -29303472.653875291 0 -29303472.653875291 -4762426.1017782688 0 0 0 0 -355723333.4107399 -143356519.44233155 0 -143356519.44233155 107686563.84029388 0 0 0 0 1793383.2115439977 1267657.9628009051 0 1267657.9628009051 228351.89106185734 0 0 0 0 -727775547.49966431 -77193483.024492264 0 -77193483.024492264 56468936.706119537 0 0 0 0 -886646.6949015446 -176613.95895168185 0 -176613.95895168185 318581.69968055747 0 0 0 0 6469894.6293182373 6964037.3916273117 0 6964037.3916273117 1127723.4206323624 0 0 0 0 6290320.14793396 6784112.4024548531 0 6784112.4024548531 1359077.8214883804 0 0 0 0 4933886.819070816 6564717.529995203 0 6564717.529995203 1444862.4544029236 0 0 0 0 7044297.2325820923 5917078.8483626842 0 5917078.8483626842 -1190590.3258190155 0 0 0 0 8379652.5960693359 6919743.2079772949 0 6919743.2079772949 -3165860.0311260223 0 0 0 0 12793064.899523567 11567998.737484179 0 11567998.737484179 -702580.35386074428 0 0 0 0 10689373.505127177 6803530.9239741992 0 6803530.9239741992 1149153.01130705 0 0 0 0 8172167.70703125 7512647.7083983421 0 7512647.7083983421 -1224607.687874794 0 0 0 0 -334824028.87135315 103557378.91131878 0 103557378.91131878 127187598.56213379 0 0 0 0 -1277965488.2262115 -293965481.04776382 0 -293965481.04776382 545517713.13775635 0 0 0 0 -380304457.96577454 -97239707.428569794 0 -97239707.428569794 357645570.3555336 0 0 0 0 -868734115.54414368 -73949659.782447815 0 -73949659.782447815 427544365.21673584 0 0 0 0 -237323709.18228149 -244384061.5873394 0 -244384061.5873394 157205153.5891571 0 0 0 0 -1171639269.8215027 224217130.36432076 0 224217130.36432076 388828306.1925354 0 0 0 0 14516633.830123901 -759983.83213615417 0 -759983.83213615417 18626947.180229187 0 0 0 0 88669.251612724736 490201.05211507156 0 490201.05211507156 19830.931696847081 0 0 0 0 -586422618.84649658 123303377.95394897 0 123303377.95394897 687888161.04391479 0 0 0 0 13770797.172540188 85407171.32709071 0 85407171.32709071 29158525.574935913 0 0 0 0 -23059652.633651733 -32863365.566360474 0 -32863365.566360474 -202293998.93827915 0 0 0 0 -684795.91799452156 2528936.9708289541 0 2528936.9708289541 1258837.1489330232 0 0 0 0 3876670.6829528809 -63048178.091663361 0 -63048178.091663361 -183856109.98738861 0 0 0 0 -101621449.59621429 -34006668.748720169 0 -34006668.748720169 109123291.81647491 0 0 0 0 -1177593.6308372393 -897307.09471991286 0 -897307.09471991286 8637590.5611497872 0 0 0 0 -83384251.608001709 -97997609.358535767 0 -97997609.358535767 -74720700.226884842 0 0 0 0 -71404.132800459862 147932.66955786105 0 147932.66955786105 275688.45176065061 0 0 0 0 -534815648.39157104 -249876254.55354309 0 -249876254.55354309 -375701153.33237839 0 0 0 0 -999422255.8288269 -520416622.79832458 0 -520416622.79832458 125307296.80404663 0 0 0 0 -939118874.76298523 -291937541.56518459 0 -291937541.56518459 450578386.42573547 0 0 0 0 -375969906.62127686 59715452.270130157 0 59715452.270130157 76017793.415733337 0 0 0 0 -273812229.85688019 -126031736.57292747 0 -126031736.57292747 350251850.14570618 0 0 0 0 -495904957.7616272 341612081.26881027 0 341612081.26881027 -43173226.627691269 0 0 0 0 -181075087.41564178 457851320.53651619 0 457851320.53651619 297886180.0475235 0 0 0 0 -390754856.36296082 188429518.81142616 0 188429518.81142616 84873559.409118652 0 0 0 0 -158775010.91551971 266445278.94078064 0 266445278.94078064 -438685406.96855164 0 0 0 0 -136375032.36423492 433858187.67047119 0 433858187.67047119 -250544322.69107056 0 0 0 0 -379675731.04336548 354043577.34588623 0 354043577.34588623 122710635.72180939 0 0 0 0 -2117912.6538666785 3262097.0806185752 0 3262097.0806185752 8706581.2798633724 0 0 0 0 -1421966.3323364258 5231259.6794433594 0 5231259.6794433594 -394202.48901069164 0 0 0 0 422271.38658665121 6992359.907354936 0 6992359.907354936 3067385.0818163864 0 0 0 0 11239064.857147217 -8529768.0448493958 0 -8529768.0448493958 -92276883.988601685 0 0 0 0 -850971.85744380206 7282320.6873078309 0 7282320.6873078309 3003920.7771482486 0 0 0 0 -437787719.61405563 175084032.7682333 0 175084032.7682333 -145000814.29941559 0 0 0 0 -621891341.57421875 192634591.96247292 0 192634591.96247292 72571908.777877808 0 0 0 0 14923256.833972931 41274973.195206642 0 41274973.195206642 1169707.3260421753 0 0 0 0 -336210.23608651757 5362475.6371286139 0 5362475.6371286139 570264.65988965333 0 0 0 0 2939549.5782012939 1029430.1145248413 0 1029430.1145248413 5370543.1900119781 0 0 0 0 -281519.93027988449 -486198.61112875119 0 -486198.61112875119 554968.36262438819 0 0 0 0 -2415056.7389831543 4648982.7543325424 0 4648982.7543325424 5057781.890794754 0 0 0 0 1175160.7126252204 3652732.6862895861 0 3652732.6862895861 4300448.725705564 0 0 0 0 -3083256.7696533203 2979875.6134033203 0 2979875.6134033203 5944930.5577378273 0 0 0 0 1286154.1773910522 3907927.724899292 0 3907927.724899292 2788090.807964325 0 0 0 0 770959.31092834473 2528762.3059129715 0 2528762.3059129715 3800107.1534766853 0 0 0 0 1409978.5885314941 1177468.426399231 0 1177468.426399231 4026449.5484344363 0 0 0 0 2669949.1918487549 1196440.3219070435 0 1196440.3219070435 3431952.7116260529 0 0 0 0 549807.48443603516 662284.31695365906 0 662284.31695365906 4133360.1088829041 0 0 0 0 3257725.9561508931 1461215.1672481112 0 1461215.1672481112 3245725.8635903783 0 0 0 0 1584094.4865112305 -68475.232193946838 0 -68475.232193946838 2972341.7439651489 0 0 0 0 3103156.52047012 1102862.4331051968 0 1102862.4331051968 5478129.8461767901 0 0 0 0 -7875397.9442443848 -6956424.7623929977 0 -6956424.7623929977 15291380.573741913 0 0 0 0 -4525128.4102954865 5533219.8844814301 0 5533219.8844814301 9144686.1037864685 0 0 0 0 1544335.2635345459 3032176.7772607803 0 3032176.7772607803 3062144.8963094056 0 0 0 0 3279993.5502322502 950946.77167264745 0 950946.77167264745 3465121.893734822 0 0 0 0 -1334199.1401367188 1160472.1526794434 0 1160472.1526794434 4739672.3756380081 0 0 0 0 -2755590.0946502686 5085349.5019741058 0 5085349.5019741058 7453451.9731254578 0 0 0 0 4959854.0628051758 2907546.7664785385 0 2907546.7664785385 495746.77880477905 0 0 0 0 4402425.0032145679 897019.73152220994 0 897019.73152220994 3988722.356264459 0 0 0 0 -699057.02682495117 1548525.9267787933 0 1548525.9267787933 2057888.4422607422 0 0 0 0 711586.10829427093 2743692.7371001765 0 2743692.7371001765 4936024.267986156 0 0 0 0 -1097245.9700318277 1535151.2960401298 0 1535151.2960401298 8259843.7297554901 0 0 0 0 6464624.2736206055 136564.44606781006 0 136564.44606781006 1137927.4389038086 0 0 0 0 -2626006.9522705078 -4004579.670583725 0 -4004579.670583725 9542198.9012527466 0 0 0 0 -5844410.9414672852 -5738075.8997554779 0 -5738075.8997554779 8395267.5169525146 0 0 0 0 -4856402.0419311523 -3093450.2901153564 0 -3093450.2901153564 26091905.711380005 0 0 0 0 -2419036.3147900626 -450234.57548924536 0 -450234.57548924536 10852249.729015145 0 0 0 0 345245.46057128906 -7745332.3809547424 0 -7745332.3809547424 29907154.353097916 0 0 0 0 -3453986.2192687988 -10457379.258319855 0 -10457379.258319855 11298303.706588745 0 0 0 0 -7634309.1976318359 7748187.362528801 0 7748187.362528801 22176468.292236328 0 0 0 0 14293664.882171631 -6769088.6107349396 0 -6769088.6107349396 7810133.9318256378 0 0 0 0 -683274.07484912872 -5378371.3270427808 0 -5378371.3270427808 7186071.4291047426 0 0 0 0 1000730.4225015789 -6840605.5435017031 0 -6840605.5435017031 9226746.2214282565 0 0 0 0 -3309896.8137512207 -2200338.7326774597 0 -2200338.7326774597 2737657.9628295898 0 0 0 0 -6829493.3849105835 -2200754.8200283051 0 -2200754.8200283051 5215144.8467445374 0 0 0 0 311332.27017512172 -4839909.5196732599 0 -4839909.5196732599 10955043.080056243 0 0 0 0 -581800.02325439453 -400812.74866104126 0 -400812.74866104126 333375.71826934814 0 0 0 0 2254169.8964919178 126447.16690198332 0 126447.16690198332 1651809.3982542157 0 0 0 0 9706696.4058456421 -10327443.668587685 0 -10327443.668587685 7102802.1250705719 0 0 0 0 10530355.6477741 -5979257.4241293762 0 -5979257.4241293762 4718502.6214520019 0 0 0 0 10509095.484636821 -9086058.4112398941 0 -9086058.4112398941 3634915.6764743798 0 0 0 0 18872472.112037659 -10302986.983953476 0 -10302986.983953476 2197184.0472393036 0 0 0 0 17237765.630111694 -13343743.099694014 0 -13343743.099694014 16266516.611061096 0 0 0 0 2341220.4890289307 9763249.6662793159 0 9763249.6662793159 13172597.756034851 0 0 0 0 -1196663.6862565354 711686.55406137556 0 711686.55406137556 2209802.9628591873 0 0 0 0 23172039.492668152 1085582.5971212387 0 1085582.5971212387 2064349.5054247379 0 0 0 0 -2799875.9481048584 4007956.3203877211 0 4007956.3203877211 21979459.787879944 0 0 0 0 -6866550.1311721802 -3528970.2187726498 0 -3528970.2187726498 23044524.661848068 0 0 0 0 34913995.935455322 -1872993.3224201202 0 -1872993.3224201202 3656478.5604467392 0 0 0 0 5329698.4703767598 -199973.29589040205 0 -199973.29589040205 4716399.6429873109 0 0 0 0 3888544.8028106689 -5002348.0384869576 0 -5002348.0384869576 3401788.617108345 0 0 0 0 18032859.944259644 -7640407.6885519028 0 -7640407.6885519028 2756212.0981369019 0 0 0 0 20918591.054962158 -2110522.0225114822 0 -2110522.0225114822 -2725071.28922382 0 0 0 0 10711397.756187439 -1239305.9153318405 0 -1239305.9153318405 1669805.8785762787 0 0 0 0 25847070.193603516 6818165.7780513763 0 6818165.7780513763 6943295.2000951767 0 0 0 0 22512182.419464111 -352690.65158081055 0 -352690.65158081055 1244619.7208395004 0 0 0 0 18748422.151489258 6315128.9119811058 0 6315128.9119811058 19137945.718911171 0 0 0 0 21451390.153015137 3272307.6478719711 0 3272307.6478719711 11567222.036149979 0 0 0 0 19622009.914463043 -3975602.374638319 0 -3975602.374638319 4765782.5616035461 0 0 0 0 12720106.921401978 -3342437.6730942726 0 -3342437.6730942726 8225031.0946960449 0 0 0 0 18587899.003875732 -2346644.430223465 0 -2346644.430223465 3389286.5002784729 0 0 0 0 2175937.5272194333 460157.09200055152 0 460157.09200055152 -365937.66853880044 0 0 0 0 15995763.630004883 -2317581.1791524887 0 -2317581.1791524887 5828648.5783276558 0 0 0 0 7518778.0501708984 -4542385.6838932037 0 -4542385.6838932037 -5261014.2409826219 0 0 0 0 15921584.731567383 -1240467.511259079 0 -1240467.511259079 5491721.2445268631 0 0 0 0 15513116.126224518 14088743.844733477 0 14088743.844733477 1452344.8477725983 0 0 0 0 7569099.9645050168 1168410.7972397842 0 1168410.7972397842 4074883.9353682706 0 0 0 0 -46995.451049804688 2194903.8875732422 0 2194903.8875732422 -1375417.6691513062 0 0 0 0 5687423.7805175781 -765707.99055480957 0 -765707.99055480957 1791332.7440643311 0 0 0 0 24554558.654312134 13813959.504542589 0 13813959.504542589 89168.45513343811 0 0 0 0 9339053.6501777284 1596888.5196832307 0 1596888.5196832307 2373328.479198169 0 0 0 0 18069267.815307617 210424.5463104248 0 210424.5463104248 -2010772.3679962158 0 0 0 0 8691089.7693508305 -1739089.8444352448 0 -1739089.8444352448 188700.03435294423 0 0 0 0 18257350.994825955 660158.05188318342 0 660158.05188318342 -1281126.6774979839 0 0 0 0 466057.94357727468 221875.54128912836 0 221875.54128912836 -129193.27410770487 0 0 0 0 7841787.4252166748 -6524945.6912336349 0 -6524945.6912336349 -4518611.6978638172 0 0 0 0 14911948.870975494 -3389862.0327920914 0 -3389862.0327920914 930844.28629970551 0 0 0 0 15393390.555328369 -4217118.1668509245 0 -4217118.1668509245 324121.32362747192 0 0 0 0 11056151.930544622 -6912749.7172446214 0 -6912749.7172446214 1654455.3812565249 0 0 0 0 21545029.609459173 -5275623.8141203113 0 -5275623.8141203113 1376867.4159647664 0 0 0 0 9978549.8445854187 -7411301.1394541264 0 -7411301.1394541264 4080104.4364461899 0 0 0 0 18069939.663953342 -7982648.1288647391 0 -7982648.1288647391 3375694.7428488694 0 0 0 0 738109.35448455811 -32184451.906174183 0 -32184451.906174183 10649976.918140411 0 0 0 0 18993435.961006165 -9790445.4069824219 0 -9790445.4069824219 4305864.6843161583 0 0 0 0 4068995.7273644656 -9993736.1569390912 0 -9993736.1569390912 572819.07963208633 0 0 0 0 9839021.1108627319 -32648446.106228828 0 -32648446.106228828 8901970.5493843555 0 0 0 0 16290030.785934448 -59352550.773946047 0 -59352550.773946047 -23696207.186314106 0 0 0 0 17875565.926467896 -38284741.521468639 0 -38284741.521468639 -74742205.590360999 0 0 0 0 -4804341.9523429871 -53366832.990874171 0 -53366832.990874171 -16660234.740904808 0 0 0 0 12771244.13094997 -10197548.394277425 0 -10197548.394277425 2877389.8385030264 0 0 0 0 14576365.137280464 -67904953.707996368 0 -67904953.707996368 -10296313.943784237 0 0 0 0 30584207.465988159 -34826033.255312264 0 -34826033.255312264 -9464294.1555051804 0 0 0 0 -21496305.383054733 -38703289.500902832 0 -38703289.500902832 42252114.30873394 0 0 0 0 3737942.6854534149 -135940443.89903563 0 -135940443.89903563 86799598.871041775 0 0 0 0 -124531071.70448303 -138718497.82723022 0 -138718497.82723022 103723593.73200893 0 0 0 0 82484380.962112427 -41420666.370102406 0 -41420666.370102406 77847903.635376811 0 0 0 0 -152542962.27161407 -20710363.740721226 0 -20710363.740721226 93078798.994070649 0 0 0 0 -71976889.868598938 46755173.418697 0 46755173.418697 -7245134.7024374008 0 0 0 0 -47837564.059539795 -35810330.674255371 0 -35810330.674255371 48668254.081054688 0 0 0 0 5896642.4252128601 -15930589.620456696 0 -15930589.620456696 489062.31758403778 0 0 0 0 -38646298.561721802 -28455173.84424758 0 -28455173.84424758 10031477.883418739 0 0 0 0 9237804.4096982442 -11183046.487504289 0 -11183046.487504289 5132725.1816953449 0 0 0 0 5756257.6225620657 -7392971.1746266661 0 -7392971.1746266661 2774277.2239554878 0 0 0 0 -29859992.3748703 4663472.4317572117 0 4663472.4317572117 16894820.766190797 0 0 0 0 3267904.2883605957 -9814531.8540201187 0 -9814531.8540201187 3865568.732047081 0 0 0 0 -7202213.0751234815 -5328677.6957512312 0 -5328677.6957512312 7506242.6099294052 0 0 0 0 -7659183.2016296387 -9722061.2608451843 0 -9722061.2608451843 7566781.0066332817 0 0 0 0 3353725.8608798981 -10549635.987532914 0 -10549635.987532914 3243917.071598053 0 0 0 0 -19608814.921035767 -8214889.8065958023 0 -8214889.8065958023 8039293.990020752 0 0 0 0 1322622.7279108465 -587490.47577306628 0 -587490.47577306628 167370.02974802349 0 0 0 0 4014316.9192094803 -12718246.317698359 0 -12718246.317698359 7498773.6009864807 0 0 0 0 4513261.137049675 -16078726.394717753 0 -16078726.394717753 1865124.6152496338 0 0 0 0 4266112.6283111572 -8917159.3493509293 0 -8917159.3493509293 7682522.7560358047 0 0 0 0 1581123.0804748535 -14554594.261324883 0 -14554594.261324883 3377173.4491186142 0 0 0 0 7823516.3962345123 -9717390.1925791502 0 -9717390.1925791502 2696741.6339645386 0 0 0 0 8783749.8127555847 -5773035.2473207712 0 -5773035.2473207712 8217206.6568832397 0 0 0 0 2609640.9746240117 -8055275.5407212675 0 -8055275.5407212675 10519660.942035057 0 0 0 0 13833050.519584656 -8953627.116150856 0 -8953627.116150856 5793407.1702136993 0 0 0 0 -38074061.863830566 32503406.366200447 0 32503406.366200447 16807891.488704681 0 0 0 0 -34146162.369232178 31106629.311226845 0 31106629.311226845 6563624.4876327515 0 0 0 0 -7154189.6898345575 4235570.1435227022 0 4235570.1435227022 827252.21302147768 0 0 0 0 -34391523.649230957 27899975.752439499 0 27899975.752439499 21076336.160263062 0 0 0 0 -7062366.0328674316 -523997.70041465759 0 -523997.70041465759 3590720.3916606903 0 0 0 0 2236635.4170532227 -1762527.0839271545 0 -1762527.0839271545 1436377.7583808899 0 0 0 0 -444067.91561445594 -1424488.7978716493 0 -1424488.7978716493 5803851.348917421 0 0 0 0 -2068656.6209564209 -17492858.438269615 0 -17492858.438269615 -25210172.191177368 0 0 0 0 -32187075.148498535 24699375.988426208 0 24699375.988426208 27236195.939193726 0 0 0 0 -23351242.345275879 17596844.574020386 0 17596844.574020386 29919316.803649902 0 0 0 0 -14646351.790466309 15776991.437530518 0 15776991.437530518 14798869.449127197 0 0 0 0 -6145526.3200073242 607887.8585357666 0 607887.8585357666 34474877.472240448 0 0 0 0 14782910.680007935 15450342.877859116 0 15450342.877859116 9831969.729598999 0 0 0 0 -24606727.047729492 8475951.1715774536 0 8475951.1715774536 29551202.944869995 0 0 0 0 36259007.715911865 -4783584.8518657684 0 -4783584.8518657684 11659884.794204712 0 0 0 0 -37940743.077972412 16899477.050001144 0 16899477.050001144 29284595.116909027 0 0 0 0 -40829504.860656738 -18498902.587472916 0 -18498902.587472916 7621519.5793972015 0 0 0 0 -104119264.10260963 9809997.3094749451 0 9809997.3094749451 36009217.177185059 0 0 0 0 3697039.4351597177 -10497740.499998879 0 -10497740.499998879 7255404.7449217755 0 0 0 0 -24066171.288282394 7851867.1145656109 0 7851867.1145656109 -7573531.7308273315 0 0 0 0 13157971.941596985 -8808810.8600330353 0 -8808810.8600330353 -1251563.0400981903 0 0 0 0 -39930604.011123657 -1094156.6386127472 0 -1094156.6386127472 -11998515.974874496 0 0 0 0 8321893.6082476377 -11515235.244163141 0 -11515235.244163141 3557787.2684715353 0 0 0 0 -93579453.325874329 -29455762.892415047 0 -29455762.892415047 37462131.633353233 0 0 0 0 -5403609.6351776123 13451091.598222733 0 13451091.598222733 42841341.910400391 0 0 0 0 -55461727.904037476 -32315877.576644897 0 -32315877.576644897 89540649.453219414 0 0 0 0 -40362969.863708496 -1222934.2590618134 0 -1222934.2590618134 50078936.503761292 0 0 0 0 3997236.9500465393 12203108.766403198 0 12203108.766403198 5640353.388381958 0 0 0 0 6389486.4382019043 -512590.47151947021 0 -512590.47151947021 46553197.82151413 0 0 0 0 -2673365.9434089661 27358972.036947012 0 27358972.036947012 64970121.110710144 0 0 0 0 1583112.7831405774 -311049.43413634226 0 -311049.43413634226 -1345359.6904111672 0 0 0 0 37482964.614215851 70447496.480466127 0 70447496.480466127 197806284.12299156 0 0 0 0 113196143.64619446 -334773018.68887997 0 -334773018.68887997 -7008629.0123353004 0 0 0 0 141625549.35652161 -27865058.651303291 0 -27865058.651303291 -82465080.153978348 0 0 0 0 -283491863.71096802 -156315475.1458168 0 -156315475.1458168 56273114.867874146 0 0 0 0 42347416.989414215 54045581.694124937 0 54045581.694124937 25212580.82862854 0 0 0 0 968399.50462436676 -150805.47424914315 0 -150805.47424914315 -506423.52783695981 0 0 0 0 -233703174.57627106 -45110368.554262161 0 -45110368.554262161 56596212.62563324 0 0 0 0 -217152376.89260864 -66422649.365552902 0 -66422649.365552902 -12693513.69909668 0 0 0 0 -344521587.47595215 17876806.170883179 0 17876806.170883179 22341436.576118469 0 0 0 0 -210898650.72045898 36092295.219512939 0 36092295.219512939 22014077.403793335 0 0 0 0 -176496658.1762085 38987204.400558472 0 38987204.400558472 15576037.914710999 0 0 0 0 -332942764.18560791 111407227.18399048 0 111407227.18399048 60520658.079269409 0 0 0 0 -47448599.812805176 -28580269.841117859 0 -28580269.841117859 -7379921.6657161713 0 0 0 0 -152498584.90409851 -4730510.3307571411 0 -4730510.3307571411 4964276.5916137695 0 0 0 0 -38308108.47984314 -2883482.997844696 0 -2883482.997844696 18491497.435325623 0 0 0 0 -46516192.524108887 -16422375.611854553 0 -16422375.611854553 1105785.8564252853 0 0 0 0 -77502387.558105469 58840250.323991776 0 58840250.323991776 14160211.424591064 0 0 0 0 -190088461.66619873 98911153.588809967 0 98911153.588809967 59007138.751358032 0 0 0 0 -513818949.11102295 184028722.75342178 0 184028722.75342178 -35673105.155227661 0 0 0 0 -70351646.969802856 -51171567.600223541 0 -51171567.600223541 -48537650.829504013 0 0 0 0 -568098217.92543793 242853871.98261142 0 242853871.98261142 -73005334.096549988 0 0 0 0 -434880675.22589111 61187018.088886261 0 61187018.088886261 84300374.266143799 0 0 0 0 -369051396.62686157 -399734827.50943375 0 -399734827.50943375 -401175324.82019043 0 0 0 0 -38797971.627944946 -26776369.948334455 0 -26776369.948334455 38602008.194035828 0 0 0 0 15176732.158287048 159906425.16456094 0 159906425.16456094 -144401512.71439713 0 0 0 0 18681223.819675855 6587185.065314264 0 6587185.065314264 3580257.5925566168 0 0 0 0 -21055455.572431564 33901149.571700752 0 33901149.571700752 -11372373.220726252 0 0 0 0 2840842.315322876 -345735078.28156197 0 -345735078.28156197 272637920.41288662 0 0 0 0 -285773829.38049698 260444208.26141667 0 260444208.26141667 458623447.22331619 0 0 0 0 -321342809.15457153 156539133.31255531 0 156539133.31255531 356613899.45358658 0 0 0 0 13652307.256556831 5870221.6162084425 0 5870221.6162084425 4050403.1761970422 0 0 0 0 -36584857.983276367 465068637.66497064 0 465068637.66497064 93302022.41462326 0 0 0 0 239513455.39901733 -594007766.06815219 0 -594007766.06815219 420844929.48623276 0 0 0 0 5092829.8533581123 2577045.0596550899 0 2577045.0596550899 3731337.6651971736 0 0 0 0 4087138463.8775406 -1174643395.3033686 0 -1174643395.3033686 -204203928.5390566 0 0 0 0 2627011057.8597183 -1791243804.1242843 0 -1791243804.1242843 1014129316.0148977 0 0 0 0 2653833658.2323971 -543042103.41124523 0 -543042103.41124523 -470974877.22828138 0 0 0 0 125188728.16217041 -104929161.34730268 0 -104929161.34730268 4731427.9949713945 0 0 0 0 1354337372.0323715 -77191212.986703366 0 -77191212.986703366 64991312.340910077 0 0 0 0 2564134575.4961643 -1067500670.5960966 0 -1067500670.5960966 175854680.73392865 0 0 0 0 -186564139.61524963 209873303.3337723 0 209873303.3337723 489856289.39164436 0 0 0 0 1672595.7053976245 -150231.58293152601 0 -150231.58293152601 -126328.20777690376 0 0 0 0 2431817830.5237579 -111988362.17810458 0 -111988362.17810458 -310355750.94560629 0 0 0 0 2546540312.5844116 494993020.73143077 0 494993020.73143077 -747056095.76125491 0 0 0 0 4097043979.8622055 -278714178.36854637 0 -278714178.36854637 -833905825.44979358 0 0 0 0 4086535260.1534777 1523249701.9890592 0 1523249701.9890592 -727471727.94453526 0 0 0 0 2753026253.0286255 545760033.05462909 0 545760033.05462909 -736065977.44006407 0 0 0 0 482602063.63467407 114590394.52345172 0 114590394.52345172 101358104.17396738 0 0 0 0 487325368.04048157 113986322.38564229 0 113986322.38564229 32758416.104129285 0 0 0 0 1881750012.1707382 1516806961.6922793 0 1516806961.6922793 566613534.10745776 0 0 0 0 -479352.74074786901 -1930161.4445175803 0 -1930161.4445175803 337879.28919650044 0 0 0 0 27449069.66189003 -25134493.336187184 0 -25134493.336187184 22217537.534574986 0 0 0 0 4744559.1143023595 -1713036.9206080362 0 -1713036.9206080362 -422101.83409478597 0 0 0 0 25691716.617744446 -3891931.2878470719 0 -3891931.2878470719 24382302.303164959 0 0 0 0 1084225.0668411255 -7704108.4538365602 0 -7704108.4538365602 18362381.236287117 0 0 0 0 17836285.963465691 -3529094.2538881591 0 -3529094.2538881591 -1688597.8596013708 0 0 0 0 14497646.441711426 1788227.3471962214 0 1788227.3471962214 10519765.514164925 0 0 0 0 7068181.8420257568 3719825.7677507401 0 3719825.7677507401 13199283.321874902 0 0 0 0 11750069.545372009 2968779.2935428619 0 2968779.2935428619 7347249.5385304689 0 0 0 0 16489838.652835339 1980663.757640871 0 1980663.757640871 463915.98129022785 0 0 0 0 9924358.7541122437 10297449.807801902 0 10297449.807801902 160021.43203479052 0 0 0 0 17534254.075131416 72334765.799957454 0 72334765.799957454 -222443499.93346596 0 0 0 0 24596422.070768468 4290306.9621409606 0 4290306.9621409606 1600767.5374032571 0 0 0 0 5257587.1678161621 4869613.2168883085 0 4869613.2168883085 12968181.996188641 0 0 0 0 9020611.1454734802 667924.07667148113 0 667924.07667148113 23311.05779838562 0 0 0 0 12060503.141342163 -4310557.5984239578 0 -4310557.5984239578 -8447354.2128329426 0 0 0 0 19110256.079576969 5000592.532586012 0 5000592.532586012 774903.6973806005 0 0 0 0 9265809.1045684814 1002451.6675362587 0 1002451.6675362587 469260.96306543052 0 0 0 0 16014929.889073297 3055765.6955451928 0 3055765.6955451928 3909048.2028095042 0 0 0 0 49560113.327056885 -19253109.545969009 0 -19253109.545969009 -55545565.006649971 0 0 0 0 89170591.543132782 55275739.447116852 0 55275739.447116852 -242623899.68547821 0 0 0 0 1071899.5093738567 397912.32254985347 0 397912.32254985347 77636.167649765499 0 0 0 0 36369489.477706909 -9027354.7130494118 0 -9027354.7130494118 -34537085.824724197 0 0 0 0 22639930.807329863 6217769.0004050452 0 6217769.0004050452 2701176.3091196399 0 0 0 0 47458056.754302979 -4850131.0358695984 0 -4850131.0358695984 -63542740.539488792 0 0 0 0 22124250.690486908 -28985689.274248123 0 -28985689.274248123 -18084675.073485374 0 0 0 0 35916312.171615601 -48284474.065654278 0 -48284474.065654278 7698959.1905593872 0 0 0 0 43302510.260822296 -36836904.057296753 0 -36836904.057296753 -68306907.569862366 0 0 0 0 19138913.595874786 -21359889.000115275 0 -21359889.000115275 -32190806.889383316 0 0 0 0 40710112.734519958 -41442156.072620392 0 -41442156.072620392 -24568739.49678421 0 0 0 0 59000427.930557251 -73282116.374035835 0 -73282116.374035835 4794146.8397111893 0 0 0 0 35437420.100799561 -59380219.844461441 0 -59380219.844461441 -69429483.244976044 0 0 0 0 64368808.109617233 -22715320.637002885 0 -22715320.637002885 -41216555.419734955 0 0 0 0 23604957.46938324 -56746468.685460567 0 -56746468.685460567 32084001.564470291 0 0 0 0 29998705.279464722 -96037057.486257076 0 -96037057.486257076 226799868.78152275 0 0 0 0 16376832.250461578 -60611616.876787186 0 -60611616.876787186 69994561.004453659 0 0 0 0 9849918.8968134373 -26843246.873804897 0 -26843246.873804897 4054583.087097168 0 0 0 0 -27800708.76940155 -85717655.467049599 0 -85717655.467049599 -10290657.002877235 0 0 0 0 159450321.03764343 210584995.67555857 0 210584995.67555857 -365551568.97770309 0 0 0 0 130016884.09618378 13718963.342560768 0 13718963.342560768 -265579728.68365479 0 0 0 0 222652004.73679352 101677543.76224995 0 101677543.76224995 106023828.91006041 0 0 0 0 135970074.46173859 -128903856.07616735 0 -128903856.07616735 42366903.202090502 0 0 0 0 246007002.28368759 76742715.012143612 0 76742715.012143612 132272906.1383667 0 0 0 0 269587544.00777721 82581378.529004335 0 82581378.529004335 -50251653.963386536 0 0 0 0 262352205.34288692 116710013.0803884 0 116710013.0803884 166252522.75247574 0 0 0 0 357895623.14969635 219676198.06219745 0 219676198.06219745 67011501.527250051 0 0 0 0 1241386.0343782566 -899056.46562654153 0 -899056.46562654153 283088.10928135063 0 0 0 0 76126373.726650238 342947986.39482951 0 342947986.39482951 537289792.23980212 0 0 0 0 1154899.0203066505 -2131328.6490899948 0 -2131328.6490899948 1290927.6380747836 0 0 0 0 71644813.989578247 -11008379.88932538 0 -11008379.88932538 -167158528.21327317 0 0 0 0 218739.89535207301 -95127.173994980054 0 -95127.173994980054 590378.34425678733 0 0 0 0 130722965.76634216 170338358.22993708 0 170338358.22993708 -104693896.29329538 0 0 0 0 -19137940.773084641 -5872250.9743527174 0 -5872250.9743527174 -5435876.1726436615 0 0 0 0 120273589.97852325 128941206.56609225 0 128941206.56609225 59879824.299631119 0 0 0 0 196655479.97247314 23840144.917510986 0 23840144.917510986 -21038249.542093515 0 0 0 0 115254570.28806305 -89179465.714525223 0 -89179465.714525223 16532726.009986877 0 0 0 0 124214422.07655239 41021946.916748345 0 41021946.916748345 54577778.43053627 0 0 0 0 115608121.97687531 -26469242.211962461 0 -26469242.211962461 73416700.525466204 0 0 0 0 349810348.15538788 148062759.36866581 0 148062759.36866581 21110152.682568312 0 0 0 0 235288457.11017609 -4111005.5439969301 0 -4111005.5439969301 49132583.420526981 0 0 0 0 604816020.44194794 -6767344.390417695 0 -6767344.390417695 84464247.715515137 0 0 0 0 416726842.90987778 401188914.88883543 0 401188914.88883543 466276511.5737958 0 0 0 0 328618518.13735199 85922234.803710699 0 85922234.803710699 95631186.65647316 0 0 0 0 283352947.80226517 -140703912.70242903 0 -140703912.70242903 31853414.623150826 0 0 0 0 131531054.86390686 -129976089.44338083 0 -129976089.44338083 154292509.48650742 0 0 0 0 287786578.5596962 187925577.79183483 0 187925577.79183483 105154498.96437025 0 0 0 0 669329.32865665108 -378201.78164355457 0 -378201.78164355457 118805.97091498971 0 0 0 0 216574399.0730896 146604853.36015695 0 146604853.36015695 142747677.85806262 0 0 0 0 840217335.54234695 833650195.57673764 0 833650195.57673764 693445787.93903887 0 0 0 0 1565904898.9866562 742864294.63780224 0 742864294.63780224 360096970.51316154 0 0 0 0 679480737.60457611 979705574.40445805 0 979705574.40445805 713751836.78430533 0 0 0 0 698370588.37909698 524728095.57109803 0 524728095.57109803 318259184.10762441 0 0 0 0 520158188.24520874 653723151.72272134 0 653723151.72272134 212479586.48413014 0 0 0 0 610959499.58158875 464558568.74358344 0 464558568.74358344 559100298.7013917 0 0 0 0 130501948.01914597 -138543222.66265869 0 -138543222.66265869 390652220.82677174 0 0 0 0 419762197.91555786 338785842.03788495 0 338785842.03788495 128221074.75535667 0 0 0 0 877655.2577773165 -726890.15321528912 0 -726890.15321528912 -85091.473969612271 0 0 0 0 400794461.02790833 436369604.49780893 0 436369604.49780893 278768804.24579984 0 0 0 0 -413735192.69866943 -144333522.37447262 0 -144333522.37447262 547404852.89799309 0 0 0 0 -223073831.37823486 -184021293.44925404 0 -184021293.44925404 478721773.13789701 0 0 0 0 964254933.1651001 2222314497.5158634 0 2222314497.5158634 3599544502.4788823 0 0 0 0 176174490.01375198 293518331.94626564 0 293518331.94626564 856109010.68894815 0 0 0 0 1015097539.7651253 1607102277.3497729 0 1607102277.3497729 1518142323.0593143 0 0 0 0 2535384644.1125565 1694947359.3877559 0 1694947359.3877559 137617509.57745716 0 0 0 0 4086093430.9162216 2513402604.8408036 0 2513402604.8408036 546754257.70720017 0 0 0 0 4096289656.6181717 1404083945.8166485 0 1404083945.8166485 -369797254.98532581 0 0 0 0 2446968129.4998245 1300034033.6678033 0 1300034033.6678033 275060726.99259102 0 0 0 0 1866850373.5530319 1274919713.227355 0 1274919713.227355 316744190.26460266 0 0 0 0 2921873461.4667168 802606280.41781819 0 802606280.41781819 -367746619.97073686 0 0 0 0 4093290059.7726135 -26624962.354935132 0 -26624962.354935132 -716210409.25200522 0 0 0 0 2605754172.6126785 644259494.42027712 0 644259494.42027712 -361501494.47703063 0 0 0 0 2283280532.170332 120396003.68516514 0 120396003.68516514 -180556110.10538352 0 0 0 0 2072396488.8896408 105433498.472368 0 105433498.472368 -179341234.05695993 0 0 0 0 2283802231.0221863 -301592308.31367028 0 -301592308.31367028 -746476137.80012834 0 0 0 0 814668615.50942612 306891825.59133363 0 306891825.59133363 499286323.65139055 0 0 0 0 1280018991.3660507 652987671.65398526 0 652987671.65398526 344288714.19888252 0 0 0 0 1497498763.8523464 -408360025.64555717 0 -408360025.64555717 -120861042.71804571 0 0 0 0 514963666.89476395 311507117.96302104 0 311507117.96302104 503102259.474563 0 0 0 0 176162646.78899431 711121470.42151165 0 711121470.42151165 -525028183.69689357 0 0 0 0 315010006.17138147 -320150493.4032622 0 -320150493.4032622 50043282.505636454 0 0 0 0 928484658.57979202 789887.2601364255 0 789887.2601364255 -438111134.30146372 0 0 0 0 4094653257.0417824 -890365704.71633434 0 -890365704.71633434 -839971172.58365738 0 0 0 0 1405437189.2138367 -1496925210.8956227 0 -1496925210.8956227 462020311.78163522 0 0 0 0 2213866728.3060303 -920922219.26845396 0 -920922219.26845396 -629196360.68461728 0 0 0 0 4089029694.9067421 -2374735279.985281 0 -2374735279.985281 99995538.473856717 0 0 0 0 106494248.35874176 -2064051327.1660364 0 -2064051327.1660364 3326179905.575284 0 0 0 0 2151528.420481991 -417953.39634339418 0 -417953.39634339418 1025491.108293173 0 0 0 0 4077071356.9636993 -81982.703198065428 0 -81982.703198065428 -2421171.7012879467 0 0 0 0 94863354.1485672 2054318093.0653579 0 2054318093.0653579 2571345520.7808247 0 0 0 0 6110293.0906889327 -2668447.2475844473 0 -2668447.2475844473 913187.76727645413 0 0 0 0 -65156634.783782959 4628629.1325998306 0 4628629.1325998306 906297.25297708809 0 0 0 0 -66906018.20993042 -26483771.290220261 0 -26483771.290220261 -202323.49274053425 0 0 0 0 372903092.36653614 -322669396.35113746 0 -322669396.35113746 372350484.77933699 0 0 0 0 10366825.339688309 -2781649.3871958638 0 -2781649.3871958638 1042085.9584339235 0 0 0 0 3949209.1518657282 -3268282.1470462307 0 -3268282.1470462307 105362.27099058707 0 0 0 0 1191695633.2078533 -516258767.53503579 0 -516258767.53503579 178747532.4461993 0 0 0 0 3993317.0788925588 906419.70147489663 0 906419.70147489663 1889146.4024193883 0 0 0 0 -249619884.65586853 146757277.25786901 0 146757277.25786901 -47704582.064151525 0 0 0 0 -313462505.21765709 58793850.427796543 0 58793850.427796543 206996551.27632761 0 0 0 0 -242375565.9914856 -48602960.292783976 0 -48602960.292783976 86579619.426395893 0 0 0 0 -67161282.812797546 -24962872.227086186 0 -24962872.227086186 40709214.817629412 0 0 0 0 -64345943.53841877 10489393.533440381 0 10489393.533440381 42630877.551348209 0 0 0 0 11253128.270846218 -2791676.8093515951 0 -2791676.8093515951 601221.57002528757 0 0 0 0 163089972.71152115 -410793187.74432844 0 -410793187.74432844 90025770.963744193 0 0 0 0 -201510964.88697433 -134481725.51313138 0 -134481725.51313138 -46602169.950682878 0 0 0 0 -176499267.74350739 -193192544.17813373 0 -193192544.17813373 -198278972.13852945 0 0 0 0 -214430703.08442688 -105797044.49531427 0 -105797044.49531427 130387121.40740633 0 0 0 0 -214222620.74510956 -410528010.94240791 0 -410528010.94240791 -233408648.49148941 0 0 0 0 11590760.69912279 -1263276.3283635257 0 -1263276.3283635257 -226712.55799538578 0 0 0 0 -178981774.67720413 106257297.06065342 0 106257297.06065342 205223885.72126132 0 0 0 0 3479876966.5147934 298536137.27430308 0 298536137.27430308 -356938826.62523323 0 0 0 0 620760558.22705078 -301764891.80476367 0 -301764891.80476367 -160221331.74808404 0 0 0 0 3190504293.4339066 1567000566.969857 0 1567000566.969857 446796228.22063184 0 0 0 0 4089567254.5993319 1886014110.6949306 0 1886014110.6949306 -334880633.45492297 0 0 0 0 1715512097.7799454 2825753466.6684771 0 2825753466.6684771 1465859275.799515 0 0 0 0 2383540347.519434 698208216.85269451 0 698208216.85269451 -85810492.758073837 0 0 0 0 291228481.86988068 720391962.26082647 0 720391962.26082647 198054833.29014143 0 0 0 0 256248413.01939392 -245269797.31480861 0 -245269797.31480861 545951277.31967235 0 0 0 0 716021893.00801086 -206471047.88420159 0 -206471047.88420159 -65020051.364778399 0 0 0 0 271989187.46586227 -148153816.31459817 0 -148153816.31459817 22735663.711362123 0 0 0 0 560957481.4827776 345624516.05722892 0 345624516.05722892 133612373.82612431 0 0 0 0 1266759393.3684807 -48818455.748256207 0 -48818455.748256207 342273915.92934793 0 0 0 0 77706989.043174744 82318543.69200626 0 82318543.69200626 54477508.276986718 0 0 0 0 444296042.298172 -91510173.599223614 0 -91510173.599223614 -462543972.60462999 0 0 0 0 219141567.00634766 -76840569.643731475 0 -76840569.643731475 -98838974.644060135 0 0 0 0 130093290.23258209 -313173684.36947978 0 -313173684.36947978 22045885.54887259 0 0 0 0 319514406.68992233 -227544489.30710074 0 -227544489.30710074 -353693877.01622558 0 0 0 0 133772306.088974 -146607839.69143724 0 -146607839.69143724 -383126719.72623992 0 0 0 0 34043842.25819397 -291298436.32693195 0 -291298436.32693195 -297682549.9226107 0 0 0 0 75636073.426177979 -279430280.92695391 0 -279430280.92695391 -452520231.14717579 0 0 0 0 -49363485.076293945 -201568284.55843097 0 -201568284.55843097 -330511206.44907904 0 0 0 0 3112885.1003723145 -323286941.21015882 0 -323286941.21015882 -346291237.64386451 0 0 0 0 31057408.210121155 -347499293.16375357 0 -347499293.16375357 -94642712.913426876 0 0 0 0 139129631.31541443 -226814159.33026427 0 -226814159.33026427 -298159008.89265108 0 0 0 0 -283640564.74019623 -190108174.34549582 0 -190108174.34549582 -268351335.49279213 0 0 0 0 -137079674.38072777 -344075147.56883037 0 -344075147.56883037 -109996202.89732933 0 0 0 0 -200619344.81776428 -159127419.57743597 0 -159127419.57743597 230398206.57294583 0 0 0 0 -30526022.795478821 -283148946.45038843 0 -283148946.45038843 -121133244.60028517 0 0 0 0 92854603.488731384 -335534571.76775634 0 -335534571.76775634 240901759.64274645 0 0 0 0 -23987692.318336487 -162388943.09483826 0 -162388943.09483826 11233330.648381352 0 0 0 0 47149063.708518982 11144210.282807827 0 11144210.282807827 444954277.05648828 0 0 0 0 -19346738.903491974 -187955285.31135139 0 -187955285.31135139 209883982.7575655 0 0 0 0 -245951509.51353455 -64583497.644123077 0 -64583497.644123077 456218984.66695642 0 0 0 0 -181085176.45488358 26089941.034335136 0 26089941.034335136 9321210.9323368073 0 0 0 0 -68783631.523124695 210782052.27271271 0 210782052.27271271 281267983.57769537 0 0 0 0 71882667.866260529 -42329339.916337967 0 -42329339.916337967 448431405.75992489 0 0 0 0 874017822.61662674 174172833.02382135 0 174172833.02382135 846383477.8828907 0 0 0 0 742640063.57324982 378313101.01569033 0 378313101.01569033 579941254.05880547 0 0 0 0 1471706092.088974 803215993.85477209 0 803215993.85477209 480984427.5133369 0 0 0 0 208972507.02641678 -182028713.32972014 0 -182028713.32972014 655884379.71357679 0 0 0 0 735017703.28718567 84933963.770867586 0 84933963.770867586 446601700.88207006 0 0 0 0 1168977331.822855 1053559915.4032061 0 1053559915.4032061 2653135917.40061 0 0 0 0 1421024245.2148743 587330702.5411253 0 587330702.5411253 756608164.64193058 0 0 0 0 563956089.68276978 381454720.14431918 0 381454720.14431918 1309471657.0048466 0 0 0 0 2401712491.8682251 1646216329.7435865 0 1646216329.7435865 735211198.98510456 0 0 0 0 1211414207.3490372 785173290.93154621 0 785173290.93154621 1092523093.5283508 0 0 0 0 2496890868.7509766 563045636.96326065 0 563045636.96326065 631916927.70149803 0 0 0 0 2752216222.5519848 1404258375.6289399 0 1404258375.6289399 -339232826.1251564 0 0 0 0 246180.2974017486 783001.38103824481 0 783001.38103824481 2177213.7657028744 0 0 0 0 156132097.81259155 466771628.28137779 0 466771628.28137779 1009852579.0426464 0 0 0 0 2595086759.5909214 198974798.40943038 0 198974798.40943038 -173466757.99290276 0 0 0 0 1536320743.3060846 -53354257.759599805 0 -53354257.759599805 -233362454.8604641 0 0 0 0 1617645643.2099228 786427719.4077518 0 786427719.4077518 95467262.199431419 0 0 0 0 2171740693.9510117 1196476251.4446783 0 1196476251.4446783 385281143.61959934 0 0 0 0 1518833157.0749283 596489386.24099636 0 596489386.24099636 1057754270.1994863 0 0 0 0 893830631.75543976 485943434.40922594 0 485943434.40922594 336829255.50753117 0 0 0 0 1612983474.9579811 851099143.68377304 0 851099143.68377304 -259204754.22548342 0 0 0 0 1503266196.8091736 1102112981.1106038 0 1102112981.1106038 240748136.70948654 0 0 0 0 1678065429.3938522 1094483089.7410271 0 1094483089.7410271 -132990705.15343294 0 0 0 0 1314391237.1435547 541474733.56963921 0 541474733.56963921 -63293024.815757751 0 0 0 0 566567822.93476105 211665544.90622067 0 211665544.90622067 30884770.844314098 0 0 0 0 324002682.24243164 74428534.594850302 0 74428534.594850302 -9112554.8462572098 0 0 0 0 1165945904.854599 697830481.72040915 0 697830481.72040915 -193120232.78996372 0 0 0 0 1748106824.3184662 911750820.99959707 0 911750820.99959707 -165606117.21122646 0 0 0 0 4021779.0653653517 2668560.8570462158 0 2668560.8570462158 2244193.6706666998 0 0 0 0 -378693384.09535217 623359617.68744922 0 623359617.68744922 -214069499.34904182 0 0 0 0 -144264855.85028839 -82194384.623660803 0 -82194384.623660803 -69612615.78324604 0 0 0 0 888484328.923172 515485725.28684568 0 515485725.28684568 207539332.79960036 0 0 0 0 1495249085.223526 489505662.63480878 0 489505662.63480878 -747483758.21512473 0 0 0 0 1901706.0482121855 1479864.8776512258 0 1479864.8776512258 1106984.5878754612 0 0 0 0 350407794.65019989 -51679814.964397222 0 -51679814.964397222 -96606798.569736004 0 0 0 0 -429279936.91909218 728590165.87409806 0 728590165.87409806 967020359.84322608 0 0 0 0 934102392.13790131 947595759.11680472 0 947595759.11680472 762687068.03606176 0 0 0 0 331052215.5805397 736182837.17036045 0 736182837.17036045 806850720.74769533 0 0 0 0 684711104.40103149 224211678.82239091 0 224211678.82239091 115652232.32899237 0 0 0 0 390991376.86778259 313880452.63741636 0 313880452.63741636 99932734.066473961 0 0 0 0 38486327.182357788 103677435.83342218 0 103677435.83342218 195106845.87662435 0 0 0 0 1034312535.9418354 110490370.023406 0 110490370.023406 282072741.93155861 0 0 0 0 976236746.73908043 825605056.90292668 0 825605056.90292668 678971482.28957653 0 0 0 0 581989981.93884277 231063772.67807126 0 231063772.67807126 662164373.82323527 0 0 0 0 1305497284.4434891 691984727.24095321 0 691984727.24095321 329772336.11718583 0 0 0 0 524573484.76773834 252215072.19622773 0 252215072.19622773 353881291.94260573 0 0 0 0 456537588.8289814 -60284001.119647205 0 -60284001.119647205 69520710.560313225 0 0 0 0 198023588.8677063 83843347.310040116 0 83843347.310040116 310894252.9645052 0 0 0 0 283189107.77272797 49136483.019237518 0 49136483.019237518 88944403.092864037 0 0 0 0 32852632.537872314 33650221.491833925 0 33650221.491833925 -53561359.051183701 0 0 0 0 102116835.09545135 -95447961.534509659 0 -95447961.534509659 111975650.24011087 0 0 0 0 -107111949.3615551 -5565912.0309867263 0 -5565912.0309867263 -58211324.292324066 0 0 0 0 -491004699.88554382 115171021.32935309 0 115171021.32935309 -14815114.663807869 0 0 0 0 -153092749.38806152 35222760.97949791 0 35222760.97949791 -126301038.39619923 0 0 0 0 -510347036.78416443 -126082601.78965306 0 -126082601.78965306 -83895059.169980049 0 0 0 0 -134627444.28513718 -87462625.542778522 0 -87462625.542778522 -45763257.554037094 0 0 0 0 -198456982.2326355 128264301.4167459 0 128264301.4167459 13042712.905179858 0 0 0 0 -179519893.0049305 16089401.845878065 0 16089401.845878065 -242902815.5557766 0 0 0 0 172731348.04212952 181762843.56177938 0 181762843.56177938 -9848146.1584957838 0 0 0 0 -364456127.33673859 -1428532.5306105614 0 -1428532.5306105614 221045900.87996435 0 0 0 0 -54397259.36265564 256189902.66998982 0 256189902.66998982 176707702.99368739 0 0 0 0 1592207.9247109732 2269235.3623553738 0 2269235.3623553738 4297418.5290045887 0 0 0 0 61180958.727485657 33277231.484018207 0 33277231.484018207 -39602502.740318775 0 0 0 0 -406141913.05877686 227814660.9217149 0 227814660.9217149 116666717.77579999 0 0 0 0 5810261.7546025664 2522992.233892912 0 2522992.233892912 1288648.4193753544 0 0 0 0 -1601969.5614624023 700179.47941732407 0 700179.47941732407 1356122.3317604065 0 0 0 0 5618685.0248208642 -3184074.015808614 0 -3184074.015808614 2210120.3045199709 0 0 0 0 3587804.8356945254 -1788401.4969752599 0 -1788401.4969752599 2151106.5248434059 0 0 0 0 -2331031.979106687 2978046.0727710631 0 2978046.0727710631 1165951.6004539484 0 0 0 0 5751649.6814303249 -4716585.1811503693 0 -4716585.1811503693 2851670.9650036357 0 0 0 0 3703333.0168151855 3109658.7929828167 0 3109658.7929828167 -5504197.0315546989 0 0 0 0 -1672839.5245342255 14085232.841445118 0 14085232.841445118 -16453682.870930195 0 0 0 0 599262.82099395059 1213375.343235828 0 1213375.343235828 -512589.72216148674 0 0 0 0 -745877472.69695282 43759465.55889082 0 43759465.55889082 65391297.006905556 0 0 0 0 13482982.925163269 -11445679.387145042 0 -11445679.387145042 -1414602.2732639313 0 0 0 0 11329105.976173401 -7236349.7808408737 0 -7236349.7808408737 1364231.6951432228 0 0 0 0 -2499885.5354614258 -12447049.020378113 0 -12447049.020378113 1920917.2650184631 0 0 0 0 6037174.6747322083 -11653256.433944702 0 -11653256.433944702 -1663435.3583374023 0 0 0 0 6172470.6565170288 -11222285.744093418 0 -11222285.744093418 -1239561.9815139771 0 0 0 0 1505463.1606750488 -9492887.7535848618 0 -9492887.7535848618 3314345.7003307343 0 0 0 0 2961591.5195541382 -13581672.764370918 0 -13581672.764370918 -1414237.3770065308 0 0 0 0 3345474.2051696777 -14975175.268179893 0 -14975175.268179893 -3939263.3400726318 0 0 0 0 6348148.964012146 -10885631.395403862 0 -10885631.395403862 -1073489.2517719269 0 0 0 0 6614921.9569091797 -11172647.500070572 0 -11172647.500070572 -1510893.9599080086 0 0 0 0 7078358.4694290161 -11739033.864709377 0 -11739033.864709377 -3556664.1956596375 0 0 0 0 7156357.3473205566 -11732380.147096634 0 -11732380.147096634 -4212559.0429824591 0 0 0 0 10667342.415237427 -9327797.1412582397 0 -9327797.1412582397 -478292.03009128571 0 0 0 0 -1955944.5952911377 -6333734.2743091583 0 -6333734.2743091583 -5507863.2023887634 0 0 0 0 11864496.3722229 -9052129.6775989532 0 -9052129.6775989532 -3165577.7255773544 0 0 0 0 11661277.490402222 -8732005.4057817459 0 -8732005.4057817459 -3654489.7146244049 0 0 0 0 10099492.058004659 -2811277.4196210876 0 -2811277.4196210876 986042.40851246985 0 0 0 0 14000109.645339966 -7376284.295879364 0 -7376284.295879364 -3212310.483645916 0 0 0 0 -1118298.198425293 -7120320.0365633965 0 -7120320.0365633965 -7419822.6514434814 0 0 0 0 11931273.438788284 -6176903.7213560054 0 -6176903.7213560054 -26496.389956917381 0 0 0 0 6912728.3890151978 -24849065.867450714 0 -24849065.867450714 -12779739.288796306 0 0 0 0 6016253.6287276968 -12311210.663369428 0 -12311210.663369428 -162146.4094303028 0 0 0 0 26496765.009487152 25998961.842503548 0 25998961.842503548 12345237.52175796 0 0 0 0 8025372.2789840698 -14814961.771751404 0 -14814961.771751404 -3095275.0948543549 0 0 0 0 14909401.741989136 -11402254.830833435 0 -11402254.830833435 -4468678.6667442322 0 0 0 0 57712113.045532227 18643765.032531738 0 18643765.032531738 21122157.459213257 0 0 0 0 21178521.376077589 -2421104.8575115725 0 -2421104.8575115725 -3712374.1312619047 0 0 0 0 56341680.597436905 -7266951.4362678528 0 -7266951.4362678528 5239030.3414459229 0 0 0 0 4850174.4257926717 4126189.0848155227 0 4126189.0848155227 2755504.6651622541 0 0 0 0 16993597.781738281 -2261010.4330024719 0 -2261010.4330024719 -3050740.4928035736 0 0 0 0 -9108586.1043701172 40529799.891433716 0 40529799.891433716 19012646.270145416 0 0 0 0 6886564.8826951981 1046374.8931255341 0 1046374.8931255341 1166915.5495567322 0 0 0 0 8682433.4337844849 7061033.0561847687 0 7061033.0561847687 6456573.495929718 0 0 0 0 3861831.3897532169 379558.77218371443 0 379558.77218371443 -1931668.686942637 0 0 0 0 3691531.6011047363 -2722127.1724452972 0 -2722127.1724452972 6855236.633641541 0 0 0 0 7127906.6242218018 2990002.6061816216 0 2990002.6061816216 -7538781.8464336395 0 0 0 0 2475153.4818344116 1827264.3732566833 0 1827264.3732566833 1074068.6314537525 0 0 0 0 5031247.2651579948 194362.9848113507 0 194362.9848113507 1777194.704983199 0 0 0 0 4497819.9701957703 2434575.1555156708 0 2434575.1555156708 409713.62324905396 0 0 0 0 24702476.51341629 -11335695.029806852 0 -11335695.029806852 6087051.2453155518 0 0 0 0 17820946.929786682 3739567.311193943 0 3739567.311193943 -392888.85123920441 0 0 0 0 1063968.2210388184 -16690.731483459473 0 -16690.731483459473 5104330.4354400635 0 0 0 0 26847.861297607422 1793121.2226314545 0 1793121.2226314545 -973583.22597101331 0 0 0 0 1322078.4562908858 2772461.238992963 0 2772461.238992963 2783217.8725291006 0 0 0 0 195663159.69960785 317403020.6010375 0 317403020.6010375 -230572299.82595778 0 0 0 0 197533.86693305522 1743904.5006496627 0 1743904.5006496627 5439568.7496692827 0 0 0 0 -261898247.46903992 325821411.6775918 0 325821411.6775918 -51067935.477181435 0 0 0 0 102803032.89896774 -33134594.748399019 0 -33134594.748399019 -103873861.41959572 0 0 0 0 4943022.4213823564 696304.20359727181 0 696304.20359727181 93677.595357106067 0 0 0 0 3348756.5327798873 2399200.8953021355 0 2399200.8953021355 3148104.8186174398 0 0 0 0 3272349.7767066956 1134693.4994959831 0 1134693.4994959831 4342847.5216083527 0 0 0 0 3406446.9245834127 1717052.0603367402 0 1717052.0603367402 2874148.0641414402 0 0 0 0 1929990.1157531738 1174320.7722873688 0 1174320.7722873688 1179593.8959069252 0 0 0 0 3160084.5177955627 1372214.4385471344 0 1372214.4385471344 1076825.8736963272 0 0 0 0 49827262.839836121 -38059577.136378407 0 -38059577.136378407 3246920.6129684448 0 0 0 0 90959958.078872681 -117985961.7646637 0 -117985961.7646637 -268291454.81306934 0 0 0 0 51015109.926933289 -143810053.48617077 0 -143810053.48617077 176471114.68086815 0 0 0 0 12142161.346359253 -54579188.302859306 0 -54579188.302859306 5642879.2790794373 0 0 0 0 -11655358.159225464 -92403909.666927338 0 -92403909.666927338 -2829581.4109979868 0 0 0 0 116303.65335083008 -81440518.443439007 0 -81440518.443439007 -105471318.5505352 0 0 0 0 -36108760.981246948 -55947678.949446678 0 -55947678.949446678 -23896677.067974091 0 0 0 0 -13282158.744033813 -72667024.267600536 0 -72667024.267600536 -28573562.907191753 0 0 0 0 -16624934.385238647 -89319892.613564491 0 -89319892.613564491 25820227.828241348 0 0 0 0 13341084.045044646 -14144711.050027963 0 -14144711.050027963 1447866.4044427807 0 0 0 0 -55848397.543716431 -68456103.849843979 0 -68456103.849843979 1657473.3986754417 0 0 0 0 -55312468.889917374 -35391409.94025588 0 -35391409.94025588 -2198200.6192779541 0 0 0 0 -4001406.8494720459 -20140665.444021821 0 -20140665.444021821 -4288292.2853240967 0 0 0 0 16704311.719310191 -12187320.737908781 0 -12187320.737908781 -2531891.8100409675 0 0 0 0 2890253.2190856934 -13187197.96600914 0 -13187197.96600914 -3595098.6938121319 0 0 0 0 -2616328.0046539307 -19433186.868322849 0 -19433186.868322849 -4729722.553155899 0 0 0 0 754897.46264266968 -15056190.739813328 0 -15056190.739813328 5025411.4549770355 0 0 0 0 8622604.3036659434 -13724636.643500112 0 -13724636.643500112 -1112385.2139678677 0 0 0 0 23005492.511077881 -2281923.5926265717 0 -2281923.5926265717 -11659127.080934644 0 0 0 0 -20021022.729537964 -46788999.871449947 0 -46788999.871449947 7660486.169383049 0 0 0 0 25081435.408587836 -11359110.149944138 0 -11359110.149944138 -4260228.6269660452 0 0 0 0 1004773.5739258081 -13013784.864596495 0 -13013784.864596495 -1736990.8784170123 0 0 0 0 84557.122316807508 -2243500.1839677924 0 -2243500.1839677924 -319118.48686969117 0 0 0 0 110262.07126235962 -24479319.141187191 0 -24479319.141187191 -8025439.1955418587 0 0 0 0 12346748.872329712 -63619545.255651832 0 -63619545.255651832 -17224193.662343979 0 0 0 0 120666129.26641846 -82270243.527991295 0 -82270243.527991295 -27440169.190762639 0 0 0 0 66561957.958213806 -68713345.851116598 0 -68713345.851116598 -26375790.016346931 0 0 0 0 10927192.356044769 -106022760.51328433 0 -106022760.51328433 -24521469.244462013 0 0 0 0 24491645.436004639 -68525987.095069885 0 -68525987.095069885 64666058.67618084 0 0 0 0 69692406.622520447 -41271693.654318571 0 -41271693.654318571 -33770333.584601641 0 0 0 0 29363604.910919189 -58729507.091787338 0 -58729507.091787338 -40583922.207027435 0 0 0 0 79279279.890594482 -54899690.352357864 0 -54899690.352357864 -64343308.631543159 0 0 0 0 84281448.211425781 -32994649.452308297 0 -32994649.452308297 -54643272.512130737 0 0 0 0 148747501.65588379 46650450.624017715 0 46650450.624017715 -10620347.142269135 0 0 0 0 6918914.2127947733 1462099.1645422727 0 1462099.1645422727 303304.01971636899 0 0 0 0 86082835.612333298 -42603193.086560607 0 -42603193.086560607 -45420288.222232342 0 0 0 0 86320883.068237305 -44547707.638687134 0 -44547707.638687134 -55931954.353193283 0 0 0 0 93028335.02488327 -52650389.180055976 0 -52650389.180055976 -47086592.440137863 0 0 0 0 41569550.700164795 -38553699.808943093 0 -38553699.808943093 -30711261.348308802 0 0 0 0 75103397.154159546 -52639393.679643154 0 -52639393.679643154 -45280418.942809105 0 0 0 0 81108390.411872864 -44296517.987272799 0 -44296517.987272799 -44766434.727534294 0 0 0 0 108125644.27941895 -71705282.150325418 0 -71705282.150325418 -43565169.331995964 0 0 0 0 15344087.711669922 5933521.6738371849 0 5933521.6738371849 -13333575.837806702 0 0 0 0 29513604.930429738 -9553367.795534106 0 -9553367.795534106 -6279746.45210246 0 0 0 0 16466439.691242002 -10428097.240170408 0 -10428097.240170408 -1222015.5351651101 0 0 0 0 39519224.087351747 -6876302.7690012213 0 -6876302.7690012213 -9168255.8031291626 0 0 0 0 11976780.550369263 -21967548.462562561 0 -21967548.462562561 -16853068.368888855 0 0 0 0 84311286.605957031 -226276084.43518257 0 -226276084.43518257 -80350365.90958643 0 0 0 0 433168399.49567795 199173003.41992378 0 199173003.41992378 60227806.925512791 0 0 0 0 -195794473.30472183 -16479657.510596275 0 -16479657.510596275 -108109923.93404412 0 0 0 0 189129391.75400162 236011154.42688465 0 236011154.42688465 -66975942.544826508 0 0 0 0 -153901700.92453384 48762640.067995071 0 48762640.067995071 140421138.16608763 0 0 0 0 12017629.28969574 -29109533.955463886 0 -29109533.955463886 -15012145.006318212 0 0 0 0 216722792.21089554 -96514284.59338665 0 -96514284.59338665 -138098868.13081741 0 0 0 0 20885567.254977018 -6230515.5981443878 0 -6230515.5981443878 -4038619.4559508464 0 0 0 0 605049.17062975839 1599727.6678295773 0 1599727.6678295773 3488.6396277993917 0 0 0 0 49258.035327911377 98219694.372594833 0 98219694.372594833 7181846.8265189677 0 0 0 0 14215382.333656311 14321410.388126373 0 14321410.388126373 80751990.71251297 0 0 0 0 59662269.016967773 2763228.8112258911 0 2763228.8112258911 -7761128.5723342896 0 0 0 0 2375130.7214442436 4314877.0982755767 0 4314877.0982755767 -297884.41933215316 0 0 0 0 -55866808.623767138 -14530039.586478859 0 -14530039.586478859 -97380820.228725433 0 0 0 0 -77024801.443080902 -264839969.39122438 0 -264839969.39122438 -219903490.51878071 0 0 0 0 6694816.0602814499 1166784.206426356 0 1166784.206426356 -2476051.034531706 0 0 0 0 257968145.09741116 63481203.949340343 0 63481203.949340343 12915864.958808899 0 0 0 0 482034075.27003098 94538690.851120353 0 94538690.851120353 55204796.552792668 0 0 0 0 81061853.736246109 117631783.79825163 0 117631783.79825163 150613370.92785168 0 0 0 0 178443089.54252195 -149783549.87984943 0 -149783549.87984943 -102022183.36496449 0 0 0 0 225610376.93217516 154533415.62128034 0 154533415.62128034 401311442.3283968 0 0 0 0 768555584.64728546 509258241.63459241 0 509258241.63459241 274750148.56941777 0 0 0 0 251990537.6938076 228555557.50589526 0 228555557.50589526 205699766.81801903 0 0 0 0 295384343.74386168 -29712412.622237802 0 -29712412.622237802 -42370072.208540916 0 0 0 0 93200870.201257706 -205809472.97318149 0 -205809472.97318149 -145432347.08545113 0 0 0 0 -65513177.587680817 -84151080.834101677 0 -84151080.834101677 85677893.683293343 0 0 0 0 -188367511.76001483 -379455054.48759633 0 -379455054.48759633 -92339339.926139832 0 0 0 0 2551645.4285786878 284440.31070231088 0 284440.31070231088 -1204591.7646939298 0 0 0 0 79181460.350383759 -25070498.529880524 0 -25070498.529880524 -134765692.40141296 0 0 0 0 246487764.47262192 -189315833.15137208 0 -189315833.15137208 -8882890.998884201 0 0 0 0 -213806993.7219429 -18822812.631976604 0 -18822812.631976604 35596894.948525429 0 0 0 0 -25093732.385944366 4694990.8501620293 0 4694990.8501620293 -16256355.96238327 0 0 0 0 7365653.930727005 -63429208.793794155 0 -63429208.793794155 85093395.048158646 0 0 0 0 79724527.922012329 -6341941.7098426819 0 -6341941.7098426819 30377717.615099072 0 0 0 0 154417914.11042976 -86392896.269897938 0 -86392896.269897938 75913500.537376404 0 0 0 0 46134231.469932556 -14478235.413624167 0 -14478235.413624167 168212476.56112194 0 0 0 0 1216374.7738335179 59719.392971131485 0 59719.392971131485 -785581.42083978455 0 0 0 0 107256675.50922585 121321562.95925629 0 121321562.95925629 74438076.590894461 0 0 0 0 -43032067.946411133 44347443.041370884 0 44347443.041370884 43088560.805721313 0 0 0 0 94469919.171642303 26300618.925576091 0 26300618.925576091 -9898877.6096556187 0 0 0 0 -24152106.000823975 -27051406.210657537 0 -27051406.210657537 20518974.314920425 0 0 0 0 23795114.617769241 43115056.894760609 0 43115056.894760609 33337516.584218025 0 0 0 0 -65721097.817878723 -2360961.2874679565 0 -2360961.2874679565 29529359.794282913 0 0 0 0 -161937685.98993492 -71716496.209757686 0 -71716496.209757686 842082.8599896431 0 0 0 0 -84432612.761842728 44757601.444813132 0 44757601.444813132 26962486.220413208 0 0 0 0 -32459117.725597858 -997755.8075915575 0 -997755.8075915575 -66462599.206237316 0 0 0 0 -116697145.48893547 -75779173.559247971 0 -75779173.559247971 -29796722.536790729 0 0 0 0 1052525.5163300391 -1301064.1896980512 0 -1301064.1896980512 -548348.58617402497 0 0 0 0 13739188.544178009 1976153.2864086628 0 1976153.2864086628 -1074840.3593406677 0 0 0 0 24375786.90114532 -4515978.3258236032 0 -4515978.3258236032 1374922.3210586892 0 0 0 0 18172029.719268575 2964305.2935194066 0 2964305.2935194066 -1057395.0626059659 0 0 0 0 19843826.200451024 4948655.6490611918 0 4948655.6490611918 -1649590.7606812122 0 0 0 0 -167462222.98263359 -43305791.545331478 0 -43305791.545331478 30940851.1705513 0 0 0 0 -224808211.97399712 -1894254.8857249022 0 -1894254.8857249022 1750619.3393573761 0 0 0 0 8094168.9667625427 -4118566.0940919816 0 -4118566.0940919816 -6430394.123934865 0 0 0 0 -142612048.70661545 -59253204.511509418 0 -59253204.511509418 52912164.749797821 0 0 0 0 -145054132.8384819 -38634958.530088425 0 -38634958.530088425 -31078879.626152992 0 0 0 0 10488779.351303101 -364475.99876213074 0 -364475.99876213074 -2698632.4518508911 0 0 0 0 -242949089.30513954 -137944959.20520735 0 -137944959.20520735 -2214175.9217758179 0 0 0 0 26111427.367239684 -5212323.4770472404 0 -5212323.4770472404 -853104.09941871883 0 0 0 0 32660749.646879114 -7355505.7010561991 0 -7355505.7010561991 -8474351.0815551765 0 0 0 0 58028223.510421753 -32334590.528594017 0 -32334590.528594017 -21128507.54961586 0 0 0 0 27883615.191599801 2191122.5783102755 0 2191122.5783102755 -1700129.0401139841 0 0 0 0 123253257.083992 606218791.98630726 0 606218791.98630726 722987445.12396193 0 0 0 0 13834667.656845093 582222050.7333746 0 582222050.7333746 934358377.72129631 0 0 0 0 488063276.22962952 1533423677.2210207 0 1533423677.2210207 2336468763.1205482 0 0 0 0 2590341424.9590225 491415284.81471276 0 491415284.81471276 763006733.79276609 0 0 0 0 -213732373.79384613 -109776354.54065037 0 -109776354.54065037 1057853245.4877863 0 0 0 0 -68293.46308699064 247480.6082319878 0 247480.6082319878 3493955.5277786683 0 0 0 0 2833980803.1363602 519212854.46755576 0 519212854.46755576 99384946.425868988 0 0 0 0 -220633.98151282221 543260.58487313706 0 543260.58487313706 217474.15779540851 0 0 0 0 4786661.6109645814 5558164.0484268647 0 5558164.0484268647 -333187.04668895388 0 0 0 0 4284109.4460983276 7244.8964567184448 0 7244.8964567184448 -2795264.8950395584 0 0 0 0 298638308.02740479 -46213625.760676861 0 -46213625.760676861 -318889853.18645668 0 0 0 0 210831168.97943497 190666541.40810776 0 190666541.40810776 -162228786.88686323 0 0 0 0 8211938.0306377783 4662724.985120574 0 4662724.985120574 -1304521.8346580975 0 0 0 0 8204543.8099212646 -5637309.6403970718 0 -5637309.6403970718 -14076201.675005913 0 0 0 0 10745261.795158019 4098352.2254223516 0 4098352.2254223516 -2170981.3539124448 0 0 0 0 55268906.845603943 4764474.7626361847 0 4764474.7626361847 -8551573.8864068985 0 0 0 0 162396927.05168915 -91711547.257953644 0 -91711547.257953644 -350721930.73098016 0 0 0 0 14619441.013122559 14137953.922856331 0 14137953.922856331 -8203332.3702659607 0 0 0 0 8274794.9013214111 15267677.11009407 0 15267677.11009407 -7827543.9874839783 0 0 0 0 1376504.942077959 78835.235270351171 0 78835.235270351171 -800122.26745287981 0 0 0 0 -5223759.3345184326 1916343.157907486 0 1916343.157907486 -3539360.5408267975 0 0 0 0 -11071644.118030548 -91016842.774625778 0 -91016842.774625778 6229042.3424577713 0 0 0 0 221428786.47676468 235555895.67592573 0 235555895.67592573 127518023.76710725 0 0 0 0 196103568.1113739 -69258412.647663116 0 -69258412.647663116 -109976760.36123848 0 0 0 0 -16278622.510520935 165352379.36030748 0 165352379.36030748 231101079.27300262 0 0 0 0 540353323.6865921 749192524.21420336 0 749192524.21420336 533731054.3367455 0 0 0 0 397728333.44399834 459064571.6353696 0 459064571.6353696 425149391.58294487 0 0 0 0 385511353.83451223 152214591.15821022 0 152214591.15821022 160136359.59247398 0 0 0 0 925590102.58951569 186210625.9344784 0 186210625.9344784 548156037.07213473 0 0 0 0 1314233281.8484688 1136913002.2743003 0 1136913002.2743003 416130667.32606435 0 0 0 0 357262938.46689224 1310828854.9081974 0 1310828854.9081974 875343388.43416095 0 0 0 0 479796756.86196327 1215475884.7337403 0 1215475884.7337403 954392905.8894186 0 0 0 0 359731013.47982407 921765935.18795013 0 921765935.18795013 369659473.66625369 0 0 0 0 1017519321.8765373 1045164231.1077287 0 1045164231.1077287 396654306.79661101 0 0 0 0 698571100.76591492 905832996.69227898 0 905832996.69227898 681511518.03614843 0 0 0 0 639400455.80350304 236059061.79879606 0 236059061.79879606 -710907045.17785358 0 0 0 0 -193571897.28623199 468748382.98794627 0 468748382.98794627 351967214.76183099 0 0 0 0 5592504.3048255071 2215107.5465064612 0 2215107.5465064612 846337.10118143819 0 0 0 0 -104242744.04892731 -2506959.538438201 0 -2506959.538438201 17047098.848679543 0 0 0 0 87558753.3699646 594086669.37128592 0 594086669.37128592 -861831232.52490568 0 0 0 0 -50474655.071361542 -96618726.32364893 0 -96618726.32364893 -104988829.3252573 0 0 0 0 12974755.45818777 -35845.345030803117 0 -35845.345030803117 -1222907.2533401637 0 0 0 0 -34435851.717578888 210451537.7702589 0 210451537.7702589 -584138974.65105212 0 0 0 0 555160008.84394455 188798898.57328773 0 188798898.57328773 -114457230.80118227 0 0 0 0 -114875142.9602356 -145768648.74703276 0 -145768648.74703276 152620136.03959227 0 0 0 0 -87100129.17247963 51056778.261056304 0 51056778.261056304 176019671.57516241 0 0 0 0 702016920.8993721 -124655259.18091798 0 -124655259.18091798 4242622.7591605186 0 0 0 0 1812049.9494687878 1802901.8548938362 0 1802901.8548938362 885733.35184806201 0 0 0 0 1565018619.1658535 822808001.06575787 0 822808001.06575787 203756852.05617046 0 0 0 0 840408325.82036591 1035351222.4916396 0 1035351222.4916396 1013508232.0842084 0 0 0 0 643900458.97789574 663049281.50111079 0 663049281.50111079 309031779.27462149 0 0 0 0 1243269478.6139774 978057717.04904127 0 978057717.04904127 428876128.94258595 0 0 0 0 698695262.7048645 983771163.15454173 0 983771163.15454173 826581009.11211348 0 0 0 0 373204280.2256813 225263440.98233843 0 225263440.98233843 110993244.94500804 0 0 0 0 9526650.8420746401 71947.442467863089 0 71947.442467863089 -890199.85227561067 0 0 0 0 315433610.68088913 -72164286.391706228 0 -72164286.391706228 -1019011516.0927534 0 0 0 0 3785841.7780659348 217047.86499661847 0 217047.86499661847 -328069.23857140949 0 0 0 0 -28069851.421769142 -554908720.57111156 0 -554908720.57111156 -461285291.52082586 0 0 0 0 1226051968.2971039 1453139161.6650951 0 1453139161.6650951 1209157258.8796468 0 0 0 0 680586237.41024971 -511253793.60247886 0 -511253793.60247886 -536835741.28775096 0 0 0 0 300853034.71927643 -186623814.57731414 0 -186623814.57731414 -598088736.64790416 0 0 0 0 69617253.047302723 45527384.87640363 0 45527384.87640363 -443632201.87788534 0 0 0 0 -62740955.983597755 -114521498.43249834 0 -114521498.43249834 -608152132.48060489 0 0 0 0 124746158.76079917 40932637.867964268 0 40932637.867964268 -806129742.3496294 0 0 0 0 71741973.20437336 -95507456.475995779 0 -95507456.475995779 -621211613.16889906 0 0 0 0 2001299.0973069314 1208199.6505587432 0 1208199.6505587432 -894304.01396305999 0 0 0 0 8674406.2426387072 -8514184.3303464241 0 -8514184.3303464241 -33533295.714472771 0 0 0 0 -82615816.280985355 -17209394.690963864 0 -17209394.690963864 51120014.905865669 0 0 0 0 10075328.414236933 66623910.954582065 0 66623910.954582065 59967775.953511 0 0 0 0 15653850.865628656 395227.13619862613 0 395227.13619862613 2384092.8778004446 0 0 0 0 -28642362.581264496 -3098371.6239414215 0 -3098371.6239414215 45896727.475514174 0 0 0 0 -67809324.818523407 -146267366.33155274 0 -146267366.33155274 -64649177.896744728 0 0 0 0 -87043089.416848183 69682122.829295635 0 69682122.829295635 489581364.78146601 0 0 0 0 1339275401.9445038 6105604.1280834675 0 6105604.1280834675 384586687.92126083 0 0 0 0 370938242.04870033 76087367.484701991 0 76087367.484701991 511944956.97162294 0 0 0 0 -21340251.055774689 -325580956.46384591 0 -325580956.46384591 -23861002.450299025 0 0 0 0 312389948.73735237 252766017.93754286 0 252766017.93754286 -20795609.33044076 0 0 0 0 973381639.99302292 480174758.23457694 0 480174758.23457694 140780293.07519531 0 0 0 0 426092223.65531731 143773128.70032954 0 143773128.70032954 83330511.551790714 0 0 0 0 1988211477.6381702 878386009.65339088 0 878386009.65339088 376546626.13345528 0 0 0 0 876908083.30672264 494680307.04058921 0 494680307.04058921 289871818.19276476 0 0 0 0 975818596.80918789 916801875.17137301 0 916801875.17137301 471754210.29627895 0 0 0 0 1404178630.7797155 87597128.428422928 0 87597128.428422928 -321852532.75509501 0 0 0 0 526010118.50730515 448811236.77760458 0 448811236.77760458 -5824315.6006093025 0 0 0 0 497347115.12939072 720488624.20608664 0 720488624.20608664 131290370.18291569 0 0 0 0 415869714.15229988 315797020.83222246 0 315797020.83222246 989455660.41520977 0 0 0 0 457175902.53467083 329530314.301117 0 329530314.301117 156518370.10274363 0 0 0 0 233076538.96340752 412674683.14300299 0 412674683.14300299 392592588.18521833 0 0 0 0 208657136.4578774 278730596.03689206 0 278730596.03689206 77254742.284510612 0 0 0 0 606632111.7086544 428898884.63249874 0 428898884.63249874 -49537495.282821417 0 0 0 0 208189123.23601532 304894503.1093626 0 304894503.1093626 114986869.3348341 0 0 0 0 260426819.11897182 123563077.87534654 0 123563077.87534654 -2807114.2623853683 0 0 0 0 105895975.36852932 92721248.878407717 0 92721248.878407717 36998641.624913216 0 0 0 0 -96717341.95131588 -36137823.99161464 0 -36137823.99161464 76440030.122836113 0 0 0 0 -13421467.139509201 243546222.5844686 0 243546222.5844686 341585637.27512169 0 0 0 0 1349508.8140683277 3977380.4302095124 0 3977380.4302095124 765664.50294485455 0 0 0 0 2704834.3437591083 1348383.102036657 0 1348383.102036657 -1297719.1248554913 0 0 0 0 4248070.7775124051 7156381.755121557 0 7156381.755121557 13084407.048589136 0 0 0 0 11078732.484437943 29750740.764127731 0 29750740.764127731 76423390.715789795 0 0 0 0 22407196.558930397 -1228441.1902618408 0 -1228441.1902618408 -1896369.1092453003 0 0 0 0 679962113.08935225 -6615292.9080114663 0 -6615292.9080114663 156613389.42025185 0 0 0 0 50763528.821094513 -90941285.710224152 0 -90941285.710224152 -309233427.14268875 0 0 0 0 1173249.0276835659 -2371242.4276804933 0 -2371242.4276804933 -3939294.8524538279 0 0 0 0 1922358576.0676517 -123811446.24022508 0 -123811446.24022508 -301605141.17196393 0 0 0 0 1779229579.6156139 139438707.96046805 0 139438707.96046805 -353229246.67373276 0 0 0 0 757286030.27523804 -944611148.81431961 0 -944611148.81431961 1335525779.5316267 0 0 0 0 918243222.31052303 -74038350.900910556 0 -74038350.900910556 -182198779.10228634 0 0 0 0 3368770.9010837143 52202.797791629215 0 52202.797791629215 -8795498.1900612079 0 0 0 0 563130834.40284133 -25134377.320037276 0 -25134377.320037276 -183035792.48370266 0 0 0 0 527553613.82009482 320960999.2447142 0 320960999.2447142 -195675450.64322948 0 0 0 0 875175053.76303363 296962191.97538733 0 296962191.97538733 -208040695.66216087 0 0 0 0 1080704620.5365829 264004001.90019131 0 264004001.90019131 -270094406.84027863 0 0 0 0 835246557.67700195 736575986.70416212 0 736575986.70416212 -271050947.28992653 0 0 0 0 559203108.99199963 566273025.41211092 0 566273025.41211092 -144797387.79030466 0 0 0 0 518188021.47803831 603662072.69764841 0 603662072.69764841 -150080250.05614042 0 0 0 0 3064514.5622092718 113441.91285820398 0 113441.91285820398 -382768.21619909885 0 0 0 0 1713616230.5487156 -517661071.96061325 0 -517661071.96061325 -974218330.37511039 0 0 0 0 731853828.96374702 793635833.35187721 0 793635833.35187721 -348006991.09503412 0 0 0 0 1412099352.3158798 580978773.43379831 0 580978773.43379831 -335520421.12393284 0 0 0 0 105740641.4091568 753538841.77006209 0 753538841.77006209 -63519529.762072086 0 0 0 0 -50162529.206867218 -7499383.446323663 0 -7499383.446323663 -490927533.02011395 0 0 0 0 478311325.04584169 -270609865.20587003 0 -270609865.20587003 -446970643.20294428 0 0 0 0 738705036.68206406 528176102.37700129 0 528176102.37700129 -186731980.71674299 0 0 0 0 438143304.62175751 2686628.3670586944 0 2686628.3670586944 -1047599174.1214727 0 0 0 0 5369423.3007950373 582727.51135683549 0 582727.51135683549 -602905.3156241657 0 0 0 0 363667868.21201062 660290938.9355284 0 660290938.9355284 -1017841747.1640981 0 0 0 0 82050117.584621906 135208085.40753281 0 135208085.40753281 -306808072.36904126 0 0 0 0 -58907501.475635052 576641116.87972164 0 576641116.87972164 490711430.21699232 0 0 0 0 408480405.56902695 176567745.07168496 0 176567745.07168496 570201639.04907167 0 0 0 0 759466401.17591953 -148582473.67933771 0 -148582473.67933771 166067406.30727255 0 0 0 0 1195305320.6873055 -143150481.41067594 0 -143150481.41067594 772875000.01977229 0 0 0 0 1401091898.3585262 270230445.71146798 0 270230445.71146798 429993970.92467844 0 0 0 0 -409080581.53202152 285270959.34702301 0 285270959.34702301 49649415.052616835 0 0 0 0 1004936814.836175 -772464531.97541845 0 -772464531.97541845 -625615652.87195134 0 0 0 0 1670999359.313324 -284988377.15829557 0 -284988377.15829557 120028179.83619881 0 0 0 0 1815618327.7313566 -251783390.58989847 0 -251783390.58989847 -292008245.90447569 0 0 0 0 1730340071.7482681 -846612601.22174215 0 -846612601.22174215 244603769.46954694 0 0 0 0 873277.4760044493 1080144.9545029565 0 1080144.9545029565 3533421.1976326443 0 0 0 0 3062708195.2418184 -560327038.56617653 0 -560327038.56617653 325206933.38923091 0 0 0 0 1757492453.1156235 -624290350.35845995 0 -624290350.35845995 -174239620.01269943 0 0 0 0 1610803561.8272858 -907225855.8194896 0 -907225855.8194896 610756282.5730449 0 0 0 0 1627918711.6204014 -560898189.78530538 0 -560898189.78530538 577121528.15559721 0 0 0 0 299949540.56750679 -381410378.21428072 0 -381410378.21428072 520494722.72241402 0 0 0 0 202257014.38029766 -490630595.18732738 0 -490630595.18732738 -310464312.29615414 0 0 0 0 12960.275310956466 -1123973.1453199813 0 -1123973.1453199813 1030707.7148035117 0 0 0 0 214447539.93651223 -368523874.3440733 0 -368523874.3440733 813028578.55652714 0 0 0 0 105148940.42183876 -182575558.3106432 0 -182575558.3106432 325942273.1205101 0 0 0 0 155710961.16825485 -324645670.94418144 0 -324645670.94418144 557992299.66678619 0 0 0 0 209064746.54598236 -268320052.16937256 0 -268320052.16937256 427308806.41480255 0 0 0 0 279124874.8891983 -345450755.26564789 0 -345450755.26564789 333899141.93192291 0 0 0 0 272926178.12177467 -243240875.44660759 0 -243240875.44660759 84854920.459480286 0 0 0 0 343016651.68370819 -316814093.59561539 0 -316814093.59561539 45049526.551570892 0 0 0 0 309214000.74957561 -368974358.11360836 0 -368974358.11360836 156478991.85648346 0 0 0 0 2927867.4167052601 -1858913.9534464641 0 -1858913.9534464641 -2270198.1730823573 0 0 0 0 -141615288.79222393 184318335.04555321 0 184318335.04555321 172056315.02718353 0 0 0 0 6987448.1879343987 7276807.7197775841 0 7276807.7197775841 -6564771.7553291321 0 0 0 0 1688805721.6342554 -373468833.13094866 0 -373468833.13094866 -566088561.46613228 0 0 0 0 2781331.1559065422 4277833.9475370087 0 4277833.9475370087 9316633.4752738103 0 0 0 0 291834892.31483459 395730761.4577961 0 395730761.4577961 -20659317.02785635 0 0 0 0 957676409.23989391 144333978.20042366 0 144333978.20042366 -251233644.09978247 0 0 0 0 266645146.79965019 248617699.32813209 0 248617699.32813209 500859325.19846833 0 0 0 0 224004200.96936607 80704785.65049392 0 80704785.65049392 -38732710.678650141 0 0 0 0 26708575.188848495 130375576.17528558 0 130375576.17528558 -38705107.679847002 0 0 0 0 395205494.02450371 29782676.037397027 0 29782676.037397027 -444832540.09557486 0 0 0 0 254333889.50421762 -120929850.92154574 0 -120929850.92154574 -319290507.44105911 0 0 0 0 362811443.97793579 -79710765.318775892 0 -79710765.318775892 -494769321.93207121 0 0 0 0 259649526.24773765 -437714908.05448556 0 -437714908.05448556 -296091613.81870985 0 0 0 0 225016470.60138702 -427271634.19578189 0 -427271634.19578189 -269024535.22202647 0 0 0 0 94742009.626225471 -78193567.423798323 0 -78193567.423798323 -541747648.31402552 0 0 0 0 631793442.47245693 -533316439.54281199 0 -533316439.54281199 -376915204.66776645 0 0 0 0 2334671.0299899122 324260.17294517078 0 324260.17294517078 -212884.71866659637 0 0 0 0 220543528.324615 663910274.26161838 0 663910274.26161838 326121379.14021868 0 0 0 0 -131116428.38973188 368977330.95306551 0 368977330.95306551 406569121.03450847 0 0 0 0 -7866974.5300765038 418814435.9098841 0 418814435.9098841 424863322.83023995 0 0 0 0 800180045.54606628 106819079.82856899 0 106819079.82856899 157659605.10161412 0 0 0 0 391529091.65791893 -254355257.22950578 0 -254355257.22950578 399673735.41165829 0 0 0 0 267279981.45438433 -54663016.134205103 0 -54663016.134205103 83646288.61866045 0 0 0 0 136284956.35639381 145944865.22428989 0 145944865.22428989 -77263515.012186036 0 0 0 0 450223748.94192314 -52524533.248282671 0 -52524533.248282671 -53687812.621789128 0 0 0 0 107928767.634902 174911009.57782155 0 174911009.57782155 50384905.49548316 0 0 0 0 270542120.57314253 -33812907.017402172 0 -33812907.017402172 144320613.80014467 0 0 0 0 79385957.842137575 159880566.74301937 0 159880566.74301937 -30459043.01800251 0 0 0 0 63772366.654717445 207225337.52115393 0 207225337.52115393 142743598.45593953 0 0 0 0 34096602.267623901 242983706.30969474 0 242983706.30969474 29721604.509717464 0 0 0 0 33655247.363536835 238081743.90027493 0 238081743.90027493 -304057985.36078143 0 0 0 0 -52422902.795156479 191239226.74613631 0 191239226.74613631 -34033947.672005773 0 0 0 0 72996006.290496826 186023947.23570722 0 186023947.23570722 -307178413.30526567 0 0 0 0 346834789.26562929 391147108.61314112 0 391147108.61314112 -25871106.161839724 0 0 0 0 101180152.04300308 183974878.81224906 0 183974878.81224906 46301952.242924511 0 0 0 0 186295310.53136063 173870227.96121866 0 173870227.96121866 78052060.90868111 0 0 0 0 102675186.17029381 207909213.20471147 0 207909213.20471147 -224341511.63045216 0 0 0 0 10268104.593038559 202118477.40257996 0 202118477.40257996 -34645262.678646445 0 0 0 0 101795821.33054543 259421096.0986501 0 259421096.0986501 -35057432.4650198 0 0 0 0 106346725.74246502 244275589.33810461 0 244275589.33810461 12522198.207409143 0 0 0 0 263117332.14637184 262887496.35246694 0 262887496.35246694 -33275443.344786644 0 0 0 0 324301914.2221365 92992758.417802691 0 92992758.417802691 -149558489.40690994 0 0 0 0 183012233.72861814 261637762.7165277 0 261637762.7165277 -6645626.2522685528 0 0 0 0 111253376.96459198 188086632.36350656 0 188086632.36350656 -81031868.682171941 0 0 0 0 -41932088.536301613 224717505.99307454 0 224717505.99307454 -84361164.714455009 0 0 0 0 48487773.578807831 -35529787.442513704 0 -35529787.442513704 -218199582.25924993 0 0 0 0 883065498.82029533 -392622678.52120769 0 -392622678.52120769 -244522266.02785778 0 0 0 0 905443430.61646652 -363668730.69393992 0 -363668730.69393992 -455450070.77611327 0 0 0 0 676203943.00528717 -271824270.44395506 0 -271824270.44395506 -313375405.73818851 0 0 0 0 1091247760.145822 -272274267.69655609 0 -272274267.69655609 -645507930.42480445 0 0 0 0 1018924888.1768746 -74520923.0034284 0 -74520923.0034284 -434058019.59448481 0 0 0 0 347167744.6757431 118427446.65308237 0 118427446.65308237 -149929304.08237171 0 0 0 0 363926748.15336037 98789060.809456587 0 98789060.809456587 -161025979.18937111 0 0 0 0 385610561.55421066 123057962.50148159 0 123057962.50148159 -162738977.0330596 0 0 0 0 3876510937.8429728 515851889.50081146 0 515851889.50081146 104837396.13647436 0 0 0 0 1251873524.6590271 24491643.545239568 0 24491643.545239568 -180470055.54693961 0 0 0 0 374408282.29514694 -293135221.72320759 0 -293135221.72320759 -274422240.73381197 0 0 0 0 1036429155.9703407 -478001117.76576567 0 -478001117.76576567 -359408974.72904134 0 0 0 0 1094495150.9642334 -386415958.72925186 0 -386415958.72925186 -477607920.29243338 0 0 0 0 1033040706.4433384 -385114898.58544064 0 -385114898.58544064 -657840834.35914159 0 0 0 0 1086011574.6978393 -531181361.94870216 0 -531181361.94870216 -776365929.18198109 0 0 0 0 5211526756.3863125 591465143.96565425 0 591465143.96565425 64025055.624040842 0 0 0 0 -358225159.48446941 -1118597340.353276 0 -1118597340.353276 -294163854.90194267 0 0 0 0 4096834446.5653267 -1378502568.3797824 0 -1378502568.3797824 -283220184.17591143 0 0 0 0 1853248.289136494 -1035916.2494482631 0 -1035916.2494482631 -319099.53002918971 0 0 0 0 1032458243.7094307 -1484979234.5673013 0 -1484979234.5673013 -1056033183.6188309 0 0 0 0 3077837438.403595 -940570722.38945198 0 -940570722.38945198 -931582798.12700272 0 0 0 0 3522866636.590044 -753407537.50269949 0 -753407537.50269949 -943934005.24241567 0 0 0 0 2836933126.5428467 -1316746229.4708591 0 -1316746229.4708591 -1067848064.6974349 0 0 0 0 3035430382.5394039 -485598205.78366542 0 -485598205.78366542 -731632046.43587387 0 0 0 0 1616279718.4998322 -435775758.82233989 0 -435775758.82233989 -731016892.93387008 0 0 0 0 1509255447.5643837 -516304073.45839405 0 -516304073.45839405 -777221834.2269671 0 0 0 0 1445693736.0099926 -87418314.864203572 0 -87418314.864203572 -549905513.85481358 0 0 0 0 1935166321.9293003 -35219358.385758638 0 -35219358.385758638 -457054439.50954437 0 0 0 0 2004236472.4104099 40288834.329296574 0 40288834.329296574 -535825827.89672351 0 0 0 0 2805674240.6386375 -148649490.89681619 0 -148649490.89681619 -541767873.64286327 0 0 0 0 4093740733.2447653 -296479150.12555295 0 -296479150.12555295 -1116132651.3745639 0 0 0 0 789691854.97421074 200843763.13021648 0 200843763.13021648 -156132446.31201267 0 0 0 0 580012971.90562439 181015066.41958821 0 181015066.41958821 -111582650.261994 0 0 0 0 803863395.81691456 213719239.53046334 0 213719239.53046334 -215860255.54985118 0 0 0 0 1197023646.107317 -29546219.038661957 0 -29546219.038661957 -454828947.9477489 0 0 0 0 1193128785.5255699 -35999383.809359312 0 -35999383.809359312 -450237107.0211854 0 0 0 0 1112029985.3230762 179025212.68635273 0 179025212.68635273 -218734123.45330685 0 0 0 0 1127338191.8497963 316521521.89579201 0 316521521.89579201 -192840726.93570334 0 0 0 0 1284472609.3503323 397361496.47482705 0 397361496.47482705 -211408029.00898314 0 0 0 0 1126994962.3453503 359378228.80029356 0 359378228.80029356 -170952175.60258681 0 0 0 0 788374215.56472397 411010713.55900878 0 411010713.55900878 -157786562.32872128 0 0 0 0 484385357.41662979 582056782.37512827 0 582056782.37512827 195927608.83992159 0 0 0 0 738178113.89198971 1317496264.6477213 0 1317496264.6477213 455006695.88071036 0 0 0 0 2266824.4137514569 835591.32579295593 0 835591.32579295593 243976.98466018864 0 0 0 0 118187563.51186323 -36067817.567458592 0 -36067817.567458592 -106918011.15804863 0 0 0 0 192538270.5800457 215412543.8537235 0 215412543.8537235 -664641663.14359641 0 0 0 0 3229474704.3366222 97218457.768671572 0 97218457.768671572 -527844503.00053185 0 0 0 0 1814642731.6802444 625673036.80811298 0 625673036.80811298 -394467778.96650505 0 0 0 0 3221640192.4568138 650659645.47789788 0 650659645.47789788 -425371218.51985085 0 0 0 0 2924899251.1434441 -38750733.076164126 0 -38750733.076164126 -497784911.14202732 0 0 0 0 4093470442.827383 707618699.70502186 0 707618699.70502186 -21571563.015175812 0 0 0 0 3312132975.2105865 991464886.08111739 0 991464886.08111739 -113813599.12939647 0 0 0 0 3354926133.438406 878072089.61141014 0 878072089.61141014 -217763493.82704625 0 0 0 0 2785852328.1136084 1645669234.2726052 0 1645669234.2726052 625138895.61944008 0 0 0 0 3360718.1287890747 31216.78155791061 0 31216.78155791061 -213855.69515607748 0 0 0 0 3945816236.3056316 772129731.02698445 0 772129731.02698445 -343341354.30106109 0 0 0 0 4095874973.5210133 1157829428.3145294 0 1157829428.3145294 601653285.23199213 0 0 0 0 5390831.7330214269 858536.97007325757 0 858536.97007325757 -69569.178215619511 0 0 0 0 -60295268.457420349 13103141.414241903 0 13103141.414241903 31448857.756394118 0 0 0 0 -218257928.31732845 135756690.09824145 0 135756690.09824145 -30827290.173593916 0 0 0 0 1527035158.2827454 -392257140.57149565 0 -392257140.57149565 -17976637.677111179 0 0 0 0 -325929822.46999073 11053363.645415857 0 11053363.645415857 452071226.11855078 0 0 0 0 493097661.06230164 578261791.03535831 0 578261791.03535831 321962700.72232062 0 0 0 0 207804390.48361588 -488601312.33038604 0 -488601312.33038604 205851868.43333772 0 0 0 0 -83588862.779430389 83100780.386023253 0 83100780.386023253 -87109663.683542371 0 0 0 0 -18955619.680473328 -171277738.42062646 0 -171277738.42062646 -213247115.87326193 0 0 0 0 -18205879.931144714 -1017374.6079854369 0 -1017374.6079854369 18264284.999882221 0 0 0 0 7032860.016511742 -625707.80560250534 0 -625707.80560250534 -524456.80283521058 0 0 0 0 22768849.368619919 12785283.963985592 0 12785283.963985592 -34888477.538422167 0 0 0 0 8050545.6132773254 -965747.36640802608 0 -965747.36640802608 -1096945.3543676115 0 0 0 0 -11941018.828857422 -233582715.14050484 0 -233582715.14050484 -539322671.1779871 0 0 0 0 -13329802.646826744 -29413376.18831997 0 -29413376.18831997 -25368932.096276134 0 0 0 0 68987398.696619034 -19007746.817721546 0 -19007746.817721546 -513441760.58183128 0 0 0 0 -2325721.3345184326 -4707812.343711853 0 -4707812.343711853 -6918329.7575480342 0 0 0 0 8036692.8214335889 -2609348.3296036515 0 -2609348.3296036515 -2084983.0595917292 0 0 0 0 -15331423.381509781 -62594265.496711135 0 -62594265.496711135 -456808030.21685088 0 0 0 0 -219545053.36065674 -36704475.618855476 0 -36704475.618855476 -332085205.21374512 0 0 0 0 15267660.830627419 1180096.4628316928 0 1180096.4628316928 -4549622.9412304536 0 0 0 0 3027978.3281555176 -2327409.3733778 0 -2327409.3733778 -20115541.875101089 0 0 0 0 14155208.460001597 6924900.9833767246 0 6924900.9833767246 -5120271.1416053968 0 0 0 0 28503126.679748535 -343425308.88979292 0 -343425308.88979292 -549242459.16309309 0 0 0 0 -215715155.36576843 -195551573.1937114 0 -195551573.1937114 -490016859.94251823 0 0 0 0 -64533798.911437988 -162931460.91776943 0 -162931460.91776943 -530552345.99928856 0 0 0 0 -50533762.216094971 -354867476.18538666 0 -354867476.18538666 -529246943.55570698 0 0 0 0 -192754663.75540924 -131243179.27049208 0 -131243179.27049208 -483021405.6314621 0 0 0 0 15414451.526533797 2666359.2682958702 0 2666359.2682958702 -3653684.058861115 0 0 0 0 -152882866.26159668 -195927992.8854723 0 -195927992.8854723 -532410992.72683716 0 0 0 0 -11331876.594818115 -218189711.25751734 0 -218189711.25751734 -483657820.94814372 0 0 0 0 35876849.511169434 -253682143.41505313 0 -253682143.41505313 -516894349.6707592 0 0 0 0 -47863723.056907654 -307042713.23806715 0 -307042713.23806715 -447490501.04492474 0 0 0 0 143243547.40487671 -223826836.55724001 0 -223826836.55724001 -489349573.80887413 0 0 0 0 163783135.35211182 134904493.55684662 0 134904493.55684662 -963715023.17215407 0 0 0 0 153939542.75932312 -278564402.5710187 0 -278564402.5710187 -472882006.00485611 0 0 0 0 282989672.94734955 -23280328.589409828 0 -23280328.589409828 -978894558.79799557 0 0 0 0 10143299.196555529 -2884700.2779831234 0 -2884700.2779831234 -1950760.3338779195 0 0 0 0 63584162.734634399 -81917502.152803898 0 -81917502.152803898 -635129222.68903971 0 0 0 0 261812852.26416016 -132368504.61413217 0 -132368504.61413217 -717770963.53555012 0 0 0 0 85709862.286422729 37807415.852097511 0 37807415.852097511 -755202974.05461931 0 0 0 0 -243540504.11633301 37013340.734771729 0 37013340.734771729 -510893446.71414471 0 0 0 0 -16513778.715057373 -65869329.718502045 0 -65869329.718502045 -602089791.36613369 0 0 0 0 -101522562.53491211 41086916.404123306 0 41086916.404123306 -695970158.25938702 0 0 0 0 -205382866.34133911 129680875.54034996 0 129680875.54034996 -630539868.89922142 0 0 0 0 103945824.77819443 -78335511.523496211 0 -78335511.523496211 -648613474.66428089 0 0 0 0 58505483.671409607 -229585274.78163815 0 -229585274.78163815 -759215960.55214119 0 0 0 0 133363085.14187622 -13564307.153608799 0 -13564307.153608799 -472726336.77565289 0 0 0 0 13598879.708773136 -30436816.613134801 0 -30436816.613134801 -24033374.584216595 0 0 0 0 -23104998.41146946 109969853.41149664 0 109969853.41149664 55516242.505792975 0 0 0 0 -5727386.0270690918 25463421.473953247 0 25463421.473953247 -8721117.8144123554 0 0 0 0 69667466.240329742 11962175.938616753 0 11962175.938616753 -66062908.223474741 0 0 0 0 16375033.330262886 1336390.5861965893 0 1336390.5861965893 -2199501.9445691984 0 0 0 0 -10457856.188667297 11492669.676434755 0 11492669.676434755 -5503921.8214484453 0 0 0 0 14551546.270729417 -6047353.3790844865 0 -6047353.3790844865 -2582311.4132823795 0 0 0 0 7006005.4895020239 5722903.1621267982 0 5722903.1621267982 -4715920.2286964664 0 0 0 0 -1677216.1673603058 -99090149.902425021 0 -99090149.902425021 -469397358.12499446 0 0 0 0 32172965.044837952 -81724008.305757046 0 -81724008.305757046 -495761715.73960865 0 0 0 0 32360694.517829895 -92220312.286974669 0 -92220312.286974669 -468024635.83624601 0 0 0 0 -55853933.474545002 -335218477.33665192 0 -335218477.33665192 -1095541107.1394401 0 0 0 0 21224484.089038849 260620706.61255169 0 260620706.61255169 -878987571.89160228 0 0 0 0 1599777.8699755995 1598946.6525314206 0 1598946.6525314206 -1060878.8498920526 0 0 0 0 32169736.134221077 98594534.417943716 0 98594534.417943716 -687884907.98700237 0 0 0 0 -165415027.58302641 252300549.69824216 0 252300549.69824216 -551001556.31492758 0 0 0 0 -152423925.0097084 102021749.1388402 0 102021749.1388402 -312022119.34211147 0 0 0 0 74678702.888463974 121508090.56393528 0 121508090.56393528 -516094033.12565887 0 0 0 0 -14442487.031484604 107973121.88652712 0 107973121.88652712 -305709471.53313184 0 0 0 0 104300354.74266195 86067677.42541188 0 86067677.42541188 -384758615.94472754 0 0 0 0 60392432.34466362 87960851.234941006 0 87960851.234941006 -217403567.23970887 0 0 0 0 77029442.875106812 160017212.58770448 0 160017212.58770448 -111462108.72416383 0 0 0 0 203751965.824193 178150654.50920385 0 178150654.50920385 -226311290.52108175 0 0 0 0 46989305.770237923 -36573850.944689259 0 -36573850.944689259 -340944889.81128025 0 0 0 0 90506151.037298203 -61412697.008179903 0 -61412697.008179903 -479644010.70972639 0 0 0 0 48425800.572526932 -25136570.14273268 0 -25136570.14273268 -332455432.08341146 0 0 0 0 72106036.244392395 -38035236.161074817 0 -38035236.161074817 -459211040.79641038 0 0 0 0 234072911.24166107 -90231501.46593082 0 -90231501.46593082 -1158607317.4047046 0 0 0 0 69803899.80373764 56528246.529084206 0 56528246.529084206 -704957368.11498928 0 0 0 0 3899117.009084139 -2662596.5573245529 0 -2662596.5573245529 1640315.5910035428 0 0 0 0 -817486314.58960915 -535302251.94334078 0 -535302251.94334078 -550322314.91536844 0 0 0 0 -422444693.99999237 -1351289591.4069045 0 -1351289591.4069045 -1156897307.5319748 0 0 0 0 325049910.20220566 -292443223.93967724 0 -292443223.93967724 -720344330.21888733 0 0 0 0 126498941.90813828 -232498584.15638924 0 -232498584.15638924 -524456167.56249237 0 0 0 0 76102184.263272524 -703572916.65161276 0 -703572916.65161276 -633210102.53064346 0 0 0 0 491203996.18521881 -622413033.05781174 0 -622413033.05781174 -994090497.20303774 0 0 0 0 492561625.75899506 -380416406.94316101 0 -380416406.94316101 -471544033.87617683 0 0 0 0 210853847.55673981 -404882749.61382866 0 -404882749.61382866 -273267350.33230591 0 0 0 0 370966877.81166077 -106794269.40903664 0 -106794269.40903664 -82066161.977060318 0 0 0 0 126115645.83298373 -104130558.6463275 0 -104130558.6463275 182383347.69611168 0 0 0 0 312636420.63094711 -353577142.13610458 0 -353577142.13610458 -590632047.69970703 0 0 0 0 -132514881.43800068 251811555.28634238 0 251811555.28634238 111931622.52761531 0 0 0 0 307664778.85088444 178858039.28957939 0 178858039.28957939 121183900.86355019 0 0 0 0 -27019195.971963882 243349754.48274612 0 243349754.48274612 266838055.94251823 0 0 0 0 183940978.12004697 250180889.51687479 0 250180889.51687479 -659282729.81246853 0 0 0 0 55892175.4557724 484577299.47812152 0 484577299.47812152 -145695848.32496786 0 0 0 0 -704552.3813814153 2842893.5259684483 0 2842893.5259684483 351022.70787186362 0 0 0 0 895121945.76112175 -171171611.12693524 0 -171171611.12693524 -780474069.1300931 0 0 0 0 -92075838.41955471 -153945639.14157569 0 -153945639.14157569 -390727025.64230466 0 0 0 0 -150573229.84300804 -302731563.51525283 0 -302731563.51525283 -769133389.41030121 0 0 0 0 138657233.44350433 -155467.46533417702 0 -155467.46533417702 -690819481.11283636 0 0 0 0 3480073.2330498695 -105413483.14169073 0 -105413483.14169073 -374457608.39184803 0 0 0 0 14188082.49215343 -9327708.0867446885 0 -9327708.0867446885 5517469.9984986642 0 0 0 0 1891765.2352896295 -340490.54748831503 0 -340490.54748831503 394600.92839662684 0 0 0 0 13111879.985275269 295629209.37002087 0 295629209.37002087 20690979.720654488 0 0 0 0 971331786.70467377 -409920449.73048449 0 -409920449.73048449 25072481.360105515 0 0 0 0 10637848.394398263 -6719236.4482632503 0 -6719236.4482632503 3489462.9491688414 0 0 0 0 28716704.253113747 -441382686.48909914 0 -441382686.48909914 -1123162297.5528145 0 0 0 0 667717370.72471619 931891401.02309561 0 931891401.02309561 572517086.70145607 0 0 0 0 1064944932.2630806 1351053835.1656041 0 1351053835.1656041 990981126.01222706 0 0 0 0 862234445.99134445 828587174.32588291 0 828587174.32588291 603364610.05900955 0 0 0 0 1922577727.1972122 1003460818.2249589 0 1003460818.2249589 631130435.40357423 0 0 0 0 434559514.93051147 315314257.76907158 0 315314257.76907158 272012820.7106384 0 0 0 0 383630516.61091614 297569314.94956779 0 297569314.94956779 274069124.31015468 0 0 0 0 -229188752.55604172 -37648612.737434447 0 -37648612.737434447 53319675.887210846 0 0 0 0 411440820.17234802 213556402.12213993 0 213556402.12213993 235149789.71694851 0 0 0 0 -330670018.80973625 215269993.547575 0 215269993.547575 -311813437.93376541 0 0 0 0 847185.05414095148 117183.54357996583 0 117183.54357996583 -635635.10551719926 0 0 0 0 -245257095.89163971 114268892.79599762 0 114268892.79599762 6134502.6450862885 0 0 0 0 544722434.42745972 218688444.47669792 0 218688444.47669792 210981223.8936758 0 0 0 0 -263354230.35964966 -46033527.593671799 0 -46033527.593671799 552974921.88749695 0 0 0 0 -358625317.49943542 126314136.80373144 0 126314136.80373144 266142146.40842772 0 0 0 0 489089057.99887836 -121716669.22076282 0 -121716669.22076282 207036957.99028397 0 0 0 0 519001163.20368195 426955039.02002907 0 426955039.02002907 145743621.47015858 0 0 0 0 733595899.42255211 607906694.47302055 0 607906694.47302055 389779483.905756 0 0 0 0 981684862.82862854 290077393.38711548 0 290077393.38711548 -124432779.28435135 0 0 0 0 1249644218.3771515 818878823.71639061 0 818878823.71639061 -338956248.23023176 0 0 0 0 3130481.6698548198 -492543.69573269226 0 -492543.69573269226 -1136883.8567229109 0 0 0 0 1582655895.3369904 993681101.94642448 0 993681101.94642448 30047740.745078564 0 0 0 0 23807518.697686858 25294622.158564143 0 25294622.158564143 8827131.0068298038 0 0 0 0 19926228.165941238 32715806.88135457 0 32715806.88135457 -4583956.1210794449 0 0 0 0 21359900.18297863 31112462.237898111 0 31112462.237898111 -14446035.972333908 0 0 0 0 41356381.319381714 42312272.299993515 0 42312272.299993515 -39680551.694416046 0 0 0 0 36746450.715820312 160314541.10197639 0 160314541.10197639 -63039581.757806778 0 0 0 0 14070516.273887634 69516390.890413284 0 69516390.890413284 -32033241.841464996 0 0 0 0 6433362.0633097924 1425571.3197714146 0 1425571.3197714146 -120726.90934349783 0 0 0 0 81066151.303192139 1026790.6067450047 0 1026790.6067450047 10525490.454090118 0 0 0 0 149710663.90139008 115519188.40051842 0 115519188.40051842 -51842094.04545784 0 0 0 0 144828862.96700287 52413729.494401455 0 52413729.494401455 -29885069.200350523 0 0 0 0 -148293880.46299458 122832211.27713156 0 122832211.27713156 27432828.539203644 0 0 0 0 23211475.049126673 27031920.803328134 0 27031920.803328134 9126198.5030740947 0 0 0 0 -135282379.29448509 80878601.20192647 0 80878601.20192647 42389984.379505157 0 0 0 0 -126671842.55145645 116273856.03623438 0 116273856.03623438 55823216.481391907 0 0 0 0 -140012112.03007507 67869258.090419769 0 67869258.090419769 -29113362.415132523 0 0 0 0 21139026.167169265 5221689.833288705 0 5221689.833288705 -553363.78833032725 0 0 0 0 898167041.67483521 -331087644.20599079 0 -331087644.20599079 -389190064.49308014 0 0 0 0 65824421.94065094 32333119.408042431 0 32333119.408042431 29708821.833079338 0 0 0 0 79563095.275978088 29113443.17624855 0 29113443.17624855 -7070229.8824272156 0 0 0 0 21252444.910305813 31079960.1322686 0 31079960.1322686 3454834.9601137387 0 0 0 0 -46147190.769138336 115825527.54054403 0 115825527.54054403 -381300611.71213222 0 0 0 0 138156954.86551666 446873464.69903946 0 446873464.69903946 131255587.40858459 0 0 0 0 23423004.260909263 4034811.504310241 0 4034811.504310241 -3259839.0296105184 0 0 0 0 -273173220.7924881 6647270.9068908691 0 6647270.9068908691 30566844.617821693 0 0 0 0 -197853559.78261185 102077828.27287197 0 102077828.27287197 31282451.427921295 0 0 0 0 -20798552.008544922 94299185.172861099 0 94299185.172861099 -7797746.3017196655 0 0 0 0 2037317577.6675415 1889875738.2256308 0 1889875738.2256308 570474889.00917339 0 0 0 0 328660569.33537292 -1554422365.7642603 0 -1554422365.7642603 -1868227399.0814362 0 0 0 0 3307389798.412323 1180618801.4060745 0 1180618801.4060745 -349349707.91998291 0 0 0 0 3115269392.0041199 163716018.33493996 0 163716018.33493996 54746883.919071198 0 0 0 0 1625575203.1539917 210004642.30161572 0 210004642.30161572 468468550.91548538 0 0 0 0 3251888668.9404449 -1364240202.6863575 0 -1364240202.6863575 858197329.61834717 0 0 0 0 4187640852.828537 -288362218.11343193 0 -288362218.11343193 -189051146.06771088 0 0 0 0 1185681766.590889 374027798.92930889 0 374027798.92930889 76261004.915809631 0 0 0 0 2652638509.8096085 1273544532.7463026 0 1273544532.7463026 19300754.906484604 0 0 0 0 1288361261.2291908 674969203.1361618 0 674969203.1361618 -24819523.005657196 0 0 0 0 -443853851.98709679 -414833930.44182062 0 -414833930.44182062 526050242.90138054 0 0 0 0 451725774.46455002 783286639.6991024 0 783286639.6991024 290105606.26964235 0 0 0 0 -170016517.47859955 -659069829.33526611 0 -659069829.33526611 -12947811.159894943 0 0 0 0 1199902.9642597623 -310594.13589496352 0 -310594.13589496352 -155785.95735242497 0 0 0 0 1220557139.5105591 325284355.38022041 0 325284355.38022041 96121732.654553413 0 0 0 0 -186664375.86956787 462436734.87051678 0 462436734.87051678 235490347.54017639 0 0 0 0 99713694.938308716 -155843485.17091942 0 -155843485.17091942 -528387863.35575104 0 0 0 0 242733319.41138458 -47240284.717965126 0 -47240284.717965126 347814625.97780609 0 0 0 0 465552856.71984863 -592562136.38531113 0 -592562136.38531113 256269390.93828201 0 0 0 0 653202433.09635639 -301296293.17207479 0 -301296293.17207479 199943474.65161514 0 0 0 0 650066874.1558075 -329620351.01195908 0 -329620351.01195908 1036527991.3103333 0 0 0 0 9759199.4039842431 5334182.2855947874 0 5334182.2855947874 -1379531.9971263288 0 0 0 0 1094824060.8664093 196594348.06342506 0 196594348.06342506 -486235984.97991943 0 0 0 0 -48101022.210884094 73653512.234472275 0 73653512.234472275 -241394664.22273946 0 0 0 0 1177952926.3688154 322866867.69200349 0 322866867.69200349 -205102570.44864655 0 0 0 0 152174018.7213974 -173836872.2733593 0 -173836872.2733593 -430311363.93803382 0 0 0 0 158747865.03424072 -277348824.32299805 0 -277348824.32299805 -279413024.7132225 0 0 0 0 1283256673.2611275 22223170.601903915 0 22223170.601903915 -697144203.95680618 0 0 0 0 1320788880.3702574 -309785845.07189107 0 -309785845.07189107 -979790491.77487183 0 0 0 0 1307832825.1312575 -14626881.991707861 0 -14626881.991707861 -1105366794.1391144 0 0 0 0 1009190446.3184967 -605359440.60112 0 -605359440.60112 -1259888949.2123299 0 0 0 0 1843895571.9439697 -158175885.2389164 0 -158175885.2389164 -1566893935.5971069 0 0 0 0 747994568.8760376 -497044096.26217651 0 -497044096.26217651 2925201539.3713989 0 0 0 0 2548370810.9452286 1162611558.4731464 0 1162611558.4731464 -11897988.33405304 0 0 0 0 1140074630.1345215 796589234.9649353 0 796589234.9649353 449965865.62361717 0 0 0 0 521575355.384758 -841137598.09177589 0 -841137598.09177589 -1238421149.7981415 0 0 0 0 1385896724.3802948 -726451815.79164124 0 -726451815.79164124 -2115175759.2504492 0 0 0 0 908911779.40808105 -398978736.55518341 0 -398978736.55518341 -812641336.02378082 0 0 0 0 431363861.98271561 -439616213.78865719 0 -439616213.78865719 -349038587.42731476 0 0 0 0 684850011.37330627 -540015270.34863281 0 -540015270.34863281 -787572441.75601149 0 0 0 0 858412661.91616058 -241618722.62167358 0 -241618722.62167358 -336313843.87927246 0 0 0 0 604177190.08952141 -321669700.27321482 0 -321669700.27321482 -273226838.20626831 0 0 0 0 633542067.4333725 -407284657.57086372 0 -407284657.57086372 -404055716.03512478 0 0 0 0 491501813.65194082 -392882859.84935641 0 -392882859.84935641 -60400570.629383087 0 0 0 0 500459812.54902267 -348966173.54913139 0 -348966173.54913139 16582566.134449005 0 0 0 0 610062666.16048431 -277682904.23802185 0 -277682904.23802185 -171078720.17935371 0 0 0 0 776446620.33750916 -176523373.93370914 0 -176523373.93370914 -110056458.28866577 0 0 0 0 720902250.90253735 53917579.032018661 0 53917579.032018661 151081373.38126755 0 0 0 0 292083352.08388901 -87633325.914175034 0 -87633325.914175034 104500051.16633129 0 0 0 0 12474974.207805039 27685391.879209258 0 27685391.879209258 16016042.120612267 0 0 0 0 22361365.147392273 68697253.620283127 0 68697253.620283127 17610035.141212463 0 0 0 0 391876955.12228966 -324823810.20785618 0 -324823810.20785618 150270439.38562775 0 0 0 0 326195508.6758728 -216415883.08537483 0 -216415883.08537483 33606448.281505585 0 0 0 0 -28796770.827003479 -19660858.114627838 0 -19660858.114627838 -21166699.281305254 0 0 0 0 6913839.5885939561 1144533.22102472 0 1144533.22102472 -1045986.2007765435 0 0 0 0 -244663.06058502197 116432768.45750237 0 116432768.45750237 -26371739.068401337 0 0 0 0 139661824.40162659 41420581.427615166 0 41420581.427615166 -4665165.7697072029 0 0 0 0 22898972.26177597 64555704.816009521 0 64555704.816009521 40705680.28364563 0 0 0 0 13582241.327762522 23701499.578038082 0 23701499.578038082 -18595902.157609437 0 0 0 0 115553018.47908974 -16774845.97995615 0 -16774845.97995615 -41707031.736118317 0 0 0 0 -594682182.62272263 92072062.800156593 0 92072062.800156593 115837116.7869606 0 0 0 0 -435151820.27932739 270343584.16453552 0 270343584.16453552 49314084.900533676 0 0 0 0 -421731091.63020325 -96116935.117284775 0 -96116935.117284775 69515246.579177856 0 0 0 0 -119400410.52513123 -220750064.12508774 0 -220750064.12508774 -126665994.9508667 0 0 0 0 51339432.118148804 -37624704.653747559 0 -37624704.653747559 -211740289.89856911 0 0 0 0 157972300.84069824 119199234.79901123 0 119199234.79901123 43879055.071411133 0 0 0 0 -130853874.68676758 189905341.97151375 0 189905341.97151375 39595420.790100098 0 0 0 0 94703661.930110931 142450974.47563171 0 142450974.47563171 104817258.89644623 0 0 0 0 6065816.25759992 17719809.994065896 0 17719809.994065896 -19409836.565186635 0 0 0 0 192499098.50346375 259096572.32495117 0 259096572.32495117 315208781.6418457 0 0 0 0 464692.67201627046 185954.87192815542 0 185954.87192815542 -860529.07722405531 0 0 0 0 -30414404.847763062 -78322275.50736618 0 -78322275.50736618 -4299937.3348617554 0 0 0 0 -43098214.700141907 -98316452.406238556 0 -98316452.406238556 24222054.398277283 0 0 0 0 -33983876.458709717 -80638120.945759773 0 -80638120.945759773 26554002.024383545 0 0 0 0 -46107881.808074951 -92355063.982175827 0 -92355063.982175827 68322647.415428162 0 0 0 0 39177436.333015442 70581762.44593811 0 70581762.44593811 118839260.20350838 0 0 0 0 68098767.149051666 49849173.640665054 0 49849173.640665054 21164551.846435547 0 0 0 0 6745349.5463848114 62564562.528190613 0 62564562.528190613 78359129.789611816 0 0 0 0 6214861.0055160522 1009326.7130889893 0 1009326.7130889893 -19399750.10212326 0 0 0 0 -39073873.584003448 16542395.315540314 0 16542395.315540314 42589273.254390717 0 0 0 0 -15657005.042248249 2539773.3770694733 0 2539773.3770694733 50956140.144172668 0 0 0 0 497270.31445789337 77314505.294868946 0 77314505.294868946 132395550.23179626 0 0 0 0 -1322918.1526184082 123497222.31155777 0 123497222.31155777 113882440.76913452 0 0 0 0 -86266843.019012451 -38263971.483291626 0 -38263971.483291626 76744971.582839966 0 0 0 0 90086985.807884216 89896644.403030396 0 89896644.403030396 34507974.105529785 0 0 0 0 64723733.222412109 178075541.93950653 0 178075541.93950653 346990135.80441284 0 0 0 0 157622163.92396545 87832499.34992981 0 87832499.34992981 106332163.19224548 0 0 0 0 195744852.92767334 240079853.89730835 0 240079853.89730835 255205792.56607056 0 0 0 0 256897249.92128754 369295770.18895721 0 369295770.18895721 356986725.03030396 0 0 0 0 -1745011.5985840298 895857.31471731886 0 895857.31471731886 2420653.6864257231 0 0 0 0 11360867.438842222 17050220.956154268 0 17050220.956154268 10758302.69156396 0 0 0 0 101611146.82902908 -42682761.368074417 0 -42682761.368074417 185101758.07943153 0 0 0 0 -21561384.331813812 12790094.057418823 0 12790094.057418823 27114986.575790405 0 0 0 0 -36556565.978175163 26067435.075349808 0 26067435.075349808 31178289.901851654 0 0 0 0 4938662.6507844366 10554898.022076232 0 10554898.022076232 186413.88508008048 0 0 0 0 -28804422.520519257 -10267318.666805267 0 -10267318.666805267 7216925.8570232391 0 0 0 0 118156281.07078934 -87350910.837867737 0 -87350910.837867737 -40449250.85332489 0 0 0 0 1993928.6808092745 5593970.7174545862 0 5593970.7174545862 10392238.081869218 0 0 0 0 749900033.21637154 297743915.82886887 0 297743915.82886887 167872955.47279739 0 0 0 0 1078177133.1082268 636839295.40420151 0 636839295.40420151 -18039356.135042191 0 0 0 0 12699759.58465888 1457559.3893584628 0 1457559.3893584628 1693876.7648146208 0 0 0 0 1026830944.0292892 176624903.29785919 0 176624903.29785919 50081251.869268417 0 0 0 0 2433058969.3295164 306668059.98930168 0 306668059.98930168 588583498.45588303 0 0 0 0 2298006664.9067593 622639230.33284378 0 622639230.33284378 -112386206.01543045 0 0 0 0 -190180.63787984033 2152259.7337211659 0 2152259.7337211659 887929.53244164586 0 0 0 0 2475683267.8924837 1679159628.3963137 0 1679159628.3963137 602914005.47854614 0 0 0 0 1397912580.9399667 -455069790.461905 0 -455069790.461905 2946215604.65345 0 0 0 0 3735363.0088672834 -261861.49490535632 0 -261861.49490535632 1391714.4347895198 0 0 0 0 229338566.37372398 -938494443.48228455 0 -938494443.48228455 1856667972.8590374 0 0 0 0 226766298.18356705 -171815019.08366013 0 -171815019.08366013 222926559.36352921 0 0 0 0 171210380.58110237 -208665307.77919006 0 -208665307.77919006 203955040.73854065 0 0 0 0 264541622.43820381 -369737226.95570087 0 -369737226.95570087 495664490.27026367 0 0 0 0 671928510.48628998 -603263992.12706184 0 -603263992.12706184 169068435.94902992 0 0 0 0 829858824.3632679 -321207888.79286766 0 -321207888.79286766 -193516308.34340286 0 0 0 0 2273711377.230217 -1312578032.5532036 0 -1312578032.5532036 -68245763.78805542 0 0 0 0 2672955512.2094216 -353170636.42029381 0 -353170636.42029381 -876191889.76316071 0 0 0 0 1555518727.0407116 383711901.11866379 0 383711901.11866379 -1053783434.7996521 0 0 0 0 1264096673.8063183 -614697543.6679287 0 -614697543.6679287 -209457609.72835398 0 0 0 0 656663614.6556282 376588661.45254326 0 376588661.45254326 57588895.790009499 0 0 0 0 869058565.42549515 493598530.87855339 0 493598530.87855339 -349051493.25884819 0 0 0 0 625090700.15309119 -131875772.76495743 0 -131875772.76495743 -184873161.60291672 0 0 0 0 494831006.91638947 -430515370.23622322 0 -430515370.23622322 -105373870.1199913 0 0 0 0 588990911.64381409 -258679726.53434181 0 -258679726.53434181 -159746202.42779541 0 0 0 0 252426216.32567406 -394387614.75142241 0 -394387614.75142241 -212888001.81412506 0 0 0 0 512640925.20927429 -192816611.15039825 0 -192816611.15039825 -179626309.91170502 0 0 0 0 145137688.14622778 549142417.91207385 0 549142417.91207385 577108966.64460945 0 0 0 0 -17847451.11810112 -143769928.87878704 0 -143769928.87878704 929612745.93856049 0 0 0 0 912304101.48099327 500547304.56652832 0 500547304.56652832 127352662.19849777 0 0 0 0 -876921.35713758646 4682988.439435537 0 4682988.439435537 1117312.1722605694 0 0 0 0 -215523514.9302597 955580818.96876526 0 955580818.96876526 361993323.44048691 0 0 0 0 1759336.8990154723 -140048.71265023388 0 -140048.71265023388 -515365.89620617218 0 0 0 0 -184578042.94270509 1392958621.0402377 0 1392958621.0402377 -560272328.49395752 0 0 0 0 -934785203.46454859 266238855.79645348 0 266238855.79645348 375131311.65603352 0 0 0 0 391113149.6389215 456320691.1323064 0 456320691.1323064 -854156107.03097916 0 0 0 0 1781370483.6804733 805003987.94243336 0 805003987.94243336 139499127.41116714 0 0 0 0 406034394.18480015 -12105398.978738785 0 -12105398.978738785 130510529.79054546 0 0 0 0 93853420.897578716 264034910.06633949 0 264034910.06633949 917646466.31324768 0 0 0 0 470630590.84771061 -89442294.857334137 0 -89442294.857334137 996737486.98881721 0 0 0 0 3767392.5644493103 -55934581.493188858 0 -55934581.493188858 117940555.88233185 0 0 0 0 -490937639.60825896 176932820.81750107 0 176932820.81750107 444107771.1677475 0 0 0 0 8556736.2196480036 -24260523.430889606 0 -24260523.430889606 112157887.18872452 0 0 0 0 -392597851.9189024 287592452.26713371 0 287592452.26713371 -276360940.82283831 0 0 0 0 2325225.5200920599 -2546528.3483479172 0 -2546528.3483479172 412441.07526597194 0 0 0 0 -1032949789.0596552 945833442.81578064 0 945833442.81578064 -183190730.23035717 0 0 0 0 3145441.0974813467 -8455284.2260373011 0 -8455284.2260373011 1956069.4287355859 0 0 0 0 10035337.739347458 -25091992.215967178 0 -25091992.215967178 3812949.4703412056 0 0 0 0 58548351.626834869 156568508.89067745 0 156568508.89067745 211842588.94266367 0 0 0 0 385334969.0401535 319605713.37031841 0 319605713.37031841 284963630.16233206 0 0 0 0 6789515.1193765961 -5844058.9127890207 0 -5844058.9127890207 8423010.1929071415 0 0 0 0 -14610067.987688065 -40493385.530240059 0 -40493385.530240059 24235717.728279114 0 0 0 0 30556184.352285385 -2357544.6762104034 0 -2357544.6762104034 8123274.5109894276 0 0 0 0 -6961407.39494133 31171675.259698868 0 31171675.259698868 63214686.034122467 0 0 0 0 55638817.204015732 61594608.812461853 0 61594608.812461853 19869741.280929565 0 0 0 0 26699012.776036263 25148520.893325806 0 25148520.893325806 -2459999.7327423096 0 0 0 0 197731.58453721367 -149963.85847020056 0 -149963.85847020056 1542293.5001635849 0 0 0 0 14424499.868317485 95489000.987278938 0 95489000.987278938 240915205.21468735 0 0 0 0 -49207102.000303268 146204888.9764576 0 146204888.9764576 212235651.35817146 0 0 0 0 -49434591.944687366 154387973.50180817 0 154387973.50180817 427472651.73826075 0 0 0 0 21024743.509725213 44233318.092267036 0 44233318.092267036 109024803.03439903 0 0 0 0 -25230707.803639412 -23459588.441233635 0 -23459588.441233635 280528272.69701958 0 0 0 0 10073523.293347359 -2482748.3022260666 0 -2482748.3022260666 -4056322.8776900768 0 0 0 0 3141557.6716376403 4436188.6810524026 0 4436188.6810524026 2947039.9675433869 0 0 0 0 201450462.8606205 -35665545.434305191 0 -35665545.434305191 -57738945.951553345 0 0 0 0 -22400715.185085297 -141036024.14150047 0 -141036024.14150047 326500749.50902367 0 0 0 0 -7320272.6666126251 -58103446.936577797 0 -58103446.936577797 214113763.21282196 0 0 0 0 108622046.47322309 -244053270.57173803 0 -244053270.57173803 361733217.01435661 0 0 0 0 6623896.2078552246 -112937467.43564129 0 -112937467.43564129 498444391.65928268 0 0 0 0 -34959396.065587997 -167812754.63616586 0 -167812754.63616586 546869690.28367615 0 0 0 0 -63944478.059379578 -78911775.657659531 0 -78911775.657659531 357377734.02934694 0 0 0 0 -90224694.022403717 -46784909.587474823 0 -46784909.587474823 350787860.96088219 0 0 0 0 -90333401.794237137 -102647593.24636316 0 -102647593.24636316 441650893.82842827 0 0 0 0 -12656632.881433487 -107457782.59255171 0 -107457782.59255171 180516006.58209038 0 0 0 0 6620274.406332016 -12184985.01906395 0 -12184985.01906395 125699459.55918121 0 0 0 0 7412536.749206013 7035715.5922937766 0 7035715.5922937766 4019067.8144566058 0 0 0 0 3340074.2372283936 -37526217.444824219 0 -37526217.444824219 115509344.17424011 0 0 0 0 -2092007.3052787781 50646953.632699013 0 50646953.632699013 222271949.64168739 0 0 0 0 -89009394.806790352 -17894529.759652644 0 -17894529.759652644 323674657.58415413 0 0 0 0 -169787116.32217026 17171182.102036953 0 17171182.102036953 414563558.09276772 0 0 0 0 -149223044.36530304 77333819.905630112 0 77333819.905630112 377079682.00639629 0 0 0 0 53047372.776889801 143086837.46242714 0 143086837.46242714 260093640.62587547 0 0 0 0 -4269000.0223190784 28468951.622282505 0 28468951.622282505 98890974.037492752 0 0 0 0 -45374683.799899101 -17828475.493955612 0 -17828475.493955612 20265141.422574997 0 0 0 0 6897461.1450765384 -151204.83425541036 0 -151204.83425541036 4422535.0162176155 0 0 0 0 16295881.383586884 19739295.435937881 0 19739295.435937881 98889443.505775437 0 0 0 0 -3910932.9888744354 7165940.6298532486 0 7165940.6298532486 102532384.30393219 0 0 0 0 1214901.4997425079 30083312.697343826 0 30083312.697343826 204474355.9966507 0 0 0 0 -1212048.9205802907 7540036.1412666049 0 7540036.1412666049 7519100.8327541985 0 0 0 0 -4126259.6821937561 14383884.701621056 0 14383884.701621056 12742347.997861385 0 0 0 0 5776893.9030256271 26089819.746670723 0 26089819.746670723 1450440.58396101 0 0 0 0 11044292.324710574 9976794.7412006073 0 9976794.7412006073 4965127.7372254506 0 0 0 0 25870109.452803612 23699959.540437222 0 23699959.540437222 40803317.490497589 0 0 0 0 8067049.4140620232 12430995.390031815 0 12430995.390031815 -5215543.6050257683 0 0 0 0 16204567.394953251 18460522.089142323 0 18460522.089142323 -17211915.892946243 0 0 0 0 34758451.937736034 28170144.206965446 0 28170144.206965446 2286840.6765871048 0 0 0 0 10149671.264313698 -3433438.9183945656 0 -3433438.9183945656 12026861.063231945 0 0 0 0 3043878.1099697091 1963912.7862035818 0 1963912.7862035818 -127751.82867047936 0 0 0 0 16640916.695132375 947278.54785749316 0 947278.54785749316 -599956.98114776611 0 0 0 0 36404718.75393039 -5034299.8174326718 0 -5034299.8174326718 -3258499.1099662781 0 0 0 0 17138444.595526695 -7411021.859500885 0 -7411021.859500885 2062741.4197616577 0 0 0 0 13137270.670999527 3679797.8914871216 0 3679797.8914871216 -6522087.8074498177 0 0 0 0 5773734.1433048248 2961761.8951864243 0 2961761.8951864243 -3660986.4820480347 0 0 0 0 16973372.78595686 -1322513.8494777679 0 -1322513.8494777679 -7375999.9483222961 0 0 0 0 12679637.877384186 20092740.731942177 0 20092740.731942177 1339967.5982694626 0 0 0 0 98164881.667521 53159288.005313873 0 53159288.005313873 23474997.230869532 0 0 0 0 101770560.55597532 16530839.238514066 0 16530839.238514066 2844096.8840408325 0 0 0 0 -712255.07730488095 -667409.31166458549 0 -667409.31166458549 503480.88259446807 0 0 0 0 244440.0085849762 -5153500.1184558868 0 -5153500.1184558868 -2212319.7912979126 0 0 0 0 -29549460.515804291 -27478388.177553177 0 -27478388.177553177 6765100.3938031197 0 0 0 0 6031379.4480982665 3501892.3227840974 0 3501892.3227840974 7361774.0419087568 0 0 0 0 1899490.9545068741 2231618.2321817875 0 2231618.2321817875 -931613.02858734131 0 0 0 0 4332957.3169445898 4555719.0356546473 0 4555719.0356546473 4210765.5247542597 0 0 0 0 1357576.5652294159 3127526.1848278046 0 3127526.1848278046 394537.77072143555 0 0 0 0 4405057.3839862151 5197375.765173492 0 5197375.765173492 5583033.4633004833 0 0 0 0 5790075.6199058061 4124927.823138752 0 4124927.823138752 -424983.33334231423 0 0 0 0 2314156.3231230536 1488112.9181043976 0 1488112.9181043976 -733160.75285240635 0 0 0 0 7603720.4274234772 3789253.8739700317 0 3789253.8739700317 -87502.678066253662 0 0 0 0 166904.75816521025 458020.86977138929 0 458020.86977138929 638961.17400549259 0 0 0 0 -12119468.106857181 -5223966.5785790682 0 -5223966.5785790682 27627308.878949165 0 0 0 0 32180817.011602402 -54701.43549823761 0 -54701.43549823761 32964253.665362358 0 0 0 0 17290335.985289574 25629262.555737495 0 25629262.555737495 443182.1224489212 0 0 0 0 74520731.458481789 43075876.480242729 0 43075876.480242729 363781.20778656006 0 0 0 0 24225044.107094765 65597099.333184004 0 65597099.333184004 3607323.6385793686 0 0 0 0 112301310.93037748 -9561276.1333184242 0 -9561276.1333184242 -15470575.426619768 0 0 0 0 -2933066.7468487206 9451577.4550295994 0 9451577.4550295994 6029018.3681324832 0 0 0 0 105278690.75868225 58854706.832362652 0 58854706.832362652 26842868.275944471 0 0 0 0 73553867.719255447 68513604.20535183 0 68513604.20535183 23965235.438433647 0 0 0 0 89772868.665088654 101641101.40154982 0 101641101.40154982 1898622.7162647247 0 0 0 0 35985887.653915405 109803554.11452579 0 109803554.11452579 37658188.434890747 0 0 0 0 121708234.86379576 116655478.21837902 0 116655478.21837902 -61896936.150881767 0 0 0 0 133301583.91046143 88530696.984883308 0 88530696.984883308 5812963.378292799 0 0 0 0 2886850.1945324875 -780597.98519916413 0 -780597.98519916413 -1537311.9273068113 0 0 0 0 88621001.988340378 -27982195.628704548 0 -27982195.628704548 20864851.940883398 0 0 0 0 294101038.47462678 -146534867.93608385 0 -146534867.93608385 65271061.185261965 0 0 0 0 109984864.84033966 17024655.036657214 0 17024655.036657214 7343694.2564692497 0 0 0 0 70857751.435329437 39163901.4899683 0 39163901.4899683 10845796.669728577 0 0 0 0 94810073.527217865 70127853.217548847 0 70127853.217548847 38226837.801114321 0 0 0 0 209209104.29390287 71590945.307894409 0 71590945.307894409 8528563.9499816895 0 0 0 0 -338437.47513580322 -24210408.142441273 0 -24210408.142441273 53611368.033389091 0 0 0 0 751290.96949967369 11820239.208009439 0 11820239.208009439 3018834.1105471984 0 0 0 0 76526653.028276443 41675162.168778896 0 41675162.168778896 38326566.176793098 0 0 0 0 42947846.450023651 47261994.389392436 0 47261994.389392436 14272817.240422845 0 0 0 0 78992372.857006073 67999072.128166378 0 67999072.128166378 26188445.924193382 0 0 0 0 70343498.687521935 9026998.024415493 0 9026998.024415493 -22467789.33637619 0 0 0 0 15676427.922949037 13208455.20017774 0 13208455.20017774 -5088270.7624769546 0 0 0 0 52906273.340478897 -2934787.7527337074 0 -2934787.7527337074 -17878812.38881588 0 0 0 0 56751540.94657135 57936808.131586701 0 57936808.131586701 -21386541.193070054 0 0 0 0 67761473.044160843 -1578944.551774025 0 -1578944.551774025 -35205604.697697639 0 0 0 0 -28619300.895319939 1533108.5367951393 0 1533108.5367951393 42562701.031641722 0 0 0 0 25836645.08351016 37226923.163208723 0 37226923.163208723 48162404.152738571 0 0 0 0 8818945.119531069 1812887.8599255309 0 1812887.8599255309 6044083.8771842699 0 0 0 0 57341972.490777016 47939478.067849636 0 47939478.067849636 -19567424.130730867 0 0 0 0 -1192808.7553784864 -1184135.663269629 0 -1184135.663269629 582681.32770320494 0 0 0 0 98942227.822589993 205780500.39222908 0 205780500.39222908 -90053934.943581581 0 0 0 0 191637761.95954999 315480742.83428776 0 315480742.83428776 -368917722.37420464 0 0 0 0 74359357.723096609 177732334.75025988 0 177732334.75025988 25041904.181465745 0 0 0 0 64245642.156971574 353411403.94302273 0 353411403.94302273 97421738.260513306 0 0 0 0 59762486.982213974 78707998.898792744 0 78707998.898792744 109082718.71804571 0 0 0 0 49881445.354380608 202374412.83492231 0 202374412.83492231 38032343.510719299 0 0 0 0 37363478.291511536 127776544.14748287 0 127776544.14748287 181954134.13290024 0 0 0 0 52420968.417932868 66305965.553360224 0 66305965.553360224 -148388775.42124271 0 0 0 0 -65685545.634428024 236256379.48575068 0 236256379.48575068 -123071777.42248327 0 0 0 0 60775017.611112833 62673176.165106058 0 62673176.165106058 -186244959.69917059 0 0 0 0 7091339.2861693595 -2488916.2303453819 0 -2488916.2303453819 -2551750.4615761205 0 0 0 0 20827784.234084129 115338975.06354165 0 115338975.06354165 -208265526.4402864 0 0 0 0 35881226.643630028 49127515.022664905 0 49127515.022664905 -178973562.09628034 0 0 0 0 122845150.06171536 63727016.083245039 0 63727016.083245039 -189861194.31475925 0 0 0 0 125630204.24859321 208748.72332143784 0 208748.72332143784 -339982150.14018774 0 0 0 0 126393737.68455693 40979895.48536253 0 40979895.48536253 -290421016.66485882 0 0 0 0 8488089.4903850555 -73292323.60759294 0 -73292323.60759294 -171214299.78113675 0 0 0 0 22477616.462177485 -12218160.188153088 0 -12218160.188153088 -118960857.66532254 0 0 0 0 15626535.058460925 -11740335.561562229 0 -11740335.561562229 8831674.9399797134 0 0 0 0 -14515386.176509857 -52014815.703459501 0 -52014815.703459501 -29737153.93315649 0 0 0 0 -27048375.478740692 -55422130.57228756 0 -55422130.57228756 -12543581.601373434 0 0 0 0 -1112033.6831207275 -5340041.6757392883 0 -5340041.6757392883 13769160.600196838 0 0 0 0 21149277.0922966 -15648310.838533163 0 -15648310.838533163 -11000894.334983826 0 0 0 0 -14238746.136455536 -21574206.507540703 0 -21574206.507540703 6665815.1458282471 0 0 0 0 -10982047.286071777 -32781905.76735878 0 -32781905.76735878 -3638592.3050003052 0 0 0 0 27934812.372131348 -38707245.694364548 0 -38707245.694364548 -57734771.320411682 0 0 0 0 1123608.0579402335 -526548.29454253986 0 -526548.29454253986 -287785.00262880232 0 0 0 0 22605186.180763304 -13822969.006384589 0 -13822969.006384589 -104364672.6623168 0 0 0 0 13686907.233278574 -5568442.176258917 0 -5568442.176258917 -3813472.8719781358 0 0 0 0 53410793.255685806 -27185948.481402755 0 -27185948.481402755 10295878.501671076 0 0 0 0 122232401.92071533 -76044265.646115899 0 -76044265.646115899 20842251.790031195 0 0 0 0 67703823.158135414 -2085088.5328276157 0 -2085088.5328276157 -54422921.201699257 0 0 0 0 81111970.952181816 -34039688.647319794 0 -34039688.647319794 -30352252.494874001 0 0 0 0 45791311.199874878 -11838699.813530922 0 -11838699.813530922 -10362550.693675995 0 0 0 0 60295959.653926849 -32531763.560612679 0 -32531763.560612679 -2715782.9158439636 0 0 0 0 50025496.584895134 -22555575.044083595 0 -22555575.044083595 -2889784.6384316534 0 0 0 0 60272147.333325386 -21981130.580630302 0 -21981130.580630302 -12083331.517519951 0 0 0 0 25794016.542109933 -987938.75869838148 0 -987938.75869838148 2838710.6489016414 0 0 0 0 15022881.646087646 -10695394.863512039 0 -10695394.863512039 -6126091.8523888588 0 0 0 0 70782052.844711304 65554101.162500381 0 65554101.162500381 -38866433.818135738 0 0 0 0 35969743.062438965 34438132.245685101 0 34438132.245685101 -30036967.238741875 0 0 0 0 51609315.374655671 8178463.1781969424 0 8178463.1781969424 2635767.963301349 0 0 0 0 10766171.941058919 4966388.5691920538 0 4966388.5691920538 -5400266.1939578801 0 0 0 0 75196186.814071655 -6718121.9798195362 0 -6718121.9798195362 -109441199.88269925 0 0 0 0 51130516.219589233 2929668.3318095803 0 2929668.3318095803 -96386020.489330173 0 0 0 0 53946295.403087616 16284073.417659998 0 16284073.417659998 -46097724.878992558 0 0 0 0 28948761.08493042 73033014.140951991 0 73033014.140951991 -121943205.28373861 0 0 0 0 -2864564.7022628784 31908258.601613522 0 31908258.601613522 -5696161.3077245951 0 0 0 0 18310027.769070879 3338827.8430829858 0 3338827.8430829858 5575687.4718284458 0 0 0 0 4391400.5140481703 1265063.5711101945 0 1265063.5711101945 -1855050.3801829563 0 0 0 0 149601041.56887817 239136872.81547529 0 239136872.81547529 183360284.70759752 0 0 0 0 11484349.471246131 3777261.0799790071 0 3777261.0799790071 1502318.522454116 0 0 0 0 -30118733.542961121 4353515.2218499184 0 4353515.2218499184 51484320.281578064 0 0 0 0 19861471.288451195 24190197.156420827 0 24190197.156420827 31650722.928383827 0 0 0 0 4864582.2007103749 2164180.2023895923 0 2164180.2023895923 2613000.0982792042 0 0 0 0 12991703.195388794 697015.85348033905 0 697015.85348033905 10216361.54017067 0 0 0 0 9238154.119096756 -12924192.924850225 0 -12924192.924850225 8392252.7849121094 0 0 0 0 35265378.418305278 -4083478.2707560733 0 -4083478.2707560733 3679374.9108333765 0 0 0 0 15653908.551086426 -14400970.894174576 0 -14400970.894174576 -3022061.3638648987 0 0 0 0 -542669.28065490723 -12450336.470090866 0 -12450336.470090866 11550459.653104782 0 0 0 0 8039985.6616516113 -21464591.471088409 0 -21464591.471088409 2195087.6572589874 0 0 0 0 8249177.7959575653 -20427612.871482849 0 -20427612.871482849 2433484.8456420898 0 0 0 0 15071217.591110229 -9720722.4091243744 0 -9720722.4091243744 4471616.0056068897 0 0 0 0 8347187.3026580811 -5617798.7102866173 0 -5617798.7102866173 15351579.180473328 0 0 0 0 8306847.1466903687 -7034552.0304384232 0 -7034552.0304384232 17074719.034438133 0 0 0 0 71408399.149581909 -4492124.1524629593 0 -4492124.1524629593 -24104854.11182189 0 0 0 0 33759410.206376716 -7472775.547930181 0 -7472775.547930181 -7376598.1297417777 0 0 0 0 73756482.70882988 7678915.9371278286 0 7678915.9371278286 -52673477.680353165 0 0 0 0 86102552.701965332 -19401187.714668274 0 -19401187.714668274 -44479422.211521626 0 0 0 0 75049520.797073364 -2476169.0469264984 0 -2476169.0469264984 -41809539.521246195 0 0 0 0 11239851.789115906 -4335594.4093654752 0 -4335594.4093654752 -6888918.3254087567 0 0 0 0 36297389.996852875 57373130.014358878 0 57373130.014358878 -19009305.03787607 0 0 0 0 47125512.720486522 -7864856.7660967857 0 -7864856.7660967857 -5178983.4499783441 0 0 0 0 43394914.331337929 17600124.193226814 0 17600124.193226814 21136572.45794487 0 0 0 0 25869856.322277069 62714188.522209764 0 62714188.522209764 -30568556.644085884 0 0 0 0 60982247.213790894 78142457.742326021 0 78142457.742326021 -106690274.59387207 0 0 0 0 88202099.034244537 54034949.344320416 0 54034949.344320416 -38544964.185012341 0 0 0 0 66183348.870268434 18043508.479605496 0 18043508.479605496 -4217235.5779339587 0 0 0 0 56648643.066627502 32358452.453549147 0 32358452.453549147 -56536339.995723724 0 0 0 0 72213756.491104126 12615466.575594902 0 12615466.575594902 -32684629.333538532 0 0 0 0 59850410.986123279 13518911.042838674 0 13518911.042838674 -903119.45114072971 0 0 0 0 109474756.45901108 48322936.317804337 0 48322936.317804337 -120582365.2497015 0 0 0 0 63995704.440856934 43174250.08266592 0 43174250.08266592 -57870170.230502844 0 0 0 0 64532049.298934937 4571948.257247448 0 4571948.257247448 -73195237.784399509 0 0 0 0 139148961.60228854 47671157.019664139 0 47671157.019664139 -48362491.475147247 0 0 0 0 140894891.56886506 -35150379.157446004 0 -35150379.157446004 -29300814.405437946 0 0 0 0 50178446.103546143 26712763.46106863 0 26712763.46106863 -44691594.989863634 0 0 0 0 4223298.8274154663 48586565.324220419 0 48586565.324220419 -52066514.271186829 0 0 0 0 38945886.152193069 45521803.747488171 0 45521803.747488171 -55036451.791088104 0 0 0 0 36571544.412948608 33059313.465665936 0 33059313.465665936 -63810048.897595882 0 0 0 0 29294307.906921387 66354710.560350299 0 66354710.560350299 -77204030.66630137 0 0 0 0 87326895.689605713 83560801.932641029 0 83560801.932641029 -84398329.054498076 0 0 0 0 4099913.491607666 100421070.59731007 0 100421070.59731007 -146872943.21401119 0 0 0 0 1288518.3363342285 77267815.309525967 0 77267815.309525967 -84797600.944659859 0 0 0 0 188536478.77555466 152542721.37775242 0 152542721.37775242 -211073067.09959459 0 0 0 0 100217480.83103943 33985512.639878273 0 33985512.639878273 -78790560.090722561 0 0 0 0 92445564.116134644 11488846.438386917 0 11488846.438386917 -71805871.769176483 0 0 0 0 98026099.127746582 473015.61266326904 0 473015.61266326904 -53863829.59169817 0 0 0 0 150222423.21248627 8186901.0164825916 0 8186901.0164825916 -92328800.917683601 0 0 0 0 99142955.786453247 38517254.811163247 0 38517254.811163247 -82586486.72424221 0 0 0 0 124366112.60426331 37102298.554221869 0 37102298.554221869 -116670300.50601888 0 0 0 0 249732537.38224792 -4128904.4038271904 0 -4128904.4038271904 -120385193.66026248 0 0 0 0 190427794.73799133 -47930725.568722963 0 -47930725.568722963 -76321517.459578991 0 0 0 0 131864019.41938782 -28905121.771060467 0 -28905121.771060467 -82286373.282721758 0 0 0 0 119971652.96286011 -51073227.874299526 0 -51073227.874299526 -57292106.909059405 0 0 0 0 123186084.36276245 -52605705.751080036 0 -52605705.751080036 -59053095.735814095 0 0 0 0 97310848.911911011 -39065012.456418633 0 -39065012.456418633 -60826686.532460213 0 0 0 0 98430333.546356201 -38033760.088841438 0 -38033760.088841438 -60338710.232359886 0 0 0 0 126494497.26922607 -24609663.773245335 0 -24609663.773245335 -73959695.985193253 0 0 0 0 108332300.19017029 -20175013.327502251 0 -20175013.327502251 -68110063.434421539 0 0 0 0 89587504.6537323 -13002238.424124479 0 -13002238.424124479 -61779138.630077362 0 0 0 0 82399489.929656982 -30481296.74798584 0 -30481296.74798584 -54066375.372922897 0 0 0 0 238740778.84458923 -79178359.725554466 0 -79178359.725554466 -100181713.4598341 0 0 0 0 223771547.32200623 -82359130.066298962 0 -82359130.066298962 -145703033.47270679 0 0 0 0 257149699.19859314 815252.12630367279 0 815252.12630367279 -32393206.007346153 0 0 0 0 134070493.51544189 -53382994.394222379 0 -53382994.394222379 -24704197.630658627 0 0 0 0 147075499.08422089 -74425571.943540573 0 -74425571.943540573 -42837404.821783543 0 0 0 0 183551524.27444839 -23292669.972447395 0 -23292669.972447395 -67105541.864386082 0 0 0 0 403133886.47782898 -12948791.51604414 0 -12948791.51604414 -77272233.403407812 0 0 0 0 362832299.33737183 -22433714.56241703 0 -22433714.56241703 -63524145.644734383 0 0 0 0 260758602.56319427 -18984032.760552764 0 -18984032.760552764 -466820.3554019928 0 0 0 0 3872538.8232574463 -6150796.2977471352 0 -6150796.2977471352 -42039854.010454178 0 0 0 0 2940714.2418463808 -3291768.0746395402 0 -3291768.0746395402 -3396545.4849608154 0 0 0 0 347413637.53588104 -35739707.41868782 0 -35739707.41868782 -8601641.1050431728 0 0 0 0 408339526.47723627 -141116790.54463977 0 -141116790.54463977 37077331.492490768 0 0 0 0 -627531.1511574313 68421.671834768727 0 68421.671834768727 1173896.8633047373 0 0 0 0 -79308497.037963867 258221630.07661915 0 258221630.07661915 -247181519.12667632 0 0 0 0 -112980658.95822525 82949146.372747391 0 82949146.372747391 -143813047.86404324 0 0 0 0 -22595644.364219666 24761433.349751025 0 24761433.349751025 -109226625.42464018 0 0 0 0 -40008428.869354248 72924308.21066761 0 72924308.21066761 -209403723.26091099 0 0 0 0 -53895712.81426239 77450747.598589301 0 77450747.598589301 -121867259.94656324 0 0 0 0 -1405987.4177583605 3292148.4557048362 0 3292148.4557048362 3225255.1601328235 0 0 0 0 -119299389.0151825 103553045.28989029 0 103553045.28989029 -120777458.67034912 0 0 0 0 -73151421.660964966 157287605.4941082 0 157287605.4941082 -205316798.08687851 0 0 0 0 59982287.41500473 -33428123.142022133 0 -33428123.142022133 -28779447.979165077 0 0 0 0 65449887.874801636 -91545981.966659546 0 -91545981.966659546 11080288.835571289 0 0 0 0 2784443.5737724863 -4440308.2002063654 0 -4440308.2002063654 -3112544.6169603001 0 0 0 0 -66610937.120368958 -38320668.095265388 0 -38320668.095265388 5461758.4542350769 0 0 0 0 288247717.60151672 -30641669.322229385 0 -30641669.322229385 -22937754.937847137 0 0 0 0 483701274.35482788 32829296.43576622 0 32829296.43576622 -34531778.168567181 0 0 0 0 266622028.49947357 -40614071.27073431 0 -40614071.27073431 65709878.926898956 0 0 0 0 266053002.42140961 -23844324.315175056 0 -23844324.315175056 -14119547.768311501 0 0 0 0 325512480.03455591 397190962.07537651 0 397190962.07537651 238783412.98849678 0 0 0 0 271859755.9848175 241997605.62961578 0 241997605.62961578 42116308.708132267 0 0 0 0 230661759.53772211 476880151.52012014 0 476880151.52012014 407282172.04601669 0 0 0 0 81442759.903167725 11899913.093848675 0 11899913.093848675 -167344019.52102351 0 0 0 0 168858433.27746201 -8738639.6681627035 0 -8738639.6681627035 -152841625.2128458 0 0 0 0 25115057.982025146 222103565.51607317 0 222103565.51607317 114278612.54179549 0 0 0 0 120614033.30853271 -37489567.812450409 0 -37489567.812450409 -91688072.674701691 0 0 0 0 126098811.19422913 27100842.659617424 0 27100842.659617424 -172275824.2104125 0 0 0 0 79052480.034812927 -534204.28523278236 0 -534204.28523278236 -116831237.41098356 0 0 0 0 72480719.194721222 10454293.251287162 0 10454293.251287162 -123222275.73753214 0 0 0 0 9752831.6886901855 10512432.366872311 0 10512432.366872311 -103877554.63645887 0 0 0 0 25021544.03163147 44171460.675040245 0 44171460.675040245 -141575571.67134666 0 0 0 0 -18398284.328338623 21772738.108106613 0 21772738.108106613 -89233263.190105438 0 0 0 0 62870475.865203857 29422528.37785244 0 29422528.37785244 -129125044.55734491 0 0 0 0 352186952.96006012 66649063.749575615 0 66649063.749575615 -87035907.299695969 0 0 0 0 62761085.071533203 26543480.54519558 0 26543480.54519558 -24001711.138895988 0 0 0 0 796478396.32047272 187539090.02882147 0 187539090.02882147 -99064948.05654335 0 0 0 0 42867279.68381691 -4385086.8842949867 0 -4385086.8842949867 -27196290.49315834 0 0 0 0 -14314343.745132446 138271893.11165619 0 138271893.11165619 -112139272.5922091 0 0 0 0 -2111298.107130222 2603440.8399357963 0 2603440.8399357963 4105018.9685856048 0 0 0 0 -1821802.1322059631 75125651.357544184 0 75125651.357544184 -58917639.127773285 0 0 0 0 207006683.54582214 55389246.156867027 0 55389246.156867027 -62139491.693715572 0 0 0 0 51380506.281051636 111180447.09133911 0 111180447.09133911 182137219.84732628 0 0 0 0 -1312729.35244295 1141738.0083343312 0 1141738.0083343312 2265316.9812281393 0 0 0 0 215793878.98382568 639047082.71041298 0 639047082.71041298 630706617.95020676 0 0 0 0 517755861.18656349 694366848.45407486 0 694366848.45407486 531855295.24658394 0 0 0 0 348468832.48444366 442186891.41268826 0 442186891.41268826 200842483.71061182 0 0 0 0 344862397.07713127 494483966.6208027 0 494483966.6208027 275324648.07368469 0 0 0 0 503091584.8272171 393515467.89349461 0 393515467.89349461 334240965.49009228 0 0 0 0 482115148.84760666 324911783.70277166 0 324911783.70277166 140076626.56824303 0 0 0 0 -1752615.9601697847 -377116.15318939276 0 -377116.15318939276 2186563.4498627977 0 0 0 0 728845408.34533691 -8009688.1878006458 0 -8009688.1878006458 57545771.861730576 0 0 0 0 801993524.13137817 367773955.99919462 0 367773955.99919462 -208475984.74254227 0 0 0 0 984060823.58601379 92456823.301455498 0 92456823.301455498 -211626633.45073128 0 0 0 0 806845660.40112305 429097198.58946943 0 429097198.58946943 142427696.14002687 0 0 0 0 622342929.73527908 591716643.27004576 0 591716643.27004576 261543225.10105228 0 0 0 0 186961317.20110321 -65773405.074664116 0 -65773405.074664116 50819205.392206192 0 0 0 0 175271933.78966522 -105643800.9797492 0 -105643800.9797492 -75668062.087352753 0 0 0 0 9583714.1758041382 126638700.28908253 0 126638700.28908253 26838476.540537119 0 0 0 0 453027233.83877563 136051366.73958874 0 136051366.73958874 23107028.392575264 0 0 0 0 163824289.576828 -58216796.820623398 0 -58216796.820623398 62290485.831718445 0 0 0 0 153031453.25644684 -87167072.882699966 0 -87167072.882699966 37553255.665948868 0 0 0 0 1814268.8262284007 257367.6697419472 0 257367.6697419472 5178236.8124333136 0 0 0 0 188767364.72600365 -147277121.77147579 0 -147277121.77147579 131819036.59523964 0 0 0 0 -2793216.5112597272 -300394.66122757457 0 -300394.66122757457 1442259.5533670206 0 0 0 0 2356407.8055752814 4296062.2664599894 0 4296062.2664599894 2085426.8829501583 0 0 0 0 439014.77306556702 1381643.2170042992 0 1381643.2170042992 -124234.01759910583 0 0 0 0 221904587.86376953 -183866106.41425514 0 -183866106.41425514 151052150.07726431 0 0 0 0 1955708.5652590198 285405.45146566071 0 285405.45146566071 2580677.8173361756 0 0 0 0 12392381.188678741 -18199784.046680927 0 -18199784.046680927 -18399044.482120514 0 0 0 0 489581405.31832123 -780135347.20905876 0 -780135347.20905876 -355698620.55320835 0 0 0 0 399672106.46917725 -143418758.32680702 0 -143418758.32680702 69251353.114195347 0 0 0 0 462965090.88368988 -214597361.8664875 0 -214597361.8664875 -391436258.93221283 0 0 0 0 260318284.69476128 59744278.504407763 0 59744278.504407763 21892787.517690659 0 0 0 0 1639411749.618576 -53797021.499625206 0 -53797021.499625206 -672201183.54020786 0 0 0 0 612754490.70541 -27669770.8356089 0 -27669770.8356089 -176189269.83638382 0 0 0 0 884193186.3340683 983340251.93737006 0 983340251.93737006 2319680991.6037326 0 0 0 0 2025419801.4395599 -781701407.8649168 0 -781701407.8649168 353955678.08354235 0 0 0 0 -501474702.13613892 304830759.95857072 0 304830759.95857072 509090293.29581523 0 0 0 0 -1323820.3005466461 5219860.6851186752 0 5219860.6851186752 6629608.0059890747 0 0 0 0 -995232.79949798528 1758381.5378130525 0 1758381.5378130525 8878590.2944620103 0 0 0 0 1244052681.9524689 599220369.12350416 0 599220369.12350416 -90710945.933293343 0 0 0 0 2324487088.5435257 767035301.89829922 0 767035301.89829922 -325812073.7577703 0 0 0 0 3960991.9362763353 1725524.2273621811 0 1725524.2273621811 896000.53916271171 0 0 0 0 631380779.99297333 1202474699.4648659 0 1202474699.4648659 1562036841.0498469 0 0 0 0 214431554.53421021 232334408.09915736 0 232334408.09915736 152011035.70551375 0 0 0 0 -51360302.946323395 46206625.291825294 0 46206625.291825294 237293981.87624693 0 0 0 0 -50487874.38924408 10552356.335627556 0 10552356.335627556 4278754.2910385132 0 0 0 0 999645213.48266888 603978869.16557479 0 603978869.16557479 -52246523.838811874 0 0 0 0 1504435220.6072769 782776381.73203278 0 782776381.73203278 68845746.004760742 0 0 0 0 1012033878.1109571 517906788.84162217 0 517906788.84162217 -54214341.85118103 0 0 0 0 1644277291.809967 587929323.21680164 0 587929323.21680164 -417871101.22602272 0 0 0 0 1791147475.9229889 -394227945.69142103 0 -394227945.69142103 -161823556.12001038 0 0 0 0 2470332197.1534958 874078677.79692054 0 874078677.79692054 -341762813.29953957 0 0 0 0 926040318.56743622 949015418.18833637 0 949015418.18833637 177709358.62119079 0 0 0 0 1609826925.801178 515385283.3907342 0 515385283.3907342 -404786920.14621544 0 0 0 0 -6997904.6228218079 1998175.1416754723 0 1998175.1416754723 4581053.3543624878 0 0 0 0 -65926977.522563934 45562136.743441582 0 45562136.743441582 -17478237.70450592 0 0 0 0 -5257993.3984375 3532641.2287597656 0 3532641.2287597656 6042240.8627338409 0 0 0 0 490467.61957662925 2590697.8861544151 0 2590697.8861544151 5845303.3188320501 0 0 0 0 -8780255.211643219 3995916.8358483315 0 3995916.8358483315 7707912.9691009521 0 0 0 0 -13973168.640007019 -4957458.8439731598 0 -4957458.8439731598 3737272.5709118843 0 0 0 0 -11458779.764743805 1100858.4884977341 0 1100858.4884977341 6803464.3533554077 0 0 0 0 -8725920.8165359497 -634454.15765190125 0 -634454.15765190125 1766385.3695678711 0 0 0 0 3570685153.6499939 257738124.27864552 0 257738124.27864552 -167878215.5789299 0 0 0 0 2311121774.2451782 697967122.54651833 0 697967122.54651833 -363138653.73579884 0 0 0 0 2106185792.8764496 496713823.43737316 0 496713823.43737316 228161006.3843174 0 0 0 0 465040.42158300802 203565.64581854083 0 203565.64581854083 116900.85994286276 0 0 0 0 1516911612.2931671 717612201.43518829 0 717612201.43518829 204386636.40318489 0 0 0 0 -198002.60187936202 471977.59641310573 0 471977.59641310573 1885221.9918415444 0 0 0 0 1955106009.3780918 173239986.81423986 0 173239986.81423986 849006278.7490654 0 0 0 0 1638049923.1287766 1387229404.4241619 0 1387229404.4241619 755617419.8528595 0 0 0 0 3082692643.6812363 1101444637.9161015 0 1101444637.9161015 46571103.93543148 0 0 0 0 7451047.2040185928 69081192.292322159 0 69081192.292322159 558836223.70435143 0 0 0 0 1652094.0562543441 1221788.3178392369 0 1221788.3178392369 -192370.76159824245 0 0 0 0 1686581494.8332872 1027412020.0376781 0 1027412020.0376781 322962197.23477364 0 0 0 0 1984940.5849490911 -148080.59848925099 0 -148080.59848925099 -965684.64002577122 0 0 0 0 339840337.96394348 179386710.73937893 0 179386710.73937893 51386144.972135544 0 0 0 0 444903498.15560913 342303306.86744785 0 342303306.86744785 -30285764.697743416 0 0 0 0 2025561013.2049561 446023512.50020325 0 446023512.50020325 115183272.29668236 0 0 0 0 737530573.52440643 1097714854.2934828 0 1097714854.2934828 159364315.23663783 0 0 0 0 -58805333.639245987 -186434686.45708412 0 -186434686.45708412 -9895884.5493555069 0 0 0 0 3652095.9196777344 79015901.318880558 0 79015901.318880558 68662561.835218668 0 0 0 0 -43837039.273614883 -40315942.870408058 0 -40315942.870408058 38419613.071657181 0 0 0 0 255371195.39713287 -479768536.34775639 0 -479768536.34775639 399037401.67653465 0 0 0 0 1016324417.7404861 303578205.16341686 0 303578205.16341686 -231654303.24943399 0 0 0 0 3232042.4447314143 -163617.41652472317 0 -163617.41652472317 2095527.0557301263 0 0 0 0 777684799.75450134 325617879.7028923 0 325617879.7028923 452498613.6647625 0 0 0 0 10071643.696998596 3010809.7091941833 0 3010809.7091941833 18945910.624410629 0 0 0 0 -38005216.321201324 20579500.874282837 0 20579500.874282837 15617869.101900101 0 0 0 0 3069585.929599762 22288931.037722588 0 22288931.037722588 11703203.231477737 0 0 0 0 24967406.482744217 51481918.026828289 0 51481918.026828289 -15781010.250404358 0 0 0 0 17292667.310012817 40175304.561189651 0 40175304.561189651 3984199.7519760132 0 0 0 0 29388009.219085693 29753696.460238457 0 29753696.460238457 -4365188.5798473358 0 0 0 0 8642004.1545505524 42702519.353336096 0 42702519.353336096 -9102140.2262248993 0 0 0 0 -7711249.9894828796 50437767.659891129 0 50437767.659891129 -5258287.9355106354 0 0 0 0 10841253.161296844 45902754.745866776 0 45902754.745866776 -10303470.486629486 0 0 0 0 -10457807.076751709 69605462.993485451 0 69605462.993485451 -32008106.145201445 0 0 0 0 -7592011.3868408203 42259038.149433136 0 42259038.149433136 -8519762.7718105316 0 0 0 0 -6569191.980175972 33986800.756905913 0 33986800.756905913 9967194.5650844574 0 0 0 0 -58283738.366867065 73696943.313220024 0 73696943.313220024 11459954.26015377 0 0 0 0 -36950875.535663605 49706952.64802742 0 49706952.64802742 8910412.220375061 0 0 0 0 -153117249.69086266 -44359211.703801632 0 -44359211.703801632 52677315.035539627 0 0 0 0 -7848601.1914978027 -41190409.419248581 0 -41190409.419248581 32242819.429030418 0 0 0 0 1689543.1778134219 456466.87971843407 0 456466.87971843407 -849492.68255499844 0 0 0 0 5382905.4832038879 -22334008.647223473 0 -22334008.647223473 -1345348.730047226 0 0 0 0 442243087.12613678 422797703.22310448 0 422797703.22310448 163191458.92801094 0 0 0 0 318168686.48501682 250197919.93537259 0 250197919.93537259 244476224.96044731 0 0 0 0 -8346648.8844146729 -2497077.519443512 0 -2497077.519443512 -651299.82231986523 0 0 0 0 -14447019.760871887 -1615663.9093769789 0 -1615663.9093769789 8922104.6950683594 0 0 0 0 -9226686.6479988098 -7320977.1050510406 0 -7320977.1050510406 25280390.063282967 0 0 0 0 -37799302.331037268 -19792284.639964234 0 -19792284.639964234 19850762.079914093 0 0 0 0 -8868727.6855220795 -6322103.5743200779 0 -6322103.5743200779 8294399.8144493103 0 0 0 0 -13579820.936943054 -7673076.0532979965 0 -7673076.0532979965 33651659.06196022 0 0 0 0 -6366773.0368766785 10425243.249717712 0 10425243.249717712 27578704.942142487 0 0 0 0 -13143678.261104584 1965299.0221748352 0 1965299.0221748352 20026199.329236031 0 0 0 0 -10967540.689704895 1413657.3870429993 0 1413657.3870429993 6153237.4101018906 0 0 0 0 -10701323.07787323 11189856.03085041 0 11189856.03085041 10916016.440952301 0 0 0 0 -5169941.55884552 9545218.758190155 0 9545218.758190155 6334656.779296875 0 0 0 0 -12759974.908088684 37625827.532999039 0 37625827.532999039 979160.25273132324 0 0 0 0 -10770125.066311836 9967942.1328194141 0 9967942.1328194141 30623037.824234009 0 0 0 0 -36469032.2342453 13273801.713640213 0 13273801.713640213 58078073.646328926 0 0 0 0 103434992.90541077 21354617.633888245 0 21354617.633888245 19596915.988489628 0 0 0 0 25102689.798223495 -27928933.997504234 0 -27928933.997504234 50110804.416435242 0 0 0 0 41415947.365699768 4934737.4736652374 0 4934737.4736652374 15577514.803783417 0 0 0 0 29836401.132202864 59246925.656763136 0 59246925.656763136 20961337.230529785 0 0 0 0 28227179.141410828 39559687.046070099 0 39559687.046070099 37853856.890392303 0 0 0 0 52908750.341583252 54234502.466121674 0 54234502.466121674 9486767.4297161102 0 0 0 0 81220232.020935059 79328081.886953354 0 79328081.886953354 60585132.755554199 0 0 0 0 124539875.38071442 -20244487.689774513 0 -20244487.689774513 -138069599.44322872 0 0 0 0 606090.97623851523 737316.96920769103 0 737316.96920769103 -193919.87746925047 0 0 0 0 109187.0200510174 4059075.5494427364 0 4059075.5494427364 769326.30143624882 0 0 0 0 94462462.850219727 18867821.301597595 0 18867821.301597595 -87513839.439180374 0 0 0 0 2462460.4093589783 58832098.75600338 0 58832098.75600338 129789785.19406891 0 0 0 0 107986760.21927524 68650387.052123487 0 68650387.052123487 -54412775.200212479 0 0 0 0 111901227.81114483 33143878.700380802 0 33143878.700380802 -13618658.10799408 0 0 0 0 75193289.499786377 90969659.627826691 0 90969659.627826691 -51043263.769981384 0 0 0 0 77953577.719959259 70164808.785799503 0 70164808.785799503 25168457.398002625 0 0 0 0 38525299.503234863 70914626.366123199 0 70914626.366123199 59756843.643636703 0 0 0 0 71242631.462940216 167812423.61418247 0 167812423.61418247 97284026.574630737 0 0 0 0 84477889.899261475 162818948.96686172 0 162818948.96686172 27783857.479099274 0 0 0 0 38491937.923118591 143514185.56988335 0 143514185.56988335 180867788.85726929 0 0 0 0 209772432.76066589 -79555586.930294037 0 -79555586.930294037 -134482910.90855026 0 0 0 0 257487.98998165876 1055541.8435425269 0 1055541.8435425269 514683.1295260461 0 0 0 0 298877802.67602921 -53320991.24946022 0 -53320991.24946022 -157086460.66967773 0 0 0 0 -8184524.2710494995 40959378.176712036 0 40959378.176712036 224517086.9638443 0 0 0 0 30502382.986999512 70809025.950667381 0 70809025.950667381 91830150.864440918 0 0 0 0 -4100584.6654090881 -7045584.6005001068 0 -7045584.6005001068 87538298.3527565 0 0 0 0 847588.4913504757 2870984.2709762845 0 2870984.2709762845 1032762.2745420639 0 0 0 0 -2166762.8582382202 5953601.8501996994 0 5953601.8501996994 6443171.4123649597 0 0 0 0 -52812543.231124878 -20613411.277774811 0 -20613411.277774811 -15626335.548662186 0 0 0 0 4461560.4047546387 8165162.584104538 0 8165162.584104538 5641017.8235874176 0 0 0 0 2711486.2546234131 15188741.557886124 0 15188741.557886124 -20809310.815925598 0 0 0 0 963906.03005865589 1698782.9634261336 0 1698782.9634261336 110835.77862762893 0 0 0 0 167289378.23307657 -134798627.80310273 0 -134798627.80310273 -90133867.307373047 0 0 0 0 -130240500.72852325 137696750.25769424 0 137696750.25769424 156069458.57555795 0 0 0 0 -94834294.145523071 -45724426.480331421 0 -45724426.480331421 178085493.57250977 0 0 0 0 -48929446.020370483 85451059.377630234 0 85451059.377630234 -42903708.134128571 0 0 0 0 -43266401.46925354 1296174.2777481079 0 1296174.2777481079 968591.33676719666 0 0 0 0 -100661313.94146633 -7593732.6073992252 0 -7593732.6073992252 5094785.7750358582 0 0 0 0 -11378784.800151825 -1175650.5187225342 0 -1175650.5187225342 3509901.0531177521 0 0 0 0 -3456282.0942497253 -1213089.4058465958 0 -1213089.4058465958 -4999128.0860157013 0 0 0 0 58481.100649531931 2687368.7592151682 0 2687368.7592151682 2340251.7286640052 0 0 0 0 2346233.8706970215 -6435635.8049297333 0 -6435635.8049297333 -2067691.8013820648 0 0 0 0 -4497775.4165649414 -1044363.615489006 0 -1044363.615489006 20111687.160671234 0 0 0 0 19837994.290603638 30784793.286565781 0 30784793.286565781 29494003.810770988 0 0 0 0 10166952.499412537 6749267.6544342041 0 6749267.6544342041 816463.70621585846 0 0 0 0 -9340108.2210617065 -5516302.2466745377 0 -5516302.2466745377 11836794.251909256 0 0 0 0 44330418.652740479 -83519325.640024185 0 -83519325.640024185 100807910.68755221 0 0 0 0 -48819258.112958908 164104564.96567726 0 164104564.96567726 70039701.793041229 0 0 0 0 152946066.69793129 -85086371.151802063 0 -85086371.151802063 -131224968.39954376 0 0 0 0 226537288.52320862 -54335852.790142059 0 -54335852.790142059 -154334723.05900764 0 0 0 0 255420.50792440772 785399.51180428267 0 785399.51180428267 630632.01132794749 0 0 0 0 43062288.383087158 53680261.748573303 0 53680261.748573303 63517928.165478706 0 0 0 0 173189310.09077454 58906692.58975029 0 58906692.58975029 -3334454.0798339844 0 0 0 0 72970482.121948242 32251790.258703232 0 32251790.258703232 -8935848.0551509857 0 0 0 0 223329414.96032906 -49597397.889487743 0 -49597397.889487743 -45256627.931346893 0 0 0 0 58907343.165267944 -52079846.027238846 0 -52079846.027238846 -30327420.332302094 0 0 0 0 56149846.411251068 -11097910.918424606 0 -11097910.918424606 -13005566.924741745 0 0 0 0 117518897.04700851 -16801947.696988106 0 -16801947.696988106 -20819339.385801315 0 0 0 0 46804850.04026413 17671649.395625114 0 17671649.395625114 -4642527.479593277 0 0 0 0 59501565.03849411 17493833.182467461 0 17493833.182467461 -4826304.1932792664 0 0 0 0 60253770.697254181 8660611.740524292 0 8660611.740524292 -10294656.626300812 0 0 0 0 48192993.786026001 9977734.9136695862 0 9977734.9136695862 -5997944.3464641571 0 0 0 0 43399428.108860016 4052159.7896709442 0 4052159.7896709442 -2687284.8029727936 0 0 0 0 57208063.336382866 -781109.32624268532 0 -781109.32624268532 -2054661.4550590515 0 0 0 0 49216434.725517273 9066067.8556671143 0 9066067.8556671143 1587497.7772445679 0 0 0 0 49367400.583494186 9957238.4141163826 0 9957238.4141163826 -6151025.5398330688 0 0 0 0 46185771.064704895 11883352.674322128 0 11883352.674322128 -609216.24984169006 0 0 0 0 49926834.340162516 11149111.684587479 0 11149111.684587479 -962063.39147186279 0 0 0 0 47064225.318733215 12975749.35062027 0 12975749.35062027 6504754.2547824383 0 0 0 0 28619972.641792297 -13337335.675678968 0 -13337335.675678968 -44259739.24916935 0 0 0 0 49716888.849514008 13744944.180541992 0 13744944.180541992 1006501.9673666954 0 0 0 0 25820674.328681774 -6188396.6432355903 0 -6188396.6432355903 -14521809.904491242 0 0 0 0 390406017.15472412 -115088331.85600281 0 -115088331.85600281 -96189774.534671783 0 0 0 0 119779005.82672882 50018263.065803528 0 50018263.065803528 -46710725.560028076 0 0 0 0 148046083.84451294 66092171.187454224 0 66092171.187454224 -68903778.768096924 0 0 0 0 334420658.78674507 114616337.0481925 0 114616337.0481925 -62844852.098831177 0 0 0 0 145809571.10507202 49584318.155532837 0 49584318.155532837 -46839523.050078392 0 0 0 0 161990045.69094849 -102598295.62957001 0 -102598295.62957001 -94899443.377933502 0 0 0 0 141396906.40956116 -5100622.7931365967 0 -5100622.7931365967 -80969553.469352722 0 0 0 0 264908937.99121094 27152831.20293808 0 27152831.20293808 -80501741.987640381 0 0 0 0 50993246.606903076 6791109.2838954926 0 6791109.2838954926 -2343253.2181587219 0 0 0 0 37998101.158317566 4740328.644405365 0 4740328.644405365 -1022533.9400615692 0 0 0 0 46618526.60799408 8329591.7881317139 0 8329591.7881317139 -4398076.3952598572 0 0 0 0 33401680.069534302 7037576.5506191254 0 7037576.5506191254 849846.00598907471 0 0 0 0 39272921.641136169 11766826.801366806 0 11766826.801366806 -3595379.9649925232 0 0 0 0 32032868.861118317 10359947.831062794 0 10359947.831062794 -2254435.4072151184 0 0 0 0 6917855.6159924874 -1812906.2297185045 0 -1812906.2297185045 -1390219.964837078 0 0 0 0 420504873.36492062 -167717428.69643652 0 -167717428.69643652 57218262.791698456 0 0 0 0 -1785481.8771130145 -403111.07489725947 0 -403111.07489725947 2152569.7288000192 0 0 0 0 435872658.64903259 7301298.0011720657 0 7301298.0011720657 91323386.156759262 0 0 0 0 39893252.689258575 157601059.40936756 0 157601059.40936756 -68684154.759665966 0 0 0 0 32251045.689926147 8796961.5989074707 0 8796961.5989074707 -3915337.7631323338 0 0 0 0 32414053.980712891 2311942.179479599 0 2311942.179479599 -9091280.875212729 0 0 0 0 36599406.908256531 8897314.1076698303 0 8897314.1076698303 -3536904.1512733102 0 0 0 0 45022923.87946701 13807163.006373405 0 13807163.006373405 -4909898.5350799561 0 0 0 0 36947899.98235321 9401768.6648330688 0 9401768.6648330688 -8901060.1267623901 0 0 0 0 287976620.31546974 -92921180.196908951 0 -92921180.196908951 -44523169.717830658 0 0 0 0 2796961.1486870609 -1450839.438797472 0 -1450839.438797472 2243217.4820770957 0 0 0 0 -1022273.033996582 11552532.931925297 0 11552532.931925297 11187434.358310699 0 0 0 0 159811397.8412323 3349673.6305961609 0 3349673.6305961609 -5369777.5606431961 0 0 0 0 -2840172.732033506 -578406.13718857802 0 -578406.13718857802 3617332.3907021284 0 0 0 0 150453506.31796265 -28474502.84015274 0 -28474502.84015274 8519250.0325126648 0 0 0 0 212458643.26229095 -88395987.281990051 0 -88395987.281990051 -31495503.281593323 0 0 0 0 150982670.00173712 -24090475.98887682 0 -24090475.98887682 -44190586.820953369 0 0 0 0 149928932.82949066 -105876688.14723206 0 -105876688.14723206 46875113.904361725 0 0 0 0 129508294.65310669 -65171731.421260834 0 -65171731.421260834 -52704383.081274986 0 0 0 0 215214819.54434967 181228425.93651772 0 181228425.93651772 239932374.93623352 0 0 0 0 468175632.90875244 127695372.19979858 0 127695372.19979858 56833562.896413803 0 0 0 0 252660084.26350403 -99453721.302371979 0 -99453721.302371979 41779957.17216444 0 0 0 0 275849908.32532501 -67842891.891862869 0 -67842891.891862869 -124554374.58046341 0 0 0 0 243242165.12753677 1117808.0757255554 0 1117808.0757255554 -107518482.74909592 0 0 0 0 182665799.2038269 -23237316.219347 0 -23237316.219347 11446261.717150688 0 0 0 0 -69820040.36063385 34048042.940603256 0 34048042.940603256 -87227040.041137218 0 0 0 0 245183042.27558136 -40093020.161798477 0 -40093020.161798477 -131857157.17166519 0 0 0 0 274039316.44300842 -91875876.642444611 0 -91875876.642444611 -139712370.37503052 0 0 0 0 754017995.1231842 22188352.564159393 0 22188352.564159393 -131171459.56219506 0 0 0 0 153775329.45407486 -44238068.586032867 0 -44238068.586032867 -105749876.65830231 0 0 0 0 156366617.04744148 -56309936.429497719 0 -56309936.429497719 -188944404.99714661 0 0 0 0 -11916991.84621048 86044821.802093506 0 86044821.802093506 -8558955.5442962646 0 0 0 0 11702203.408102036 -17200784.60973835 0 -17200784.60973835 -27803788.448120117 0 0 0 0 165049396.2793045 74807839.397293091 0 74807839.397293091 -46659976.636741638 0 0 0 0 173727492.47052002 -32653908.644990921 0 -32653908.644990921 -97997124.177322388 0 0 0 0 239353138.1178093 -28567998.051950455 0 -28567998.051950455 -144584614.29053497 0 0 0 0 210877027.39070892 -34476486.176250458 0 -34476486.176250458 -98332503.792604923 0 0 0 0 242090398.61082077 168923628.93145752 0 168923628.93145752 -16404405.560180664 0 0 0 0 431206041.79084778 14172249.542930603 0 14172249.542930603 -139834452.44910955 0 0 0 0 12892833.313293457 142224562.94968414 0 142224562.94968414 -5408826.497677803 0 0 0 0 60766535.546226501 39132467.34532547 0 39132467.34532547 -42367365.316398621 0 0 0 0 83296094.516204834 70857254.931926727 0 70857254.931926727 -38475162.571357727 0 0 0 0 82119440.22933197 69819800.000113487 0 69819800.000113487 -14422075.338180542 0 0 0 0 95091151.565811157 76687872.347236633 0 76687872.347236633 -29587739.295471191 0 0 0 0 68890548.549545288 54060112.316421509 0 54060112.316421509 -16300498.894931793 0 0 0 0 100992311.47060776 40051292.433887482 0 40051292.433887482 -48462388.919906616 0 0 0 0 53426631.796737671 35532053.994529724 0 35532053.994529724 -45995238.671073914 0 0 0 0 82842242.372039795 14536122.882572174 0 14536122.882572174 -53780710.293319702 0 0 0 0 477680.28234863281 46389771.018886566 0 46389771.018886566 -37609259.41699028 0 0 0 0 62422191.940767288 61283746.951461792 0 61283746.951461792 -56093497.172744751 0 0 0 0 2598302.299798483 -77326.509207662195 0 -77326.509207662195 88980.308103583753 0 0 0 0 565554235.94696808 209004889.88749313 0 209004889.88749313 80059833.629928589 0 0 0 0 -131761257.38608551 95402772.799682617 0 95402772.799682617 10234189.630638123 0 0 0 0 2435042.0949911624 -469510.7770945942 0 -469510.7770945942 -1338520.7152338866 0 0 0 0 -1760853.6309719086 38381401.896360397 0 38381401.896360397 -56127113.867202759 0 0 0 0 583157927.88616943 -326870288.04047394 0 -326870288.04047394 -254605684.51402283 0 0 0 0 314889585.43588257 281581465.39372253 0 281581465.39372253 682537948.25349426 0 0 0 0 24869485.823631287 3099625.9774303436 0 3099625.9774303436 -14565885.716678619 0 0 0 0 8394691.038292652 -5286091.5615274906 0 -5286091.5615274906 -6835608.3665807918 0 0 0 0 46144724.755256653 26829254.362854004 0 26829254.362854004 -38440909.333320618 0 0 0 0 24093958.063074797 9508922.1165980268 0 9508922.1165980268 -7218907.0551334582 0 0 0 0 33899272.516332626 22201160.113223076 0 22201160.113223076 -37580908.759460449 0 0 0 0 9846944.3331680298 56819428.159564972 0 56819428.159564972 -56602991.325588465 0 0 0 0 13792812.279698081 8108335.8208798524 0 8108335.8208798524 -2312081.1452118307 0 0 0 0 12836878.699501038 62904919.425552368 0 62904919.425552368 -47943393.582265854 0 0 0 0 -1709329.1757030562 2808413.9750459502 0 2808413.9750459502 4594645.8720577024 0 0 0 0 -81289001.933198929 202327219.01072216 0 202327219.01072216 -212355252.88209534 0 0 0 0 -81478399.088375092 196025627.90480423 0 196025627.90480423 -293940202.16283989 0 0 0 0 93997887.337364197 -203751894.17547989 0 -203751894.17547989 37099501.309356689 0 0 0 0 -107336321.40968323 265381512.60667801 0 265381512.60667801 156616725.61606216 0 0 0 0 728470502.5146637 15775929.548875809 0 15775929.548875809 -145954698.70254517 0 0 0 0 -1157626.7576920725 1327667.438839375 0 1327667.438839375 2434910.3990349099 0 0 0 0 -175301922.4779644 69170039.259337425 0 69170039.259337425 92632497.803642273 0 0 0 0 -81149340.830354691 -11346313.396007538 0 -11346313.396007538 65669951.272209167 0 0 0 0 17047864.72996521 109209372.26424789 0 109209372.26424789 39559196.424869537 0 0 0 0 -123693187.42867279 101614571.82951736 0 101614571.82951736 112457912.81421661 0 0 0 0 19233066.67771554 207104031.77089965 0 207104031.77089965 -22907747.929763794 0 0 0 0 294852469.94932556 399697652.77518463 0 399697652.77518463 111634710.79263306 0 0 0 0 272932875.40122986 122892036.52396393 0 122892036.52396393 -43409471.65272522 0 0 0 0 75555945.767110825 66633091.526590347 0 66633091.526590347 4559439.2108688354 0 0 0 0 84498879.424007416 79860274.70031929 0 79860274.70031929 -52086421.903610229 0 0 0 0 -9548070.0009498596 40825424.140985489 0 40825424.140985489 20035476.374465942 0 0 0 0 9108412.7849731445 87055061.697147369 0 87055061.697147369 26578970.533967972 0 0 0 0 23435434.034736633 -3145441.4474143982 0 -3145441.4474143982 -7537343.1869907379 0 0 0 0 17324621.345226087 -585549.82570449635 0 -585549.82570449635 -8944803.4136217088 0 0 0 0 20286890.489830017 2070042.3374156952 0 2070042.3374156952 -9353357.5637741089 0 0 0 0 11424359.075777054 10795475.022996187 0 10795475.022996187 -11392709.355499268 0 0 0 0 12427154.002131462 2997502.7648079395 0 2997502.7648079395 -1646257.6374511719 0 0 0 0 14553019.82436303 -2320228.5995343011 0 -2320228.5995343011 -14249409.933425847 0 0 0 0 68098706.488807678 -37170464.63048172 0 -37170464.63048172 -70560498.44682312 0 0 0 0 836806046.69077301 140437404.57178497 0 140437404.57178497 -433134764.11566925 0 0 0 0 209896324.21594238 -53525978.744018555 0 -53525978.744018555 -284341643.13491821 0 0 0 0 125780129.96100235 36033180.238828659 0 36033180.238828659 -6762709.3778533936 0 0 0 0 36772195.797393799 -11904472.720862389 0 -11904472.720862389 -25018752.68430379 0 0 0 0 21082272.011169434 -5935747.3722934723 0 -5935747.3722934723 -25135121.086463809 0 0 0 0 39214378.837257385 13659336.409470141 0 13659336.409470141 -45032670.604122162 0 0 0 0 128722845.22341919 34025653.271711349 0 34025653.271711349 -26921320.737772942 0 0 0 0 23349231.449447632 7813179.0791358948 0 7813179.0791358948 -30903900.681751251 0 0 0 0 22165588.131977975 4203398.1932950672 0 4203398.1932950672 -9412574.8301396351 0 0 0 0 13772675.57824707 5152668.117893219 0 5152668.117893219 -14293863.205099106 0 0 0 0 42164526.084579468 -6266293.7317948341 0 -6266293.7317948341 -9004985.6812605858 0 0 0 0 24652524.755554199 -5446559.4747238159 0 -5446559.4747238159 -10547170.862781525 0 0 0 0 12665334.19732666 -2797673.281703949 0 -2797673.281703949 1005164.4129867554 0 0 0 0 15778168.018834129 4736799.4282386377 0 4736799.4282386377 -5793550.8629714157 0 0 0 0 9300290.2900177576 -5024894.7651544586 0 -5024894.7651544586 -5029084.394401975 0 0 0 0 26272339.269065857 643327.78104686737 0 643327.78104686737 -14377388.230427742 0 0 0 0 22084454.38882947 71225253.378286242 0 71225253.378286242 -29030859.193016052 0 0 0 0 -22649883.277618408 -4712069.0378131866 0 -4712069.0378131866 13680782.938587666 0 0 0 0 -19187007.712890625 -17839218.754999161 0 -17839218.754999161 23777579.679571152 0 0 0 0 -29753279.068939209 -11310461.471064568 0 -11310461.471064568 27566757.409730911 0 0 0 0 16040627.677654266 -43081634.312795401 0 -43081634.312795401 -21557772.471105576 0 0 0 0 -24644639.446273804 -172554.83690404892 0 -172554.83690404892 4162446.2138328552 0 0 0 0 -25848559.109542847 -26875443.062534332 0 -26875443.062534332 53610290.391833305 0 0 0 0 -357034.76338019967 -7274.6556042358279 0 -7274.6556042358279 345746.6429077452 0 0 0 0 241084441.13119125 92117276.809396982 0 92117276.809396982 -51275377.11624527 0 0 0 0 12492490.655563354 34700134.227581024 0 34700134.227581024 3474396.7331166267 0 0 0 0 184609537.08876038 -57737776.387307167 0 -57737776.387307167 -56946310.050439835 0 0 0 0 89111333.209884644 49049795.097730637 0 49049795.097730637 -78739254.433751106 0 0 0 0 49476213.6925354 110308915.71981525 0 110308915.71981525 127172658.15276718 0 0 0 0 7877850.7417689562 -6268682.951628305 0 -6268682.951628305 -7610156.6833588853 0 0 0 0 24956894.592277527 -40703763.867423534 0 -40703763.867423534 -69378790.538499832 0 0 0 0 -46011355.607467651 -72068139.670321703 0 -72068139.670321703 32702718.691997528 0 0 0 0 11497643.789428711 -23145010.475749016 0 -23145010.475749016 -34289685.534460068 0 0 0 0 15642942.90012335 -10940374.698426463 0 -10940374.698426463 -16804457.057005484 0 0 0 0 6154835.9267959595 -18011412.296229362 0 -18011412.296229362 -6891248.9095430374 0 0 0 0 14383817.580360413 -20509553.323126316 0 -20509553.323126316 -33335568.073971748 0 0 0 0 13523645.595527649 -29610768.8454175 0 -29610768.8454175 -44665079.314582825 0 0 0 0 27834926.561642893 -5015800.2684487179 0 -5015800.2684487179 -19794602.326919626 0 0 0 0 10567143.93000412 -25134300.798390031 0 -25134300.798390031 -32295116.565800667 0 0 0 0 10952550.518306732 -25997748.305089474 0 -25997748.305089474 -37117010.755060196 0 0 0 0 56372917.87272644 11798025.093667984 0 11798025.093667984 2134718.5045566559 0 0 0 0 104932400.41609001 -36640034.601642609 0 -36640034.601642609 -49356813.796150208 0 0 0 0 19368691.839570019 3572243.3899083789 0 3572243.3899083789 -8108139.3413412422 0 0 0 0 53415160.489589691 16613251.935035706 0 16613251.935035706 6678650.2289962769 0 0 0 0 121688395.3783977 -18072221.037305355 0 -18072221.037305355 -50998551.335449219 0 0 0 0 121370174.86248493 -10840867.480685472 0 -10840867.480685472 -68301364.569885254 0 0 0 0 108023620.12252808 -6557392.8366394043 0 -6557392.8366394043 -59554115.723571777 0 0 0 0 82950631.305740356 14654495.588249207 0 14654495.588249207 -53695819.580780029 0 0 0 0 93585199.589221954 22158972.455411911 0 22158972.455411911 -56092222.762908936 0 0 0 0 127152277.88592529 17827435.790657043 0 17827435.790657043 -57456761.143081665 0 0 0 0 113450708.03588009 -17253861.113993645 0 -17253861.113993645 -31831087.474113464 0 0 0 0 107091595.78302765 -6908308.66954422 0 -6908308.66954422 -48138853.05166626 0 0 0 0 112403210.83201599 -7963347.5385665894 0 -7963347.5385665894 -59112928.167358398 0 0 0 0 86381088.918579102 1240116.5438156128 0 1240116.5438156128 -48823959.271713257 0 0 0 0 105666794.99261475 -13624176.409347534 0 -13624176.409347534 -42039221.826217651 0 0 0 0 18041634.185272217 -3752381.1490440369 0 -3752381.1490440369 -9110915.7980918884 0 0 0 0 80988856.610687256 -7780796.0724563599 0 -7780796.0724563599 -29317817.15663147 0 0 0 0 21715586.217125729 -2120704.8105409145 0 -2120704.8105409145 -15410724.687063877 0 0 0 0 72365907.751579285 -4624521.5898704529 0 -4624521.5898704529 -29831937.120510101 0 0 0 0 45536133.166788936 7645581.0099813938 0 7645581.0099813938 -34567735.010734558 0 0 0 0 56716647.392356873 33419575.290706635 0 33419575.290706635 -49960597.619897842 0 0 0 0 59234344.156410217 6823279.5326499939 0 6823279.5326499939 -32504594.357273102 0 0 0 0 12900206.574584961 2994754.0677871704 0 2994754.0677871704 599092.98081970215 0 0 0 0 -4637751.7501220703 -11380892.875850677 0 -11380892.875850677 -38509661.692160606 0 0 0 0 13654665.529783091 -4675548.6223935671 0 -4675548.6223935671 -6943375.6775308307 0 0 0 0 111529382.72723389 1247041.3837432861 0 1247041.3837432861 -5829767.0837097168 0 0 0 0 20780294.026034314 654160.1750677824 0 654160.1750677824 -10987206.42893894 0 0 0 0 4420279.8296648525 -3059056.2970565958 0 -3059056.2970565958 -4957813.1582066882 0 0 0 0 39080685.18359375 20534985.830932617 0 20534985.830932617 4704496.7708435059 0 0 0 0 32555493.878745653 -3949834.617143821 0 -3949834.617143821 -22304409.080451854 0 0 0 0 14386933.323669434 1043311.9887084961 0 1043311.9887084961 -10363727.631256104 0 0 0 0 21044406.724646755 -5539465.312455182 0 -5539465.312455182 -19524607.497726224 0 0 0 0 42787349.403362274 -454495108.53842115 0 -454495108.53842115 3349060.7637710571 0 0 0 0 851474193.02342224 -181186901.68731308 0 -181186901.68731308 -106961251.36845398 0 0 0 0 278895213.00305176 -218689858.09614754 0 -218689858.09614754 32533502.073204041 0 0 0 0 8452873.1180725098 -28233678.08644104 0 -28233678.08644104 -76232950.397228718 0 0 0 0 1072343.7634061966 -1983423.829642117 0 -1983423.829642117 -970627.58048092201 0 0 0 0 1090766606.9149017 143197509.27299118 0 143197509.27299118 -70013336.869522095 0 0 0 0 -150367299.33543205 -168399608.02608109 0 -168399608.02608109 -17255540.810409546 0 0 0 0 548294370.87834167 -373084622.05823326 0 -373084622.05823326 -130500896.11435795 0 0 0 0 322548283.36073685 -22583434.484639406 0 -22583434.484639406 61271641.163818359 0 0 0 0 2251795.2549234703 -3989567.6540625691 0 -3989567.6540625691 -2242958.9384762421 0 0 0 0 734362395.17478943 -101458977.28813934 0 -101458977.28813934 -129683647.55710196 0 0 0 0 -37426614.456773758 -53635109.5722785 0 -53635109.5722785 15323224.286684036 0 0 0 0 282060273.79935455 180839243.58263493 0 180839243.58263493 67433317.90872097 0 0 0 0 445211502.71177673 331066560.52377987 0 331066560.52377987 -107414353.63115311 0 0 0 0 1205624722.2273102 698290850.9870472 0 698290850.9870472 63847906.565462112 0 0 0 0 1363781607.8221359 -103185637.39153099 0 -103185637.39153099 -208477971.608284 0 0 0 0 442058939.93751526 284344963.99521446 0 284344963.99521446 50953720.073605061 0 0 0 0 447700108.61747742 315336438.98393822 0 315336438.98393822 -54809347.480582237 0 0 0 0 -27775782.396087646 33318172.027881622 0 33318172.027881622 98636588.032325745 0 0 0 0 -1149657.1564201266 1480682.0361481011 0 1480682.0361481011 2597434.3531229626 0 0 0 0 689344583.10298824 51938895.122504711 0 51938895.122504711 -346481236.99186325 0 0 0 0 566364808.32958031 601729652.38943338 0 601729652.38943338 303869316.3148098 0 0 0 0 792522563.32537842 560892848.88183212 0 560892848.88183212 34666885.289179802 0 0 0 0 276527499.97156906 137929739.56863689 0 137929739.56863689 298189993.7273941 0 0 0 0 728223053.98648071 436515675.75681305 0 436515675.75681305 251509000.96929216 0 0 0 0 635376080.87545776 636193733.4841671 0 636193733.4841671 192238692.4651432 0 0 0 0 -63448910.551261902 605199330.77922821 0 605199330.77922821 444956759.85702515 0 0 0 0 662868844.08351517 678197528.21122956 0 678197528.21122956 228113081.58423805 0 0 0 0 342939623.64459991 234954171.60487652 0 234954171.60487652 544796116.64996982 0 0 0 0 347097592.90483475 316368466.69797373 0 316368466.69797373 255509485.69745064 0 0 0 0 13945111.926574707 163920837.50887299 0 163920837.50887299 281316040.98621821 0 0 0 0 10919679.305366516 297188885.53081512 0 297188885.53081512 -361657999.82037926 0 0 0 0 18820455.423805237 4726406.4687328339 0 4726406.4687328339 -74155446.625881195 0 0 0 0 -36954492.915985107 231987812.98223877 0 231987812.98223877 -278039401.30699348 0 0 0 0 -1643117.6292394325 2941808.877083662 0 2941808.877083662 4705131.7435875293 0 0 0 0 -122686987.11060715 210518157.84716702 0 210518157.84716702 31358775.303230286 0 0 0 0 -50637855.149040222 -25012063.615745544 0 -25012063.615745544 6873767.5317192078 0 0 0 0 26666520.952575684 53676997.820140839 0 53676997.820140839 86304669.409881592 0 0 0 0 5188590.2086863667 306479.63517552987 0 306479.63517552987 142013.02452903241 0 0 0 0 -49023297.470748901 2079018.8124771118 0 2079018.8124771118 36772750.703605652 0 0 0 0 -1185204.3213348389 35790404.741149902 0 35790404.741149902 11190213.593296051 0 0 0 0 -13101410.86100769 31128497.907987595 0 31128497.907987595 21428262.106918335 0 0 0 0 15271107.932493679 5281113.7282832488 0 5281113.7282832488 2529926.1811222062 0 0 0 0 61806821.426055908 31455494.949813843 0 31455494.949813843 4774686.7377700806 0 0 0 0 10736878.766012177 811950.7479990311 0 811950.7479990311 -8255872.3406534418 0 0 0 0 116505006.06742477 -10342840.420888901 0 -10342840.420888901 -27462723.577804565 0 0 0 0 117197152.87290001 61778074.955663681 0 61778074.955663681 69783252.125572205 0 0 0 0 102373270.46897888 22436812.537534714 0 22436812.537534714 6200205.4595031738 0 0 0 0 103948490.22862244 15562063.397384644 0 15562063.397384644 18859822.624607086 0 0 0 0 98588565.460998535 27200567.259277344 0 27200567.259277344 -28197497.333473206 0 0 0 0 107916857.55918884 5930307.9503364563 0 5930307.9503364563 -9754903.9574394226 0 0 0 0 82967224.925224304 27335408.255924225 0 27335408.255924225 -55356079.800369263 0 0 0 0 82537414.377506256 42210809.101644516 0 42210809.101644516 4801440.7627105713 0 0 0 0 147351478.43804169 15809015.846509933 0 15809015.846509933 2170364.1490054131 0 0 0 0 56191881.702735901 35563192.393291473 0 35563192.393291473 132152499.20481491 0 0 0 0 269204351.25650024 121033601.21642303 0 121033601.21642303 107180828.31237411 0 0 0 0 41652920.859766006 -6696231.7270710468 0 -6696231.7270710468 113699737.57573318 0 0 0 0 123003711.0357666 -25437333.932462692 0 -25437333.932462692 67199670.361209869 0 0 0 0 245875122.02922821 52928524.055145264 0 52928524.055145264 -46078166.462146759 0 0 0 0 204590385.23678207 194773769.80786133 0 194773769.80786133 274502057.85614777 0 0 0 0 616105669.58878708 834263221.90553403 0 834263221.90553403 549189070.37397385 0 0 0 0 702625.94259018451 526350.51545372233 0 526350.51545372233 2794144.7371473946 0 0 0 0 -444676697.6446228 -17552444.023536682 0 -17552444.023536682 426287748.96326447 0 0 0 0 4079997912.6434679 367965111.73651028 0 367965111.73651028 50618230.036586761 0 0 0 0 -52921400.165863037 411635509.73759842 0 411635509.73759842 770948324.87146187 0 0 0 0 -37097524.469833374 152245716.45963669 0 152245716.45963669 -44701802.956027985 0 0 0 0 129620183.73306274 51323550.243305206 0 51323550.243305206 -63305605.595687866 0 0 0 0 -236212256.85393524 71281402.072702408 0 71281402.072702408 12264636.071228027 0 0 0 0 1592231.1682337178 3434601.2334164567 0 3434601.2334164567 8737574.2356059961 0 0 0 0 3713514214.4674759 -580494328.83441305 0 -580494328.83441305 -468349512.0042038 0 0 0 0 1661379146.7780914 -473021970.95546341 0 -473021970.95546341 637086494.59653854 0 0 0 0 1531772195.4359436 -150066473.26910019 0 -150066473.26910019 517214827.34144211 0 0 0 0 2446584260.6570435 358839288.82944489 0 358839288.82944489 40502472.214115143 0 0 0 0 966267317.43765259 -57039585.573360443 0 -57039585.573360443 116271465.21750641 0 0 0 0 1675948185.0678711 696528840.72241211 0 696528840.72241211 -591753067.04510117 0 0 0 0 910448556.17499542 -276689957.46104431 0 -276689957.46104431 -747694805.26890564 0 0 0 0 -268069620.18357849 276979994.31672287 0 276979994.31672287 143078541.25250876 0 0 0 0 1319831332.8810577 528239149.24047661 0 528239149.24047661 267211398.18716431 0 0 0 0 349442102.37132263 -74535540.672584534 0 -74535540.672584534 170015339.33318281 0 0 0 0 211296130.98576355 122773400.6733017 0 122773400.6733017 306640476.25868988 0 0 0 0 -258843015.1174469 -299727563.18144989 0 -299727563.18144989 468375216.06176567 0 0 0 0 233596527.2401123 10775996.842660427 0 10775996.842660427 866183238.85207367 0 0 0 0 1275288615.634491 567033010.66099739 0 567033010.66099739 1037281331.1832466 0 0 0 0 823790068.26686096 -297763021.24858475 0 -297763021.24858475 404382793.88868713 0 0 0 0 870047205.72835541 -318561838.87960243 0 -318561838.87960243 566639548.94758987 0 0 0 0 274816824.52709961 -412350666.83973122 0 -412350666.83973122 333646386.75720215 0 0 0 0 317325274.43154907 69331635.565263748 0 69331635.565263748 360450539.47728729 0 0 0 0 20053373.836933926 4150619.0085399132 0 4150619.0085399132 -3447773.3802775834 0 0 0 0 -29471055.239303589 286883606.53339279 0 286883606.53339279 -330096969.23692167 0 0 0 0 228332802.50192261 -180289634.02363777 0 -180289634.02363777 299386440.2959491 0 0 0 0 -303223416.97845459 77683906.822553635 0 77683906.822553635 111563191.32472801 0 0 0 0 -159499245.44854736 355543486.75502062 0 355543486.75502062 244132049.39662528 0 0 0 0 120859950.98986816 -544319810.29270339 0 -544319810.29270339 524864807.04956412 0 0 0 0 2024204110.5645752 -1377356730.7374194 0 -1377356730.7374194 568134791.06453025 0 0 0 0 4113915441.9362183 -921118712.49574518 0 -921118712.49574518 -550046738.4822309 0 0 0 0 3490896563.1683044 384172505.85374069 0 384172505.85374069 -367953864.05717087 0 0 0 0 2200641829.1268921 -602317672.26790047 0 -602317672.26790047 -510216626.22618198 0 0 0 0 1861215933.801651 -91947850.694798708 0 -91947850.694798708 6812003.8683109283 0 0 0 0 975196160.88378906 -261657193.32329178 0 -261657193.32329178 145683341.79589176 0 0 0 0 1830434339.9535217 -19905965.663360596 0 -19905965.663360596 -154328679.93347931 0 0 0 0 833796235.14231873 -101326283.47707224 0 -101326283.47707224 64867852.732830048 0 0 0 0 1828750088.1198964 202088866.3787787 0 202088866.3787787 -69670833.278964996 0 0 0 0 2695380324.2089844 -9134195.9096279144 0 -9134195.9096279144 -362960667.17829895 0 0 0 0 1793493749.3387146 249306490.45881081 0 249306490.45881081 -211720909.33487511 0 0 0 0 2200549110.6558228 163949656.9005394 0 163949656.9005394 -271599155.75679016 0 0 0 0 1854563814.5217896 94131781.239956379 0 94131781.239956379 -130438885.68383026 0 0 0 0 955058235.40008545 236517756.60541916 0 236517756.60541916 -355301.70333862305 0 0 0 0 331280138.30236816 241687744.17730331 0 241687744.17730331 150776987.42435741 0 0 0 0 742900832.07843018 154782874.12219429 0 154782874.12219429 86973044.469806671 0 0 0 0 45652611.535728455 -183170098.59847736 0 -183170098.59847736 130438900.59055328 0 0 0 0 -171558524.43637085 61462057.843780518 0 61462057.843780518 75292384.531808853 0 0 0 0 -92402457.32093811 191419167.34525871 0 191419167.34525871 200853007.90179443 0 0 0 0 -247483470.82931519 181056182.64757061 0 181056182.64757061 1727242.0557670593 0 0 0 0 -276321052.46975708 -112501226.54716301 0 -112501226.54716301 -27654708.790088654 0 0 0 0 -246697582.54733276 -13770468.278676987 0 -13770468.278676987 157094822.44267654 0 0 0 0 -228498334.77401733 -144019806.20163727 0 -144019806.20163727 -112114691.24918365 0 0 0 0 -173535116.73132324 -252342220.52573776 0 -252342220.52573776 69910928.506727219 0 0 0 0 -194094725.14706421 34118953.887775421 0 34118953.887775421 261107374.04554844 0 0 0 0 -142711956.94290924 231113493.15066838 0 231113493.15066838 276100283.44766235 0 0 0 0 -139888417.17651367 271419679.92243958 0 271419679.92243958 4541429.9793968201 0 0 0 0 -168729530.15782166 27078361.567459106 0 27078361.567459106 190956565.18387604 0 0 0 0 -194837409.01064301 15932202.340844154 0 15932202.340844154 398602830.20014954 0 0 0 0 -1424107.9509475529 -904426.67300507613 0 -904426.67300507613 1163104.1024736166 0 0 0 0 672085506.6210022 311209188.88276291 0 311209188.88276291 350366981.84157574 0 0 0 0 1443437760.9707031 178525889.44756317 0 178525889.44756317 -1290605972.0266724 0 0 0 0 1968121590.5135803 82908265.62184906 0 82908265.62184906 -102948936.26240921 0 0 0 0 850974178.63606262 440422895.91119385 0 440422895.91119385 71623255.042308807 0 0 0 0 385066.50339066982 -847143.86330938712 0 -847143.86330938712 813215.91253599618 0 0 0 0 1710844489.5377045 409186095.4455986 0 409186095.4455986 -95192824.326152802 0 0 0 0 900787366.35408783 -221380586.98879433 0 -221380586.98879433 -383774036.65283394 0 0 0 0 1909716646.4350281 173659621.33868027 0 173659621.33868027 -16259755.829456806 0 0 0 0 2105151239.8563843 -53341753.515663147 0 -53341753.515663147 48203693.833593369 0 0 0 0 1827473495.5305786 239100600.78792286 0 239100600.78792286 -62205999.591049194 0 0 0 0 -110034729.22455406 59267977.574491024 0 59267977.574491024 25828259.555755615 0 0 0 0 3183186762.3579273 108091973.7666502 0 108091973.7666502 -461128396.17112732 0 0 0 0 1580639.879711343 7947345.0847670957 0 7947345.0847670957 17097738.567788552 0 0 0 0 2309504018.4161377 779478919.50115204 0 779478919.50115204 -371707838.80875206 0 0 0 0 -13298266.868759155 45268335.724437714 0 45268335.724437714 -9353305.3538970947 0 0 0 0 -31897946.803329468 75838855.311904907 0 75838855.311904907 -10616075.28591156 0 0 0 0 511627.02547454834 62033740.841487885 0 62033740.841487885 -11244377.09487915 0 0 0 0 -47372177.650817871 13635238.889545441 0 13635238.889545441 15719893.51725769 0 0 0 0 1957456.7613525391 34399554.430725098 0 34399554.430725098 9519522.1182384491 0 0 0 0 2986567.1288757324 24433396.948513031 0 24433396.948513031 49149007.135620117 0 0 0 0 -8539371.55103302 48424079.239955902 0 48424079.239955902 41373307.37247467 0 0 0 0 980341272.85028076 -783380898.43257618 0 -783380898.43257618 122011245.68544656 0 0 0 0 13847959.727602631 8277864.9774926528 0 8277864.9774926528 -13331938.653889321 0 0 0 0 -10699647.469940186 47015813.049266815 0 47015813.049266815 56714664.898590088 0 0 0 0 1610844898.9944458 522515120.65817881 0 522515120.65817881 238133135.94680023 0 0 0 0 689258.38407414034 14540707.431026563 0 14540707.431026563 27424178.164446715 0 0 0 0 2097051118.9849243 431497569.31359959 0 431497569.31359959 53967920.117656708 0 0 0 0 2320377443.0935364 523087968.21893311 0 523087968.21893311 -129430620.56493187 0 0 0 0 2397936594.3669739 709335857.43209457 0 709335857.43209457 185198948.57084656 0 0 0 0 2040663199.867424 913683421.20075846 0 913683421.20075846 584149182.77268982 0 0 0 0 -1234642687.7862854 1236355974.9112983 0 1236355974.9112983 553356786.11931181 0 0 0 0 1410192.523025509 2415990.3397126794 0 2415990.3397126794 -437046.79355325457 0 0 0 0 -141602442.90698242 -407906008.67778587 0 -407906008.67778587 -1098096270.1058693 0 0 0 0 1265542260.3674316 120376746.05502361 0 120376746.05502361 -1725795574.7768908 0 0 0 0 3413711203.2905273 978912020.31437397 0 978912020.31437397 -111157455.65006638 0 0 0 0 1792580.2987217456 2684333.741054371 0 2684333.741054371 3824978.0902689425 0 0 0 0 2704500934.7811432 1390482144.6420469 0 1390482144.6420469 513904769.80657005 0 0 0 0 5404576357.4785156 1038944285.1117663 0 1038944285.1117663 -1523686650.7483003 0 0 0 0 482316.26493141428 -173321.0091323629 0 -173321.0091323629 2500775.6088466598 0 0 0 0 423394058.22665405 -325665849.2558856 0 -325665849.2558856 163880284.33925819 0 0 0 0 -1285428995.4252625 714289668.51424313 0 714289668.51424313 91262989.348891616 0 0 0 0 465680174.83642197 -93355013.868027538 0 -93355013.868027538 40670456.390141487 0 0 0 0 -1359885458.4764404 824368198.9925127 0 824368198.9925127 6685683.9514473677 0 0 0 0 -86857668.67288208 41624.478996276855 0 41624.478996276855 164935836.81838608 0 0 0 0 -6113362.7432861328 -349201293.56772327 0 -349201293.56772327 649190440.34669113 0 0 0 0 203223928.70187378 -180774437.71076822 0 -180774437.71076822 146242588.12460113 0 0 0 0 28679391.07220459 -110523170.02027178 0 -110523170.02027178 252391110.86911678 0 0 0 0 3428324.9357681274 -18108650.318333149 0 -18108650.318333149 79373078.171453476 0 0 0 0 35872892.553955078 -133593344.50885963 0 -133593344.50885963 172576895.18107462 0 0 0 0 27825491.423370361 -78059111.967754364 0 -78059111.967754364 -74519.162052117288 0 0 0 0 -59357773.588150024 83859906.587620258 0 83859906.587620258 2978008.1934051514 0 0 0 0 -13307822.08026123 3717028.1134514809 0 3717028.1134514809 135691329.12349796 0 0 0 0 -56756086.994567871 105197222.8985014 0 105197222.8985014 67487826.99661684 0 0 0 0 -51884626.479301453 87546612.68769002 0 87546612.68769002 -28255578.747794151 0 0 0 0 -178814575.09057617 360398180.13766479 0 360398180.13766479 -62019851.351413727 0 0 0 0 -35768514.933425903 49552038.607020617 0 49552038.607020617 212380351.33480835 0 0 0 0 -335238093.74325562 77465495.25275898 0 77465495.25275898 508162023.91252017 0 0 0 0 60148704.691864014 52615324.005805969 0 52615324.005805969 4204908.3120498657 0 0 0 0 47310082.486068726 71149054.94468689 0 71149054.94468689 10514393.569900513 0 0 0 0 22246109.465154797 6122108.0139609165 0 6122108.0139609165 -15497613.806090653 0 0 0 0 10948938.062423706 75257354.713863373 0 75257354.713863373 -25744097.299194336 0 0 0 0 55267762.757987976 60988054.556024551 0 60988054.556024551 -27407223.3802948 0 0 0 0 62816451.780700684 42953434.555804253 0 42953434.555804253 5851677.1460342407 0 0 0 0 7884604.5480651855 48455313.567298889 0 48455313.567298889 8503206.919549942 0 0 0 0 57632677.832580566 31089015.571598053 0 31089015.571598053 -21155946.958438873 0 0 0 0 76974829.527431488 -1810066.9842262268 0 -1810066.9842262268 -24418041.165679932 0 0 0 0 47054891.116722107 23447839.428731561 0 23447839.428731561 -2277426.5227622986 0 0 0 0 34072722.197235107 80992509.209907532 0 80992509.209907532 -197678414.61500287 0 0 0 0 41592263.068405151 36545679.827980042 0 36545679.827980042 24199142.268869877 0 0 0 0 69089772.38835144 48856760.948330402 0 48856760.948330402 -6754963.7814311981 0 0 0 0 14097336.13889464 13130272.517447114 0 13130272.517447114 5864263.5910279229 0 0 0 0 26733109.906978495 3360653.1992306896 0 3360653.1992306896 -13394696.208115304 0 0 0 0 18576826.089050293 37321194.639499664 0 37321194.639499664 20089379.015695572 0 0 0 0 21534488.526444934 26230357.850186333 0 26230357.850186333 15884396.370469786 0 0 0 0 12429307.035552979 51781012.355773926 0 51781012.355773926 22748323.886030197 0 0 0 0 6776717.5139160156 26815576.434272766 0 26815576.434272766 17186717.818183899 0 0 0 0 17755529.452421188 39254131.854691505 0 39254131.854691505 23635879.870559692 0 0 0 0 5524643.9106044769 31272172.58490932 0 31272172.58490932 35049182.153390884 0 0 0 0 9286167.3000469208 56465859.442006111 0 56465859.442006111 15942283.974369049 0 0 0 0 28751115.132365234 31196730.509675063 0 31196730.509675063 13484905.847170243 0 0 0 0 -7171040.0473327637 19625562.448678255 0 19625562.448678255 -2529960.4461975098 0 0 0 0 77475355.334655762 40965683.628802299 0 40965683.628802299 33072323.443793774 0 0 0 0 72196630.448654175 9409978.5190048218 0 9409978.5190048218 30782435.909632683 0 0 0 0 -1442491.1749649048 35692564.808082104 0 35692564.808082104 38953710.104532242 0 0 0 0 6130318.273189649 4825300.675385274 0 4825300.675385274 2780335.2483502468 0 0 0 0 -83256186.842346191 77803188.034052134 0 77803188.034052134 36955191.077549934 0 0 0 0 102627585.35336304 12805400.355008602 0 12805400.355008602 14387369.719495773 0 0 0 0 167968568.45359039 137017656.48468482 0 137017656.48468482 511096.57810497284 0 0 0 0 302613385.10498047 4167118.352388382 0 4167118.352388382 13808552.221852303 0 0 0 0 39792963.047729492 63340881.906001091 0 63340881.906001091 76709125.309762478 0 0 0 0 3782821.9308015853 2574438.7606038451 0 2574438.7606038451 928074.43467067974 0 0 0 0 40608821.103515625 70185874.165934563 0 70185874.165934563 20846399.555542946 0 0 0 0 3462690.0498725474 3558724.0605429597 0 3558724.0605429597 -44836.782885244815 0 0 0 0 101871907.90048218 -19333392.88217926 0 -19333392.88217926 86101497.04296875 0 0 0 0 42746561.887664795 61816308.097234726 0 61816308.097234726 29056353.485631943 0 0 0 0 8367026.7859961838 6871723.7632226311 0 6871723.7632226311 1179648.1553841387 0 0 0 0 43426180.48840332 49386021.104235649 0 49386021.104235649 -76167991.345765471 0 0 0 0 10553874.73722744 -180207886.49538362 0 -180207886.49538362 -130263236.240942 0 0 0 0 -2483021.263168335 55414775.274038076 0 55414775.274038076 25906144.643627644 0 0 0 0 12758568.215667725 64719751.540153503 0 64719751.540153503 27508812.171320796 0 0 0 0 46738266.464286804 84956123.597124726 0 84956123.597124726 -30170455.04470253 0 0 0 0 113614971.99224854 193531512.62587714 0 193531512.62587714 24839162.134452283 0 0 0 0 252741167.35263062 43922711.033688784 0 43922711.033688784 -16316509.889565945 0 0 0 0 605149519.02661133 -39169079.588143826 0 -39169079.588143826 -224205010.17175055 0 0 0 0 1525533.3555725217 2057235.4730904624 0 2057235.4730904624 1028764.0210625078 0 0 0 0 284491482.34949112 137371422.81847227 0 137371422.81847227 -120995055.54182673 0 0 0 0 39477885.406311035 152778062.62004864 0 152778062.62004864 -30500902.344542503 0 0 0 0 -36970184.122585297 -222350828.98870686 0 -222350828.98870686 220331382.84534836 0 0 0 0 193829299.77703857 24344397.972229779 0 24344397.972229779 53941386.165225029 0 0 0 0 289199070.33620453 299060958.21278059 0 299060958.21278059 -122753646.49009874 0 0 0 0 -2686269.7776489258 -30748600.872943878 0 -30748600.872943878 125885089.51358777 0 0 0 0 454621.09450471401 385278.47146696225 0 385278.47146696225 36718.417793545523 0 0 0 0 -38531197.444610596 81142236.445788264 0 81142236.445788264 164897956.0564537 0 0 0 0 555169921.51594162 173611827.2530809 0 173611827.2530809 -232736659.58590278 0 0 0 0 599984510.62036133 -92613073.492444128 0 -92613073.492444128 -273320.68619727407 0 0 0 0 20902511.832260132 -215452466.75403491 0 -215452466.75403491 255663098.39656135 0 0 0 0 256350592.61624908 165869842.44488877 0 165869842.44488877 -45407135.442622989 0 0 0 0 642896539.63136292 -81673584.029676512 0 -81673584.029676512 -101120103.14494058 0 0 0 0 1057462.3145371675 -58912.168331211433 0 -58912.168331211433 -146046.23045028813 0 0 0 0 282491133.95009613 -356025759.86173338 0 -356025759.86173338 391590406.18692571 0 0 0 0 129028624.4135437 -117360874.88108647 0 -117360874.88108647 89386154.080842733 0 0 0 0 127277067.84707642 -146728988.68833935 0 -146728988.68833935 109432818.49172878 0 0 0 0 124917084.25009155 -114330942.3989799 0 -114330942.3989799 107945640.7635358 0 0 0 0 2765431.2725031674 109531.216720514 0 109531.216720514 -300151.47687958367 0 0 0 0 24960854.651153564 -65249820.546552099 0 -65249820.546552099 208492.81148469949 0 0 0 0 -26452786.097305298 -23918500.564015657 0 -23918500.564015657 -19342475.602832004 0 0 0 0 2924945.4463363402 -5596.2204057350755 0 -5596.2204057350755 -159767.91052740268 0 0 0 0 -22688886.929019928 16493870.667802686 0 16493870.667802686 -1374544.1707573012 0 0 0 0 4803788.3735232949 -615019.49433623999 0 -615019.49433623999 -161774.36295415086 0 0 0 0 1498922.9178504944 -7058874.3621966094 0 -7058874.3621966094 -8772415.2982733548 0 0 0 0 168420077.38183594 -103264032.92073512 0 -103264032.92073512 38545662.122833729 0 0 0 0 1694555.2715404723 834612.99284081161 0 834612.99284081161 60242.300318924244 0 0 0 0 99781624.282764435 -86443343.481926054 0 -86443343.481926054 77115577.063828707 0 0 0 0 171493768.52209473 -144415736.95010853 0 -144415736.95010853 75941999.297184467 0 0 0 0 166328950.87072754 -177602512.08744597 0 -177602512.08744597 110344294.49260268 0 0 0 0 161986372.99504089 -122399186.80282831 0 -122399186.80282831 41333312.686213017 0 0 0 0 35474257.633850098 -53263249.051669121 0 -53263249.051669121 103785965.64056993 0 0 0 0 -39983311.837043762 -126365651.60284817 0 -126365651.60284817 127768742.90838528 0 0 0 0 1583498.8964997828 1673505.4561664611 0 1673505.4561664611 982107.47899934859 0 0 0 0 335546246.09579468 82174771.575703084 0 82174771.575703084 -72711610.263678074 0 0 0 0 97929646.174743652 -116815393.08503485 0 -116815393.08503485 141529937.84907818 0 0 0 0 203605513.76066685 -167233947.39117455 0 -167233947.39117455 58747979.110054016 0 0 0 0 -32832619.46667099 -13418718.765139729 0 -13418718.765139729 5906819.4067764282 0 0 0 0 601388.48845782503 440814.31383550167 0 440814.31383550167 -27671.154503003927 0 0 0 0 373050552.30895996 -181646586.66196251 0 -181646586.66196251 41538289.350286961 0 0 0 0 129351378.73901367 -190448727.08556247 0 -190448727.08556247 163644410.81041718 0 0 0 0 170548867.44929504 -153893509.66911018 0 -153893509.66911018 98523629.647533417 0 0 0 0 88031980.410446167 65259751.348676443 0 65259751.348676443 -21288384.524484277 0 0 0 0 -12054893.607940674 2611771.4523100853 0 2611771.4523100853 11120763.752773762 0 0 0 0 -1355379277.0416412 -497668156.20353127 0 -497668156.20353127 945073101.60322773 0 0 0 0 791852895.88240051 2595022647.343586 0 2595022647.343586 855973313.30586815 0 0 0 0 3681802214.5948181 -2096057774.9606628 0 -2096057774.9606628 732707426.21930432 0 0 0 0 3214050.1277526617 -561425.13324923068 0 -561425.13324923068 1947631.5881098427 0 0 0 0 6055114.9497657716 -270525.55281777494 0 -270525.55281777494 -194128.15958005539 0 0 0 0 14300754.880981445 15327309.786990017 0 15327309.786990017 -9363843.469384551 0 0 0 0 18627443.758285522 -15767468.767094046 0 -15767468.767094046 -4658631.9904077351 0 0 0 0 9339383.4717712402 13178599.013518922 0 13178599.013518922 -18770322.815358281 0 0 0 0 5577722.8424835205 5097952.7968863863 0 5097952.7968863863 -20541301.922463968 0 0 0 0 44465350.491485596 12375932.670522764 0 12375932.670522764 -21740339.108158708 0 0 0 0 7330645.884552002 30166483.172412287 0 30166483.172412287 33104.569076921602 0 0 0 0 -13524593.343200684 -32803100.984273225 0 -32803100.984273225 3986487.5660334635 0 0 0 0 37331821.732778549 -17906572.771829985 0 -17906572.771829985 -18625930.188787207 0 0 0 0 2792548.0191077888 -295258.36421727389 0 -295258.36421727389 139653.32132632562 0 0 0 0 1169830.910949707 -15185852.05659245 0 -15185852.05659245 -18827386.098172382 0 0 0 0 15259009.034942627 -1057396.7352926806 0 -1057396.7352926806 -19932037.000045046 0 0 0 0 762209565.26339722 -472563627.37604642 0 -472563627.37604642 254792881.99832457 0 0 0 0 1606230277.3389282 516043324.86096132 0 516043324.86096132 -199603659.01520079 0 0 0 0 1466274749.5628662 392278794.05029082 0 392278794.05029082 -293234796.59026414 0 0 0 0 1857880615.7459106 494826967.8004871 0 494826967.8004871 -267671859.49515975 0 0 0 0 999500.7146576494 -157228.70122016221 0 -157228.70122016221 120069.83976988264 0 0 0 0 1771994929.4039917 355920476.0120315 0 355920476.0120315 -189907125.95525745 0 0 0 0 1166919323.2738342 223878103.68552327 0 223878103.68552327 -12158647.319878573 0 0 0 0 1421596433.9412537 283620787.93674958 0 283620787.93674958 -194752065.17094442 0 0 0 0 1225325743.537323 611531946.89360201 0 611531946.89360201 4374898.63382487 0 0 0 0 725988160.40724182 202003754.31466746 0 202003754.31466746 -146081605.10713959 0 0 0 0 1129729048.3605804 1232040261.7347524 0 1232040261.7347524 1689936346.3636396 0 0 0 0 1707918176.6246948 -636584410.45424581 0 -636584410.45424581 229148014.24903816 0 0 0 0 3011349.6434283406 610158.30687989108 0 610158.30687989108 249728.74375768716 0 0 0 0 2736776911.6773071 254541375.08436441 0 254541375.08436441 -293097595.77086365 0 0 0 0 2073674067.0586243 1692304733.16729 0 1692304733.16729 55343946.317395508 0 0 0 0 1614761561.1900024 1677212620.7822976 0 1677212620.7822976 121015625.03780651 0 0 0 0 7856399.2472423911 909389.65407167841 0 909389.65407167841 -1167102.8821273441 0 0 0 0 1478182086.3598328 2121921624.4188919 0 2121921624.4188919 1075243958.4648485 0 0 0 0 578796936.43891907 -361981940.7006371 0 -361981940.7006371 114829217.81416559 0 0 0 0 413760308.56216431 -32744043.18149519 0 -32744043.18149519 -508922840.52699661 0 0 0 0 15179763.481567383 -6530005.7366600037 0 -6530005.7366600037 -9921370.5137238503 0 0 0 0 43238876.178161621 -2982311.9427394867 0 -2982311.9427394867 -9578472.9082055092 0 0 0 0 2135950.678314209 -4169147.5465288162 0 -4169147.5465288162 -7370178.7935724258 0 0 0 0 2104248.8623313904 26659691.799742699 0 26659691.799742699 -12635191.349117279 0 0 0 0 23136903.044258118 -12043701.300865889 0 -12043701.300865889 -38365109.56152916 0 0 0 0 10346177.642211914 24989356.501045227 0 24989356.501045227 -39926126.762724727 0 0 0 0 13696263.917373657 28647762.824329853 0 28647762.824329853 -35933138.291502953 0 0 0 0 18334396.00617981 -6575580.8894467354 0 -6575580.8894467354 -19874511.008816719 0 0 0 0 10997751.984588623 14719959.886187553 0 14719959.886187553 -2304382.5366425514 0 0 0 0 3844921.8917830959 -2009631.0370348692 0 -2009631.0370348692 -2784067.0965058054 0 0 0 0 -8329567.5432720184 -9856096.4020795524 0 -9856096.4020795524 263473.11385297775 0 0 0 0 126367430.13909912 18949894.645488262 0 18949894.645488262 -46249001.488401413 0 0 0 0 133852987.14025879 -17614634.640224934 0 -17614634.640224934 -8830570.8536763191 0 0 0 0 -4726271.2669219971 -8568575.271376729 0 -8568575.271376729 -4665972.2473077774 0 0 0 0 11611494.912226222 -2554909.5811818615 0 -2554909.5811818615 -5142788.4293187708 0 0 0 0 -32940739.120594025 -29284205.758903265 0 -29284205.758903265 -21377299.746246338 0 0 0 0 -7252339.8535766602 -4946566.4048802257 0 -4946566.4048802257 5427111.1903243065 0 0 0 0 -6715788.4808082879 -3936214.3300982676 0 -3936214.3300982676 2085975.7250122488 0 0 0 0 -9829227.1153259277 -10016880.973646402 0 -10016880.973646402 6056180.3998274803 0 0 0 0 -7722115.3419189453 -8256259.5711238384 0 -8256259.5711238384 -3537556.2819957733 0 0 0 0 -13125794.706573486 -17347568.567809105 0 -17347568.567809105 -11762499.264116526 0 0 0 0 -14335980.691102982 -822446.3741248548 0 -822446.3741248548 -7173403.5223026276 0 0 0 0 1866744.5785964429 128819.76763962209 0 128819.76763962209 -1447397.499663176 0 0 0 0 14478352.155319214 -7460339.6461439133 0 -7460339.6461439133 -6740772.7276554108 0 0 0 0 72763764.349777222 39857903.07852459 0 39857903.07852459 23465644.002052307 0 0 0 0 275846703.01147461 23251224.39983654 0 23251224.39983654 -58931945.283808708 0 0 0 0 392517.85884889588 128891.68919002637 0 128891.68919002637 -27713.717008358799 0 0 0 0 6171767.357102491 207365.97636837885 0 207365.97636837885 -2890976.2292444599 0 0 0 0 -9300102.3384017944 -9947460.4033356905 0 -9947460.4033356905 2475484.2910671234 0 0 0 0 -28991250.131187439 194310.05140733719 0 194310.05140733719 14139054.55947876 0 0 0 0 198817004.60473633 26381354.225218773 0 26381354.225218773 -36068391.901601791 0 0 0 0 -959553.81876525283 -704114.72494457662 0 -704114.72494457662 870640.5603604964 0 0 0 0 25693776.475814819 75487489.865637302 0 75487489.865637302 43020344.902334213 0 0 0 0 -47450484.014572144 -9298040.6227712631 0 -9298040.6227712631 -8875446.2362308502 0 0 0 0 19752300.552032471 -65897528.516154036 0 -65897528.516154036 7247664.4310359955 0 0 0 0 4082310.4236862473 -2040774.7190482803 0 -2040774.7190482803 -3254819.1972484891 0 0 0 0 -55639494.157028198 14361270.590326905 0 14361270.590326905 -12594723.219667435 0 0 0 0 120190115.92537689 -30761016.190509319 0 -30761016.190509319 -89491531.584466934 0 0 0 0 126348494.86976624 -59338712.887638092 0 -59338712.887638092 15969641.618913651 0 0 0 0 59771895.218982697 85132235.204916954 0 85132235.204916954 85054893.472248077 0 0 0 0 108787150.58064651 110157464.89524579 0 110157464.89524579 62195962.626213074 0 0 0 0 -24406822.174942017 106346105.59304714 0 106346105.59304714 -25091666.864253998 0 0 0 0 45696653.748931885 25139089.018680573 0 25139089.018680573 51571054.464061737 0 0 0 0 134028494.6685791 31443600.822380066 0 31443600.822380066 -13105911.576507568 0 0 0 0 17173312.76789856 -10467241.817035437 0 -10467241.817035437 -15364481.989631653 0 0 0 0 9241252.9125697259 723357.20248495042 0 723357.20248495042 -2978151.6717754798 0 0 0 0 6110030.2363586426 2369395.7206678391 0 2369395.7206678391 -20286850.646053314 0 0 0 0 -15692848.543273926 -3025505.5130310059 0 -3025505.5130310059 -19954630.572494507 0 0 0 0 -17734011.415374756 -7947831.0278739929 0 -7947831.0278739929 12195574.515433311 0 0 0 0 2509353.1384099796 -603658.01559946314 0 -603658.01559946314 -1870328.8144556023 0 0 0 0 58962454.725219727 -44517404.4570117 0 -44517404.4570117 33007255.174871445 0 0 0 0 -5226546.8037719727 4283129.436835289 0 4283129.436835289 -16919773.896808863 0 0 0 0 -54406084.151203156 28170305.304068089 0 28170305.304068089 34849483.76351738 0 0 0 0 15680520.738891602 49483149.809278011 0 49483149.809278011 79161842.704624176 0 0 0 0 13482965.135070801 7243926.2006158829 0 7243926.2006158829 11827936.553955078 0 0 0 0 1640121.8322143555 -16048135.676006317 0 -16048135.676006317 -19230258.155938148 0 0 0 0 14213436.783340454 -24735077.381895065 0 -24735077.381895065 4231896.3528175354 0 0 0 0 117996468.65420532 39023179.370159149 0 39023179.370159149 17881894.43366766 0 0 0 0 62246345.579345703 33164242.051380634 0 33164242.051380634 7528139.8469791412 0 0 0 0 33722927.45123291 -3039378.0663847923 0 -3039378.0663847923 4968681.3165855408 0 0 0 0 67685672.708770752 -40110707.076589584 0 -40110707.076589584 -6538493.0262050629 0 0 0 0 9107005.8792114258 -20654947.315163612 0 -20654947.315163612 43072.620953798294 0 0 0 0 14856732.00670821 3961857.7931607924 0 3961857.7931607924 -5359991.7748866826 0 0 0 0 64026582.992301941 70979829.925540447 0 70979829.925540447 68996804.551935196 0 0 0 0 -1203211.3807278946 -1536777.2400356662 0 -1536777.2400356662 -35226.699612609111 0 0 0 0 -8002813.9724273682 -6037934.5433049202 0 -6037934.5433049202 3132187.0828380585 0 0 0 0 18951281.486341476 18369703.312181473 0 18369703.312181473 8980027.5964279175 0 0 0 0 21807652.100154273 1383399.44359475 0 1383399.44359475 -17897871.039703406 0 0 0 0 87431131.504150391 54570795.321754456 0 54570795.321754456 -12792614.150636673 0 0 0 0 29110261.210021973 -7535495.9965934753 0 -7535495.9965934753 3418402.2477626801 0 0 0 0 6632491.4592083991 4671618.3942690082 0 4671618.3942690082 -2891500.5351517061 0 0 0 0 16108148.291717529 15652974.566699982 0 15652974.566699982 -1194766.146045208 0 0 0 0 12023330.136627197 30956894.435890198 0 30956894.435890198 -11890988.376628876 0 0 0 0 49032251.546813965 56715540.619682312 0 56715540.619682312 -1394853.8570289612 0 0 0 0 56478827.824768066 20709330.378282547 0 20709330.378282547 14114660.826522827 0 0 0 0 36772907.355560303 36648808.050395966 0 36648808.050395966 59943202.329938412 0 0 0 0 57498408.613037109 45585216.942878723 0 45585216.942878723 55813102.153759003 0 0 0 0 1682661.1395568848 8862794.4558353424 0 8862794.4558353424 59736124.902750015 0 0 0 0 573377.9378740266 596166.1158769317 0 596166.1158769317 -163162.85002986621 0 0 0 0 41673276.330131531 41400084.963375092 0 41400084.963375092 16391477.976325989 0 0 0 0 43025303.561088562 65552019.603794098 0 65552019.603794098 4641431.430352211 0 0 0 0 81455299.37399292 37438060.331230164 0 37438060.331230164 21510511.310241699 0 0 0 0 16412170.309940338 22714104.923193455 0 22714104.923193455 23917988.112609863 0 0 0 0 29850211.203415513 31112810.250248581 0 31112810.250248581 -13989107.338932037 0 0 0 0 2183411.5852125958 1285957.3061788604 0 1285957.3061788604 448436.41355763003 0 0 0 0 60510913.288040161 42829934.15719986 0 42829934.15719986 13042316.510799408 0 0 0 0 27427557.667054124 8851993.5711689293 0 8851993.5711689293 -12583768.87415787 0 0 0 0 55566364.953857422 63734762.061164856 0 63734762.061164856 20356239.598434448 0 0 0 0 23378040.265869141 16322228.945827484 0 16322228.945827484 12510039.026809692 0 0 0 0 10465562.730895996 3250781.0023155212 0 3250781.0023155212 -9625172.8428039551 0 0 0 0 6427822.596136637 14976392.331474125 0 14976392.331474125 6300030.3628554838 0 0 0 0 18468973.417970419 2436663.3370377757 0 2436663.3370377757 -8536100.228564823 0 0 0 0 29910202.253051758 -322863.10958099365 0 -322863.10958099365 357086.65289306641 0 0 0 0 27756356.790125675 2562013.7291410454 0 2562013.7291410454 -13864227.796113327 0 0 0 0 13653670.371076405 9560159.1328971274 0 9560159.1328971274 -6378331.8477505669 0 0 0 0 -246952921.23466492 27951202.190997124 0 27951202.190997124 -14937486.341114044 0 0 0 0 5336017.6842542142 7435675.3588783666 0 7435675.3588783666 -4011129.8493491015 0 0 0 0 57625018.529098511 182041681.95352411 0 182041681.95352411 -23605212.967630476 0 0 0 0 204212095.08688354 -92892839.160388947 0 -92892839.160388947 -63773143.044237137 0 0 0 0 -14170767.558639526 7376642.1833429337 0 7376642.1833429337 41622263.243953109 0 0 0 0 -62023036.095855713 33521232.313030243 0 33521232.313030243 37658399.861524582 0 0 0 0 11973746.062911987 40515427.618500233 0 40515427.618500233 -11569754.407947689 0 0 0 0 60121463.372152984 -109127384.13178079 0 -109127384.13178079 -5586165.1477622986 0 0 0 0 1575852.1619479433 -184887.26473456994 0 -184887.26473456994 -492854.94611484744 0 0 0 0 28252923.959121704 9001273.9628343582 0 9001273.9628343582 -22563813.489443779 0 0 0 0 16838014.037409455 10203481.146386746 0 10203481.146386746 -3679644.3641358027 0 0 0 0 29346783.762329102 6141885.2582631111 0 6141885.2582631111 -63028297.617537498 0 0 0 0 19043967.997802734 36138456.259831429 0 36138456.259831429 -26288196.722263992 0 0 0 0 28566969.452728271 46845646.410600424 0 46845646.410600424 -15894619.269189835 0 0 0 0 21723170.024902344 33381579.632487297 0 33381579.632487297 -13864781.683441877 0 0 0 0 34864211.684951782 28074169.879636288 0 28074169.879636288 -52799306.854549408 0 0 0 0 44304168.338500977 11998087.380273819 0 11998087.380273819 -7556689.2619800568 0 0 0 0 31881555.796951294 46871212.83746314 0 46871212.83746314 3552824.6552352905 0 0 0 0 37915705.900146484 41839375.195248604 0 41839375.195248604 -15673940.809581757 0 0 0 0 -1943116.6566162109 32991102.099932671 0 32991102.099932671 2928570.7255170345 0 0 0 0 4875834.313873291 48674923.554340363 0 48674923.554340363 8294963.936788559 0 0 0 0 9557272.5939025879 56679254.580349922 0 56679254.580349922 4323489.2939062119 0 0 0 0 -25975288.175079346 74058463.783210754 0 74058463.783210754 -5193860.2441294193 0 0 0 0 14795828.897651672 23470267.601944447 0 23470267.601944447 -27833352.061510086 0 0 0 0 2315745.3516009934 654241.85255867988 0 654241.85255867988 -93520.184550473467 0 0 0 0 14576266.437683105 2309111.0006828308 0 2309111.0006828308 -14635230.449755669 0 0 0 0 12218670.96206665 -7835503.8421263695 0 -7835503.8421263695 -46239303.173600912 0 0 0 0 8588987.5272181928 2953427.0599807315 0 2953427.0599807315 835828.7687205798 0 0 0 0 18715155.3855896 3402549.2512817383 0 3402549.2512817383 -6714755.6879580915 0 0 0 0 5908640.3476497084 -721260.68022995442 0 -721260.68022995442 -2316632.1988716349 0 0 0 0 42627483.680160522 -16944326.602771282 0 -16944326.602771282 -6082985.6013154984 0 0 0 0 -11433544.543800116 18326073.995563675 0 18326073.995563675 -1409313.4054226875 0 0 0 0 11438258.540140308 8386090.801927723 0 8386090.801927723 219453.95498956903 0 0 0 0 -6914562.5128173828 8061926.3531036377 0 8061926.3531036377 5291513.0848761797 0 0 0 0 6046958.7075119019 2202715.623867631 0 2202715.623867631 -2245370.559648037 0 0 0 0 4854889.3661499023 889467.39836478233 0 889467.39836478233 -1877270.8622422218 0 0 0 0 5861802.8234194666 313903.42824549973 0 313903.42824549973 -1067354.2663593991 0 0 0 0 11290615.123891924 1591714.8573847003 0 1591714.8573847003 866968.0893720258 0 0 0 0 11875577.989761353 53237189.412085414 0 53237189.412085414 -16791285.568864822 0 0 0 0 7766388.5776977539 47781913.108404756 0 47781913.108404756 11967388.750124454 0 0 0 0 13086263.580102608 9006160.8524731211 0 9006160.8524731211 -412343.602868116 0 0 0 0 2672999.0919952393 36312458.500008583 0 36312458.500008583 -11513918.166753769 0 0 0 0 2688974.8910980225 35914167.096163988 0 35914167.096163988 -7732418.9120774269 0 0 0 0 -7121748.5942687988 19114742.478373766 0 19114742.478373766 -3090282.6921285391 0 0 0 0 -11483111.328249931 16502653.257434368 0 16502653.257434368 14381622.366016865 0 0 0 0 -8618369.2245788574 7468945.7848057747 0 7468945.7848057747 5565014.5910446644 0 0 0 0 -4962233.6022338867 2003378.6185333729 0 2003378.6185333729 28377651.191159844 0 0 0 0 -6110386.2691345215 24627624.647602677 0 24627624.647602677 25739299.347257137 0 0 0 0 9379398.3144836426 -13837046.485669971 0 -13837046.485669971 42786967.630946577 0 0 0 0 -5269626.9019470215 28045727.105899811 0 28045727.105899811 14006018.100056887 0 0 0 0 -6116839.9811096191 41201823.991812468 0 41201823.991812468 73449774.091821194 0 0 0 0 937719.07678222656 2425570.0507414341 0 2425570.0507414341 5538028.4246106744 0 0 0 0 3163525.4603729248 1734408.7598038912 0 1734408.7598038912 5729911.479660511 0 0 0 0 -836212.8952331543 -209838.60452508926 0 -209838.60452508926 3003816.610956192 0 0 0 0 -7327655.2018585205 9296308.3749752045 0 9296308.3749752045 5931509.0710763931 0 0 0 0 -14378036.288024902 8738616.5998916626 0 8738616.5998916626 6487983.2153098583 0 0 0 0 -6713053.6803588867 5004806.7735228539 0 5004806.7735228539 9392220.262406826 0 0 0 0 -8377994.0500259399 10065942.715197086 0 10065942.715197086 167587.58497333527 0 0 0 0 -1623541.5047683716 2876713.1016091704 0 2876713.1016091704 -414651.33362865448 0 0 0 0 -7713732.654296875 6230875.5357613564 0 6230875.5357613564 -31429.28551197052 0 0 0 0 -284278.7141418457 113885.26207756996 0 113885.26207756996 3703426.7208276987 0 0 0 0 -119735.49681091309 2527388.8472276628 0 2527388.8472276628 1431454.6102628708 0 0 0 0 -467663.28631591797 1378286.2850159407 0 1378286.2850159407 -1480949.4885921478 0 0 0 0 200499508.1842041 -373845679.68142611 0 -373845679.68142611 702407906.22573197 0 0 0 0 106199.55708323419 374703.4578399756 0 374703.4578399756 -432615.73538637807 0 0 0 0 9276033.0124625042 5380696.9266994298 0 5380696.9266994298 3025404.9094668147 0 0 0 0 -148312839.10918808 196944310.70352161 0 196944310.70352161 -8403751.7428122573 0 0 0 0 338333.84701298922 676472.9795788154 0 676472.9795788154 247493.06004971857 0 0 0 0 5980425.1031799316 3242904.6053771973 0 3242904.6053771973 -255953.30447655916 0 0 0 0 4752478.2082316577 3115597.4401329309 0 3115597.4401329309 -1041170.6779954563 0 0 0 0 8334428.8294677734 2453303.5485184193 0 2453303.5485184193 -1382793.184350729 0 0 0 0 6007660.4344177246 3985588.8928769827 0 3985588.8928769827 -2296851.5371980667 0 0 0 0 766771.90741156042 25810.011610392481 0 25810.011610392481 -540991.84396895324 0 0 0 0 7019664.0210485682 7035006.5089168884 0 7035006.5089168884 601154.32301760768 0 0 0 0 5082967.4662017822 2270978.0125999451 0 2270978.0125999451 -2658477.8099598885 0 0 0 0 -11956665.832855225 1251161.9729608893 0 1251161.9729608893 2744131.3357419968 0 0 0 0 257493.2068105191 1144302.4160152981 0 1144302.4160152981 -109216.94251395177 0 0 0 0 5506481.620513916 2825640.8306562901 0 2825640.8306562901 602446.07622534037 0 0 0 0 1427856.7457809448 1258394.938615504 0 1258394.938615504 505.57343301653805 0 0 0 0 3509848.4874241054 1674481.6762312814 0 1674481.6762312814 -241267.82694141477 0 0 0 0 2179529.8537597656 624168.52743313811 0 624168.52743313811 -100962.06223352015 0 0 0 0 6109201.7760848999 3320949.0618600249 0 3320949.0618600249 -209635.19660639763 0 0 0 0 7096744.5286499485 5237510.7425284982 0 5237510.7425284982 1583004.2210592802 0 0 0 0 2226346.3772583008 556594.81380713813 0 556594.81380713813 -5072.3838470358478 0 0 0 0 4252408.3732412308 290196.50459057977 0 290196.50459057977 -635077.48190067289 0 0 0 0 7007857.4837341309 872555.337870121 0 872555.337870121 -1336013.6372082233 0 0 0 0 5468676.0594763756 1651815.9744893983 0 1651815.9744893983 -1606400.5926628113 0 0 0 0 2605789.5199584961 -1149677.9437843992 0 -1149677.9437843992 -525173.14863505599 0 0 0 0 6859225.6344909668 643654.55302166939 0 643654.55302166939 -3331958.0577430725 0 0 0 0 7589465.5901778936 3119474.3814859688 0 3119474.3814859688 -623965.42972421506 0 0 0 0 200251126.25500488 -502067853.91781735 0 -502067853.91781735 -765066.77362891787 0 0 0 0 7022220.6761169434 -119171.01726603508 0 -119171.01726603508 -2731503.6572877169 0 0 0 0 13195035.759326935 49163024.120787784 0 49163024.120787784 -26652269.70323348 0 0 0 0 10810517.882156372 4406351.7212320566 0 4406351.7212320566 8189257.9474822283 0 0 0 0 2495763.1316837221 1473581.962689586 0 1473581.962689586 -297042.17293646786 0 0 0 0 4041643.9298553467 -571797.57322998194 0 -571797.57322998194 -6480.0036254376682 0 0 0 0 8485270.368173793 1552217.2575195953 0 1552217.2575195953 -482357.63848702825 0 0 0 0 7681665.5523254871 -1301933.3127287105 0 -1301933.3127287105 -1687049.3277465799 0 0 0 0 4733543.9904022217 517723.01605248451 0 517723.01605248451 -3031613.8794749975 0 0 0 0 10343779.159040734 -3860399.7630788088 0 -3860399.7630788088 -4227172.5141185978 0 0 0 0 3294081.4940795898 -2586241.7565529346 0 -2586241.7565529346 -5962239.6529284716 0 0 0 0 256503464.74092102 -62651693.321354866 0 -62651693.321354866 -206275568.16329575 0 0 0 0 11599749.567164257 -2096930.7482962534 0 -2096930.7482962534 -4209112.7146162316 0 0 0 0 5561284.4249103442 1700204.2463146746 0 1700204.2463146746 -356963.34455605166 0 0 0 0 4340643.9833374023 -1478545.6232531071 0 -1478545.6232531071 -3551396.27926296 0 0 0 0 7960342.2572860718 155027.20229244232 0 155027.20229244232 -4917282.5143020153 0 0 0 0 7176625.5723571777 -245221.74095249176 0 -245221.74095249176 -4545445.8262580633 0 0 0 0 4848815.4970416427 365751.64680146705 0 365751.64680146705 -430794.94305179757 0 0 0 0 8152808.1811847687 1120446.1333863661 0 1120446.1333863661 -4052905.5537657738 0 0 0 0 5620712.1181640625 1273329.2049875259 0 1273329.2049875259 -4219137.826490283 0 0 0 0 12525047.453536987 -10369099.75760746 0 -10369099.75760746 12344768.433362961 0 0 0 0 1391036.9521179199 24883716.88280201 0 24883716.88280201 2769444.3255748749 0 0 0 0 12993319.584804565 2130736.8587855175 0 2130736.8587855175 -2086588.3215798759 0 0 0 0 -853706.04396145046 -836191.64210067689 0 -836191.64210067689 -8908.6970533328131 0 0 0 0 176141845.97712708 304478801.88840801 0 304478801.88840801 -203709744.2533226 0 0 0 0 -29210371.585266113 11258093.859362602 0 11258093.859362602 -13048312.902210236 0 0 0 0 -43723226.967071533 -52846381.97094202 0 -52846381.97094202 221153453.60459518 0 0 0 0 -105160491.86746216 -31948651.652141571 0 -31948651.652141571 46613627.324289322 0 0 0 0 201032356.40031433 -70649357.799590111 0 -70649357.799590111 -24035486.567165375 0 0 0 0 481796.5937365517 154047.97325077653 0 154047.97325077653 -396852.97746622469 0 0 0 0 38960679.245056152 41597167.286611557 0 41597167.286611557 -99950375.62947464 0 0 0 0 -14078917.560661316 31223769.730949163 0 31223769.730949163 -13164550.17039299 0 0 0 0 41636265.807774544 -3589897.9113123119 0 -3589897.9113123119 -9683035.0327911377 0 0 0 0 9524652.0407333374 15954978.504824162 0 15954978.504824162 401352.34323883057 0 0 0 0 12221451.382904053 -1636429.6935405731 0 -1636429.6935405731 1591392.8024044037 0 0 0 0 -10597567.772171021 -10196250.400100492 0 -10196250.400100492 -7173982.3488189429 0 0 0 0 -30215133.001159668 -34041054.419605076 0 -34041054.419605076 -8177960.5415699482 0 0 0 0 -28526783.753950119 -15234241.248920145 0 -15234241.248920145 4200425.2181476355 0 0 0 0 -21135387.90512085 -15780188.237457514 0 -15780188.237457514 -22560901.448381424 0 0 0 0 82300058.246292114 21391787.240575075 0 21391787.240575075 78525999.842176437 0 0 0 0 -41529036.603790283 -36678550.938986778 0 -36678550.938986778 -11097146.784796 0 0 0 0 -6388611.761463955 -2125581.067199342 0 -2125581.067199342 1869884.1645966852 0 0 0 0 -9306042.867401123 -4069376.5962424278 0 -4069376.5962424278 -5926841.2477802038 0 0 0 0 3936897.0411047302 -1753290.1872994043 0 -1753290.1872994043 -2489769.2747615422 0 0 0 0 242218759.47991943 -89460484.234205246 0 -89460484.234205246 131125732.83538437 0 0 0 0 11588949.978625059 -2318269.9755846225 0 -2318269.9755846225 -3262007.1171670225 0 0 0 0 -12097854.886535645 -9263230.3846365213 0 -9263230.3846365213 7654355.870852828 0 0 0 0 -26495397.445556641 -32836710.161117315 0 -32836710.161117315 -21189022.279468536 0 0 0 0 -1069213.4623305947 -275545.22047173604 0 -275545.22047173604 367378.80848412827 0 0 0 0 -26001487.088611603 -23626182.542057872 0 -23626182.542057872 -30395623.538822174 0 0 0 0 12246932.576233685 -2119007.7928267196 0 -2119007.7928267196 -2221500.7658072859 0 0 0 0 -100067046.34344482 -87420822.516539574 0 -87420822.516539574 -42650418.356706381 0 0 0 0 -12491529.572967529 -20797335.581295848 0 -20797335.581295848 -2232654.6490011215 0 0 0 0 -2854394.433013916 -17311561.422830015 0 -17311561.422830015 -10986958.987820387 0 0 0 0 -4701187.3576812744 1414789.2723415121 0 1414789.2723415121 2619171.1338605285 0 0 0 0 -1100612.0829696655 -4319710.2035555132 0 -4319710.2035555132 -1355071.0424089432 0 0 0 0 486573.00616455078 -391188.35153849423 0 -391188.35153849423 -3476540.0466794372 0 0 0 0 -509198.67527008057 203668.25639911927 0 203668.25639911927 896142.48605400324 0 0 0 0 1912417.9816589355 -3573983.314719677 0 -3573983.314719677 -3562962.8702873997 0 0 0 0 1540231.4637918025 -1465634.1699063852 0 -1465634.1699063852 876299.22222073353 0 0 0 0 1017079.9158935547 -2721335.7476559877 0 -2721335.7476559877 -513882.76564239711 0 0 0 0 1926757.7053222656 -4673891.5438562464 0 -4673891.5438562464 -2345384.3566827783 0 0 0 0 -2561809.1719125956 -3857543.5440586302 0 -3857543.5440586302 -299952.3995753731 0 0 0 0 3255401.6204833984 -3824387.2774931192 0 -3824387.2774931192 -2466697.2942457795 0 0 0 0 1077973.0301208496 -3193970.8369575739 0 -3193970.8369575739 -2636265.4620253742 0 0 0 0 1836215.6820678711 -1032884.5042109489 0 -1032884.5042109489 -3554833.1023810497 0 0 0 0 3819716.7801208496 -1627409.8383881021 0 -1627409.8383881021 -4272204.079475305 0 0 0 0 401608.83900079876 -117941.45158003271 0 -117941.45158003271 -213723.6332489505 0 0 0 0 3683416.2537460327 -1335770.9756801883 0 -1335770.9756801883 -1514589.4117276233 0 0 0 0 8039476.0302886963 -1035504.3781383922 0 -1035504.3781383922 -1400505.9458563235 0 0 0 0 3006363.3452453613 -2123830.3912961129 0 -2123830.3912961129 3064.7904651632384 0 0 0 0 985909.55645751953 -4761961.9443256957 0 -4761961.9443256957 -1456467.7342551891 0 0 0 0 8804130.356552124 4422291.9371045744 0 4422291.9371045744 3853593.2076577391 0 0 0 0 38228401.220474243 3556201.6745088599 0 3556201.6745088599 -4092548.6638970361 0 0 0 0 20489503.415061951 -1251826.926518755 0 -1251826.926518755 5238.9423705008012 0 0 0 0 15111077.808044434 9860152.5948748272 0 9860152.5948748272 5525340.622070469 0 0 0 0 14908028.890350342 2956748.525169231 0 2956748.525169231 3903724.1691362038 0 0 0 0 5568744.6230773926 -4827730.3369361889 0 -4827730.3369361889 -5144359.5286860801 0 0 0 0 -1253614.1485290527 -1530595.1161683165 0 -1530595.1161683165 4580538.6948315166 0 0 0 0 6919923.780090332 8003025.9771369472 0 8003025.9771369472 1705090.6929007992 0 0 0 0 1570624.0667546839 -678166.99826813862 0 -678166.99826813862 367537.67259271565 0 0 0 0 13209470.806955338 -869699.99763788376 0 -869699.99763788376 -1136814.0779512152 0 0 0 0 31629370.824264526 -18469119.588464327 0 -18469119.588464327 -2530920.3686131425 0 0 0 0 39123256.408870697 5093752.5217465758 0 5093752.5217465758 -5921484.998185399 0 0 0 0 49278157.788284302 -5644289.8235837594 0 -5644289.8235837594 -20801.107024340039 0 0 0 0 77436659.460754395 3480068.7927905917 0 3480068.7927905917 -7252845.4911639439 0 0 0 0 64437287.546661377 -16039522.780963005 0 -16039522.780963005 -2443496.2122041564 0 0 0 0 16975311.564102173 -40435105.306447253 0 -40435105.306447253 19442836.398102757 0 0 0 0 71495559.218132019 -2452850.1808077064 0 -2452850.1808077064 18635975.787757326 0 0 0 0 60539570.268119812 -10413089.797696531 0 -10413089.797696531 -251654.92984317988 0 0 0 0 129756795.26950073 -27473636.056035917 0 -27473636.056035917 3952310.5648495592 0 0 0 0 107245192.35348511 43188148.239449441 0 43188148.239449441 16113611.916826285 0 0 0 0 -75093.724966958165 -273938.77105427161 0 -273938.77105427161 65709.977826220551 0 0 0 0 72586420.018768311 13048793.499116674 0 13048793.499116674 135340125.28791541 0 0 0 0 84161527.17048645 -65617149.793965466 0 -65617149.793965466 58762607.852433845 0 0 0 0 143528502.19239807 22973347.590342864 0 22973347.590342864 9964104.984909296 0 0 0 0 83602345.794586182 -7726726.0744234473 0 -7726726.0744234473 -1223591.6387112886 0 0 0 0 9352200.4329376221 7025486.1655313075 0 7025486.1655313075 36225288.783705771 0 0 0 0 35267716.91619873 38328056.521956027 0 38328056.521956027 36067342.948561653 0 0 0 0 59507.163469143212 14091.632551670074 0 14091.632551670074 -6424.4176116739109 0 0 0 0 -13649906.536315918 -2127111.6959459782 0 -2127111.6959459782 23647114.305082202 0 0 0 0 -1807671.6755284965 -1949574.6196122253 0 -1949574.6196122253 -205839.35070663807 0 0 0 0 4759423.9722290039 3668846.5209029317 0 3668846.5209029317 16155389.608979907 0 0 0 0 18039167.664215088 6175744.8668573834 0 6175744.8668573834 -2571252.1663899645 0 0 0 0 -343579.8731007278 -889423.02078220248 0 -889423.02078220248 224886.99978784364 0 0 0 0 22323206.17930603 2205344.8710296899 0 2205344.8710296899 -1688435.5195714086 0 0 0 0 24306337.093948364 19593562.01780428 0 19593562.01780428 13269663.010255896 0 0 0 0 -4015094.556427002 10755188.597159058 0 10755188.597159058 37559977.488118589 0 0 0 0 -332532.93054199219 -4839653.83706728 0 -4839653.83706728 30437299.90102366 0 0 0 0 924538.92294311523 6222688.5872505084 0 6222688.5872505084 114176116.43458331 0 0 0 0 -853819.06176757812 -15358071.688712075 0 -15358071.688712075 30902796.73666957 0 0 0 0 11708453.067016602 -37840240.756804585 0 -37840240.756804585 -9935095.4655818939 0 0 0 0 -12642820.275085449 -36844328.658359483 0 -36844328.658359483 -16707271.768136561 0 0 0 0 -19807522.192596436 -24670074.573143765 0 -24670074.573143765 27710350.706204247 0 0 0 0 -297499.58805847168 -1515725.8118396774 0 -1515725.8118396774 23101434.250636637 0 0 0 0 -17426042.362243652 -16063041.117599189 0 -16063041.117599189 15563737.79564371 0 0 0 0 -13620947.695617676 -35336289.665295213 0 -35336289.665295213 -17774608.991442442 0 0 0 0 19802818.301513672 -17476418.940230519 0 -17476418.940230519 -38023133.665460974 0 0 0 0 -226519.58972167969 -34458621.861712202 0 -34458621.861712202 -43569259.74055022 0 0 0 0 1486035.6522216797 -8566334.3420591354 0 -8566334.3420591354 -5907622.1867260933 0 0 0 0 15675225.742797852 7825544.4454917908 0 7825544.4454917908 -13630053.047543526 0 0 0 0 961967.01937866211 9157361.1437964439 0 9157361.1437964439 -8735434.5166153908 0 0 0 0 2784254.8074644655 -208058.44170761108 0 -208058.44170761108 -1142588.1407725553 0 0 0 0 5016043.1888329983 -5970871.8168202788 0 -5970871.8168202788 -2754048.4946796568 0 0 0 0 -7585002.8768005371 2040954.453813076 0 2040954.453813076 -5406551.6039037704 0 0 0 0 -21146143.430145264 -5551085.6034388542 0 -5551085.6034388542 -10148127.56216383 0 0 0 0 31711575.789520264 12764722.569454312 0 12764722.569454312 -7554412.076446861 0 0 0 0 2371371.7142984569 351821.27440242469 0 351821.27440242469 -343823.88036073907 0 0 0 0 -43870006.90495491 -77378929.828805387 0 -77378929.828805387 -38132818.208912253 0 0 0 0 6723407.0810546875 -32117744.8271842 0 -32117744.8271842 -1113672.8175476789 0 0 0 0 6463703.8812036067 -5758404.8346427381 0 -5758404.8346427381 -2576723.0302867964 0 0 0 0 18235401.147399902 -75583506.361082494 0 -75583506.361082494 -77550030.204631865 0 0 0 0 -48147488.589416504 -35874799.082053959 0 -35874799.082053959 -9988001.5637010932 0 0 0 0 31117184.044921875 -27133578.080673486 0 -27133578.080673486 -80008242.94875817 0 0 0 0 21107817.818908691 -31663438.529639304 0 -31663438.529639304 -21887360.063566029 0 0 0 0 86218587.395439148 4940923.694929786 0 4940923.694929786 -26392456.718257844 0 0 0 0 43882196.98248291 -11050037.493297637 0 -11050037.493297637 -25292425.25271032 0 0 0 0 66244168.755432129 -46260735.92141518 0 -46260735.92141518 -17264018.272693187 0 0 0 0 64865014.477844238 -11109532.268406332 0 -11109532.268406332 -45206088.314488828 0 0 0 0 66091378.816833496 -28186973.022868901 0 -28186973.022868901 -53538606.702143073 0 0 0 0 5750024.0753250122 -36157220.040506132 0 -36157220.040506132 -38051492.604765415 0 0 0 0 44149986.046020508 17936832.733558714 0 17936832.733558714 -10109518.017791241 0 0 0 0 90033217.717782974 37918756.370687902 0 37918756.370687902 -11476466.720438391 0 0 0 0 56539887.063873291 18712374.992883027 0 18712374.992883027 -22021227.211909473 0 0 0 0 34828274.674377441 21612550.129139982 0 21612550.129139982 192939.82959166169 0 0 0 0 37583594.129455566 10851957.199542731 0 10851957.199542731 -17748915.589913547 0 0 0 0 31508425.938720703 -2529400.0262323022 0 -2529400.0262323022 -26354925.757770002 0 0 0 0 49090257.942443848 11062849.082927197 0 11062849.082927197 -29871604.278508604 0 0 0 0 33540043.514068604 -1501733.4989778399 0 -1501733.4989778399 -26383231.794881523 0 0 0 0 25943662.036193848 -36985144.556355625 0 -36985144.556355625 -52489873.237405896 0 0 0 0 24068685.735870361 -11970655.728793085 0 -11970655.728793085 -31470097.059926242 0 0 0 0 15348759.705444336 -23535519.049474478 0 -23535519.049474478 -29332754.26718092 0 0 0 0 37455368.001647949 -10705992.568022415 0 -10705992.568022415 -41916378.910879612 0 0 0 0 9016922.6123046875 -20596008.603614599 0 -20596008.603614599 -19924224.519121289 0 0 0 0 13104850.258544922 -17755553.613136947 0 -17755553.613136947 -46415474.86910367 0 0 0 0 -34846650.54208374 -18145614.154660106 0 -18145614.154660106 -24497093.809170365 0 0 0 0 -1069829.960146144 -538965.60526812077 0 -538965.60526812077 565447.79310719483 0 0 0 0 8861786.6772513911 -5108830.9526809491 0 -5108830.9526809491 -1613626.8244014692 0 0 0 0 6431576.718536377 -74806882.494454622 0 -74806882.494454622 27167961.429944515 0 0 0 0 6436198.2404174805 -13773242.492057204 0 -13773242.492057204 -2602389.9836179614 0 0 0 0 13375685.262390137 -13193709.023352981 0 -13193709.023352981 -14016325.995809615 0 0 0 0 18594965.709259033 -16850898.784674287 0 -16850898.784674287 -24697628.119264126 0 0 0 0 7132060.0729064941 -14336981.392684937 0 -14336981.392684937 -11280756.008380055 0 0 0 0 23311484.581718445 -7767764.1003220603 0 -7767764.1003220603 -15427618.238908648 0 0 0 0 19455526.028106689 -8098726.9572604299 0 -8098726.9572604299 -15446885.31901519 0 0 0 0 21290597.214141846 -4279673.4090795219 0 -4279673.4090795219 -7555330.5418431163 0 0 0 0 16412707.366256714 -4925713.7067117989 0 -4925713.7067117989 840810.54095995426 0 0 0 0 17167850.039932251 -4418457.4973123074 0 -4418457.4973123074 -7559878.8126684316 0 0 0 0 -45370498.100469589 1873049.6090092659 0 1873049.6090092659 -1570114.1928145885 0 0 0 0 9920756.6559305638 -5589099.5117073879 0 -5589099.5117073879 -1624117.2484978486 0 0 0 0 17638737.250457764 -4799017.3883723021 0 -4799017.3883723021 -5127008.987552762 0 0 0 0 -6782649.123336792 18495739.2474612 0 18495739.2474612 -21125780.100344658 0 0 0 0 -44627609.829650879 8415677.6714978218 0 8415677.6714978218 14407816.297328949 0 0 0 0 13814980.608886719 -7033506.2638276219 0 -7033506.2638276219 -3704283.6704080105 0 0 0 0 -36912006.351959229 3573534.3696337938 0 3573534.3696337938 -11462273.784740448 0 0 0 0 -32192281.699478149 8308639.625248909 0 8308639.625248909 8393830.6514596939 0 0 0 0 -30547425.528839111 9089613.6114523411 0 9089613.6114523411 -8017868.260468483 0 0 0 0 -4547941.3705444336 -15275220.033572912 0 -15275220.033572912 21887053.211889744 0 0 0 0 -3912479.2441101074 -39442121.680421114 0 -39442121.680421114 71719345.448977143 0 0 0 0 -42645511.819671631 12211374.730969191 0 12211374.730969191 8274769.5978559256 0 0 0 0 8051616.3773193359 -34946012.588150024 0 -34946012.588150024 7857468.8893585205 0 0 0 0 35318120.641723633 -47840266.189998865 0 -47840266.189998865 12896602.815862179 0 0 0 0 32360063.421783447 -12529650.126479864 0 -12529650.126479864 -8718856.1805107594 0 0 0 0 26345188.488372803 -58614916.235864401 0 -58614916.235864401 -3268.112654209137 0 0 0 0 4893006.5833740234 -55968514.133489132 0 -55968514.133489132 35843537.200104237 0 0 0 0 33190730.303314209 -73154296.653168917 0 -73154296.653168917 24086429.800283909 0 0 0 0 24415028.832580566 -88591230.90862751 0 -88591230.90862751 74013194.755989075 0 0 0 0 89644332.482086182 -79608949.9066367 0 -79608949.9066367 118925773.25031137 0 0 0 0 169916927.75424194 -3179312.4403793812 0 -3179312.4403793812 -184247632.83171177 0 0 0 0 22804252.331298828 81325729.128748894 0 81325729.128748894 -106150825.76472783 0 0 0 0 157762015.745224 -108063936.36541617 0 -108063936.36541617 -46416562.951560974 0 0 0 0 75201568.788696289 -120990630.53109694 0 -120990630.53109694 46401140.473029137 0 0 0 0 56691841.79019165 -11433963.042069912 0 -11433963.042069912 -92693089.949646235 0 0 0 0 37332105.115287781 -65283360.832238913 0 -65283360.832238913 -15972831.579507828 0 0 0 0 18864629.409790039 -22945750.904765606 0 -22945750.904765606 -41490740.393636703 0 0 0 0 64296083.932800293 -58671781.425065041 0 -58671781.425065041 -16087727.737033367 0 0 0 0 8426094.2912597656 17382638.136161327 0 17382638.136161327 -52991238.384570599 0 0 0 0 22287351.211853027 -10839279.431391954 0 -10839279.431391954 -27516677.260748863 0 0 0 0 -49318678.310821533 49829304.005130529 0 49829304.005130529 -37593308.98079586 0 0 0 0 41177073.282409668 1226402.7281570435 0 1226402.7281570435 -49153760.794110298 0 0 0 0 -13356530.242088318 11043832.018177032 0 11043832.018177032 -19445724.971026421 0 0 0 0 -6843649.4349060059 7248124.5177333355 0 7248124.5177333355 -19828105.690464973 0 0 0 0 2213920.2089538574 -5069029.6086444855 0 -5069029.6086444855 -25790954.487164021 0 0 0 0 828614.36513844877 -61592.604902397841 0 -61592.604902397841 -345329.52003618376 0 0 0 0 30650772.274597168 32601944.336228132 0 32601944.336228132 -18641313.981170058 0 0 0 0 6152486.1935424805 -33104019.173491478 0 -33104019.173491478 -15062148.471508026 0 0 0 0 32073367.684417725 -54661012.543784142 0 -54661012.543784142 554269.28570663929 0 0 0 0 6482488.1944122314 -8117927.2133111954 0 -8117927.2133111954 672129.61235749722 0 0 0 0 11237684.360443115 7396832.9345757961 0 7396832.9345757961 -3583657.6688141823 0 0 0 0 974262.84603942931 -2161124.6179255955 0 -2161124.6179255955 -602788.92471171683 0 0 0 0 -6316063.6121826172 -40773628.465861797 0 -40773628.465861797 18533496.746300697 0 0 0 0 13379147.782104492 -5711259.3561980724 0 -5711259.3561980724 -6839422.0475540161 0 0 0 0 3157657.0274801403 -1092046.1187092289 0 -1092046.1187092289 -935945.11541337892 0 0 0 0 21809703.734855652 -5829650.0864592791 0 -5829650.0864592791 -6355305.3892364502 0 0 0 0 17088540.867507935 535036.37208747864 0 535036.37208747864 -8766026.3770514131 0 0 0 0 6949008.2500461489 -988685.13227803074 0 -988685.13227803074 -3730785.6476776591 0 0 0 0 6880205.4824686721 -1526681.4357189015 0 -1526681.4357189015 -3958442.714773132 0 0 0 0 17438016.606559753 -3139175.1083315611 0 -3139175.1083315611 -3734630.2139548063 0 0 0 0 17990968.578094482 -1194948.3576029241 0 -1194948.3576029241 -6399829.2048225403 0 0 0 0 20127451.681777954 1776095.1837783009 0 1776095.1837783009 -13843182.979821578 0 0 0 0 20340327.292472839 -2303890.3259423971 0 -2303890.3259423971 -11354819.679243326 0 0 0 0 20045371.487792969 2133094.6136528105 0 2133094.6136528105 -8013988.3834521621 0 0 0 0 9936487.1960754395 4310396.4284591228 0 4310396.4284591228 -6388659.8680445999 0 0 0 0 22034140.098968506 8385018.7796081752 0 8385018.7796081752 -13482054.911257312 0 0 0 0 29028860.617153168 6504664.2119301446 0 6504664.2119301446 -13017842.451321959 0 0 0 0 10357707.993438721 3401273.587685816 0 3401273.587685816 -264498.67965549044 0 0 0 0 19529877.283664703 12732488.850846719 0 12732488.850846719 -2545078.4730074704 0 0 0 0 19938404.785377502 13664903.626247182 0 13664903.626247182 876567.25575262308 0 0 0 0 -1782647.5390014648 -970010.2121443823 0 -970010.2121443823 -3387583.1653836668 0 0 0 0 45398892.12600708 -13807665.959355354 0 -13807665.959355354 -23027568.734282494 0 0 0 0 3383954.1691199914 -956361.10287407786 0 -956361.10287407786 -3690470.1467450457 0 0 0 0 8326777.3331375122 7426855.5322172977 0 7426855.5322172977 -5713142.0978504717 0 0 0 0 -878399.84369087219 22869702.632411003 0 22869702.632411003 -39557585.186659813 0 0 0 0 642318.85759767145 -397903.51009283215 0 -397903.51009283215 -38743.622375941835 0 0 0 0 8747566.3660736084 -26214677.636830807 0 -26214677.636830807 -56951062.672480583 0 0 0 0 11717810.964309692 -6212366.4672861099 0 -6212366.4672861099 3370456.5710039139 0 0 0 0 -4435479.3026733398 -30671147.474547863 0 -30671147.474547863 7034356.3801773787 0 0 0 0 -7418386.7959041595 -11983527.262833357 0 -11983527.262833357 31883063.627488136 0 0 0 0 5649310.1243972778 -6311667.7853548527 0 -6311667.7853548527 7433403.1563949585 0 0 0 0 18517778.437408447 -21201185.677773952 0 -21201185.677773952 9675198.7233109474 0 0 0 0 -23283.4425522089 44651.968804109842 0 44651.968804109842 -97024.771502857446 0 0 0 0 -7073538.1525497437 7142950.7350067087 0 7142950.7350067087 -3036722.6166425943 0 0 0 0 -9158822.9881591797 3216321.8295109645 0 3216321.8295109645 -4687490.8447769284 0 0 0 0 2150799.2823376432 -705980.53904496133 0 -705980.53904496133 -3430415.3973595062 0 0 0 0 -304880.008644104 4757713.3295312915 0 4757713.3295312915 -6897241.2397189438 0 0 0 0 1281732.4863204956 402794.29262460396 0 402794.29262460396 -1529924.705519855 0 0 0 0 124666.82434082031 3838263.1402485818 0 3838263.1402485818 -11708828.46135734 0 0 0 0 -14339659.120300293 1231184.9265273213 0 1231184.9265273213 -11073755.242385752 0 0 0 0 1367383.080581665 -589630.87463201024 0 -589630.87463201024 -17389972.512589708 0 0 0 0 515304.92056274414 -856105.33006580919 0 -856105.33006580919 -7407103.706272155 0 0 0 0 -9382394.6667480469 -1323052.9243176505 0 -1323052.9243176505 -7084047.1279003993 0 0 0 0 8838940.2268295288 -6482052.2295749867 0 -6482052.2295749867 -8123680.9797215164 0 0 0 0 3976899.9239807129 -1280760.5948716737 0 -1280760.5948716737 -4929302.3442499936 0 0 0 0 4663149.2149047852 -2065990.7806833535 0 -2065990.7806833535 -11856454.2163698 0 0 0 0 7564965.2384338379 -1647460.616455432 0 -1647460.616455432 -9976776.9735191055 0 0 0 0 -860437.79458618164 -2072268.2463859394 0 -2072268.2463859394 -2043570.9908205792 0 0 0 0 1472095.2150878906 -485469.26114731468 0 -485469.26114731468 -7877404.7817631066 0 0 0 0 1558274.1067314297 -1378581.2505111806 0 -1378581.2505111806 -1596900.1706037684 0 0 0 0 -5768444.423614502 3356862.1904823082 0 3356862.1904823082 -6324789.0271335691 0 0 0 0 -4645519.6517028809 -1570778.6040606163 0 -1570778.6040606163 -3737095.4922729395 0 0 0 0 -1782728.3483886719 5393702.2603612319 0 5393702.2603612319 -5535476.3509043753 0 0 0 0 78616.977355957031 2688589.5367900254 0 2688589.5367900254 -14515647.695657915 0 0 0 0 -272124.36576843262 7539779.0698914472 0 7539779.0698914472 -11078414.607358558 0 0 0 0 -16349615.839309692 16191933.563776409 0 16191933.563776409 -19501770.401727974 0 0 0 0 -16930245.521362305 17633946.263016492 0 17633946.263016492 -21671578.558518935 0 0 0 0 -34492.5458275415 -155459.51929292083 0 -155459.51929292083 118751.97420631876 0 0 0 0 -4326174.670501709 1506621.5797453821 0 1506621.5797453821 -22695195.710209757 0 0 0 0 6347368.9539794922 -7110516.9068609718 0 -7110516.9068609718 8702247.1097691152 0 0 0 0 12254341.404312134 11077118.650198087 0 11077118.650198087 21629733.639535323 0 0 0 0 7359531.8483581543 3558573.8001714796 0 3558573.8001714796 -5264228.4894153476 0 0 0 0 7495994.9011077881 4560139.3159796819 0 4560139.3159796819 2052823.5807855427 0 0 0 0 10955446.749145508 -6581665.4140959196 0 -6581665.4140959196 1598457.6866346879 0 0 0 0 7935368.7947387695 -3109841.0614042506 0 -3109841.0614042506 -6091988.6299934313 0 0 0 0 8434016.3462524414 -2250481.3404890932 0 -2250481.3404890932 -4938764.512919277 0 0 0 0 6700013.9663391113 -6274426.1239513718 0 -6274426.1239513718 -478429.6615190655 0 0 0 0 13877474.823303223 -10593359.21899135 0 -10593359.21899135 218633.70939346004 0 0 0 0 10391301.799957275 -7532746.1751971096 0 -7532746.1751971096 34892.235836572945 0 0 0 0 14857409.885854244 -6272310.7528968444 0 -6272310.7528968444 6734931.6563868094 0 0 0 0 82022.434214301407 18580.148617003113 0 18580.148617003113 -6584.4295520972273 0 0 0 0 14230252.658950806 -5148279.3898884468 0 -5148279.3898884468 -944939.25453359634 0 0 0 0 6818021.7637176514 -10049541.95378208 0 -10049541.95378208 7347491.9081558073 0 0 0 0 31479.634170919657 2597.4998158290982 0 2597.4998158290982 -5993.5762719629256 0 0 0 0 11208342.480552673 -2534740.4725186783 0 -2534740.4725186783 -2581699.3628591718 0 0 0 0 27209628.758880615 -6820750.4292488666 0 -6820750.4292488666 7983.6666588896542 0 0 0 0 2721485.9203491211 3206636.7721398119 0 3206636.7721398119 292146.86620270461 0 0 0 0 7864761.2905578613 -1913500.5666069987 0 -1913500.5666069987 -423388.66573081329 0 0 0 0 -1279043.648727417 3113281.9811853198 0 3113281.9811853198 1001459.5952319885 0 0 0 0 -506892.37901306152 -525688.14200597629 0 -525688.14200597629 1678321.7854728065 0 0 0 0 4037499.4715881348 955599.32170795277 0 955599.32170795277 -3623188.0266027413 0 0 0 0 1460462.198059082 1037516.4974990878 0 1037516.4974990878 -4457435.9492483661 0 0 0 0 10752962.830444336 -3264125.1245752973 0 -3264125.1245752973 -1711197.6217549404 0 0 0 0 7461145.5450439453 -10999711.524999484 0 -10999711.524999484 13021394.707341848 0 0 0 0 3051303.7762145996 -6312852.5721801892 0 -6312852.5721801892 -1723558.2378180004 0 0 0 0 4951728.4420013428 -5871793.3735549524 0 -5871793.3735549524 7372505.1486033062 0 0 0 0 23371303.545978546 -5532546.1071249163 0 -5532546.1071249163 1066984.6609782467 0 0 0 0 20010664.028671265 -21391003.120918721 0 -21391003.120918721 9887009.5950813871 0 0 0 0 19650005.507873535 -10128726.159418039 0 -10128726.159418039 3003.1659362500395 0 0 0 0 8158128.4260864258 55328.440906219825 0 55328.440906219825 4022215.9322388796 0 0 0 0 5811515.4097671509 -2890723.6815690007 0 -2890723.6815690007 2863186.6582794366 0 0 0 0 -473273.48558044434 2029969.0968645602 0 2029969.0968645602 8130.3653840044499 0 0 0 0 -166779.67835998535 1383668.5334124896 0 1383668.5334124896 -6692838.6543072332 0 0 0 0 -1618530.318069458 3797144.3572158325 0 3797144.3572158325 -3472138.1380164549 0 0 0 0 1726955.4458446354 -1388606.3777351305 0 -1388606.3777351305 -1316643.825316824 0 0 0 0 -1616880.5742492676 759492.18698157207 0 759492.18698157207 -1397946.9165533166 0 0 0 0 -2227642.7149505615 1017354.769562388 0 1017354.769562388 -5270.0305923176065 0 0 0 0 1107321.9072602764 -1429630.056552574 0 -1429630.056552574 1330928.9460943353 0 0 0 0 796040.42398452759 -1230397.859441306 0 -1230397.859441306 7729681.4007304758 0 0 0 0 364410.60560207069 -1162591.713837212 0 -1162591.713837212 1370542.5969122534 0 0 0 0 3807862.8270263672 -7167280.5690200534 0 -7167280.5690200534 -3206.4298993645357 0 0 0 0 1401423.9613647461 -3613326.1918329597 0 -3613326.1918329597 5093472.8589076791 0 0 0 0 2847773.9349365234 -11858448.237226104 0 -11858448.237226104 6867290.1401083302 0 0 0 0 300070.22114133462 -354872.52624776959 0 -354872.52624776959 -173037.66247212281 0 0 0 0 2055836.1067810059 -1190743.8315189574 0 -1190743.8315189574 11128694.411851954 0 0 0 0 -176458833.76238251 3587080.4289079905 0 3587080.4289079905 94783456.661687136 0 0 0 0 1173154.9963446893 -2790274.7649118453 0 -2790274.7649118453 2309681.7822578764 0 0 0 0 4529772.04637146 -2720977.2520358306 0 -2720977.2520358306 558881.8560635075 0 0 0 0 1788799.6453059018 -1045977.2350091934 0 -1045977.2350091934 -548092.58716454043 0 0 0 0 3061635.0875854492 -3001484.005112648 0 -3001484.005112648 2113769.0168163776 0 0 0 0 1712511.8941879272 -4325018.5165979862 0 -4325018.5165979862 2489112.5565328598 0 0 0 0 -1300608.405456543 -2610940.6168961525 0 -2610940.6168961525 4761819.5393476486 0 0 0 0 1478758.1873014309 -2244065.0329679698 0 -2244065.0329679698 1478446.3696740801 0 0 0 0 683739.3323059082 -1477649.1243395805 0 -1477649.1243395805 2091850.8139745593 0 0 0 0 2762236.7667236328 -3884317.416195631 0 -3884317.416195631 4286001.633597374 0 0 0 0 8616133.1988983154 -7838130.9411754608 0 -7838130.9411754608 8560689.7328028083 0 0 0 0 3277319.8658714294 -2885075.1569674015 0 -2885075.1569674015 4023128.8105735779 0 0 0 0 160712.22939319164 -321277.71516124904 0 -321277.71516124904 440354.36164430762 0 0 0 0 -801626.85336303711 -3112975.3767719269 0 -3112975.3767719269 22844030.536664009 0 0 0 0 8949646.0330491066 -13701449.527193546 0 -13701449.527193546 18616208.536091805 0 0 0 0 -1903351.1864013672 1465102.8436746597 0 1465102.8436746597 8005485.3238210678 0 0 0 0 4459132.3319091797 -5339097.7156829834 0 -5339097.7156829834 6974847.3928542137 0 0 0 0 4957149.0359420776 -5519467.8384346962 0 -5519467.8384346962 3037324.385884285 0 0 0 0 4425658.7793693542 -5183241.7115716934 0 -5183241.7115716934 3173109.4713306427 0 0 0 0 1018666.8241424561 -5431097.646130085 0 -5431097.646130085 7516383.8141798973 0 0 0 0 419629.51716265827 -1214613.3892727196 0 -1214613.3892727196 1648408.9960325651 0 0 0 0 2944400.9963989258 195238085.06604826 0 195238085.06604826 -25878285.266068906 0 0 0 0 93484455.702941895 18816490.232981324 0 18816490.232981324 71850001.914105773 0 0 0 0 602421788.73439407 69347315.753400773 0 69347315.753400773 -22347548.617010355 0 0 0 0 843160.60305868089 9104.0592429470271 0 9104.0592429470271 -38960.10436552795 0 0 0 0 496602428.71096802 -169667149.96168828 0 -169667149.96168828 9842100.7450410593 0 0 0 0 467199426.87060547 175079150.53857684 0 175079150.53857684 -123902167.38152596 0 0 0 0 943814840.34388733 14412916.913016327 0 14412916.913016327 -484953.77896372636 0 0 0 0 890924302.72557831 -174228912.87752959 0 -174228912.87752959 9572218.6769432127 0 0 0 0 1021647549.7019348 -34512004.783794045 0 -34512004.783794045 -181138666.4982366 0 0 0 0 583396994.3901062 -10249547.387036487 0 -10249547.387036487 -150245369.25643384 0 0 0 0 968955859.85742188 -138567415.0621618 0 -138567415.0621618 -112749250.67354226 0 0 0 0 934768560.43075562 54919543.872079134 0 54919543.872079134 -120977575.05444717 0 0 0 0 445158066.79169083 -113557188.6816534 0 -113557188.6816534 -78737277.485989064 0 0 0 0 516858856.51217651 27975974.401779547 0 27975974.401779547 -74258968.163189769 0 0 0 0 527184973.63217163 16314319.106031358 0 16314319.106031358 133239313.2039336 0 0 0 0 519429468.91321373 76270223.963702649 0 76270223.963702649 -172394387.5617491 0 0 0 0 319914.20155972242 -643704.46096808463 0 -643704.46096808463 1209388.8114243587 0 0 0 0 2503575.6171875 -2789414.7750939326 0 -2789414.7750939326 8818.5247430558666 0 0 0 0 2625300.1132507324 -3573613.4905407741 0 -3573613.4905407741 5042006.6832290851 0 0 0 0 11937926.840805054 84436896.856405854 0 84436896.856405854 -88309659.255601078 0 0 0 0 10902781.989959717 81844925.725929022 0 81844925.725929022 63963889.497520208 0 0 0 0 265969740.29924011 -47055483.623828769 0 -47055483.623828769 49881953.949960336 0 0 0 0 -17191076.447662354 132700436.07816523 0 132700436.07816523 87094026.421086788 0 0 0 0 -51126871.692687988 -64751702.650140524 0 -64751702.650140524 -71752081.765217781 0 0 0 0 55392343.666641235 -164241625.70435357 0 -164241625.70435357 20909693.518795609 0 0 0 0 709958.56660716236 365870.66512682103 0 365870.66512682103 367775.85979874025 0 0 0 0 617762202.80612183 424994943.18332767 0 424994943.18332767 -319874153.72882843 0 0 0 0 -3352574.7835083008 80768304.204861403 0 80768304.204861403 268405248.70606065 0 0 0 0 581959779.54989052 82608314.964617476 0 82608314.964617476 548130976.46228266 0 0 0 0 579261448.28326416 30374387.336780667 0 30374387.336780667 70610673.104078293 0 0 0 0 456052801.29447937 220973387.21326244 0 220973387.21326244 169728722.67152047 0 0 0 0 675863484.50492859 50557916.216232061 0 50557916.216232061 -74488522.61476469 0 0 0 0 411506797.95207214 -126442655.94341624 0 -126442655.94341624 10275518.801548004 0 0 0 0 1229268614.8697643 -379157855.19192576 0 -379157855.19192576 57008867.639225245 0 0 0 0 1095764476.6860962 353378322.10978973 0 353378322.10978973 143324924.68246102 0 0 0 0 1430634577.7269287 -144746853.54497433 0 -144746853.54497433 -13066745.369742393 0 0 0 0 741003478.29821777 463872660.89174795 0 463872660.89174795 120119021.25783616 0 0 0 0 1457958.2160986215 -714114.69656316936 0 -714114.69656316936 37211.492436829139 0 0 0 0 1481852670.0471249 59035495.748497248 0 59035495.748497248 172801152.26803303 0 0 0 0 54424987.755706787 63631678.911684275 0 63631678.911684275 -53317680.476592779 0 0 0 0 14562092.211029053 74648116.135233819 0 74648116.135233819 55848071.547638893 0 0 0 0 53162668.51612854 -214994301.30745327 0 -214994301.30745327 166267537.23682427 0 0 0 0 -13371276.597503662 37291522.88778317 0 37291522.88778317 166641925.03297639 0 0 0 0 54724222.855667114 -102263978.39460802 0 -102263978.39460802 188841348.28805888 0 0 0 0 340631200.94261169 -23213480.763569027 0 -23213480.763569027 77277540.070912719 0 0 0 0 469298082.70256805 36110047.50932467 0 36110047.50932467 -189362318.68241119 0 0 0 0 466332834.31251526 66564110.594553947 0 66564110.594553947 -138314564.73635387 0 0 0 0 198508350.58842659 -1526121.6845257282 0 -1526121.6845257282 -78464846.060358524 0 0 0 0 255095478.1252861 280366367.92403322 0 280366367.92403322 161223084.01340199 0 0 0 0 762540019.20239258 53830920.540159225 0 53830920.540159225 -161357959.0460844 0 0 0 0 1294548154.0089111 223458028.62696624 0 223458028.62696624 -193548882.69687653 0 0 0 0 615039072.9543457 121129260.6522212 0 121129260.6522212 -182392231.7177 0 0 0 0 693528198.16235352 -24327107.954761267 0 -24327107.954761267 -118082057.15658665 0 0 0 0 440348652.23867798 -162713002.77403998 0 -162713002.77403998 -2163135.9583759308 0 0 0 0 1045896634.2210007 -576355313.34784698 0 -576355313.34784698 250065112.52414513 0 0 0 0 227918413.63540649 -105706544.76871395 0 -105706544.76871395 18590474.61180687 0 0 0 0 246898368.37954712 -71973772.375682831 0 -71973772.375682831 15587393.23979187 0 0 0 0 1924860.9581788927 477685.96321658604 0 477685.96321658604 652549.85275541223 0 0 0 0 1006902.1662116051 -935983.33357521892 0 -935983.33357521892 441373.61719589494 0 0 0 0 94259555.747344971 -64963690.275205612 0 -64963690.275205612 54767947.581198215 0 0 0 0 270199447.69247437 23594783.491011381 0 23594783.491011381 -27742478.06067276 0 0 0 0 368210212.38539124 -50989836.609829903 0 -50989836.609829903 -9422594.9916071892 0 0 0 0 376172.44184923917 -397713.21105457097 0 -397713.21105457097 147398.97415617434 0 0 0 0 34115593.89616394 40398584.060370326 0 40398584.060370326 44611498.00733757 0 0 0 0 188658084.19818115 242609764.47982788 0 242609764.47982788 30280899.685570717 0 0 0 0 91713716.212661743 34548359.039788723 0 34548359.039788723 103311493.87492275 0 0 0 0 405425214.8963089 35518144.860268116 0 35518144.860268116 -126811662.96367264 0 0 0 0 401317263.34197998 8019576.1781668663 0 8019576.1781668663 94164922.136107445 0 0 0 0 612847807.00510216 117423793.89597267 0 117423793.89597267 -184364983.27796173 0 0 0 0 593139795.49224854 190756578.76886988 0 190756578.76886988 -16673080.919689178 0 0 0 0 408754029.85855103 -4114156.5011730194 0 -4114156.5011730194 171379368.42925549 0 0 0 0 812987637.79208374 107467014.49704933 0 107467014.49704933 -192457136.61407852 0 0 0 0 518143663.80105591 47122295.03508234 0 47122295.03508234 -204382384.97239161 0 0 0 0 448386865.22582245 82003059.500404596 0 82003059.500404596 -158438979.73929596 0 0 0 0 11665074.439891815 -10233786.29320538 0 -10233786.29320538 6547793.3571281433 0 0 0 0 978.93673470616341 21967.6321161706 0 21967.6321161706 318493.02480199118 0 0 0 0 -13544808.980224609 -21425501.158336163 0 -21425501.158336163 14653325.109873295 0 0 0 0 -13665591.142547607 -45805111.176101208 0 -45805111.176101208 15686325.480800629 0 0 0 0 16074496.626037598 -12251287.579946995 0 -12251287.579946995 -61808758.213643551 0 0 0 0 -17791552.725734711 30435085.531124651 0 30435085.531124651 -543790.39940643311 0 0 0 0 -29361213.490097046 -44229155.253181934 0 -44229155.253181934 735216.78775501251 0 0 0 0 -128858.72473144531 -2568507.4689188004 0 -2568507.4689188004 28156079.205607414 0 0 0 0 -102215.24182128906 4522340.9603991508 0 4522340.9603991508 10290018.030291438 0 0 0 0 2507801.0848693848 99151.955137491226 0 99151.955137491226 76962.491436958313 0 0 0 0 2071492.9412078857 263819.73568105698 0 263819.73568105698 4849473.0767605901 0 0 0 0 313517.02397236228 -280068.51792228781 0 -280068.51792228781 799390.91149520315 0 0 0 0 1163137.8660583496 -1489983.3158745766 0 -1489983.3158745766 1554318.8051352501 0 0 0 0 -5278226.9350891113 7397236.585360527 0 7397236.585360527 17039012.047804832 0 0 0 0 3917000.8743782043 4654248.0152090788 0 4654248.0152090788 17843344.326609135 0 0 0 0 -42375675.410858154 -22459635.691091061 0 -22459635.691091061 46654487.855130672 0 0 0 0 -1355478.1696281433 -1147666.5618172884 0 -1147666.5618172884 34847519.770443916 0 0 0 0 -32235438.426139832 -73819430.615420103 0 -73819430.615420103 -25457763.782143593 0 0 0 0 -33849861.289787292 -53439991.336867332 0 -53439991.336867332 105556406.2774775 0 0 0 0 -6906457.9607620239 -38982797.20964694 0 -38982797.20964694 2524944.4756002426 0 0 0 0 -13418698.761611938 -22680269.207756519 0 -22680269.207756519 -21630664.402746677 0 0 0 0 -26890276.074954987 -49227224.342572689 0 -49227224.342572689 6034610.3395347595 0 0 0 0 -894026.78295898438 -29659338.051336288 0 -29659338.051336288 19775330.755132198 0 0 0 0 14430380.558486938 -38989086.425325871 0 -38989086.425325871 -6182547.326918602 0 0 0 0 -19752225.271881104 -16170001.570589066 0 -16170001.570589066 5075253.5115995407 0 0 0 0 20419277.344726562 -14944203.453882694 0 -14944203.453882694 4596434.9131885767 0 0 0 0 6267493.3516311646 -41662737.627597809 0 -41662737.627597809 143057.67561149597 0 0 0 0 45478142.4271698 -8773089.9393386841 0 -8773089.9393386841 -84864164.973852158 0 0 0 0 12300374.341273516 -2118541.6493020537 0 -2118541.6493020537 -946329.16321000434 0 0 0 0 172065212.15663147 -168330001.15798664 0 -168330001.15798664 -55701624.671337128 0 0 0 0 -622555.95993452519 -374770.51446535438 0 -374770.51446535438 1189440.7964262585 0 0 0 0 -36879771.738876343 -24860124.066414356 0 -24860124.066414356 91610827.019070148 0 0 0 0 215600967.03369141 6581646.5167031288 0 6581646.5167031288 -19320353.068386078 0 0 0 0 -42635904.356719971 -46707976.885825157 0 -46707976.885825157 101588801.2154727 0 0 0 0 -17755503.826602936 -34744444.862037659 0 -34744444.862037659 59092431.239847183 0 0 0 0 6061106.851776123 -41598953.028769016 0 -41598953.028769016 -145139384.67995453 0 0 0 0 9203761.4679250419 -1883430.3336452935 0 -1883430.3336452935 -325636.86560091027 0 0 0 0 51847721.856277466 -19390095.359249115 0 -19390095.359249115 28247205.624860764 0 0 0 0 -27072873.943252563 -53097764.514876842 0 -53097764.514876842 136437024.9435232 0 0 0 0 758340.18673706055 -53404683.270332277 0 -53404683.270332277 -20195391.032455444 0 0 0 0 -12766536.154968262 -52329697.201351881 0 -52329697.201351881 21786639.635813713 0 0 0 0 2561906.6105131507 -2101018.6944831926 0 -2101018.6944831926 -1135775.5699458541 0 0 0 0 11849665.252288818 -10646696.438261747 0 -10646696.438261747 -71174447.09794426 0 0 0 0 85477660.583648682 539983.75709247589 0 539983.75709247589 -3511772.5035324097 0 0 0 0 253697698.05636597 77549941.160573006 0 77549941.160573006 -23155459.265914917 0 0 0 0 130171.56591941416 -198655.10324313305 0 -198655.10324313305 -89865.567004590994 0 0 0 0 27578852.236717224 -48529804.889385462 0 -48529804.889385462 -47117805.258601189 0 0 0 0 30820795.310546875 -70356598.047559738 0 -70356598.047559738 -101599474.00335217 0 0 0 0 -50291870.615112305 -34166499.634774208 0 -34166499.634774208 -19594721.831382751 0 0 0 0 -841727.47750417888 -1261464.1249531917 0 -1261464.1249531917 2238005.532403131 0 0 0 0 89219407.901611328 11649717.993870735 0 11649717.993870735 -51822453.453956604 0 0 0 0 119913306.8309021 -1704498.0529873371 0 -1704498.0529873371 -112962432.82890987 0 0 0 0 116017392.28103638 45077450.045392036 0 45077450.045392036 -33524457.398117065 0 0 0 0 -42558285.997909546 6545130.6719551086 0 6545130.6719551086 32367853.727320194 0 0 0 0 926303748.40964508 404279379.86207443 0 404279379.86207443 452506751.86181831 0 0 0 0 473268407.80778503 -2333996.5534951687 0 -2333996.5534951687 253715156.89533424 0 0 0 0 701609187.30143738 -287751475.76699591 0 -287751475.76699591 439264556.87398529 0 0 0 0 962580492.00619507 -13600572.134128094 0 -13600572.134128094 -97071420.495786667 0 0 0 0 626974033.8128624 450079455.17272222 0 450079455.17272222 20672339.199913025 0 0 0 0 2178114.3243659139 -369325.92556446278 0 -369325.92556446278 52691.816779791814 0 0 0 0 1085399865.8630066 -228056698.77697229 0 -228056698.77697229 -124355597.69067097 0 0 0 0 101470692.72285461 -205199962.79944849 0 -205199962.79944849 596747688.95286465 0 0 0 0 66144648.693786621 31847117.302475929 0 31847117.302475929 167686657.43840075 0 0 0 0 5985005.1824848652 -1232988.4049182215 0 -1232988.4049182215 -41754.776441890514 0 0 0 0 195598648.50537109 -37678219.812785864 0 -37678219.812785864 -255028136.10670376 0 0 0 0 -89547036.746246338 -43865117.923166752 0 -43865117.923166752 275639856.4030413 0 0 0 0 2595413.7049213648 -1779683.186028406 0 -1779683.186028406 -1268172.7831074037 0 0 0 0 56116894.742740631 5934246.0814607143 0 5934246.0814607143 -247183002.96884251 0 0 0 0 98763262.613754272 -250798699.73303461 0 -250798699.73303461 221062321.81581044 0 0 0 0 102952731.30741882 -159423084.08459711 0 -159423084.08459711 44895424.416353226 0 0 0 0 166643474.20609283 -186985037.21619225 0 -186985037.21619225 199278480.46357489 0 0 0 0 -150005163.13816833 -155500393.24417019 0 -155500393.24417019 111121640.97805214 0 0 0 0 386106148.38163757 293853902.39746428 0 293853902.39746428 -468607434.19742298 0 0 0 0 1245216.9802323729 -807382.1893587932 0 -807382.1893587932 -613431.15825502202 0 0 0 0 312400010.87312317 -462510506.19726896 0 -462510506.19726896 623136468.02107048 0 0 0 0 856374234.9724884 -43585003.570481777 0 -43585003.570481777 66011047.510869622 0 0 0 0 105237881.28938293 13202216.708611012 0 13202216.708611012 99644582.7099576 0 0 0 0 504831030.44869995 276243102.11444163 0 276243102.11444163 174889581.69425011 0 0 0 0 -7593024.9384918213 170727092.49525219 0 170727092.49525219 10753476.720530987 0 0 0 0 500395152.81304932 252642116.86415839 0 252642116.86415839 8090300.9164466858 0 0 0 0 165170887.91505814 -200667941.61427844 0 -200667941.61427844 -373964628.81092978 0 0 0 0 293970194.57931519 34470532.252672791 0 34470532.252672791 -177232983.41553259 0 0 0 0 1287744.4689187855 -1386206.6413557138 0 -1386206.6413557138 236959.53364219185 0 0 0 0 -66053191.247940063 -32516869.583878398 0 -32516869.583878398 -80862899.085939288 0 0 0 0 64512458.396743774 55835905.065855026 0 55835905.065855026 -79616702.074928522 0 0 0 0 -104760499.02396393 -220268217.56789827 0 -220268217.56789827 206063826.9019537 0 0 0 0 556443.64687290788 -924724.73293448798 0 -924724.73293448798 187920.04729363829 0 0 0 0 139784242.53659058 -363495877.82675433 0 -363495877.82675433 148475954.70029354 0 0 0 0 506715512.36083984 -295467799.22672653 0 -295467799.22672653 44963358.28119082 0 0 0 0 540876071.90664673 -274624398.06101847 0 -274624398.06101847 -38507470.950627327 0 0 0 0 265677375.60153198 -55912866.012345314 0 -55912866.012345314 -210991269.1778183 0 0 0 0 319728456.46470642 -18397923.835077763 0 -18397923.835077763 -67523650.079818726 0 0 0 0 251792730.04666138 -85574378.847354293 0 -85574378.847354293 -99318301.434205651 0 0 0 0 128985282.82815552 -112410947.55785799 0 -112410947.55785799 -61915084.152584553 0 0 0 0 35355135.193582535 -105797393.06048775 0 -105797393.06048775 -54641639.961987734 0 0 0 0 53257749.172538757 -39120188.444742262 0 -39120188.444742262 -120575639.12092021 0 0 0 0 -19732393.914886475 37862890.761503279 0 37862890.761503279 -69384445.130017281 0 0 0 0 -64130580.288208008 -40504233.716495037 0 -40504233.716495037 -50957369.993715525 0 0 0 0 -14289051.503387451 -3666403.3858053684 0 -3666403.3858053684 -73736384.886584282 0 0 0 0 -92239802.725372314 -27498419.089266062 0 -27498419.089266062 -56822828.539582253 0 0 0 0 -45309443.523132324 -45870509.676149666 0 -45870509.676149666 -229359308.51066923 0 0 0 0 -6222423.5671081543 28423903.226459026 0 28423903.226459026 -145119777.72851324 0 0 0 0 99971405.054794312 -84968627.786683202 0 -84968627.786683202 -50794833.673610687 0 0 0 0 -13479105.171875 1857322.9442491233 0 1857322.9442491233 -44028219.881211758 0 0 0 0 45727746.678871155 -53530057.721780777 0 -53530057.721780777 -29827191.19584322 0 0 0 0 107809457.79879761 -44209882.330960274 0 -44209882.330960274 -83434058.323321342 0 0 0 0 120473204.98065186 28403918.974850416 0 28403918.974850416 -69509304.686546206 0 0 0 0 109779821.10219574 15627935.115175486 0 15627935.115175486 -29788763.496282578 0 0 0 0 136561236.015625 -7585244.4169137478 0 -7585244.4169137478 -91061044.189321518 0 0 0 0 55444726.156768799 9816637.976726532 0 9816637.976726532 -59233479.328151345 0 0 0 0 60247662.041320801 -9231602.6873636246 0 -9231602.6873636246 -89639522.777024865 0 0 0 0 -78732385.998138428 -66222763.033765793 0 -66222763.033765793 -162248192.87493467 0 0 0 0 32647880.517272949 -14178206.941460133 0 -14178206.941460133 -84564348.170856476 0 0 0 0 -70703703.34992981 -88855450.263620377 0 -88855450.263620377 -110210133.89736938 0 0 0 0 278943.03624994308 -92721.032627630979 0 -92721.032627630979 707704.85902169161 0 0 0 0 -87293877.355224609 -54503208.066143513 0 -54503208.066143513 14327634.643669486 0 0 0 0 -52961367.112957001 -155269206.75647509 0 -155269206.75647509 -175307072.42148972 0 0 0 0 -25861431.750213623 -85420204.343389511 0 -85420204.343389511 -214567964.65248489 0 0 0 0 -45485416.679946899 -79210327.724358559 0 -79210327.724358559 -74478844.758331299 0 0 0 0 -18053773.2003479 65746142.816149235 0 65746142.816149235 14768634.334388256 0 0 0 0 528923245.25088501 -312793986.71091509 0 -312793986.71091509 137946699.26269817 0 0 0 0 309716890.57392883 153893536.73300695 0 153893536.73300695 -80048771.255880356 0 0 0 0 -73102.730807676911 -105147.52250758931 0 -105147.52250758931 559851.36495883204 0 0 0 0 -146897991.09780884 -275469212.84596777 0 -275469212.84596777 82125324.61764431 0 0 0 0 160477445.57888794 -406386790.04866362 0 -406386790.04866362 96968136.054681778 0 0 0 0 35505918.135406494 -199745337.19260573 0 -199745337.19260573 2324280.6584496498 0 0 0 0 493049891.0462265 -239419671.20765805 0 -239419671.20765805 -85898923.933876038 0 0 0 0 37488032.19619751 -36911453.376660824 0 -36911453.376660824 -58882428.635443211 0 0 0 0 -144898115.17449403 -54046808.423261076 0 -54046808.423261076 -57661134.69131279 0 0 0 0 -11023361.28302002 -177855803.54898357 0 -177855803.54898357 55886556.147744179 0 0 0 0 129727402.50884247 -217289119.6512084 0 -217289119.6512084 437974.49866771698 0 0 0 0 180844817.02611732 -59760755.245447427 0 -59760755.245447427 -36344622.982032299 0 0 0 0 173031130.78630066 -237262990.80493772 0 -237262990.80493772 -48741495.750890493 0 0 0 0 148421700.0032959 -193500626.65679288 0 -193500626.65679288 -81390500.586981922 0 0 0 0 330210985.0682373 -176110563.25121623 0 -176110563.25121623 -80797022.42117849 0 0 0 0 388557179.10745239 57882350.486208349 0 57882350.486208349 38209332.692428499 0 0 0 0 182935915.519104 -63148120.827659607 0 -63148120.827659607 -32545832.738509893 0 0 0 0 167127685.57449532 72427223.507506162 0 72427223.507506162 58945246.532806396 0 0 0 0 99112171.954612732 -3864721.7118731737 0 -3864721.7118731737 -26600972.036125898 0 0 0 0 141757180.40870667 -50391436.422834948 0 -50391436.422834948 68005736.073057622 0 0 0 0 -1660278.4735107422 -36624132.004164934 0 -36624132.004164934 53358259.605908513 0 0 0 0 -19298290.401138306 -15831569.793490306 0 -15831569.793490306 34514582.238514066 0 0 0 0 8103789.4769134521 7421384.4441058338 0 7421384.4441058338 -60350990.812511444 0 0 0 0 9279941.0585021973 -474836.90329098701 0 -474836.90329098701 -10326609.158504009 0 0 0 0 69835956.366638184 34899197.721040964 0 34899197.721040964 2497804.7438851595 0 0 0 0 53504959.957962036 -18223979.824832678 0 -18223979.824832678 -34190713.949832439 0 0 0 0 9047095.9852905273 26568295.05048871 0 26568295.05048871 -22944111.989386439 0 0 0 0 2138088.9417266846 18882469.999486446 0 18882469.999486446 -25243244.908957005 0 0 0 0 942680.8178402409 -1120379.1597754247 0 -1120379.1597754247 -858116.09200636507 0 0 0 0 120459274.1173687 -42257507.787323713 0 -42257507.787323713 -25587434.127580643 0 0 0 0 533583.08562631905 -588368.80976264924 0 -588368.80976264924 -455376.68714262894 0 0 0 0 37037477.334945679 -15186454.212941408 0 -15186454.212941408 -40308322.598996162 0 0 0 0 22723665.090110779 -30910618.683341265 0 -30910618.683341265 -55070987.939649582 0 0 0 0 1463919.2560424805 29318162.658397675 0 29318162.658397675 -102704662.10216832 0 0 0 0 -10886335.491348267 -13637819.730183125 0 -13637819.730183125 -35489181.360214233 0 0 0 0 -14073355.635421753 25254376.263341308 0 25254376.263341308 -27199342.347568512 0 0 0 0 -166966502.99688721 -19477730.714632988 0 -19477730.714632988 -46993579.778608322 0 0 0 0 890141.90666112304 -1248795.0752885062 0 -1248795.0752885062 -919447.82747379923 0 0 0 0 39798663.966369629 9837330.0305051804 0 9837330.0305051804 -65301651.743986011 0 0 0 0 -16495945.34734726 -66389767.533755586 0 -66389767.533755586 -125395152.17186832 0 0 0 0 -207688800.48431396 -92801283.553559065 0 -92801283.553559065 -34520473.350855827 0 0 0 0 2456643.5361088738 1160545.1087596044 0 1160545.1087596044 164221.01933787367 0 0 0 0 -25222734.771148682 -36120209.959311187 0 -36120209.959311187 -27216347.512635618 0 0 0 0 -77745667.484153748 -37445567.165897012 0 -37445567.165897012 -4802826.533857882 0 0 0 0 9252530.9142554328 3047178.8469630666 0 3047178.8469630666 286212.58240951045 0 0 0 0 -153226069.89190674 -64097883.027834341 0 -64097883.027834341 9405104.1921349764 0 0 0 0 -78335746.281094551 -46532661.755868703 0 -46532661.755868703 -48836102.207677603 0 0 0 0 79511104.562583923 19231995.463490054 0 19231995.463490054 -14743636.346049994 0 0 0 0 85487805.464324951 -2033864.6530324221 0 -2033864.6530324221 60918872.07527253 0 0 0 0 33819611.46547699 -26981983.124050513 0 -26981983.124050513 -54964621.963158369 0 0 0 0 20125546.590301514 -55507133.254490852 0 -55507133.254490852 -68810253.694564462 0 0 0 0 130234807.90507507 43076913.993944407 0 43076913.993944407 -160034868.62661409 0 0 0 0 171458469.73536682 67800452.844612122 0 67800452.844612122 -86297453.01433897 0 0 0 0 52159649.471694946 -31208275.95922339 0 -31208275.95922339 -1608263.958984375 0 0 0 0 13435233.512207031 -15001086.453764915 0 -15001086.453764915 15528174.354921341 0 0 0 0 41195710.187717438 43207356.967592239 0 43207356.967592239 34073198.921535373 0 0 0 0 28116737.69093895 6354501.282570675 0 6354501.282570675 -17777701.93469429 0 0 0 0 28178985.408128344 -9015667.4881766178 0 -9015667.4881766178 -10744261.462602183 0 0 0 0 35852400.536739349 -23739544.660911381 0 -23739544.660911381 -28305323.879041672 0 0 0 0 -24227932.751525879 -31847059.169744492 0 -31847059.169744492 -1102978.6406902075 0 0 0 0 43401932.415771753 4368386.2592610568 0 4368386.2592610568 20605162.781261444 0 0 0 0 33701339.603103638 3844703.3416039944 0 3844703.3416039944 -17285308.11869812 0 0 0 0 1364307.2884216309 -4570599.6993198395 0 -4570599.6993198395 -13187818.749527693 0 0 0 0 26734928.051219977 -7532073.6108394451 0 -7532073.6108394451 -12371634.293265928 0 0 0 0 18087235.718704224 -36961836.895091057 0 -36961836.895091057 -42013340.846323967 0 0 0 0 31701241.820220947 -22968901.355275631 0 -22968901.355275631 -27794114.975839138 0 0 0 0 60192237.996429443 -94216900.321711302 0 -94216900.321711302 -38335215.693496704 0 0 0 0 -24744151.433986664 -70842575.55130589 0 -70842575.55130589 -68827122.707788467 0 0 0 0 572391.61596679688 -32072123.260069847 0 -32072123.260069847 -94697040.337864876 0 0 0 0 -48376399.253936768 -31643883.575823545 0 -31643883.575823545 -39466427.020436287 0 0 0 0 7053964.0142822266 -10139430.063221455 0 -10139430.063221455 -78522921.804037869 0 0 0 0 17048876.315177917 -30300285.944490671 0 -30300285.944490671 -43577289.117300987 0 0 0 0 115651627.81216431 12174740.082896709 0 12174740.082896709 -111524160.01656723 0 0 0 0 75649089.503417969 -48148381.30022049 0 -48148381.30022049 64330320.357853293 0 0 0 0 22042143.882324219 10620482.865997314 0 10620482.865997314 17754304.510847092 0 0 0 0 28374477.764923096 29117651.458984375 0 29117651.458984375 -22896789.845575333 0 0 0 0 -12587517.858032227 -94842225.508607864 0 -94842225.508607864 75904680.169997215 0 0 0 0 496472.58882275969 -740208.82570938766 0 -740208.82570938766 -527648.67340704973 0 0 0 0 -10990269.809494019 -157311111.14265347 0 -157311111.14265347 7157079.2617034912 0 0 0 0 -109195028.48326111 -138713511.18186951 0 -138713511.18186951 4356562.1010785103 0 0 0 0 180456155.6615448 -797738.24663805962 0 -797738.24663805962 -21387834.215585709 0 0 0 0 624774.38274955377 112684.04800543934 0 112684.04800543934 -28479.514218491036 0 0 0 0 -57826725.087020874 -64967602.991147041 0 -64967602.991147041 -44253337.668676615 0 0 0 0 49488134.811386108 -7177904.2262511253 0 -7177904.2262511253 -3113902.8710212559 0 0 0 0 45089634.142929077 -32789415.842948914 0 -32789415.842948914 -13567083.847520828 0 0 0 0 112026952.78359985 9333209.4141654968 0 9333209.4141654968 -3586273.5038682073 0 0 0 0 68103468.271606445 -41242195.072740078 0 -41242195.072740078 10181551.540441513 0 0 0 0 51770009.75177002 -11130466.277832985 0 -11130466.277832985 -35003419.384859085 0 0 0 0 37123372.715026855 -24566338.101027489 0 -24566338.101027489 809202.14046859741 0 0 0 0 43677518.296401978 -27918385.056363106 0 -27918385.056363106 -14946970.717888832 0 0 0 0 67332618.262672424 -16545799.763546944 0 -16545799.763546944 -16205931.369572639 0 0 0 0 45458288.814331055 -35495198.865933061 0 -35495198.865933061 -2133690.0187358856 0 0 0 0 34692474.908126831 -5114309.942917347 0 -5114309.942917347 -2505810.1584687233 0 0 0 0 50760882.842056274 -5922487.5724885464 0 -5922487.5724885464 -2758292.4480485916 0 0 0 0 2897256.0300927907 -343636.79652160034 0 -343636.79652160034 -995204.09017828573 0 0 0 0 8391588.338196665 -122029.884168908 0 -122029.884168908 -2127432.0049971179 0 0 0 0 11836220.347763062 -3612462.7299467325 0 -3612462.7299467325 -3603171.1541788876 0 0 0 0 10023106.628433228 -3980379.908605516 0 -3980379.908605516 -3253598.6156592369 0 0 0 0 7796535.6861915588 863316.42886248231 0 863316.42886248231 -5079953.6603376865 0 0 0 0 7919574.9666442871 1314481.439680934 0 1314481.439680934 -3959926.9114243984 0 0 0 0 8709923.070461154 -1706388.8465025388 0 -1706388.8465025388 -3372427.358413944 0 0 0 0 24665049.78994751 -15199286.785815239 0 -15199286.785815239 10233074.604758263 0 0 0 0 30920037.950897217 -23462564.624094963 0 -23462564.624094963 16694889.871856689 0 0 0 0 21382542.249176025 -23345758.055686951 0 -23345758.055686951 27065391.302532196 0 0 0 0 39810157.430847168 -37448887.284216881 0 -37448887.284216881 18148152.085933685 0 0 0 0 33586271.076904297 -28116634.476284981 0 -28116634.476284981 4231150.7567529678 0 0 0 0 34078658.20892334 -26589303.047284126 0 -26589303.047284126 8902629.4655323029 0 0 0 0 -8664679.6874847412 -58257545.259809017 0 -58257545.259809017 -70705891.511712193 0 0 0 0 8699945.0101928711 -30829892.910315752 0 -30829892.910315752 -27409134.518391609 0 0 0 0 -61379855.994041443 -29574978.873289108 0 -29574978.873289108 6702844.7889509201 0 0 0 0 1391337.1213591248 -475819.00002039969 0 -475819.00002039969 -494107.4454731131 0 0 0 0 2810726.4545839578 -5488461.9949943796 0 -5488461.9949943796 1992052.529497396 0 0 0 0 -3746087.6779327393 -14505639.766695499 0 -14505639.766695499 -9194515.6751093864 0 0 0 0 -15366946.504570007 -22105077.199831724 0 -22105077.199831724 53962.701233863831 0 0 0 0 1539094.6295776367 -29779497.793094635 0 -29779497.793094635 -27555363.112457037 0 0 0 0 10102316.321807861 -9039721.764380455 0 -9039721.764380455 -7526.3108429573476 0 0 0 0 2223072.8206558228 -21702612.139479637 0 -21702612.139479637 -3979046.8876929283 0 0 0 0 3853197.6973016486 -7978731.0223166794 0 -7978731.0223166794 2123076.4263245077 0 0 0 0 10900265.116653442 -5405271.5879274905 0 -5405271.5879274905 -5368687.7017962933 0 0 0 0 4651589.050819397 -15005199.373569323 0 -15005199.373569323 -1682272.4268324971 0 0 0 0 31624221.152069092 -5472313.6481906073 0 -5472313.6481906073 -8809547.7345235683 0 0 0 0 -56408323.023193359 32329049.974692822 0 32329049.974692822 21727288.933238506 0 0 0 0 -21792630.4012146 45661170.618532002 0 45661170.618532002 34693254.941290975 0 0 0 0 475093.40659465641 -159639.05499081872 0 -159639.05499081872 -643273.8818965425 0 0 0 0 32251829.915710449 -24039473.777170002 0 -24039473.777170002 -10283676.377353907 0 0 0 0 19807586.005462646 -15610255.115730405 0 -15610255.115730405 -7909672.1822032928 0 0 0 0 21791828.219501495 -26446022.065707803 0 -26446022.065707803 -8101378.9374829531 0 0 0 0 43944888.710510254 -16033838.702757478 0 -16033838.702757478 -10554827.908882141 0 0 0 0 -7317800.5742492676 -13672665.328364268 0 -13672665.328364268 -1600800.0468669534 0 0 0 0 1397116.1070554256 -1121888.7667184938 0 -1121888.7667184938 -1078653.0104451133 0 0 0 0 11711087.326049805 57985456.761484087 0 57985456.761484087 -30289211.403537005 0 0 0 0 6138466.0773786865 -2396190.9226413704 0 -2396190.9226413704 -5461109.8755890336 0 0 0 0 -90364533.451942444 -54851872.415243864 0 -54851872.415243864 42412987.648291588 0 0 0 0 43968966.309972763 -81276368.837955832 0 -81276368.837955832 -29340194.150760651 0 0 0 0 7679656.5947875977 5083280.1047825217 0 5083280.1047825217 -26649.405634999275 0 0 0 0 4154921.1680603027 -229847.01539087296 0 -229847.01539087296 -1650810.4050097466 0 0 0 0 3446428.7451631129 -397778.24385899305 0 -397778.24385899305 -2979110.1754725338 0 0 0 0 3111434.5905456543 -527707.83577299118 0 -527707.83577299118 -2757488.6105327606 0 0 0 0 6274657.4763663486 -543625.05191728845 0 -543625.05191728845 -3534238.7946835738 0 0 0 0 4908760.4114379883 4005187.4442615509 0 4005187.4442615509 -5793673.1684188843 0 0 0 0 8101773.0309752151 -1137589.4502328038 0 -1137589.4502328038 -2246521.260989836 0 0 0 0 1813854.7396776788 -795788.14638889581 0 -795788.14638889581 -1151825.8315139748 0 0 0 0 41385383.424438477 -11160283.424803734 0 -11160283.424803734 185853.50120544434 0 0 0 0 -4062061.4180908203 -3197457.7260475755 0 -3197457.7260475755 -4647499.4115884304 0 0 0 0 13515192.871520996 -328362.01181280613 0 -328362.01181280613 -4832072.0044427663 0 0 0 0 18461866.211791992 6192071.7080366015 0 6192071.7080366015 -358918.57134646177 0 0 0 0 22549460.070800781 -7474432.580787993 0 -7474432.580787993 -9204166.8772926517 0 0 0 0 18665819.273834229 3357144.0897825882 0 3357144.0897825882 -3307566.3536543739 0 0 0 0 -4259347.1605834961 -4605617.2561819553 0 -4605617.2561819553 -17521924.582784891 0 0 0 0 -240381.05847601593 -1867962.0475117841 0 -1867962.0475117841 -292137.53249735147 0 0 0 0 990714.92290899903 -1026824.2672402114 0 -1026824.2672402114 -1728291.6045858162 0 0 0 0 11290185.275085449 -10348235.853966475 0 -10348235.853966475 -32417742.938351393 0 0 0 0 -21734211.079666138 10254815.276432633 0 10254815.276432633 -19509054.967206717 0 0 0 0 44774341.349292755 -4068819.7083648681 0 -4068819.7083648681 -12008334.819477595 0 0 0 0 31895908.092285156 3564661.2568783034 0 3564661.2568783034 -6400943.14367304 0 0 0 0 89277989.70513916 -54451392.863458037 0 -54451392.863458037 -12424918.597667933 0 0 0 0 -11162849.825195312 203111.56001996994 0 203111.56001996994 -7454633.5342736244 0 0 0 0 295227.12870489061 -740613.64916930068 0 -740613.64916930068 -398786.29482067953 0 0 0 0 8962798.620530203 -2582981.6382574402 0 -2582981.6382574402 -3867982.7112766332 0 0 0 0 3034566.6726216525 -2753130.9257682394 0 -2753130.9257682394 -2906979.1338159754 0 0 0 0 894714.44636535645 -2114418.6240121126 0 -2114418.6240121126 -5570692.078122139 0 0 0 0 8961815.5397177748 -1708644.1359509602 0 -1708644.1359509602 -4173549.1992376102 0 0 0 0 8806791.769209329 136842.46292250231 0 136842.46292250231 -3733515.3685031561 0 0 0 0 5306883.0971069336 -866827.06077194214 0 -866827.06077194214 -5034182.3274908066 0 0 0 0 1062315.6231689453 -8698653.5162014961 0 -8698653.5162014961 -14521833.759145737 0 0 0 0 4449636.8487243652 130414.21105957031 0 130414.21105957031 -5787978.9981455803 0 0 0 0 4805744.115171127 -2189001.846704565 0 -2189001.846704565 -599419.51405253005 0 0 0 0 4817391.0483856201 -727857.65676337481 0 -727857.65676337481 -5192398.4566311836 0 0 0 0 1327965.802734375 1536433.1334285736 0 1536433.1334285736 -11297503.070486307 0 0 0 0 4615765.5250244141 -2017004.2446508408 0 -2017004.2446508408 -409092.92848205566 0 0 0 0 1864055.5498657227 198746.18107318878 0 198746.18107318878 -11402782.519059896 0 0 0 0 4155245.7537579536 -177732.97657904774 0 -177732.97657904774 -4620363.4331884384 0 0 0 0 8772381.132128492 -978029.895015819 0 -978029.895015819 -3863757.6940932111 0 0 0 0 2366542.0621441603 1334978.3645931161 0 1334978.3645931161 -3075285.6907208893 0 0 0 0 25113.126362897456 -25204.337943013757 0 -25204.337943013757 23221.152975670062 0 0 0 0 42805971.968078613 3644712.2237725258 0 3644712.2237725258 16474861.237696648 0 0 0 0 8672250.8576664068 809884.35323770344 0 809884.35323770344 -3202790.7478046804 0 0 0 0 4596027.9397277832 -2115558.3957760334 0 -2115558.3957760334 -899038.38505029678 0 0 0 0 80433501.465545654 -43893077.222633362 0 -43893077.222633362 18916174.081138611 0 0 0 0 78353020.307006836 -77927892.771043777 0 -77927892.771043777 -35574066.655849457 0 0 0 0 648325.81715486944 463210.27528575249 0 463210.27528575249 -592629.75539918197 0 0 0 0 25178754.062438965 -17794207.253883362 0 -17794207.253883362 924718.77184295654 0 0 0 0 6388179.4489166364 -4983040.5812329631 0 -4983040.5812329631 -2021116.5908773867 0 0 0 0 4252399.054258585 -1209708.1122520119 0 -1209708.1122520119 -407366.53124271519 0 0 0 0 -10765257.09677124 1321287.9398956299 0 1321287.9398956299 20138212.219766617 0 0 0 0 15362416.22668457 2901739.701385498 0 2901739.701385498 18879338.243374825 0 0 0 0 -18592827.199401855 -5257097.0715827942 0 -5257097.0715827942 36170764.391914368 0 0 0 0 64606753.427490234 -9316407.9821186066 0 -9316407.9821186066 20704335.439985275 0 0 0 0 4773566.5844421387 196593.39321708679 0 196593.39321708679 -6356892.4308681488 0 0 0 0 38541338.676687241 -22383559.631222069 0 -22383559.631222069 5203700.8948631287 0 0 0 0 -1261032.0046386719 -5675393.9603843689 0 -5675393.9603843689 2883512.1811199188 0 0 0 0 1734426.3267726898 -4039414.4457924198 0 -4039414.4457924198 -2086576.9157772125 0 0 0 0 14346984.240354702 -2081242.71024758 0 -2081242.71024758 -3214007.8679241687 0 0 0 0 6031226.1350097656 1932531.3056945801 0 1932531.3056945801 -11563622.087663651 0 0 0 0 2414515.3379135132 -228803.97266244888 0 -228803.97266244888 -5240055.5562934875 0 0 0 0 9934914.754979223 -2107578.6314471597 0 -2107578.6314471597 -3419309.0287098554 0 0 0 0 14767013.130887911 -1876618.4086319408 0 -1876618.4086319408 -2293286.0147895184 0 0 0 0 8358401.6874802262 -5884984.3016334251 0 -5884984.3016334251 -3624999.1810001861 0 0 0 0 -11449570.279388428 -15359789.375675201 0 -15359789.375675201 -6768727.2057523727 0 0 0 0 46570308.003112793 65395046.877327919 0 65395046.877327919 -127571877.33373737 0 0 0 0 18414099.918449402 -6708344.4816246033 0 -6708344.4816246033 -22730786.462622643 0 0 0 0 -13408725.139312744 177024274.79855156 0 177024274.79855156 3649609.0495624542 0 0 0 0 -77814883.446640015 155012156.48066378 0 155012156.48066378 192438206.44894409 0 0 0 0 -69804203.628601074 -10214761.279898643 0 -10214761.279898643 308750921.73322678 0 0 0 0 -17735948.273773193 12191164.799570084 0 12191164.799570084 61510277.92719841 0 0 0 0 22928226.974777222 -52669272.29600811 0 -52669272.29600811 53398640.647264481 0 0 0 0 169480903.83013916 -152577465.64757729 0 -152577465.64757729 147258050.55094481 0 0 0 0 -20204011.46270752 10527652.429724693 0 10527652.429724693 25443146.538340569 0 0 0 0 -32537010.539825439 3613001.720369339 0 3613001.720369339 112936948.197649 0 0 0 0 -19161221.232727051 -10987059.139575958 0 -10987059.139575958 53566398.961769104 0 0 0 0 -10351347.277832031 -24083501.945343018 0 -24083501.945343018 50443155.261336088 0 0 0 0 -1736428.5003204346 -26004728.530688763 0 -26004728.530688763 24939203.660682678 0 0 0 0 -495753.1882019043 -33055839.897086143 0 -33055839.897086143 24662977.68086201 0 0 0 0 34005993.706314087 -29931145.546253681 0 -29931145.546253681 36789824.53923893 0 0 0 0 21890788.404541016 4539778.5903644562 0 4539778.5903644562 -34999100.098423958 0 0 0 0 129294361.22352982 -55761299.986480057 0 -55761299.986480057 -1930740.7801399231 0 0 0 0 48197193.262191772 66734522.352312088 0 66734522.352312088 -158256594.14365625 0 0 0 0 -30030562.653434753 22047533.786522388 0 22047533.786522388 -51695443.481012344 0 0 0 0 36828676.3645401 -22817178.48416853 0 -22817178.48416853 -31356847.424570084 0 0 0 0 -15842449.26958847 -24224676.929846883 0 -24224676.929846883 -25952809.413101196 0 0 0 0 13498614.361404419 -18133860.090806961 0 -18133860.090806961 -73917548.135756493 0 0 0 0 7636650.2981109619 -21958612.595483303 0 -21958612.595483303 -25957321.550033569 0 0 0 0 5034043.6620635986 -6124193.5070014 0 -6124193.5070014 -9495235.3400053978 0 0 0 0 18314308.177360535 -33832136.121002197 0 -33832136.121002197 -15860232.568004608 0 0 0 0 27223168.043640137 -15800129.68855381 0 -15800129.68855381 -42289703.120981216 0 0 0 0 27688185.078033447 -33254212.771489143 0 -33254212.771489143 -13020222.953741074 0 0 0 0 48841884.61114502 -39335631.006668091 0 -39335631.006668091 -17118177.785431862 0 0 0 0 45516568.758842468 -35934160.472312212 0 -35934160.472312212 1172280.3183040619 0 0 0 0 28648357.258880615 -20179599.736194611 0 -20179599.736194611 1665192.7357559204 0 0 0 0 51040935.753358841 -19407326.959593996 0 -19407326.959593996 36483259.745410919 0 0 0 0 45981569.699920654 -37469649.211709976 0 -37469649.211709976 5510093.3738708496 0 0 0 0 51768123.078796387 -49266431.149082184 0 -49266431.149082184 21441225.494157791 0 0 0 0 45894561.21421814 -35517041.809034348 0 -35517041.809034348 1240066.1896152496 0 0 0 0 32438672.847396851 -31075649.824599266 0 -31075649.824599266 47489825.025371552 0 0 0 0 13803547.462142944 -13991968.256906509 0 -13991968.256906509 37418366.50560379 0 0 0 0 5494220.783416748 3366308.9459152222 0 3366308.9459152222 5422924.3539676666 0 0 0 0 65886387.786071777 -67048422.942024231 0 -67048422.942024231 52592525.228363037 0 0 0 0 82470829.749572754 -59583705.808073997 0 -59583705.808073997 48502937.455285072 0 0 0 0 1010669.0831913799 -258052.34763088822 0 -258052.34763088822 83048.444278807379 0 0 0 0 51286178.320465088 -33545553.580516815 0 -33545553.580516815 15315025.905288696 0 0 0 0 51188502.612411499 -30334018.617918015 0 -30334018.617918015 24903595.138206482 0 0 0 0 10818100.755737305 -14348013.161468506 0 -14348013.161468506 26748342.519338608 0 0 0 0 11661755.103363037 -9446734.2380657196 0 -9446734.2380657196 36428750.100895286 0 0 0 0 -7428062.1914367676 -23241033.416191101 0 -23241033.416191101 27229795.475643158 0 0 0 0 1419237.6186523438 -11108909.906505108 0 -11108909.906505108 23457171.170883179 0 0 0 0 14992865.032714844 -27227573.948789597 0 -27227573.948789597 2537077.593706131 0 0 0 0 22954788.142112732 -13037207.075928688 0 -13037207.075928688 27700816.865196228 0 0 0 0 4096796731.4254303 543672114.21834278 0 543672114.21834278 -226353302.70355207 0 0 0 0 3440515072.728653 150685216.95302242 0 150685216.95302242 -86293072.807798088 0 0 0 0 2014076.1440863907 -926916.55110543594 0 -926916.55110543594 -160958.45209791942 0 0 0 0 3859427178.9489594 359765097.97939569 0 359765097.97939569 -44701327.701461732 0 0 0 0 -191310379.25823975 -103357293.28913003 0 -103357293.28913003 107395327.67956543 0 0 0 0 84433505.138389587 27265089.520704448 0 27265089.520704448 -72074488.096667647 0 0 0 0 3741660772.9700012 345417580.90741301 0 345417580.90741301 -21021813.125868365 0 0 0 0 3486254493.1903305 128635103.53017586 0 128635103.53017586 -187280058.56973574 0 0 0 0 68628754.981231689 19962480.4882043 0 19962480.4882043 -21947447.69828546 0 0 0 0 5536936.8921765005 -2358587.4360356256 0 -2358587.4360356256 -450008.50027356925 0 0 0 0 -47511768.717348099 -34826603.750473477 0 -34826603.750473477 -5561166.669818759 0 0 0 0 1898794658.157547 -419244820.69706219 0 -419244820.69706219 384569097.47223538 0 0 0 0 9726106.6001531165 -2296931.2831931449 0 -2296931.2831931449 -1283308.9797027276 0 0 0 0 -57288868.367553711 -37625843.405146599 0 -37625843.405146599 23782719.201878548 0 0 0 0 -22742187.402557373 -50720542.874593616 0 -50720542.874593616 -1004518.1474876404 0 0 0 0 3717166161.4970474 328494776.53066278 0 328494776.53066278 -336915376.86432981 0 0 0 0 3993876523.3091583 507543259.55357641 0 507543259.55357641 -115279602.02199538 0 0 0 0 3892678728.4121475 166882254.2465238 0 166882254.2465238 -349595535.93573165 0 0 0 0 3760601438.0588989 319443204.79899716 0 319443204.79899716 -177551573.91144413 0 0 0 0 3969267817.9851379 262292672.68786466 0 262292672.68786466 239068724.25765499 0 0 0 0 4092352522.0668378 186278729.3598811 0 186278729.3598811 -89681528.396293372 0 0 0 0 3959615246.681694 155065419.91349053 0 155065419.91349053 948102958.78476465 0 0 0 0 3691745075.8085022 47176958.414270677 0 47176958.414270677 -149381.97438633733 0 0 0 0 3182031309.5657654 87614006.671546161 0 87614006.671546161 -153894065.98792899 0 0 0 0 2772867187.0724945 399836173.14825457 0 399836173.14825457 -82378501.802351981 0 0 0 0 34525574.539710999 5264679.7817353019 0 5264679.7817353019 -4693918.7762687504 0 0 0 0 5955907.6987997945 1362077.3236176819 0 1362077.3236176819 184428.5600667973 0 0 0 0 1358068169.2666321 649803595.04495049 0 649803595.04495049 837716957.36121321 0 0 0 0 8091710.5469083562 1346502.9802840278 0 1346502.9802840278 -640409.9871617473 0 0 0 0 24948227.544277191 1675945.1236583758 0 1675945.1236583758 -4250941.6287095547 0 0 0 0 17626128.502441406 4369986.3651128411 0 4369986.3651128411 299104.96751897008 0 0 0 0 4517925640.6567841 387275426.88014239 0 387275426.88014239 -384706264.70439392 0 0 0 0 2656383373.4778748 1863311388.8872728 0 1863311388.8872728 765273769.7092247 0 0 0 0 2648999.4077223688 -41748.252972272137 0 -41748.252972272137 44282.820601477011 0 0 0 0 4113446708.9532785 -1332605941.6249225 0 -1332605941.6249225 53880815.549832344 0 0 0 0 4346026450.8402863 708142324.43677318 0 708142324.43677318 -62940748.798255026 0 0 0 0 34353969.715393066 16178998.036291122 0 16178998.036291122 -28406372.749363899 0 0 0 0 19365747.740078732 3030804.8300002813 0 3030804.8300002813 -2171208.1012825845 0 0 0 0 -68482780.04095459 -77934685.20931673 0 -77934685.20931673 -89180361.392546654 0 0 0 0 551864565.8482666 19246921.980028152 0 19246921.980028152 -163736062.03151321 0 0 0 0 18410067.005761087 -581394.39993776532 0 -581394.39993776532 -1382537.158208783 0 0 0 0 -50989325.06362915 232412198.68912244 0 232412198.68912244 47467173.329034805 0 0 0 0 -118929739.09872437 16179459.605338156 0 16179459.605338156 70482551.256790161 0 0 0 0 -316900283.54782104 -172822619.40511703 0 -172822619.40511703 -107513282.01351261 0 0 0 0 1740754.6764978096 257317.99271632731 0 257317.99271632731 -690028.74463776546 0 0 0 0 -26740106.908309937 -121684924.18353038 0 -121684924.18353038 -16300144.803904779 0 0 0 0 11937484.853477478 727888.56929608621 0 727888.56929608621 -2146649.9174461663 0 0 0 0 7200711.8319564313 1863991.8417984657 0 1863991.8417984657 -1326587.5290443494 0 0 0 0 24365974.570419312 11545190.70223112 0 11545190.70223112 -13396857.54044918 0 0 0 0 17310446.53616333 -2670373.9950045422 0 -2670373.9950045422 -1345165.5447208583 0 0 0 0 18004831.28540802 -280710.68984589214 0 -280710.68984589214 3915536.3948913999 0 0 0 0 15884406.177047729 3932164.2083886089 0 3932164.2083886089 -4113813.0022573848 0 0 0 0 43089414.685974121 22753421.444630299 0 22753421.444630299 1265351.6190026924 0 0 0 0 3173214.4412228242 1378847.5318658762 0 1378847.5318658762 311114.30052637722 0 0 0 0 8685543.6797561646 -5157694.1951294392 0 -5157694.1951294392 -452442.1832268266 0 0 0 0 1157519.9228057861 -3593506.1945608105 0 -3593506.1945608105 -1656.6189715951255 0 0 0 0 9836401.5527038574 3883275.9527163296 0 3883275.9527163296 -1504842.3341240694 0 0 0 0 18460055.613296509 -4398657.6857403824 0 -4398657.6857403824 8509.3094160204273 0 0 0 0 39007787.052444458 75083.801533311664 0 75083.801533311664 -16015994.715444751 0 0 0 0 29813791.265167236 10143106.422676207 0 10143106.422676207 184487.62992171181 0 0 0 0 64450279.74810791 36104872.002691768 0 36104872.002691768 9244388.0317782145 0 0 0 0 1898186.728759326 1092007.415795479 0 1092007.415795479 572875.07579282951 0 0 0 0 25609097.599945068 84453.487324118614 0 84453.487324118614 -3901341.9660165217 0 0 0 0 41131195.019241333 7226893.6413875185 0 7226893.6413875185 -33948019.798034862 0 0 0 0 27370597.830101013 1908734.6789314114 0 1908734.6789314114 -9012362.2133133262 0 0 0 0 22443092.056793213 -12205191.78108363 0 -12205191.78108363 -12205637.162190739 0 0 0 0 27428407.770294189 3164107.575806804 0 3164107.575806804 -28684172.661529824 0 0 0 0 12843563.260162354 -5858436.4852539971 0 -5858436.4852539971 -11502937.637554765 0 0 0 0 8012304.280380249 53513595.564677 0 53513595.564677 -57704568.430695087 0 0 0 0 16851027.7796802 1388879.6177658783 0 1388879.6177658783 -701594.94682719628 0 0 0 0 54280000.484558105 9839536.1749978364 0 9839536.1749978364 -18601623.180818558 0 0 0 0 48095224.707042694 -5840047.692946434 0 -5840047.692946434 16951961.401576042 0 0 0 0 15043380.964125283 1766680.7971021018 0 1766680.7971021018 -255331.09540216468 0 0 0 0 -264186367.01464844 49540708.570137024 0 49540708.570137024 23212004.342558861 0 0 0 0 43490472.295532227 12268479.010008633 0 12268479.010008633 -1824309.0123054385 0 0 0 0 19478607.142669678 -7364863.1153372154 0 -7364863.1153372154 -17431520.705625936 0 0 0 0 -47697095.979123533 -51427629.180341534 0 -51427629.180341534 600204.08629584312 0 0 0 0 1166045.0180303082 213837.70311022922 0 213837.70311022922 -737294.1975418115 0 0 0 0 -14557707.786209106 12997979.976713061 0 12997979.976713061 690169.96290135384 0 0 0 0 1948112.9279533736 -315648.46692185476 0 -315648.46692185476 -208965.51404882272 0 0 0 0 -23402793.288482666 17749336.396125913 0 17749336.396125913 2572085.5530637503 0 0 0 0 56827549.384277344 20077934.996796966 0 20077934.996796966 12097275.464818001 0 0 0 0 -16048783.036865234 3784300.7457294464 0 3784300.7457294464 3292145.1388328075 0 0 0 0 -19080338.272445679 8142757.7631877661 0 8142757.7631877661 11362770.496912003 0 0 0 0 -34517294.963125229 -7931981.8321612962 0 -7931981.8321612962 5094969.4264695644 0 0 0 0 2273418.1383740008 1428074.9606240876 0 1428074.9606240876 -491972.01176422287 0 0 0 0 -36065394.82989502 8358236.1347336769 0 8358236.1347336769 6724120.6277724504 0 0 0 0 -22597104.60760498 18519184.579187602 0 18519184.579187602 20700144.650915951 0 0 0 0 39411921.771211624 32813428.345388234 0 32813428.345388234 -28681031.649538994 0 0 0 0 -67546336.717430115 45287513.588681497 0 45287513.588681497 9584037.658697024 0 0 0 0 -2174.7045972533524 -4014.362764261663 0 -4014.362764261663 712381.64620478917 0 0 0 0 424129257.43405151 24919557.631215274 0 24919557.631215274 -97993839.050949335 0 0 0 0 138135037.80638123 -49851696.507779956 0 -49851696.507779956 22583857.416570902 0 0 0 0 86008331.769210815 61534961.2920959 0 61534961.2920959 40158228.954704046 0 0 0 0 67751115.399581909 13171302.68864131 0 13171302.68864131 30788893.309254251 0 0 0 0 4588501.1396026611 9981662.9124217033 0 9981662.9124217033 21567769.724364132 0 0 0 0 135257860.0729866 -5744705.097337693 0 -5744705.097337693 -18019564.047656536 0 0 0 0 861299.98304748908 1081834.4426932894 0 1081834.4426932894 1324571.7682051663 0 0 0 0 4317667.2004511654 2167681.7209858671 0 2167681.7209858671 -4319174.885319449 0 0 0 0 131295269.85303497 52612269.903536499 0 52612269.903536499 -7848361.7449658848 0 0 0 0 99350782.740982056 -3605869.690320909 0 -3605869.690320909 -8555803.5172710419 0 0 0 0 5370026.0038375854 21663045.525595427 0 21663045.525595427 13119437.678202629 0 0 0 0 -2693864.8698043823 -2423578.5725039244 0 -2423578.5725039244 4828593.4017558098 0 0 0 0 -17930720.790855408 8744816.4938386679 0 8744816.4938386679 11649299.538927555 0 0 0 0 337264.86472874507 4230924.297748778 0 4230924.297748778 8278262.23091646 0 0 0 0 19992055.033638 17923090.909195065 0 17923090.909195065 3542754.5977325439 0 0 0 0 18161651.521057129 9977678.7286975384 0 9977678.7286975384 3453266.8502039909 0 0 0 0 2030511.955659993 2204620.2353598326 0 2204620.2353598326 6912322.1563953301 0 0 0 0 197425087.10136414 -187963165.05512524 0 -187963165.05512524 317567862.89115524 0 0 0 0 9634092.6443786621 22237279.132980108 0 22237279.132980108 12871942.066626549 0 0 0 0 -12776139.642120361 10294194.218660355 0 10294194.218660355 10244656.827192545 0 0 0 0 16274762.164550781 13842011.396266103 0 13842011.396266103 11554596.275955677 0 0 0 0 -16861993.672210693 12998888.700426579 0 12998888.700426579 16971081.12720108 0 0 0 0 -11727960.648040771 9916879.8481235504 0 9916879.8481235504 7743448.9445593357 0 0 0 0 -10965373.080078125 6505739.27089715 0 6505739.27089715 3706546.8178536892 0 0 0 0 -20121802.097290039 -4032504.4963350296 0 -4032504.4963350296 557799.61273872852 0 0 0 0 96716405.032592773 90007797.431434631 0 90007797.431434631 81542157.170791626 0 0 0 0 304860.93316650391 14322976.816501617 0 14322976.816501617 -89626370.466763973 0 0 0 0 6655872.59857025 -2298935.5530882515 0 -2298935.5530882515 -3089164.1861420795 0 0 0 0 358509506.43249512 252799857.35052633 0 252799857.35052633 306672003.22305298 0 0 0 0 261617297.63223267 49086863.282489777 0 49086863.282489777 10072787.883312225 0 0 0 0 28809769.410339355 32244193.26650238 0 32244193.26650238 -94088082.008318901 0 0 0 0 177612882.74798584 120511142.62283516 0 120511142.62283516 -9609275.4216651917 0 0 0 0 65502473.603408813 -43310243.861142159 0 -43310243.861142159 -46632037.920627594 0 0 0 0 367901182.70092773 163356642.89131546 0 163356642.89131546 -19806571.574724197 0 0 0 0 450566619.77700806 109972596.68656158 0 109972596.68656158 -76570908.466491699 0 0 0 0 658505514.46881104 196452586.44034195 0 196452586.44034195 -138296011.6646831 0 0 0 0 685414606.19172668 247599810.84505749 0 247599810.84505749 -67710499.168159485 0 0 0 0 546540372.98800659 224351612.51175308 0 224351612.51175308 -15879465.616321564 0 0 0 0 709556978.92974854 229277482.86002731 0 229277482.86002731 -216643143.37774658 0 0 0 0 668749516.88400269 364072640.18297577 0 364072640.18297577 -71157173.176954269 0 0 0 0 632199737.55218506 384266895.76148033 0 384266895.76148033 190221215.9679985 0 0 0 0 641070344.06536865 289451961.42303467 0 289451961.42303467 -5935276.2221207619 0 0 0 0 640720711.66390991 263937123.54141617 0 263937123.54141617 -70931477.531013489 0 0 0 0 737383692.96156311 655101705.61897659 0 655101705.61897659 370565384.04294658 0 0 0 0 781470585.24697876 -239426924.28793144 0 -239426924.28793144 -36168105.389978409 0 0 0 0 56590653.38432312 -188107903.94606018 0 -188107903.94606018 -23675125.388456345 0 0 0 0 2210741.1599255875 -743753.68129973859 0 -743753.68129973859 -880183.62968422845 0 0 0 0 1016843176.4736633 479195769.16457367 0 479195769.16457367 9123475.9162425995 0 0 0 0 1193503703.4954529 -684761974.36265182 0 -684761974.36265182 161179070.23661041 0 0 0 0 3700785.0871429443 67329247.146713257 0 67329247.146713257 -715594.30124664307 0 0 0 0 54129438.263707638 66540439.536946699 0 66540439.536946699 -50212823.78150177 0 0 0 0 22538870.243103027 -8765176.1336097717 0 -8765176.1336097717 -67555533.566085756 0 0 0 0 -7598921.1462402344 47848293.648367882 0 47848293.648367882 -22815455.877601624 0 0 0 0 107556.37449444085 -220335.05882477015 0 -220335.05882477015 -112228.67201918317 0 0 0 0 -6511339.6690177917 76047421.838636279 0 76047421.838636279 -2403484.328912735 0 0 0 0 -1378588.860534668 31457029.777191162 0 31457029.777191162 34855505.382172585 0 0 0 0 82512235.495834351 -114140686.01546764 0 -114140686.01546764 132804250.15545273 0 0 0 0 -2220400.7520828247 4107064.4066939354 0 4107064.4066939354 1226848.0694718361 0 0 0 0 105243843.05258942 -3491131.2900445461 0 -3491131.2900445461 -25653038.258821487 0 0 0 0 14951782.701843262 -10584231.894534111 0 -10584231.894534111 -1245913.4467716217 0 0 0 0 58766246.409606934 -385693.35952425003 0 -385693.35952425003 -7966148.1868228912 0 0 0 0 3182830.7593218107 320895.68881453574 0 320895.68881453574 -6365091.7208747324 0 0 0 0 914382.4366062358 -206998.95430562645 0 -206998.95430562645 -909746.25373317674 0 0 0 0 3935037.8510131836 697295.92757034302 0 697295.92757034302 1061857.2075424194 0 0 0 0 -4915395.6457519531 -13464105.450485945 0 -13464105.450485945 -21416983.391615391 0 0 0 0 -17960705.508605957 27109809.141926289 0 27109809.141926289 -49705364.354614258 0 0 0 0 7059927.040222168 -15632144.918888092 0 -15632144.918888092 21027972.623718262 0 0 0 0 -52727.841936230659 -101334.79603699967 0 -101334.79603699967 -454242.98013962805 0 0 0 0 74299311.285827637 -46015624.427997589 0 -46015624.427997589 -83797020.34072876 0 0 0 0 62111866.950561523 -16851853.551761627 0 -16851853.551761627 -70151649.59223938 0 0 0 0 -67151925.234130859 -47784824.666877747 0 -47784824.666877747 -50378913.19934082 0 0 0 0 105515419.14083862 -44612708.064687729 0 -44612708.064687729 -75379029.368789673 0 0 0 0 56606692.846069336 -80157073.710487366 0 -80157073.710487366 -128832349.22296524 0 0 0 0 68317841.943798065 8773426.3201670647 0 8773426.3201670647 -6027066.0699386597 0 0 0 0 -93789063.908325195 -124123461.51416397 0 -124123461.51416397 -86525051.865726471 0 0 0 0 4975816.9073742339 -2543327.8206807598 0 -2543327.8206807598 -3252475.858507765 0 0 0 0 -186195457.37823486 -85673027.82554245 0 -85673027.82554245 -32905846.109367371 0 0 0 0 5773229.1134796143 -1325802.1019597054 0 -1325802.1019597054 -1348646.7827682495 0 0 0 0 6521645.4618123397 -870498.51120610535 0 -870498.51120610535 -8029651.9557761606 0 0 0 0 -72303954.24887085 -77405468.977370262 0 -77405468.977370262 -49284358.660522461 0 0 0 0 9722371.4735905826 -3363786.7275953405 0 -3363786.7275953405 -6170735.1850446053 0 0 0 0 2484227.8486943431 676252.60292362422 0 676252.60292362422 -5061351.4229809605 0 0 0 0 5101880.2766390443 -2780165.2119573168 0 -2780165.2119573168 -1705088.9650572529 0 0 0 0 17939030.32182312 -7964687.9753955603 0 -7964687.9753955603 -13804383.135108948 0 0 0 0 7431369.5840301514 3977831.6660242081 0 3977831.6660242081 8341357.3422122002 0 0 0 0 117479805.93743896 3714069.9935913086 0 3714069.9935913086 -80883457.415969849 0 0 0 0 157008883.07113647 78891207.671878815 0 78891207.671878815 -30393878.674507141 0 0 0 0 2549786.5541992188 -4174180.931892395 0 -4174180.931892395 -11604692.755176544 0 0 0 0 8872404.5250854492 -11661306.967148781 0 -11661306.967148781 -5290463.0210072994 0 0 0 0 2622848.5276199654 -429446.89046548307 0 -429446.89046548307 -3693144.4037594181 0 0 0 0 -2169615.9633789062 -6636013.0302886963 0 -6636013.0302886963 -9225993.3639125824 0 0 0 0 39070254.074676514 7012356.6933627129 0 7012356.6933627129 -1884651.0543632507 0 0 0 0 12607828.209861755 4090483.9025337696 0 4090483.9025337696 692759.64405441284 0 0 0 0 15651099.898193359 -4066257.069478035 0 -4066257.069478035 -7352112.5659141541 0 0 0 0 -6461565.9807739258 16211765.255501509 0 16211765.255501509 5909989.9096870422 0 0 0 0 151491.19725257158 14659.968058716506 0 14659.968058716506 -69355.058654448017 0 0 0 0 -7370945.5897521973 -11606705.389836788 0 -11606705.389836788 -17229185.119526863 0 0 0 0 -284778.2878484726 -17194601.301764823 0 -17194601.301764823 -19293766.369602203 0 0 0 0 -735517.62478637695 -13253889.350277066 0 -13253889.350277066 -5453729.1391077042 0 0 0 0 -2816953.794708252 -5087644.4198937416 0 -5087644.4198937416 -9801585.8465926647 0 0 0 0 1939586.7444095314 -2344719.8747837469 0 -2344719.8747837469 428185.8777599422 0 0 0 0 14578618.914367676 -2821444.3468272686 0 -2821444.3468272686 -13284318.333133548 0 0 0 0 13045043.749969482 -20573984.933157086 0 -20573984.933157086 -10371598.601999044 0 0 0 0 -13363115.040679932 -17594412.127521276 0 -17594412.127521276 -15976725.577528954 0 0 0 0 3414916.8965910375 -1324816.1690457836 0 -1324816.1690457836 -7465992.7561273966 0 0 0 0 28403191.390686035 -16622999.011484325 0 -16622999.011484325 -16787500.510632992 0 0 0 0 75780770.409729004 60604101.294538498 0 60604101.294538498 93802468.806741714 0 0 0 0 33338668.45161438 -6062314.9535962939 0 -6062314.9535962939 -19935270.537388086 0 0 0 0 1449551.8005905598 1028333.8713262156 0 1028333.8713262156 922063.27056982834 0 0 0 0 20515610.656206131 8728573.4589260817 0 8728573.4589260817 -64650166.039094925 0 0 0 0 216518615.24060059 -170368239.33797836 0 -170368239.33797836 104823382.1429882 0 0 0 0 1064185586.7207642 -55914536.713027954 0 -55914536.713027954 -24530308.841892481 0 0 0 0 995745271.1053772 79800242.242789268 0 79800242.242789268 -59087205.910974503 0 0 0 0 598538329.73712158 -126984885.91505241 0 -126984885.91505241 -35142625.811200619 0 0 0 0 551754356.50964355 28854354.385359764 0 28854354.385359764 69746423.442714691 0 0 0 0 541036411.78216553 42112376.710216522 0 42112376.710216522 73042164.220985413 0 0 0 0 758235263.90917969 89716029.915266037 0 89716029.915266037 22433249.019519806 0 0 0 0 51524571.857437134 -3182234.1106796265 0 -3182234.1106796265 184838413.25500488 0 0 0 0 291813503.97296143 -18460090.439304352 0 -18460090.439304352 92243317.207141876 0 0 0 0 283277276.05535889 45883485.020973206 0 45883485.020973206 61344925.377170563 0 0 0 0 197410377.70489502 10782086.739915848 0 10782086.739915848 62233238.584597647 0 0 0 0 325734308.0871582 86218272.670671463 0 86218272.670671463 -30905865.629558563 0 0 0 0 528782278.69519043 49434771.897655487 0 49434771.897655487 8875603.9897174835 0 0 0 0 515597570.96203613 57901660.952487946 0 57901660.952487946 117419502.0867424 0 0 0 0 336133682.40527344 54875973.815872192 0 54875973.815872192 24417875.087787628 0 0 0 0 517299209.72407532 43184740.916254044 0 43184740.916254044 -49114047.240825653 0 0 0 0 317347546.03448486 98931785.066328049 0 98931785.066328049 -44323430.295167923 0 0 0 0 561551631.61560059 136220077.9056797 0 136220077.9056797 -85841964.734039307 0 0 0 0 588353576.04000854 93740337.272666931 0 93740337.272666931 -88139420.387294769 0 0 0 0 471235485.12573242 154354592.17011642 0 154354592.17011642 -72467858.051370859 0 0 0 0 441106395.61756897 72410219.552176952 0 72410219.552176952 -84529451.126712799 0 0 0 0 177782797.8079834 63743389.394697189 0 63743389.394697189 -17960974.192825317 0 0 0 0 272253634.87939453 11083373.44985199 0 11083373.44985199 -41877396.907917023 0 0 0 0 55828060.841651917 13060066.172782324 0 13060066.172782324 4285592.4698441029 0 0 0 0 1877675.436736092 1587966.1464899816 0 1587966.1464899816 4982998.7055593682 0 0 0 0 734094087.93778992 141505639.92893791 0 141505639.92893791 -116775202.43167114 0 0 0 0 696350107.98413086 184245261.56910515 0 184245261.56910515 -164455207.35171318 0 0 0 0 720980506.24285889 119097784.42872238 0 119097784.42872238 -134533417.59666443 0 0 0 0 632211689.82897949 180693465.12866402 0 180693465.12866402 -137765292.5393315 0 0 0 0 695735075.51330566 90251775.392591476 0 90251775.392591476 -72470099.841011047 0 0 0 0 688947386.08386993 53806399.370560646 0 53806399.370560646 101481970.59900665 0 0 0 0 595564236.49914551 106172081.3878479 0 106172081.3878479 -63818509.839935303 0 0 0 0 6350850.3756824005 -57852.030612062663 0 -57852.030612062663 -193020.58160084905 0 0 0 0 26863317.224456787 5658025.0325357914 0 5658025.0325357914 4028816.5611867905 0 0 0 0 2896127.6174229458 1407100.9262248799 0 1407100.9262248799 3152010.8307674145 0 0 0 0 1084682282.0370483 343698258.63917351 0 343698258.63917351 -18339923.642635345 0 0 0 0 908897316.72843552 377755245.427598 0 377755245.427598 127368949.49806213 0 0 0 0 642886539.79663086 216651989.908041 0 216651989.908041 261123747.02309418 0 0 0 0 26743615.933876038 5069164.1215361357 0 5069164.1215361357 1144740.7568774223 0 0 0 0 -48117686.579826593 203631095.53386521 0 203631095.53386521 -32771599.092905045 0 0 0 0 1080903541.2261047 322132121.32217216 0 322132121.32217216 69389520.923540115 0 0 0 0 13733421.262718603 2820607.8271094738 0 2820607.8271094738 35144.618401932545 0 0 0 0 22604078.570373535 4413167.1070189178 0 4413167.1070189178 635579.4643278732 0 0 0 0 -73078952.881164551 169298043.12850142 0 169298043.12850142 62772727.373558044 0 0 0 0 5656.2628449946642 -133049.38316596299 0 -133049.38316596299 1008659.2475953377 0 0 0 0 1642135688.1989746 214396127.64030552 0 214396127.64030552 -77216573.756668091 0 0 0 0 1345095029.4599304 41690387.76396656 0 41690387.76396656 -9069056.4886884689 0 0 0 0 1209396594.4742584 722352842.05503464 0 722352842.05503464 322573527.29595184 0 0 0 0 31793.518662825227 204387.78346755449 0 204387.78346755449 150810.25086989283 0 0 0 0 1549686377.8114624 381312589.14280224 0 381312589.14280224 -319136249.06943864 0 0 0 0 1335174287.758728 328568731.63707542 0 328568731.63707542 235939736.47149754 0 0 0 0 5379711.548473075 -471547.14159294963 0 -471547.14159294963 2216898.8964650836 0 0 0 0 15990660.026199341 804011.44742608443 0 804011.44742608443 1467858.3665317595 0 0 0 0 1280478138.8719788 506703023.75877142 0 506703023.75877142 -102465044.21059763 0 0 0 0 477463528.76486206 403345869.46444654 0 403345869.46444654 158822767.64290524 0 0 0 0 21637365.527511597 -1458944.0229045991 0 -1458944.0229045991 -581370.00106751919 0 0 0 0 7755208.2112731934 -10478514.721487353 0 -10478514.721487353 -11695190.440057252 0 0 0 0 5636125.0335051343 440424.70678084344 0 440424.70678084344 -207908.90551982613 0 0 0 0 24843715.448181152 4137807.6797286868 0 4137807.6797286868 -1939403.085306406 0 0 0 0 -3659064.6978607178 -26293593.781400308 0 -26293593.781400308 -19248207.515139867 0 0 0 0 35916052.282279968 15313037.938271089 0 15313037.938271089 -15136866.464667782 0 0 0 0 1715463.453685265 183441.08778043836 0 183441.08778043836 -50805.497068459634 0 0 0 0 1818888.6892313585 -303017.706203565 0 -303017.706203565 379399.60324664251 0 0 0 0 -21286330.381206512 -74864493.090315416 0 -74864493.090315416 -48209620.664917871 0 0 0 0 -4142782.8506164551 -18903413.634160899 0 -18903413.634160899 -44354065.370612919 0 0 0 0 62592937.00491333 -5091353.6198894829 0 -5091353.6198894829 -55995898.268035367 0 0 0 0 121571899.86227417 21461556.342668716 0 21461556.342668716 -355934.24335088459 0 0 0 0 39464273.676967621 -84438355.120096296 0 -84438355.120096296 -88247005.070692509 0 0 0 0 792456149.76806641 -112696451.70759213 0 -112696451.70759213 -122660438.93802783 0 0 0 0 30773019.508956909 17077419.969651148 0 17077419.969651148 -22380746.399765432 0 0 0 0 14943035.476837158 -8971410.7315360606 0 -8971410.7315360606 -1959057.0381511063 0 0 0 0 127459700.50857925 -78575116.198764741 0 -78575116.198764741 -47504873.644620597 0 0 0 0 141664066.99474335 -133892996.86540782 0 -133892996.86540782 111278472.38718137 0 0 0 0 57671734.525650024 -66657600.453158736 0 -66657600.453158736 481011.80494630028 0 0 0 0 562775310.53116608 409749270.10492778 0 409749270.10492778 359593788.33874917 0 0 0 0 474072.78284213785 -324805.7422555089 0 -324805.7422555089 -1144493.8954763839 0 0 0 0 1419316695.1421661 305859983.99687737 0 305859983.99687737 -401069271.0700953 0 0 0 0 256751682.86231995 163704321.91407049 0 163704321.91407049 278292982.77040148 0 0 0 0 -120762929.46168518 76545517.0411181 0 76545517.0411181 26593546.989171565 0 0 0 0 79946758.923797607 128435863.85571074 0 128435863.85571074 -78798872.804518133 0 0 0 0 82521579.559891701 82389472.657760143 0 82389472.657760143 106081875.99687344 0 0 0 0 62715555.666397095 37195853.418577075 0 37195853.418577075 -34521604.249744356 0 0 0 0 31937481.679840088 21218934.286118865 0 21218934.286118865 -31283213.928088784 0 0 0 0 864431750.45950317 69005881.891902328 0 69005881.891902328 -68424849.425747871 0 0 0 0 144095634.44891357 -197517298.11445141 0 -197517298.11445141 16162095.379332662 0 0 0 0 1570551.6173285097 -765845.36945578456 0 -765845.36945578456 -4009404.6169022834 0 0 0 0 -88496876.930744171 -72567450.038579404 0 -72567450.038579404 81074800.733129501 0 0 0 0 27305332.416873932 19119879.444721945 0 19119879.444721945 -17034086.887257576 0 0 0 0 13528580.94317627 -28356541.259674072 0 -28356541.259674072 -43933110.636087418 0 0 0 0 23406235.473861694 8595262.4133831263 0 8595262.4133831263 -42543098.945375323 0 0 0 0 23092884.530227661 7047661.0484125018 0 7047661.0484125018 -32783248.96745491 0 0 0 0 -107043.66076235473 -83045.566575929523 0 -83045.566575929523 -153490.2961165593 0 0 0 0 2111784.8039226234 -1906514.9573158994 0 -1906514.9573158994 184070.09153784555 0 0 0 0 -20305854.753234863 -44047558.594099402 0 -44047558.594099402 -51577891.988929749 0 0 0 0 -24636283.896179199 -31192697.783322573 0 -31192697.783322573 -24850278.178619266 0 0 0 0 -21259446.620445251 5845543.9497562647 0 5845543.9497562647 -9326638.0031962395 0 0 0 0 14198817.418502808 -13240734.649651647 0 -13240734.649651647 -57110640.228663921 0 0 0 0 21130203.366027832 -34576874.614695787 0 -34576874.614695787 -84456390.178213835 0 0 0 0 -8934010.9458007812 -19676752.766945004 0 -19676752.766945004 -73320618.20359993 0 0 0 0 -57273061.573852539 -16240728.803625941 0 -16240728.803625941 -66426308.739670753 0 0 0 0 -6352570.2483825684 -50629006.511977077 0 -50629006.511977077 -64883783.515269995 0 0 0 0 13793742.733062744 -11446443.462609947 0 -11446443.462609947 -53919367.96773541 0 0 0 0 599163.04627883434 -85362.598712842911 0 -85362.598712842911 -420969.6809602367 0 0 0 0 -236596.41854858398 -5508802.918810606 0 -5508802.918810606 6756633.9624578357 0 0 0 0 103497911.3429718 173174160.97072601 0 173174160.97072601 107975478.4763546 0 0 0 0 31270821.084106445 -5869927.6486740112 0 -5869927.6486740112 26883030.542481422 0 0 0 0 -23393158.259796143 18492316.591148853 0 18492316.591148853 19488448.195417404 0 0 0 0 55422456.879119873 -46483633.202941775 0 -46483633.202941775 18933219.379449844 0 0 0 0 110314936.70774841 -55756631.502776146 0 -55756631.502776146 13540694.294279814 0 0 0 0 130198168.38919067 -13119169.384851217 0 -13119169.384851217 186441.43456280231 0 0 0 0 -76913410.3705616 -132181765.36351015 0 -132181765.36351015 -42496600.806785107 0 0 0 0 975222.49947873503 -1069322.9293507896 0 -1069322.9293507896 552864.71569409117 0 0 0 0 -92360627.404785156 -29544349.458967388 0 -29544349.458967388 -43056684.458232164 0 0 0 0 -6855349.8048248291 -121791464.58885151 0 -121791464.58885151 -67928004.057188153 0 0 0 0 41026407.032951355 78522.321441426873 0 78522.321441426873 -66683490.88034296 0 0 0 0 -60318700.168060303 -48585615.903353691 0 -48585615.903353691 -53569291.127949476 0 0 0 0 58396918.508148193 -65309790.009863198 0 -65309790.009863198 -60530939.842278123 0 0 0 0 -13900947.52015686 -79012295.580228359 0 -79012295.580228359 -39532059.817753196 0 0 0 0 37219863.229568481 13588420.562893182 0 13588420.562893182 -44047904.003652215 0 0 0 0 43614960.646331787 13729594.899218202 0 13729594.899218202 -45080506.08464092 0 0 0 0 133990118.76367188 -185953979.84309196 0 -185953979.84309196 103865484.84662354 0 0 0 0 122139993.86038208 26809036.337275878 0 26809036.337275878 -46448113.646628782 0 0 0 0 344173579.72109985 -23207876.468538821 0 -23207876.468538821 -35326327.671119735 0 0 0 0 146286021.83929443 -115313588.28161246 0 -115313588.28161246 -31360609.868763864 0 0 0 0 -44351983.135009766 -60547201.229443252 0 -60547201.229443252 -28299401.875513643 0 0 0 0 -87788898.948806763 -131593062.3847014 0 -131593062.3847014 227506277.44557256 0 0 0 0 -26071609.470977783 -111964647.97017106 0 -111964647.97017106 87676963.693231553 0 0 0 0 -128399256.79178238 -58452874.582629636 0 -58452874.582629636 125995546.92434952 0 0 0 0 -194392686.29653931 -24784749.273690939 0 -24784749.273690939 120522979.97309735 0 0 0 0 67966403.43371582 12827793.120754961 0 12827793.120754961 -60155507.352967575 0 0 0 0 594754.52175198495 -230026.78314827848 0 -230026.78314827848 16164.922225117934 0 0 0 0 229796462.64541626 -88870189.895929009 0 -88870189.895929009 -217978.18306403377 0 0 0 0 -88918589.927001953 27808404.070113767 0 27808404.070113767 276936.87598490831 0 0 0 0 369618904.26025391 -97475652.997436345 0 -97475652.997436345 -215510996.35437101 0 0 0 0 -62064102.059570312 19801744.557034478 0 19801744.557034478 -49821353.969703361 0 0 0 0 1434507.8669628501 -247629.55411205208 0 -247629.55411205208 -34013.62339210714 0 0 0 0 -22794139.391464233 -28881141.931881644 0 -28881141.931881644 -60261.970527259022 0 0 0 0 277168.8406913504 -338752.82822566107 0 -338752.82822566107 272557.63764232298 0 0 0 0 -140879141.68135071 4936441.2526463978 0 4936441.2526463978 97696560.147736847 0 0 0 0 277122.94509951025 -222445.74136113375 0 -222445.74136113375 -4144.3282497412874 0 0 0 0 573345637.26123047 -13980809.286607742 0 -13980809.286607742 -185250096.33812124 0 0 0 0 434289177.11193848 -329045519.57520163 0 -329045519.57520163 204337791.36358953 0 0 0 0 226763256.05761719 131452503.27042186 0 131452503.27042186 19275359.161307573 0 0 0 0 113362351.42434692 -122505991.25087142 0 -122505991.25087142 70689956.697371244 0 0 0 0 111416347.81785583 28121435.627282679 0 28121435.627282679 93475622.13909936 0 0 0 0 -197137920.06643629 44632203.437202245 0 44632203.437202245 76647291.235780418 0 0 0 0 -235526455.97012329 -291226630.48432732 0 -291226630.48432732 83833965.550318301 0 0 0 0 19093506.236282349 -208394104.1049999 0 -208394104.1049999 100791217.80411983 0 0 0 0 -325020415.03857422 39540751.99557209 0 39540751.99557209 147052770.7275399 0 0 0 0 68751714.227630615 23698669.481302023 0 23698669.481302023 147198168.39249277 0 0 0 0 -86484024.824966431 -110513084.15812463 0 -110513084.15812463 167974839.65358543 0 0 0 0 16382449.005065918 -45149259.145871282 0 -45149259.145871282 171166093.51316929 0 0 0 0 33427446.544288635 -54572101.782488137 0 -54572101.782488137 16751353.884957075 0 0 0 0 3154080.0160217285 55078361.127425075 0 55078361.127425075 29779840.514171034 0 0 0 0 123139900.53031921 13258945.326313898 0 13258945.326313898 -98336750.706370711 0 0 0 0 186141073.44274902 -70290291.876606703 0 -70290291.876606703 -52276734.527045131 0 0 0 0 162977352.33282471 152225609.72275722 0 152225609.72275722 21850891.07586956 0 0 0 0 875789.4591664616 -559970.0394064784 0 -559970.0394064784 -393295.93085794873 0 0 0 0 -30119168.224746704 21553739.352865577 0 21553739.352865577 -2048393.0607311726 0 0 0 0 51162513.553894043 -29666170.390768409 0 -29666170.390768409 216606569.14732122 0 0 0 0 189400948.18850708 149646160.82750279 0 149646160.82750279 -85042869.76996851 0 0 0 0 24449110.475967407 5700694.3630257845 0 5700694.3630257845 34902245.060699701 0 0 0 0 10497352.935272217 -19082589.407100797 0 -19082589.407100797 -89551609.733238757 0 0 0 0 3033845.151598148 -1854970.3544681631 0 -1854970.3544681631 403900.20011121815 0 0 0 0 8838314.1219177246 8873181.4920770638 0 8873181.4920770638 -3552141.252705574 0 0 0 0 42095591.884246826 -158736423.56025791 0 -158736423.56025791 -139721854.95962811 0 0 0 0 95621831.169235229 89327617.810956478 0 89327617.810956478 -21175932.779891729 0 0 0 0 1948080.2143605202 -1290334.5711465105 0 -1290334.5711465105 -1530523.869419626 0 0 0 0 3546266.3733066097 -2568037.1068649478 0 -2568037.1068649478 630108.84770712513 0 0 0 0 7465302.2419128418 -608809.33796453476 0 -608809.33796453476 -15406935.029543519 0 0 0 0 16787154.999900818 -6443974.3637017012 0 -6443974.3637017012 8401486.6109695435 0 0 0 0 84720720.424377441 -13710608.968667507 0 -13710608.968667507 -43718055.212075114 0 0 0 0 66414521.179595947 25695737.293275356 0 25695737.293275356 70862620.995099068 0 0 0 0 91099522.949493408 44994418.825586796 0 44994418.825586796 14256770.705673218 0 0 0 0 1208570.8934537545 -605426.17151239514 0 -605426.17151239514 -770686.01849887322 0 0 0 0 58187761.640777588 29654162.425840855 0 29654162.425840855 16470409.806735992 0 0 0 0 -1484332.0605163574 -1315074.4228264093 0 -1315074.4228264093 -6456806.793361187 0 0 0 0 -1583783.4758911133 -4745512.7816057205 0 -4745512.7816057205 -4750708.5737934113 0 0 0 0 69450841.455604553 19385466.674046636 0 19385466.674046636 14253604.603832245 0 0 0 0 2694294.8408711776 -490695.59640975296 0 -490695.59640975296 -2764432.0467913337 0 0 0 0 62505212.952575684 31189944.460295677 0 31189944.460295677 -4226111.4053778648 0 0 0 0 28949898.849914551 24823092.007351875 0 24823092.007351875 17321894.948798299 0 0 0 0 63397804.490673065 24155854.333571792 0 24155854.333571792 1895904.2220315933 0 0 0 0 35584557.331897736 20169053.535310268 0 20169053.535310268 528741.30480766296 0 0 0 0 55690732.870529175 23036861.8446455 0 23036861.8446455 2960092.9618282318 0 0 0 0 69925623.129272461 13742518.175574303 0 13742518.175574303 -191607.66888570786 0 0 0 0 74322527.156829834 31624941.157763481 0 31624941.157763481 6552974.929325819 0 0 0 0 5798973.2122802734 -27761526.662662029 0 -27761526.662662029 -212281689.33917522 0 0 0 0 3444241.8820282072 -1775569.0066009834 0 -1775569.0066009834 -352999.85928463051 0 0 0 0 63444473.435852051 24922195.631897449 0 24922195.631897449 1321783.6791498661 0 0 0 0 63918900.637039185 23389343.381633759 0 23389343.381633759 2773442.3747130632 0 0 0 0 60344035.569442749 54145442.072330356 0 54145442.072330356 40194543.201158524 0 0 0 0 57687471.709899902 23895470.38404727 0 23895470.38404727 18555234.292880058 0 0 0 0 59335753.353036642 31472429.063087188 0 31472429.063087188 868312.69293498993 0 0 0 0 -102984576.46189117 -191729473.32606053 0 -191729473.32606053 -102210460.40030098 0 0 0 0 179961299.6289978 81500169.553663254 0 81500169.553663254 17975311.073165894 0 0 0 0 1894036.399058722 -953375.27078705281 0 -953375.27078705281 -174694.59709041566 0 0 0 0 -137494887.81016541 -153495212.39996171 0 -153495212.39996171 -14159395.454159737 0 0 0 0 -108616032.15411377 -218230196.72173452 0 -218230196.72173452 -173490980.57778549 0 0 0 0 -171990648.75364685 -139643225.54661798 0 -139643225.54661798 64364403.397304058 0 0 0 0 141404452.42370224 13690265.323639393 0 13690265.323639393 -201301117.8718195 0 0 0 0 134549149.54812622 19751009.952926636 0 19751009.952926636 -18467997.817302704 0 0 0 0 425729400.97088623 -85508089.340971947 0 -85508089.340971947 -9874536.4673166275 0 0 0 0 62055154.00881958 -31269594.218274593 0 -31269594.218274593 -91973409.675771713 0 0 0 0 249868832.71502686 -173715157.11340761 0 -173715157.11340761 -186143157.92226028 0 0 0 0 -257675137.2023468 -288347375.41250992 0 -288347375.41250992 -207252426.56437874 0 0 0 0 854436.64588007331 -817632.40892667323 0 -817632.40892667323 -591882.56701154821 0 0 0 0 361471166.4679718 196812947.41529131 0 196812947.41529131 179931265.07957649 0 0 0 0 44110839.582702637 -52480144.450312376 0 -52480144.450312376 371143451.36861134 0 0 0 0 21775906.826507568 28728519.909575939 0 28728519.909575939 109428220.9007566 0 0 0 0 -62125913.735198975 -90413300.680778503 0 -90413300.680778503 -17882034.628160417 0 0 0 0 -61954651.634643555 -122615618.82256508 0 -122615618.82256508 46224751.080690384 0 0 0 0 -81189830.547073364 -103749051.66277695 0 -103749051.66277695 -152579360.35422325 0 0 0 0 -121542254.0531311 -28845494.963830948 0 -28845494.963830948 -55581888.974601746 0 0 0 0 -105079609.94287109 -124131231.03439856 0 -124131231.03439856 -15647700.02977562 0 0 0 0 -119708789.64501953 -42492815.953337669 0 -42492815.953337669 1456969.2538275719 0 0 0 0 -97770756.367950439 -64709343.178588867 0 -64709343.178588867 21840085.527550697 0 0 0 0 -119367075.38041914 -73921583.694097847 0 -73921583.694097847 -146064.23670578003 0 0 0 0 -127715943.03186035 -26033710.102767944 0 -26033710.102767944 80463741.627338409 0 0 0 0 -123571812.43279648 -34086070.090093255 0 -34086070.090093255 25362819.825778961 0 0 0 0 -115967335.66036987 -35735250.491357803 0 -35735250.491357803 25552049.977825165 0 0 0 0 -101969747.80871582 -40842345.621558666 0 -40842345.621558666 174396583.05572987 0 0 0 0 -18850443.805557251 90253928.954506397 0 90253928.954506397 127057374.55136418 0 0 0 0 -51922048.22851944 13629398.6381917 0 13629398.6381917 -8020998.9146242142 0 0 0 0 14364767.004486084 119393433.28940201 0 119393433.28940201 77253845.869987488 0 0 0 0 238779.58763649466 234247.9656868577 0 234247.9656868577 -140705.60714562237 0 0 0 0 11194722.560853481 -5731499.3157248758 0 -5731499.3157248758 -25561419.162278175 0 0 0 0 -102142018.33976746 67874783.814780235 0 67874783.814780235 38910485.557980537 0 0 0 0 -16033283.805114746 58044775.572708607 0 58044775.572708607 -39640246.33753109 0 0 0 0 -5894370.99168396 16375841.22938776 0 16375841.22938776 -27237772.445766926 0 0 0 0 199717017.25535583 85367892.323139191 0 85367892.323139191 -187436696.18836665 0 0 0 0 45058126.298782349 -56583289.158346176 0 -56583289.158346176 -210837928.13062519 0 0 0 0 82727067.560012817 50814334.537615299 0 50814334.537615299 49261248.779033661 0 0 0 0 84515634.395544052 68946670.593466818 0 68946670.593466818 206539791.5775547 0 0 0 0 304479036.17771149 244876704.14691687 0 244876704.14691687 32368495.976587296 0 0 0 0 381732599.26306152 134160493.48099947 0 134160493.48099947 43769901.386031866 0 0 0 0 475472879.63731384 276362486.74144459 0 276362486.74144459 -1768581.9596102238 0 0 0 0 434384690.91926575 218263130.9425137 0 218263130.9425137 -83109524.014652252 0 0 0 0 314854495.70442963 328586912.1376785 0 328586912.1376785 228683516.77781963 0 0 0 0 17270.713037438691 63386.40974124521 0 63386.40974124521 38536.53202162683 0 0 0 0 174424425.2265625 144778215.92938685 0 144778215.92938685 139033283.83379078 0 0 0 0 242434944.55952454 145412525.09429312 0 145412525.09429312 65802313.516682148 0 0 0 0 238007319.20080566 68232283.375054598 0 68232283.375054598 50155484.099625587 0 0 0 0 685112701.6887207 192123769.72826385 0 192123769.72826385 429661215.07327271 0 0 0 0 1063552628.5450287 175229764.89048624 0 175229764.89048624 -177049127.71587563 0 0 0 0 219859209.3399353 128723822.72304487 0 128723822.72304487 62927165.52449131 0 0 0 0 -25977.220319896936 153552.31100018322 0 153552.31100018322 357839.40715962322 0 0 0 0 618406745.38561249 390702315.48422575 0 390702315.48422575 -87552748.242499113 0 0 0 0 326526151.89483643 -189752069.38605165 0 -189752069.38605165 17822954.288708329 0 0 0 0 674496.168861866 -650813.84321748558 0 -650813.84321748558 122358.14763275703 0 0 0 0 110232093.16046143 -122411265.25667453 0 -122411265.25667453 17335826.525647163 0 0 0 0 415501294.81092834 26058668.098035097 0 26058668.098035097 -158320166.67130876 0 0 0 0 -153714.44381869584 310067.78833348677 0 310067.78833348677 571042.45148115838 0 0 0 0 316828715.68094826 106366740.60723355 0 106366740.60723355 -117056427.96333838 0 0 0 0 317724126.54110718 105377611.58208704 0 105377611.58208704 -167121649.97192216 0 0 0 0 216973522.46139526 142441684.82877254 0 142441684.82877254 69548000.913376331 0 0 0 0 283804071.80117798 76284176.646886587 0 76284176.646886587 -79605136.662687063 0 0 0 0 208008057.14871216 1774307.2383295298 0 1774307.2383295298 -133860108.26528639 0 0 0 0 227870513.84996033 -11808529.528640509 0 -11808529.528640509 -166224584.03661728 0 0 0 0 193365306.5635376 82247332.355652809 0 82247332.355652809 114658854.71297741 0 0 0 0 172113977.92927551 43037688.714725614 0 43037688.714725614 64441697.657867432 0 0 0 0 71693768.596130371 87477789.950330734 0 87477789.950330734 133899763.23227882 0 0 0 0 91574097.638519287 18894683.895778656 0 18894683.895778656 57850719.761818886 0 0 0 0 211013321.21102905 80856548.707772732 0 80856548.707772732 80317193.490170062 0 0 0 0 213109159.26560211 110122558.52366436 0 110122558.52366436 46216781.853475571 0 0 0 0 260240643.02552795 150088699.10851836 0 150088699.10851836 53315857.12715435 0 0 0 0 206556468.91152954 129150819.55635595 0 129150819.55635595 55894283.060204506 0 0 0 0 257966300.13890076 99461456.779620647 0 99461456.779620647 67265050.367968082 0 0 0 0 227469866.39343262 135897051.20514607 0 135897051.20514607 49566441.266394615 0 0 0 0 203400382.60314941 109974896.88974619 0 109974896.88974619 51095293.231208324 0 0 0 0 201468752.60372925 117266329.68042278 0 117266329.68042278 29390862.309087753 0 0 0 0 113378931.1619873 80414102.011827469 0 80414102.011827469 38900129.842155457 0 0 0 0 127574345.38690186 7810310.8147449493 0 7810310.8147449493 -11019223.166572571 0 0 0 0 162701940.11474609 72682120.927599907 0 72682120.927599907 28213638.686609268 0 0 0 0 198182832.24121094 85793917.490340233 0 85793917.490340233 -2613896.3673410416 0 0 0 0 180160550.88970947 110713222.50176668 0 110713222.50176668 51600524.425159454 0 0 0 0 193024821.11412048 118186257.39023447 0 118186257.39023447 118200508.33151627 0 0 0 0 -58976472.985726357 -20663549.829324976 0 -20663549.829324976 75450306.727500916 0 0 0 0 308150156.73937988 67318197.539057732 0 67318197.539057732 10298692.415061951 0 0 0 0 -156556.58786622109 456130.14587178081 0 456130.14587178081 77771.45180940791 0 0 0 0 276223215.7230835 140373682.28647995 0 140373682.28647995 32601990.018306732 0 0 0 0 -1299592.1764066666 1184822.2350165285 0 1184822.2350165285 178648.98745939089 0 0 0 0 255571574.25695801 74327573.348638535 0 74327573.348638535 -114926707.45409775 0 0 0 0 -6782.7758651226759 42430.901165220886 0 42430.901165220886 -60054.268268809654 0 0 0 0 1067789.5716948309 699270.3766631633 0 699270.3766631633 -1428863.0374348816 0 0 0 0 1207183.5294082165 552042.37390354276 0 552042.37390354276 -736682.27569389343 0 0 0 0 146304063.09336853 78910776.272294998 0 78910776.272294998 48281697.148897886 0 0 0 0 36925785.411697388 51596565.670581818 0 51596565.670581818 61041221.442831993 0 0 0 0 2687613.118404448 505602.37656402588 0 505602.37656402588 -1323169.8828688092 0 0 0 0 101820637.82437134 99964802.842359066 0 99964802.842359066 52366911.682314873 0 0 0 0 160446349.47470093 75718916.915629387 0 75718916.915629387 27742404.256679058 0 0 0 0 185555921.70077515 113389581.96292877 0 113389581.96292877 54906524.918847799 0 0 0 0 156082757.61298752 92030114.612677217 0 92030114.612677217 49306530.174303055 0 0 0 0 188062620.7255249 110558612.53301191 0 110558612.53301191 53575763.950583458 0 0 0 0 145639730.31384277 73976220.284987926 0 73976220.284987926 64939892.017117143 0 0 0 0 143058988.48181152 104621618.55372906 0 104621618.55372906 97041341.829334497 0 0 0 0 214780679.00339508 139048308.55179358 0 139048308.55179358 69612831.402109146 0 0 0 0 9098978.6252098083 2757398.9518859908 0 2757398.9518859908 -212856.63775062561 0 0 0 0 895490.94383662776 534244.73411994427 0 534244.73411994427 -400982.84066152107 0 0 0 0 620791.21734903753 391457.38922766969 0 391457.38922766969 -538584.05885021389 0 0 0 0 -5507381.1659603119 15940132.445329061 0 15940132.445329061 -27881017.702313423 0 0 0 0 1124573.5447458625 3408703.2214801572 0 3408703.2214801572 -294377.07606442645 0 0 0 0 3123087.3220825195 1184824.9359035492 0 1184824.9359035492 1183399.1052258313 0 0 0 0 6375386.2766418457 2639639.2220029831 0 2639639.2220029831 1128096.4392898977 0 0 0 0 15743801.063827515 19971411.502286673 0 19971411.502286673 3023548.2517935038 0 0 0 0 -951797.70292663574 -4357581.526488781 0 -4357581.526488781 17105719.996103287 0 0 0 0 -6549857.35105896 1691216.0900030136 0 1691216.0900030136 22380703.399969101 0 0 0 0 98493072.049972534 46567839.043406963 0 46567839.043406963 -32792756.401128292 0 0 0 0 2027548.4856109619 -50263224.693464279 0 -50263224.693464279 -37710918.62008667 0 0 0 0 -93244472.499908447 -21073209.095026016 0 -21073209.095026016 16441474.776348114 0 0 0 0 -36225667.867259979 111241570.89421344 0 111241570.89421344 -34981399.257040024 0 0 0 0 -9546850.5490264893 -9624239.1444083452 0 -9624239.1444083452 1462991.7601852417 0 0 0 0 4210987.3388366699 1210524.9854106903 0 1210524.9854106903 225920.85503768921 0 0 0 0 4389358.5155639648 2185681.9180297852 0 2185681.9180297852 204320.27189254761 0 0 0 0 5804300.0428161621 161939.77103042603 0 161939.77103042603 -590058.28118515015 0 0 0 0 4212038.046875 1319844.1296424866 0 1319844.1296424866 496526.92847633362 0 0 0 0 285024.53939807415 -19568.766503643245 0 -19568.766503643245 -106019.59193154331 0 0 0 0 46053646.981201172 10452168.413211823 0 10452168.413211823 -2552764.9032735825 0 0 0 0 731974.76619295776 1364184.1388602406 0 1364184.1388602406 -1020856.6003134381 0 0 0 0 419704.71564465761 2507688.3111675605 0 2507688.3111675605 -1848461.7161516719 0 0 0 0 1677003.991607666 652413.94497251511 0 652413.94497251511 -833103.37647247314 0 0 0 0 -1128351.6297484785 2302388.5407978557 0 2302388.5407978557 -406764.20020910911 0 0 0 0 -9712267.9937133789 33410333.427810192 0 33410333.427810192 -7830103.9759435654 0 0 0 0 1874393.8467559814 -14778472.061619282 0 -14778472.061619282 -40880738.028198242 0 0 0 0 13146821.669250488 43529192.371123314 0 43529192.371123314 -4537233.4094619751 0 0 0 0 31779847.087768555 51885861.818515241 0 51885861.818515241 103658891.34026527 0 0 0 0 10784379.243591309 69534222.119680405 0 69534222.119680405 148941313.96256065 0 0 0 0 5968531.9361076355 13299912.364284039 0 13299912.364284039 76041091.430702209 0 0 0 0 -12257920.157424927 7866195.8779109716 0 7866195.8779109716 133956146.23560715 0 0 0 0 654932.84265136719 20455651.929815292 0 20455651.929815292 73630960.525434971 0 0 0 0 31330292.773742676 39255538.19072485 0 39255538.19072485 -14916210.026801109 0 0 0 0 47661.969436720014 3155745.2838749699 0 3155745.2838749699 -3771782.9923847318 0 0 0 0 1173395.9491073415 1000034.1782925203 0 1000034.1782925203 -1620243.8081926908 0 0 0 0 -208607020.32827759 -16894534.718510628 0 -16894534.718510628 -10232372.469771862 0 0 0 0 -244946753.1020813 138445590.85439682 0 138445590.85439682 -78293179.275413513 0 0 0 0 -373874454.31795502 189759418.77541351 0 189759418.77541351 -22497658.727825165 0 0 0 0 -172422097.24363708 -332790091.25292683 0 -332790091.25292683 99696371.309144974 0 0 0 0 70049881.182830811 -244596989.79330444 0 -244596989.79330444 9505675.0855665207 0 0 0 0 -491928748.92294312 -6754755.1834745407 0 -6754755.1834745407 270700826.65838623 0 0 0 0 191231344.95501709 -202324701.29593682 0 -202324701.29593682 -28859000.382769346 0 0 0 0 97031042.328674316 8681069.3426463604 0 8681069.3426463604 69694158.617910862 0 0 0 0 4271577.4109191895 -8511426.0952415466 0 -8511426.0952415466 96398871.526428223 0 0 0 0 54860694.053565979 26718554.702954173 0 26718554.702954173 120698879.99044609 0 0 0 0 598257.85842895508 30194817.49023056 0 30194817.49023056 164641095.31493759 0 0 0 0 -11787028.60244751 -14935430.755328417 0 -14935430.755328417 195568098.34675598 0 0 0 0 605995913.69242859 430622227.51209545 0 430622227.51209545 88273482.398176193 0 0 0 0 166926876.97071075 194623037.40451765 0 194623037.40451765 39461576.821193695 0 0 0 0 405693749.84886169 244340337.06378746 0 244340337.06378746 -12145651.840549469 0 0 0 0 375274154.9536438 -74786494.98964119 0 -74786494.98964119 -119168986.08069849 0 0 0 0 231331231.20726013 -480733767.70319033 0 -480733767.70319033 251871897.11789703 0 0 0 0 953447946.2923584 -60465884.427548409 0 -60465884.427548409 -124889177.57445621 0 0 0 0 2192809502.4932098 -343947534.94057131 0 -343947534.94057131 -491471170.41991329 0 0 0 0 423384733.53485107 463986238.86940384 0 463986238.86940384 807792921.40545845 0 0 0 0 196294047.57946777 -25895718.38801527 0 -25895718.38801527 -244674374.74637508 0 0 0 0 -408310147.46899414 244127859.0742569 0 244127859.0742569 438320611.31443596 0 0 0 0 102668.99412498623 406231.92212955654 0 406231.92212955654 2070738.3282047221 0 0 0 0 -446132488.29717255 156142794.83456182 0 156142794.83456182 99244670.42514801 0 0 0 0 69454171.25692749 342658045.03232813 0 342658045.03232813 132020997.51532507 0 0 0 0 -14024881.840148926 25451735.906378746 0 25451735.906378746 -217285165.80487323 0 0 0 0 674063633.51231384 265591103.87927532 0 265591103.87927532 166140759.73206973 0 0 0 0 55017298.32220459 223967340.28864956 0 223967340.28864956 -272104228.74791431 0 0 0 0 719170.17005546205 331478.08095888048 0 331478.08095888048 -1070078.4949336983 0 0 0 0 -394597983.82649231 156849431.04752064 0 156849431.04752064 327996279.86257744 0 0 0 0 878045333.32354736 205048837.32727861 0 205048837.32727861 -817537808.32641125 0 0 0 0 686966561.47146606 -469024323.25934887 0 -469024323.25934887 300507797.5013485 0 0 0 0 251743014.45895386 189984934.04485226 0 189984934.04485226 -52356883.963716507 0 0 0 0 296522316.37501526 -167912965.13440895 0 -167912965.13440895 -103905797.70647812 0 0 0 0 2353240.09679606 1722101.3754411265 0 1722101.3754411265 -3523053.4124247278 0 0 0 0 -159385314.15316772 37354531.104955196 0 37354531.104955196 113867202.67405319 0 0 0 0 627378248.58894348 -58107619.884340286 0 -58107619.884340286 -77530069.20050621 0 0 0 0 1176574095.3260117 -273870379.50485086 0 -273870379.50485086 -116704959.84014511 0 0 0 0 892417.17367954552 2499498.1922259629 0 2499498.1922259629 5693532.4405349754 0 0 0 0 -208891866.25271606 269561069.94759476 0 269561069.94759476 183632282.44234288 0 0 0 0 536287113.66207886 -151676274.820858 0 -151676274.820858 157200837.68175888 0 0 0 0 566525848.43411255 12527596.431786537 0 12527596.431786537 44159212.634222984 0 0 0 0 532335273.63591003 -50608473.435274601 0 -50608473.435274601 -65314409.77841568 0 0 0 0 557116278.35787964 -2175426.9922904968 0 -2175426.9922904968 -72620121.531451702 0 0 0 0 572918682.64801788 -64899713.002732515 0 -64899713.002732515 -95473418.288667679 0 0 0 0 314713507.78907776 -77302365.089660645 0 -77302365.089660645 14973598.250806808 0 0 0 0 615447642.50350189 -68677017.194542408 0 -68677017.194542408 -95496058.796350479 0 0 0 0 527178207.03026581 -181101119.32227802 0 -181101119.32227802 50188546.231428146 0 0 0 0 2015350.9085212126 3499325.1727261879 0 3499325.1727261879 -516666.25064878911 0 0 0 0 -5288414.6467056274 -12237652.607820511 0 -12237652.607820511 -51944244.886724472 0 0 0 0 279734972.24533081 59100246.69688642 0 59100246.69688642 -33932187.020141602 0 0 0 0 244548475.87470245 -52204307.274477959 0 -52204307.274477959 -48515378.636177063 0 0 0 0 395247826.2432251 86828585.564863205 0 86828585.564863205 -30671380.549738407 0 0 0 0 2401325.5776936412 4948056.3613643013 0 4948056.3613643013 -510023.76757560996 0 0 0 0 5558266.7990112305 -450938.93624973297 0 -450938.93624973297 -2800068.3816289902 0 0 0 0 2440980.9896697998 -4966491.4903297424 0 -4966491.4903297424 -4305498.2308900356 0 0 0 0 5479166.4280395508 3598488.5517544746 0 3598488.5517544746 2379640.5345048904 0 0 0 0 811133.85614013672 -713764.89867401123 0 -713764.89867401123 1843313.5592085719 0 0 0 0 -26079373.215148926 59407611.170993805 0 59407611.170993805 -67372637.918682098 0 0 0 0 21640055.038253784 2263163.7770118713 0 2263163.7770118713 -21085846.419995308 0 0 0 0 2477315.7209925884 3037925.7244476303 0 3037925.7244476303 -5324211.9846920632 0 0 0 0 219127443.89227295 -220831946.18921375 0 -220831946.18921375 232210381.58322525 0 0 0 0 177468340.86590576 49834124.441414833 0 49834124.441414833 -173770753.93221569 0 0 0 0 -9662793.8160705566 -39014131.005413055 0 -39014131.005413055 -71397325.917122841 0 0 0 0 -30249487.878112793 -811924.51367378235 0 -811924.51367378235 -16503350.708409786 0 0 0 0 -75514700.447937012 -90036449.682353973 0 -90036449.682353973 -10593198.827021122 0 0 0 0 131200780.39637756 -126543776.89853752 0 -126543776.89853752 -22046200.834856033 0 0 0 0 -113293460.79837036 -84583337.516525269 0 -84583337.516525269 -9902526.2010855675 0 0 0 0 578245.78148902208 -266770.81198464707 0 -266770.81198464707 -66321.437325952109 0 0 0 0 -31513024.386962891 261097190.3122673 0 261097190.3122673 164399475.4952774 0 0 0 0 88303721.390350342 152827884.88760757 0 152827884.88760757 43602858.695325851 0 0 0 0 15654016.86397934 16187790.465270162 0 16187790.465270162 111645699.02920914 0 0 0 0 173113139.10107422 173135735.66171932 0 173135735.66171932 -4254729.5889358521 0 0 0 0 1950182.0322400909 1951750.9503473714 0 1951750.9503473714 -5414968.7444634233 0 0 0 0 137953321.69360352 59517691.691013336 0 59517691.691013336 -59940899.337490678 0 0 0 0 -59803375.756763458 -21537372.044168711 0 -21537372.044168711 106691824.84157562 0 0 0 0 63993645.663635254 -24654597.16424942 0 -24654597.16424942 4403664.1405233741 0 0 0 0 73288692.412212372 10256196.738584757 0 10256196.738584757 19894130.705463409 0 0 0 0 775536766.36943054 142022659.28627777 0 142022659.28627777 -1852963.3051300049 0 0 0 0 1192987831.9725189 -15531002.358811378 0 -15531002.358811378 -302949742.84741592 0 0 0 0 864440459.94309998 143862829.82490635 0 143862829.82490635 -361468273.5163002 0 0 0 0 76441480.498077393 174777989.00489807 0 174777989.00489807 70160530.642737389 0 0 0 0 903631546.66712952 -367716327.47367191 0 -367716327.47367191 -43957868.15066576 0 0 0 0 -18054883.469345093 120218896.66855526 0 120218896.66855526 44509021.816242218 0 0 0 0 894316.11968448758 1139658.5907763131 0 1139658.5907763131 -191416.39755566791 0 0 0 0 12219533.254882812 -21425099.944225311 0 -21425099.944225311 -47303800.624198914 0 0 0 0 131199916.75532532 35277693.542697906 0 35277693.542697906 -27810883.176021576 0 0 0 0 -15897993.095046997 1140923.0116605759 0 1140923.0116605759 7070386.6529171467 0 0 0 0 828748220.5522747 231203643.74677247 0 231203643.74677247 -102027177.04167366 0 0 0 0 2513705.7366390228 5809290.854937613 0 5809290.854937613 8486616.0575378723 0 0 0 0 -385543227.56452942 35471365.669322014 0 35471365.669322014 278165922.75801468 0 0 0 0 240844138.01135254 -272697064.87257767 0 -272697064.87257767 243432751.33062458 0 0 0 0 717160002.05007935 607616997.20625877 0 607616997.20625877 -428869593.26420212 0 0 0 0 -1626065.8226212859 2162596.6935556866 0 2162596.6935556866 9398727.5086925626 0 0 0 0 -4492519.9424133301 12205808.853077888 0 12205808.853077888 6244089.9840703309 0 0 0 0 -17365980.593544006 14391493.488065958 0 14391493.488065958 17923036.995377541 0 0 0 0 -4001553.435760498 3389409.8220305443 0 3389409.8220305443 11655107.414684296 0 0 0 0 29812500.691497803 22820559.934728622 0 22820559.934728622 14287483.836057663 0 0 0 0 31385701.759257317 43855698.239564925 0 43855698.239564925 22770023.46692276 0 0 0 0 4936138.2617555037 312365.99989185482 0 312365.99989185482 -4479466.0332005173 0 0 0 0 27332220.670890808 7068638.3645718098 0 7068638.3645718098 9774070.5127229691 0 0 0 0 12232153.57466507 33021331.560963511 0 33021331.560963511 31318829.073734283 0 0 0 0 -14156561.168197632 13212428.763878345 0 13212428.763878345 13995732.800441742 0 0 0 0 -1361714.1820831299 6511910.4753937721 0 6511910.4753937721 13870735.019928828 0 0 0 0 -19818631.602828979 9370538.3278433084 0 9370538.3278433084 -687522.80088567734 0 0 0 0 -16259317.550140381 3643821.6441643238 0 3643821.6441643238 8401250.6085429192 0 0 0 0 -1723807.1885738373 35521888.502659202 0 35521888.502659202 -18088906.393127918 0 0 0 0 38009318.289047241 25455009.501408994 0 25455009.501408994 -23791149.088601172 0 0 0 0 -62325217.020271301 -3461957.5251341462 0 -3461957.5251341462 -3982101.249546051 0 0 0 0 -22478394.200469971 68343866.094018981 0 68343866.094018981 -39502151.793236732 0 0 0 0 45701812.168579102 -27575832.154591441 0 -27575832.154591441 -121161132.88298368 0 0 0 0 9450853.7392883301 -36745319.748028755 0 -36745319.748028755 -51889295.803918362 0 0 0 0 21870302.56578064 44634380.362319469 0 44634380.362319469 12986935.623687744 0 0 0 0 -29089685.62600708 1861907.1831216812 0 1861907.1831216812 10809872.789949894 0 0 0 0 3204370.7947559394 3350850.265327204 0 3350850.265327204 -917228.87345875427 0 0 0 0 615501.84518043324 6869249.4403704926 0 6869249.4403704926 14302796.610591237 0 0 0 0 94554402.715652466 171300736.35934162 0 171300736.35934162 47803689.257471085 0 0 0 0 621697827.1043396 -33961870.863332272 0 -33961870.863332272 -76654974.369695663 0 0 0 0 1348925.7770392299 4971699.2238573767 0 4971699.2238573767 9746442.028273996 0 0 0 0 -56406550.533065796 30809384.280207157 0 30809384.280207157 33637840.915741205 0 0 0 0 -60410786.392044067 51592790.999466896 0 51592790.999466896 -73410762.141080856 0 0 0 0 -8367045.8655700684 16160778.002662897 0 16160778.002662897 -152002945.54561114 0 0 0 0 -160541455.97912598 -5359933.7454347014 0 -5359933.7454347014 -119836297.97509986 0 0 0 0 21334190.368507385 71529001.454241514 0 71529001.454241514 -94759351.707758427 0 0 0 0 -7473565.4433288574 10080091.564742327 0 10080091.564742327 -119219406.17646694 0 0 0 0 32696461.632593155 -83282507.614544958 0 -83282507.614544958 -179356352.33318329 0 0 0 0 1632255.4540465362 -158297.79814518616 0 -158297.79814518616 -1271451.9829866143 0 0 0 0 153277423.89399719 66135381.666024327 0 66135381.666024327 -185411307.6607461 0 0 0 0 37845457.205093384 7826603.6534109116 0 7826603.6534109116 -190082068.54103971 0 0 0 0 268350613.11643982 -47621524.956442893 0 -47621524.956442893 -377157114.21578646 0 0 0 0 53737326.412796021 37355686.7098279 0 37355686.7098279 118466164.51499176 0 0 0 0 62838701.783721924 94636994.622271538 0 94636994.622271538 -36075684.951366425 0 0 0 0 48350095.40650177 12053912.655879498 0 12053912.655879498 24836196.022985458 0 0 0 0 1502494.1447117031 1851836.1576510128 0 1851836.1576510128 -704421.04098564421 0 0 0 0 -8672380.1743469238 155605741.43798733 0 155605741.43798733 182538221.7291863 0 0 0 0 54579362.959747314 239745024.54717541 0 239745024.54717541 -115891711.7873888 0 0 0 0 26286581.069824219 182515334.23760343 0 182515334.23760343 127573001.10028553 0 0 0 0 -13326695.370300293 50756731.795847893 0 50756731.795847893 18874543.555882931 0 0 0 0 55448151.624328613 24338702.220982075 0 24338702.220982075 -48401531.116889954 0 0 0 0 55565917.889156342 28086652.123778284 0 28086652.123778284 17545340.774324417 0 0 0 0 -106809078.59898376 45761646.477147579 0 45761646.477147579 84938789.430633545 0 0 0 0 73171677.35836792 29200695.121798724 0 29200695.121798724 24733153.515617371 0 0 0 0 74390600.270523071 46989006.084036827 0 46989006.084036827 35957005.884439468 0 0 0 0 76614073.222831726 36347081.579389572 0 36347081.579389572 54086224.835058212 0 0 0 0 68095747.870407104 47317811.591420174 0 47317811.591420174 40443099.788076401 0 0 0 0 79595820.978988647 93193103.253596306 0 93193103.253596306 55455072.088659286 0 0 0 0 105402411.51585388 47277866.758111 0 47277866.758111 31429644.825465202 0 0 0 0 167946866.96357727 183555556.50199115 0 183555556.50199115 134062761.94933891 0 0 0 0 32368395.891601562 34610424.990679741 0 34610424.990679741 30903368.475374222 0 0 0 0 33244938.124097347 12765799.534645796 0 12765799.534645796 16296896.666586876 0 0 0 0 62801151.671936035 27012085.028036118 0 27012085.028036118 30632302.921808243 0 0 0 0 35137594.89793396 38578137.405290127 0 38578137.405290127 30695207.982638359 0 0 0 0 26638056.667541504 33602378.000269175 0 33602378.000269175 12527232.374936581 0 0 0 0 50758724.341449738 20319170.824385643 0 20319170.824385643 18484558.21944809 0 0 0 0 58510565.0756073 35530561.013905048 0 35530561.013905048 26701867.98500824 0 0 0 0 -9969263.3267059326 11339772.993624687 0 11339772.993624687 27203766.696089745 0 0 0 0 48656742.659107208 4102513.7266985178 0 4102513.7266985178 -18209935.693035603 0 0 0 0 3916617.0475957096 3253891.4663114212 0 3253891.4663114212 -665352.97426844959 0 0 0 0 50324468.647789001 19077516.744987726 0 19077516.744987726 3319168.3468317986 0 0 0 0 62443144.902862549 1826348.5419442058 0 1826348.5419442058 -146727007.33223426 0 0 0 0 -319570201.94647217 -93454144.700416327 0 -93454144.700416327 105950039.25783497 0 0 0 0 -142928722.71052551 20942830.024641573 0 20942830.024641573 3707345.2019709945 0 0 0 0 -74076717.761451721 113179864.50739466 0 113179864.50739466 -116032869.83267522 0 0 0 0 32907152.155639648 7505331.6301323175 0 7505331.6301323175 -20940484.805818319 0 0 0 0 114859949.13047791 67994169.730713487 0 67994169.730713487 -105876855.70095062 0 0 0 0 32417200.338180542 -69316966.395482659 0 -69316966.395482659 -156081762.3221029 0 0 0 0 1231632.2870868891 987762.07836758532 0 987762.07836758532 -573325.99227014859 0 0 0 0 54742748.58996582 67578866.897616625 0 67578866.897616625 95890408.067636013 0 0 0 0 287685803.44973755 -41738001.237274781 0 -41738001.237274781 -98314136.983198643 0 0 0 0 16991418.09992981 -3866434.4640086889 0 -3866434.4640086889 -62209722.592493296 0 0 0 0 22178271.344787598 -1444606.4574902058 0 -1444606.4574902058 -10762583.615038395 0 0 0 0 2935196.0080320761 2541713.0036880374 0 2541713.0036880374 -773217.84827391244 0 0 0 0 -1004493.7336387634 57957087.57209909 0 57957087.57209909 34855366.228104115 0 0 0 0 3889128.9708557129 -4670352.4046125412 0 -4670352.4046125412 -5056018.2333235741 0 0 0 0 56285550.863571167 -8160387.882478714 0 -8160387.882478714 -30063997.898535013 0 0 0 0 35553639.581634521 8165934.9368344545 0 8165934.9368344545 -26764318.24582243 0 0 0 0 -12810404.906311035 23712250.124545574 0 23712250.124545574 -31756495.091133595 0 0 0 0 7410896.4668037444 5440245.4680236848 0 5440245.4680236848 -192840.87955905206 0 0 0 0 10250660.622390747 -4241900.4567656517 0 -4241900.4567656517 -5323863.257461071 0 0 0 0 1204376.2876867531 174599.29527932033 0 174599.29527932033 -7100.1836209744215 0 0 0 0 17147241.35168457 -566166.77007913589 0 -566166.77007913589 -5375520.1088056564 0 0 0 0 5736876.2848107796 3529737.9780744575 0 3529737.9780744575 4526521.2221119031 0 0 0 0 19731295.600605011 -15623608.281174183 0 -15623608.281174183 24080065.315536976 0 0 0 0 23820062.20942688 19076672.590185165 0 19076672.590185165 102616371.02520153 0 0 0 0 19621252.641937256 11788151.214748383 0 11788151.214748383 3048124.97377491 0 0 0 0 -6948227.9288892746 4092571.9999933839 0 4092571.9999933839 16472286.985204697 0 0 0 0 3215593051.8696136 -1326766765.3768702 0 -1326766765.3768702 73807344.704283178 0 0 0 0 2291222946.887352 -1471279118.2902393 0 -1471279118.2902393 469560083.35388976 0 0 0 0 2918841540.9450684 -1103687219.378818 0 -1103687219.378818 -90492937.508038104 0 0 0 0 3011442.2179894224 -159965.95895576105 0 -159965.95895576105 -1538511.2179332976 0 0 0 0 36865734.573539734 18344079.268226027 0 18344079.268226027 845878.1160132885 0 0 0 0 2160492371.441803 -1136491818.444592 0 -1136491818.444592 174209170.77297354 0 0 0 0 45240310.789642334 -8465636.9160194397 0 -8465636.9160194397 -8416868.6501312256 0 0 0 0 15272007.645884529 62699.86099943053 0 62699.86099943053 69509.084403213346 0 0 0 0 20172623.823623657 939414.73693275452 0 939414.73693275452 -5120354.076464653 0 0 0 0 -12226375.205627441 -258937.18148422241 0 -258937.18148422241 -1589303.8854557276 0 0 0 0 25231252.050079346 1227287.2028312683 0 1227287.2028312683 -8509049.8721866608 0 0 0 0 27613213.708251953 9702571.0653972626 0 9702571.0653972626 1161658.9213345051 0 0 0 0 8446926.918762207 2165080.9376659393 0 2165080.9376659393 -818981.73122262955 0 0 0 0 5986637.9385553598 2861267.6698198505 0 2861267.6698198505 3667562.5381333325 0 0 0 0 1255039064.4790497 -953830476.27930474 0 -953830476.27930474 1485110297.3740339 0 0 0 0 2144512.4067077637 10902392.92543304 0 10902392.92543304 9809553.0813817978 0 0 0 0 4090353026.8254547 -2472049082.4315925 0 -2472049082.4315925 539088960.02659285 0 0 0 0 1973216594.5989075 -2022966118.1355629 0 -2022966118.1355629 915308134.06096423 0 0 0 0 2959519801.1886444 -1924072013.4563603 0 -1924072013.4563603 769898747.00922036 0 0 0 0 6658885.990778394 -288263.19320440292 0 -288263.19320440292 -3481487.8987262687 0 0 0 0 1042651844.9296703 -2275129193.3589315 0 -2275129193.3589315 3234146984.3235269 0 0 0 0 6082752.7339143604 4607692.846276328 0 4607692.846276328 766216.07841420802 0 0 0 0 4082655636.9285736 694878.30717276246 0 694878.30717276246 -2421480.3031192776 0 0 0 0 6879569.2055854797 51683094.269062757 0 51683094.269062757 1643143060.0258279 0 0 0 0 2556343.8433768153 320266.31698159873 0 320266.31698159873 1319027.7894203111 0 0 0 0 1217766170.6517029 1957952099.9090598 0 1957952099.9090598 1538460890.105509 0 0 0 0 3903733.1336374134 5057695.5565547729 0 5057695.5565547729 -747513.12100421125 0 0 0 0 13400385.756835938 17197801.206140995 0 17197801.206140995 10634306.922098935 0 0 0 0 33189791.30657959 6816672.86673069 0 6816672.86673069 -7206000.7131822705 0 0 0 0 30850994.042388916 12955480.021197796 0 12955480.021197796 -1640565.2528860569 0 0 0 0 4089594023.2009544 1912529996.0460641 0 1912529996.0460641 -52789919.726348914 0 0 0 0 3495451072.1674976 1198288952.557302 0 1198288952.557302 75480661.10387592 0 0 0 0 2508429.4666719623 -239908.36196971312 0 -239908.36196971312 -1658867.3288563674 0 0 0 0 61188401.670227051 4344511.6612093449 0 4344511.6612093449 -74110844.679484129 0 0 0 0 41830661.168075562 24914309.008353621 0 24914309.008353621 -99918404.752590418 0 0 0 0 4823264.3280181885 -7502840.733792305 0 -7502840.733792305 12004726.471357822 0 0 0 0 4808637.1044003889 -371173.68703079224 0 -371173.68703079224 -3493691.7429754734 0 0 0 0 53519111.62223053 51941054.181864738 0 51941054.181864738 6848755.6157123446 0 0 0 0 2448430269.3637886 507265882.04973489 0 507265882.04973489 -5477977.5420767367 0 0 0 0 413610331.46107602 -316691378.66489607 0 -316691378.66489607 33594863.797374487 0 0 0 0 422701959.76718903 152782727.6431604 0 152782727.6431604 43934480.406800397 0 0 0 0 1889696911.7744141 526245256.49892813 0 526245256.49892813 -5838374.9053751454 0 0 0 0 2299942346.6847763 96756362.048826948 0 96756362.048826948 -67426528.976162672 0 0 0 0 2511206913.312746 639746859.97743976 0 639746859.97743976 -176102314.49192175 0 0 0 0 3604408118.1124172 813613572.30154884 0 813613572.30154884 -230869822.05333063 0 0 0 0 3139412562.7615013 733306193.94538951 0 733306193.94538951 -175230450.46838486 0 0 0 0 57581688.846832275 -786298214.07556033 0 -786298214.07556033 1161630911.5082417 0 0 0 0 2727438.4948120462 1834608.1218702029 0 1834608.1218702029 -585976.42254355666 0 0 0 0 2752190564.9373627 -1385743789.0321388 0 -1385743789.0321388 242509357.41306543 0 0 0 0 2539015403.884697 -2270545827.7214432 0 -2270545827.7214432 1344579864.4336233 0 0 0 0 334647017.08496094 -427020176.03220034 0 -427020176.03220034 934330978.9330759 0 0 0 0 1754688308.2435837 -508191593.23054874 0 -508191593.23054874 -145646300.4840765 0 0 0 0 556263537.07546997 -825468709.77443242 0 -825468709.77443242 227188823.59719372 0 0 0 0 403155384.74552917 -711409416.05664253 0 -711409416.05664253 1364013025.5964246 0 0 0 0 1146718084.2608643 -1522929684.2832911 0 -1522929684.2832911 1554066964.9448853 0 0 0 0 1062068880.5372276 -1467691254.8491161 0 -1467691254.8491161 1759878029.4090509 0 0 0 0 919644141.33705139 -1639643215.4503839 0 -1639643215.4503839 1891823205.8588209 0 0 0 0 2700969778.8462982 -3043372125.2656994 0 -3043372125.2656994 2754409657.9137897 0 0 0 0 3521676366.3858185 -2514067803.104599 0 -2514067803.104599 1252351953.6843388 0 0 0 0 4172236223.7202377 -3428248966.0819292 0 -3428248966.0819292 1517644781.4764547 0 0 0 0 4097218392.8932495 -2215407191.4085722 0 -2215407191.4085722 1337912584.8586402 0 0 0 0 5478010932.4690094 -998483609.70312142 0 -998483609.70312142 2393517027.1736827 0 0 0 0 3901979739.8450279 -2149928561.0564117 0 -2149928561.0564117 1746572882.9724097 0 0 0 0 3684719422.0693531 -2669208862.9635906 0 -2669208862.9635906 877516870.35364866 0 0 0 0 3359922262.9441795 -2299023541.652977 0 -2299023541.652977 2114292034.0941324 0 0 0 0 4546733688.4045868 -2255687881.5070143 0 -2255687881.5070143 1151358675.1783538 0 0 0 0 2968280116.3069115 -2614116746.1191397 0 -2614116746.1191397 2114788348.9276843 0 0 0 0 3795993944.4315109 -2157615721.3704967 0 -2157615721.3704967 23621449.397126198 0 0 0 0 2164327293.1643906 -593034966.39043856 0 -593034966.39043856 34871181.235900402 0 0 0 0 630596204.74187279 1062493968.1163089 0 1062493968.1163089 2143423996.2599669 0 0 0 0 2289814.7230277006 476364.54729859997 0 476364.54729859997 6923366.3959869612 0 0 0 0 670359375.73152065 1216941580.4658761 0 1216941580.4658761 872446127.45064545 0 0 0 0 266485702.05421448 516011613.0996933 0 516011613.0996933 556528632.94068527 0 0 0 0 617962207.97875977 262967152.41560745 0 262967152.41560745 -367329680.73877716 0 0 0 0 764161645.51179695 808060020.68110228 0 808060020.68110228 254823274.0011673 0 0 0 0 -183320361.64853382 1139201809.5698919 0 1139201809.5698919 2448243050.3045864 0 0 0 0 87538184.654769897 781006591.16098022 0 781006591.16098022 1014484060.3599167 0 0 0 0 351415658.09574127 623006773.00536919 0 623006773.00536919 507835313.31573486 0 0 0 0 -376951991.84342766 464867106.62399483 0 464867106.62399483 1421603308.7957039 0 0 0 0 -378470462.06582069 483817410.05897999 0 483817410.05897999 1371246474.618721 0 0 0 0 -148319899.28909492 201218093.40596199 0 201218093.40596199 523452552.16561127 0 0 0 0 -11778261.36618042 194501861.70357513 0 194501861.70357513 325004650.21434784 0 0 0 0 -22421240.386470795 405825743.17433167 0 405825743.17433167 848755244.80771255 0 0 0 0 106022932.7340641 169746227.39004612 0 169746227.39004612 300806896.76413727 0 0 0 0 13549888.354061127 -19511087.295883179 0 -19511087.295883179 108504443.27570724 0 0 0 0 -21674225.512850761 -55946035.991535187 0 -55946035.991535187 177637286.09898376 0 0 0 0 -16625413.521961212 111459463.07685852 0 111459463.07685852 543042118.32599449 0 0 0 0 -36856961.817991257 -40435734.448608905 0 -40435734.448608905 98598081.018055439 0 0 0 0 185385713.95161819 388815095.52165258 0 388815095.52165258 112347304.06624191 0 0 0 0 7468546.4273174163 27150.836942485534 0 27150.836942485534 17298596.483855315 0 0 0 0 -520457400.08766937 -145134896.60766602 0 -145134896.60766602 199512608.2868042 0 0 0 0 -17317239.137214661 -303595783.24101639 0 -303595783.24101639 -91023614.251049042 0 0 0 0 -126704076.7543087 -159564664.71405029 0 -159564664.71405029 -49476392.270137787 0 0 0 0 15942744.030622046 -2128543.6425173711 0 -2128543.6425173711 23622893.430423997 0 0 0 0 98123686.490562439 84043663.169060707 0 84043663.169060707 -38810024.395716906 0 0 0 0 -113576071.05260849 12409554.410434723 0 12409554.410434723 -51733163.632881165 0 0 0 0 -49466405.410644531 -149903439.66923904 0 -149903439.66923904 -88230440.843192101 0 0 0 0 -26610916.66260767 -61949503.545260906 0 -61949503.545260906 179192691.68170166 0 0 0 0 -113206397.83817196 -16420973.61681366 0 -16420973.61681366 153461041.45619965 0 0 0 0 -56200037.366016388 -173107914.1963768 0 -173107914.1963768 27296269.5066185 0 0 0 0 44987362.353328533 -6203985.2263529412 0 -6203985.2263529412 9970576.7083967347 0 0 0 0 74456437.130065918 49454380.905477524 0 49454380.905477524 -36845528.088954926 0 0 0 0 29369988.376240492 -118632410.07484436 0 -118632410.07484436 -207522096.24240875 0 0 0 0 23482090.144996643 14158951.291630626 0 14158951.291630626 28837838.080708981 0 0 0 0 11126142.71468631 5453078.506051667 0 5453078.506051667 7855998.0221577622 0 0 0 0 12275042.42510801 5143037.8746969234 0 5143037.8746969234 10643257.121224565 0 0 0 0 11312334.973495483 -76266282.166107178 0 -76266282.166107178 -35089637.153259277 0 0 0 0 25618123.264886498 -3845030.7831299147 0 -3845030.7831299147 14937503.507859914 0 0 0 0 3255721.3964691162 622092.91844558716 0 622092.91844558716 -2658036.5280761719 0 0 0 0 22350543.877748948 81296.157895501703 0 81296.157895501703 1237732.1002955772 0 0 0 0 18792620.732155483 5588475.5228659809 0 5588475.5228659809 11384131.898111127 0 0 0 0 -802481.90632629395 -866680.71901893616 0 -866680.71901893616 5413721.8941612244 0 0 0 0 16849893.19979544 1003510.3426559251 0 1003510.3426559251 18091207.117371209 0 0 0 0 -652921.55120277405 -2597347.2207479477 0 -2597347.2207479477 4697295.5415916443 0 0 0 0 584166459.86213684 314320662.62526816 0 314320662.62526816 -14796095.028039064 0 0 0 0 8412711.5198694989 3354069.5130394753 0 3354069.5130394753 15358909.406100482 0 0 0 0 120858366.08013916 33032721.578068018 0 33032721.578068018 -45191925.885880828 0 0 0 0 -69981615.411636353 49940194.356726497 0 49940194.356726497 37872052.536479235 0 0 0 0 8774112.874338828 6110938.9460009914 0 6110938.9460009914 -2563398.4539282094 0 0 0 0 9985887.1754492037 -586844.83655527048 0 -586844.83655527048 6148072.3251670906 0 0 0 0 -151988179.90265656 307249784.9685719 0 307249784.9685719 -454956582.65438032 0 0 0 0 70079523.677352905 -95916608.215984315 0 -95916608.215984315 28399824.730894338 0 0 0 0 10303174.276514053 -14711653.673506889 0 -14711653.673506889 429989858.11109722 0 0 0 0 -234167640.873806 206913456.57402158 0 206913456.57402158 1204216609.5959358 0 0 0 0 276316742.84737396 685849510.44087291 0 685849510.44087291 -140775144.62609005 0 0 0 0 4090612930.4931183 -1161999100.1713881 0 -1161999100.1713881 -276589737.74322319 0 0 0 0 4366373870.3506165 -2149169013.1510696 0 -2149169013.1510696 2704477648.4281788 0 0 0 0 4385256069.0523911 44909378.856171004 0 44909378.856171004 -210280459.50388187 0 0 0 0 3333162.519577533 -755657.29946866725 0 -755657.29946866725 2777108.2012359956 0 0 0 0 552587025.51706696 -1310766236.143714 0 -1310766236.143714 2628354848.2162504 0 0 0 0 3568579.5786936283 2317264.2776427004 0 2317264.2776427004 12999893.924525881 0 0 0 0 3057414605.7549438 -1892921831.925225 0 -1892921831.925225 733843677.7888912 0 0 0 0 315798083.53635406 266464925.85093412 0 266464925.85093412 209458831.62636676 0 0 0 0 1311553733.760994 2208512456.866714 0 2208512456.866714 2375912022.7347631 0 0 0 0 4088105708.0201797 1772617800.0262854 0 1772617800.0262854 -181361389.17385215 0 0 0 0 69623862.69128418 110091476.91555259 0 110091476.91555259 364576936.54712498 0 0 0 0 550553647.56256104 234206052.10509473 0 234206052.10509473 318051242.93948972 0 0 0 0 958270552.54864502 828122439.73215508 0 828122439.73215508 649995898.24248755 0 0 0 0 825667109.76162338 -26647244.162828676 0 -26647244.162828676 -147888779.40843582 0 0 0 0 2442978605.4393692 761455355.62176824 0 761455355.62176824 -282577745.59450996 0 0 0 0 1222925275.6620712 546451023.22965789 0 546451023.22965789 -130715571.59962058 0 0 0 0 1427881158.3453407 280282112.08089042 0 280282112.08089042 -269997549.55262876 0 0 0 0 4095307840.1730499 697682761.3489809 0 697682761.3489809 -883425702.13650262 0 0 0 0 2434495435.9912567 964940040.89817548 0 964940040.89817548 -530604197.46840787 0 0 0 0 2567048332.7030029 -104595778.28381869 0 -104595778.28381869 -823900796.88814402 0 0 0 0 1586421310.0957222 -244374467.69081423 0 -244374467.69081423 -263277820.04345262 0 0 0 0 2400041390.2622147 448287124.12370116 0 448287124.12370116 -372897852.55884504 0 0 0 0 2329421248.672699 -1145975443.9316459 0 -1145975443.9316459 168623254.7785334 0 0 0 0 1101189417.9320564 57598832.209341913 0 57598832.209341913 8843915.3403275013 0 0 0 0 4093891821.9563608 -445892494.39530176 0 -445892494.39530176 -800379348.47124481 0 0 0 0 2423147798.6641922 -940853516.45178628 0 -940853516.45178628 -107968048.8375853 0 0 0 0 17987527.903045654 9722403.9365816116 0 9722403.9365816116 20897728.356388092 0 0 0 0 42529196.341018677 35736224.197482586 0 35736224.197482586 22056146.81643486 0 0 0 0 4589911.5851140255 3838929.0009252951 0 3838929.0009252951 9874202.3374861479 0 0 0 0 2332803.4446716309 11127733.568651199 0 11127733.568651199 22959606.705841064 0 0 0 0 653838876.9908371 -330072573.46738142 0 -330072573.46738142 116717287.72236136 0 0 0 0 24790893.639465332 11143530.871949196 0 11143530.871949196 6478982.4791164398 0 0 0 0 50036962.43901062 35461350.962402344 0 35461350.962402344 18264242.097777367 0 0 0 0 51997680.00741291 37072970.688669682 0 37072970.688669682 14092739.597103119 0 0 0 0 84571987.317047119 60179209.77520752 0 60179209.77520752 29612622.942565918 0 0 0 0 7991767.7203521729 479390.87169265747 0 479390.87169265747 25334261.662906647 0 0 0 0 532615829.5045166 139870279.37329346 0 139870279.37329346 202415662.08814716 0 0 0 0 5925530.989592337 3569504.6597809903 0 3569504.6597809903 14130428.768494437 0 0 0 0 111519015.76006699 -19560110.948608398 0 -19560110.948608398 1002480.7720947266 0 0 0 0 55969926.6929245 25053435.898702621 0 25053435.898702621 12141768.00772661 0 0 0 0 6614113.2701149648 2396159.6310028099 0 2396159.6310028099 703630.54089964181 0 0 0 0 32905176.081298828 49628555.648944855 0 49628555.648944855 41656414.261871338 0 0 0 0 82716431.817565918 16591796.032423019 0 16591796.032423019 -1705833.0152746439 0 0 0 0 10181070.551391192 3744589.4409295544 0 3744589.4409295544 16878973.770100411 0 0 0 0 16627831.898138657 9515816.6147711929 0 9515816.6147711929 -2355740.935827503 0 0 0 0 56946331.418361664 17874945.954958677 0 17874945.954958677 19037003.587223053 0 0 0 0 44473990.244506836 41239665.296453476 0 41239665.296453476 50004590.467260361 0 0 0 0 5050146.1555714905 2866568.1990813371 0 2866568.1990813371 -797616.2871341873 0 0 0 0 -4739149.0892791748 12793483.282886505 0 12793483.282886505 27224024.522978783 0 0 0 0 112985132.14588928 131669408.71335793 0 131669408.71335793 44768215.296842575 0 0 0 0 75013781.635910034 16129048.82180047 0 16129048.82180047 -1359503.3900566101 0 0 0 0 36192320.114852905 65979951.839132309 0 65979951.839132309 -41750788.739356995 0 0 0 0 56015817.667411804 90719241.094758987 0 90719241.094758987 49660840.883184433 0 0 0 0 38811198.16094017 24948455.780339241 0 24948455.780339241 21712352.93434906 0 0 0 0 51533119.818126678 40286352.410617352 0 40286352.410617352 22671467.072364807 0 0 0 0 77650515.499084473 52938712.354110718 0 52938712.354110718 24694957.725097656 0 0 0 0 44708255.136535645 31735693.037031174 0 31735693.037031174 29387520.672909737 0 0 0 0 80628923.868895531 78821205.568019271 0 78821205.568019271 51208973.273506165 0 0 0 0 60737324.661743164 52394483.766704559 0 52394483.766704559 45914468.068155766 0 0 0 0 50199794.001968384 49588602.130019903 0 49588602.130019903 58925986.814897537 0 0 0 0 68224250.470825195 53105386.622258186 0 53105386.622258186 35904477.463142395 0 0 0 0 42980019.311397552 28186867.452649117 0 28186867.452649117 27422184.718353271 0 0 0 0 64519697.33026123 52470066.098436356 0 52470066.098436356 35229900.254707336 0 0 0 0 166358373.04255676 66503296.176994324 0 66503296.176994324 52745769.725142002 0 0 0 0 122353454.56434631 54168404.791810036 0 54168404.791810036 56531136.50484848 0 0 0 0 254919656.60049438 123562849.77847481 0 123562849.77847481 52787281.209579587 0 0 0 0 119994183.12481689 59120429.929357529 0 59120429.929357529 46870653.50703001 0 0 0 0 68222137.180338293 52481477.572484948 0 52481477.572484948 75250090.552593231 0 0 0 0 89692728.320251465 73510606.803110123 0 73510606.803110123 62825794.480700493 0 0 0 0 112115929.22998047 30606551.914577484 0 30606551.914577484 69422540.372776031 0 0 0 0 273329983.83113098 46831602.307292938 0 46831602.307292938 53094806.055654526 0 0 0 0 213973164.93113708 16556450.339212418 0 16556450.339212418 74301586.485992432 0 0 0 0 117764234.6938324 -6626969.3988933563 0 -6626969.3988933563 76592827.310184479 0 0 0 0 219486988.20281982 9420605.4780368805 0 9420605.4780368805 18322648.742195129 0 0 0 0 106294930.65576172 62740758.318470001 0 62740758.318470001 29523182.961421967 0 0 0 0 53283591.710128784 44569643.486536026 0 44569643.486536026 39822297.213003159 0 0 0 0 41113301.434295654 -4619256.8275718689 0 -4619256.8275718689 -107959864.59290886 0 0 0 0 72642748.782440186 95205770.149654388 0 95205770.149654388 -10308056.115753174 0 0 0 0 104088548.90188789 3098725.6588509083 0 3098725.6588509083 -82264287.270343781 0 0 0 0 15961461.245857239 48075308.629131317 0 48075308.629131317 -88367867.368854523 0 0 0 0 -77775917.807529449 164934304.05224228 0 164934304.05224228 -190221686.21966553 0 0 0 0 366990535.21598244 354387039.58826447 0 354387039.58826447 97861893.041370392 0 0 0 0 220553369.75019073 119016265.06134605 0 119016265.06134605 -186354345.98210526 0 0 0 0 573835119.5334549 -88968089.91934967 0 -88968089.91934967 -256673301.46036148 0 0 0 0 -67953445.316437721 91246824.415802002 0 91246824.415802002 -242185097.46788025 0 0 0 0 279371031.38366783 -173515884.48719621 0 -173515884.48719621 112029108.69406128 0 0 0 0 387972786.82254887 14461446.656805038 0 14461446.656805038 -916013951.72368622 0 0 0 0 69085646.773520619 -3459507.7972737979 0 -3459507.7972737979 -1155546.9160983455 0 0 0 0 109269937.96365356 49036622.33066082 0 49036622.33066082 -236113764.28853226 0 0 0 0 57695155.500870369 -4604348.5919601452 0 -4604348.5919601452 3240571.6505555166 0 0 0 0 96878596.378223419 -392088471.39179611 0 -392088471.39179611 -224456371.7428627 0 0 0 0 112022619.78103638 23762440.131124496 0 23762440.131124496 -154627127.69732285 0 0 0 0 227393632.98727274 -81409742.436786652 0 -81409742.436786652 -708248856.30454969 0 0 0 0 -53536995.375596046 -179132927.04419518 0 -179132927.04419518 -57378440.105243683 0 0 0 0 77558107.574428558 -176565143.7096138 0 -176565143.7096138 -57426068.318805754 0 0 0 0 -65662230.288105726 -305425746.82485771 0 -305425746.82485771 381619999.17362976 0 0 0 0 172944828.94589472 -191454244.54418182 0 -191454244.54418182 -149866009.91956425 0 0 0 0 71295384.694419861 -344487084.33799744 0 -344487084.33799744 333061986.97089005 0 0 0 0 324803041.39447594 -416183686.23116684 0 -416183686.23116684 329630167.72580338 0 0 0 0 -138710651.69414616 -407949795.55590594 0 -407949795.55590594 1063288258.9743805 0 0 0 0 -130148609.91857135 -338355489.26999712 0 -338355489.26999712 895534456.38856506 0 0 0 0 167358483.60444069 -612191539.16333008 0 -612191539.16333008 1019226186.3540287 0 0 0 0 -105220010.49627399 -115409071.80423546 0 -115409071.80423546 454153455.08900928 0 0 0 0 -114062527.00631547 -70185333.072244644 0 -70185333.072244644 701467627.46419525 0 0 0 0 -458694272.85177398 -169689801.01632118 0 -169689801.01632118 1072376980.9698681 0 0 0 0 -180576395.89751387 240128634.68291712 0 240128634.68291712 936035862.54640198 0 0 0 0 -737100159.72742653 409520539.55678749 0 409520539.55678749 1828996403.3933067 0 0 0 0 -495397328.42562962 123457595.11829185 0 123457595.11829185 1127073544.0139694 0 0 0 0 -476139858.74989271 27332297.499756336 0 27332297.499756336 1601735685.002636 0 0 0 0 -982766474.5601368 116386024.42354393 0 116386024.42354393 1592128870.9539688 0 0 0 0 -637415182.77863693 -228702931.57848167 0 -228702931.57848167 1684139379.5385036 0 0 0 0 -321408263.58246189 -506952486.83574867 0 -506952486.83574867 1810124684.0466881 0 0 0 0 -785949204.23599315 -201534097.81947517 0 -201534097.81947517 1887824132.6230583 0 0 0 0 -612065983.14256787 -524035132.72293711 0 -524035132.72293711 2559280608.7915115 0 0 0 0 2392698259.3479519 -184770584.37264252 0 -184770584.37264252 286891251.53183746 0 0 0 0 -89190594.680900574 -1064303920.3919334 0 -1064303920.3919334 3117078008.1135712 0 0 0 0 1240866890.3337231 -1810950987.8181458 0 -1810950987.8181458 2239052968.8205357 0 0 0 0 767097764.85184669 -1150310134.012022 0 -1150310134.012022 1343265795.6684723 0 0 0 0 377901995.80920029 533405885.65121841 0 533405885.65121841 571429453.48953247 0 0 0 0 1122052031.7603111 -1923743823.361763 0 -1923743823.361763 -445834007.26412106 0 0 0 0 484646929.68318939 173555508.69715118 0 173555508.69715118 419458927.61106491 0 0 0 0 508401154.87648392 93781135.789794922 0 93781135.789794922 152304069.80422974 0 0 0 0 1177528943.9406624 -43168742.241127014 0 -43168742.241127014 106520117.20936394 0 0 0 0 574584821.55266953 -759707461.52877808 0 -759707461.52877808 792318561.45714951 0 0 0 0 160854177.77612972 -587789786.07296801 0 -587789786.07296801 1007701804.7688828 0 0 0 0 -120632942.1658783 60481928.528686523 0 60481928.528686523 92280908.564105988 0 0 0 0 -51728350.396648407 63167761.671606064 0 63167761.671606064 22763063.516220093 0 0 0 0 93554626.903821945 406802159.31736851 0 406802159.31736851 463685660.18569946 0 0 0 0 -224159985.94040298 118191060.92903519 0 118191060.92903519 201592559.36710453 0 0 0 0 -179230543.66687775 -220908397.89948177 0 -220908397.89948177 -151239100.81715393 0 0 0 0 3591020.4287808761 -4325799.2906993944 0 -4325799.2906993944 1425277.3106058356 0 0 0 0 -484133190.56794357 -86474751.095191956 0 -86474751.095191956 492174022.24302506 0 0 0 0 -60065142.781673431 -12834055.185668945 0 -12834055.185668945 112955718.13744879 0 0 0 0 5662943.3415869325 1049120.069797894 0 1049120.069797894 -645828.85236161342 0 0 0 0 -54049164.592066765 -7384381.6557416916 0 -7384381.6557416916 3830456.1586914062 0 0 0 0 622944373.4120636 133232332.97740173 0 133232332.97740173 -717059795.00813866 0 0 0 0 159197394.4784317 76360912.5616436 0 76360912.5616436 47548031.814357758 0 0 0 0 521819030.19002533 -85824542.001092911 0 -85824542.001092911 -473461314.37542725 0 0 0 0 -118222647.39684296 -177833186.40750122 0 -177833186.40750122 -183376051.47149658 0 0 0 0 2685756.4528446454 -464687.6251379475 0 -464687.6251379475 -896807.44598224014 0 0 0 0 666858367.43586731 -585708181.57266998 0 -585708181.57266998 -536244859.5183773 0 0 0 0 -1757366.7624517381 -4822810.2141646259 0 -4822810.2141646259 1623898.9621903338 0 0 0 0 313347468.69090652 -872481041.1181376 0 -872481041.1181376 507770235.87253189 0 0 0 0 -264170038.08889389 21752.473414421082 0 21752.473414421082 578570633.38996887 0 0 0 0 31078023.503454696 -5108438.8999296613 0 -5108438.8999296613 -1074035.7861540783 0 0 0 0 1151855236.3238792 1736669333.5424051 0 1736669333.5424051 1930994064.6196136 0 0 0 0 762938446.40076447 806029167.41204071 0 806029167.41204071 132789397.75737381 0 0 0 0 -6016677.8528366089 23608226.836399078 0 23608226.836399078 23585205.836380005 0 0 0 0 8076478.6029434204 30354447.570541382 0 30354447.570541382 10046001.611625671 0 0 0 0 -4973334.6898574829 41408545.434549332 0 41408545.434549332 6785232.953125 0 0 0 0 -30984649.678260803 30793097.913463593 0 30793097.913463593 21668441.631881714 0 0 0 0 55643444.888214387 -10692537.162969775 0 -10692537.162969775 -9181997.3691177182 0 0 0 0 -15408617.624557495 52784712.129833221 0 52784712.129833221 2814566.0477962494 0 0 0 0 73245255.89068985 39919905.101955414 0 39919905.101955414 -65358705.680728912 0 0 0 0 -397689450.69947052 -357227783.79197311 0 -357227783.79197311 -184849501.07753181 0 0 0 0 749229396.25497437 333226507.16953468 0 333226507.16953468 -326155648.81971741 0 0 0 0 1750502490.3325806 786430984.033535 0 786430984.033535 -666178906.62828827 0 0 0 0 676586349.35888672 63634765.105171204 0 63634765.105171204 -888249405.57489395 0 0 0 0 319483248.58760834 -955944571.39852333 0 -955944571.39852333 -999558775.95929909 0 0 0 0 2288958817.8907166 -436265803.28881836 0 -436265803.28881836 -1835173692.6058426 0 0 0 0 317274905.92474365 118273535.72898102 0 118273535.72898102 -383406096.89840698 0 0 0 0 492051827.16615295 11401988.82128334 0 11401988.82128334 -408237044.17548752 0 0 0 0 513998368.49219704 -32416740.721551895 0 -32416740.721551895 -514278780.20218658 0 0 0 0 17458349.759259716 -4104126.5464202212 0 -4104126.5464202212 -9129076.6831172444 0 0 0 0 140469961.46445656 -77340497.112758636 0 -77340497.112758636 -350591861.3568573 0 0 0 0 44174701.813743591 1890106.1611356735 0 1890106.1611356735 11531302.590702057 0 0 0 0 54717773.676355168 -8418365.4997163303 0 -8418365.4997163303 -5936421.4782964718 0 0 0 0 64162762.029391423 975441.65548904706 0 975441.65548904706 -12734311.694287095 0 0 0 0 30810422.815368652 -1853289.2788324356 0 -1853289.2788324356 -12480984.442217618 0 0 0 0 87479306.650817633 -562533.67404286563 0 -562533.67404286563 -12514661.9217717 0 0 0 0 97724544.833526611 -38711482.300563812 0 -38711482.300563812 -141900812.59268749 0 0 0 0 42647745.982154846 87480940.217170715 0 87480940.217170715 -133584501.70648956 0 0 0 0 79709367.493626967 -19935273.189397417 0 -19935273.189397417 -14406970.784021594 0 0 0 0 -18929122.999624252 103429024.83727455 0 103429024.83727455 -40048696.139060974 0 0 0 0 -11059625.399543762 69416755.278011322 0 69416755.278011322 22843899.47501713 0 0 0 0 10630467.771377563 345335302.35057449 0 345335302.35057449 161043290.0585413 0 0 0 0 -15780087.459766865 129885399.17371154 0 129885399.17371154 -144574916.68752289 0 0 0 0 78820554.586609781 -2410355.7212817837 0 -2410355.7212817837 -5544083.3270852473 0 0 0 0 160145979.57359314 -29591958.418539047 0 -29591958.418539047 -280098665.23599595 0 0 0 0 176561259.18562698 222443915.78675842 0 222443915.78675842 -519465514.63484192 0 0 0 0 110193315.55934143 39656198.801345825 0 39656198.801345825 -135094726.64677048 0 0 0 0 186553686.82693481 -84870665.93548584 0 -84870665.93548584 -68392290.125852585 0 0 0 0 84543212.270690918 -115262927.19134617 0 -115262927.19134617 -49940579.211006165 0 0 0 0 67376842.699386597 -105341702.34723473 0 -105341702.34723473 -23830570.394363403 0 0 0 0 80937346.032272339 -79450780.113433838 0 -79450780.113433838 -1317639.7753314972 0 0 0 0 15548390.932312012 -64109004.277614594 0 -64109004.277614594 154167673.83593369 0 0 0 0 166878447.42979431 -172587961.55538559 0 -172587961.55538559 67426951.905406952 0 0 0 0 453600.06769991294 -810788.42187191918 0 -810788.42187191918 -844876.95774925128 0 0 0 0 90944713.369262695 6293558.5265483856 0 6293558.5265483856 -17232676.309494495 0 0 0 0 15062544.162401155 -7584235.9740830734 0 -7584235.9740830734 -6917543.4620909914 0 0 0 0 233173327.55325317 -2066191.2946624756 0 -2066191.2946624756 24173343.869911194 0 0 0 0 390608322.64456177 -150010191.63706589 0 -150010191.63706589 54283043.349723816 0 0 0 0 310008997.20770264 -168723036.18745422 0 -168723036.18745422 143570845.30758858 0 0 0 0 215286787.1859436 9270463.350687027 0 9270463.350687027 27932304.909755707 0 0 0 0 438318403.20362854 -87173086.719434738 0 -87173086.719434738 63148845.30581665 0 0 0 0 6740565.1476593018 72356885.981246948 0 72356885.981246948 -59580467.903972626 0 0 0 0 420144316.83108521 -165685068.2226913 0 -165685068.2226913 51671456.703010559 0 0 0 0 1106029.8707507998 278657.35828220099 0 278657.35828220099 -1139267.0576255135 0 0 0 0 145257835.18118286 12409677.298286319 0 12409677.298286319 -22159487.262061417 0 0 0 0 5810902.3174179345 4364104.993506182 0 4364104.993506182 -13768479.50422979 0 0 0 0 -22500205.812376022 -96995055.733307958 0 -96995055.733307958 -93540752.39881134 0 0 0 0 175852939.17141724 -47154305.725809097 0 -47154305.725809097 -195003894.89686584 0 0 0 0 42975282.252685547 78599138.447791338 0 78599138.447791338 -117251791.11512756 0 0 0 0 267579956.82797241 134941479.80384684 0 134941479.80384684 -98168065.692762375 0 0 0 0 399141857.9763031 32680398.370821953 0 32680398.370821953 -63081196.95513916 0 0 0 0 290710138.10110474 148009719.62632942 0 148009719.62632942 -115202297.67625332 0 0 0 0 166191176.78701019 26180477.316597342 0 26180477.316597342 -99916818.430019677 0 0 0 0 912946.96612548828 140877790.84146833 0 140877790.84146833 -107126731.42224455 0 0 0 0 119175857.69955444 -50240659.373517275 0 -50240659.373517275 -19694164.710976601 0 0 0 0 6612663.1757078189 -1148103.2622537613 0 -1148103.2622537613 -607130.16363994358 0 0 0 0 73216468.384544373 84640364.845809162 0 84640364.845809162 -289431490.4289341 0 0 0 0 1594811.2486564666 4028316.8470425159 0 4028316.8470425159 -8081077.1288612932 0 0 0 0 10194181.262201309 221852920.36274415 0 221852920.36274415 -230156865.58223057 0 0 0 0 -19261790.475219727 317423410.70867634 0 317423410.70867634 -420805634.05642128 0 0 0 0 -188796159.94866943 184285904.90894544 0 184285904.90894544 -46059823.086831599 0 0 0 0 84142374.735275269 -8502266.0686866045 0 -8502266.0686866045 167973845.54972148 0 0 0 0 143274287.83226776 -22254951.574524328 0 -22254951.574524328 -24425387.539203644 0 0 0 0 20521673.654457092 78126919.695456475 0 78126919.695456475 -80910198.731431127 0 0 0 0 -32702851.862846375 39765870.692410737 0 39765870.692410737 -35165733.222617552 0 0 0 0 27729965.328163147 37839577.640321553 0 37839577.640321553 -50734019.449205399 0 0 0 0 34413128.414367676 25281303.80911696 0 25281303.80911696 -38959694.906912491 0 0 0 0 46079819.016479492 27996809.333363771 0 27996809.333363771 -53097215.188561678 0 0 0 0 23819116.371213216 -6760003.7733609341 0 -6760003.7733609341 -1184765.232841949 0 0 0 0 87001000.128387451 -44877990.67094779 0 -44877990.67094779 -287801.51992368698 0 0 0 0 84920341.786973953 -35100473.867111951 0 -35100473.867111951 -25086000.649570942 0 0 0 0 83618835.856811523 -85970124.058677673 0 -85970124.058677673 11871783.100738525 0 0 0 0 28711353.562666669 -12519303.663689345 0 -12519303.663689345 -15228754.567067323 0 0 0 0 95255513.608711243 -91004252.847003937 0 -91004252.847003937 -40387412.885761261 0 0 0 0 37241861.061832428 -65149681.036640644 0 -65149681.036640644 5866410.0858459473 0 0 0 0 -1848790.6441773325 -3259162.4587539854 0 -3259162.4587539854 523869.92489027511 0 0 0 0 30602706.515914917 73132501.111963749 0 73132501.111963749 -6034266.3502428532 0 0 0 0 38919289.355804443 32944659.233842611 0 32944659.233842611 -54442685.392881393 0 0 0 0 21299110.197470829 12708827.867143957 0 12708827.867143957 -12224893.791937148 0 0 0 0 81811235.695907593 3434015.9249902368 0 3434015.9249902368 -143573049.1081059 0 0 0 0 54635227.601913452 57063098.803649187 0 57063098.803649187 -68184655.853089929 0 0 0 0 17477313.142028809 137032664.58677888 0 137032664.58677888 115295310.23829579 0 0 0 0 128054098.44419861 -4063673.6467835903 0 -4063673.6467835903 -138369516.11812115 0 0 0 0 9387023.495262742 2240663.5619138824 0 2240663.5619138824 -3440745.9142203317 0 0 0 0 -7791628.9978179932 -29689943.751549475 0 -29689943.751549475 -56526538.518539712 0 0 0 0 138699446.11578369 -143695881.77523404 0 -143695881.77523404 -141081436.02126274 0 0 0 0 79869957.444564819 -158965067.94187832 0 -158965067.94187832 -122974940.70687938 0 0 0 0 -201554.33101771772 230128.66634247825 0 230128.66634247825 322429.25435869303 0 0 0 0 292755148.45742798 181316634.34084386 0 181316634.34084386 59936765.24170763 0 0 0 0 274943454.48912048 102812804.61046147 0 102812804.61046147 -57628608.858357728 0 0 0 0 230363112.89011383 1761311.1483763754 0 1761311.1483763754 -218667199.38279068 0 0 0 0 437877673.79266357 -22537536.66579181 0 -22537536.66579181 -217343333.9804697 0 0 0 0 108757990.11013794 -22575000.806938589 0 -22575000.806938589 -154635975.52621946 0 0 0 0 95841619.737958908 -100330572.47987774 0 -100330572.47987774 -128954197.02117705 0 0 0 0 229229750.24919128 -25095437.003149807 0 -25095437.003149807 -110964689.03286764 0 0 0 0 250959756.09243011 -99911248.529597253 0 -99911248.529597253 -171810850.22516221 0 0 0 0 221296745.32949829 -75721295.560992941 0 -75721295.560992941 -132701729.85631385 0 0 0 0 -2153789.4140014648 153308058.67361087 0 153308058.67361087 -98871472.947471857 0 0 0 0 716964747.25456238 -191943422.20176661 0 -191943422.20176661 -154733071.33164823 0 0 0 0 638644137.54486847 310187684.01587886 0 310187684.01587886 -69836370.638661623 0 0 0 0 695882947.09903145 -601858365.30669725 0 -601858365.30669725 -487501025.99773407 0 0 0 0 864392525.11813354 150857475.86788845 0 150857475.86788845 -42039595.059410572 0 0 0 0 2900179.1640147269 404589.8605857715 0 404589.8605857715 -797650.76895235991 0 0 0 0 167877325.20305634 -223726049.28726313 0 -223726049.28726313 21256195.893122375 0 0 0 0 280194915.2779541 519483705.53494418 0 519483705.53494418 603731254.71857464 0 0 0 0 27976143.420013428 128251083.88474059 0 128251083.88474059 374170790.4174242 0 0 0 0 233701165.20117188 245654081.38534093 0 245654081.38534093 -155001683.18466282 0 0 0 0 -35698052.329315186 -3087683.0243391991 0 -3087683.0243391991 -261921379.41062927 0 0 0 0 -92247770.283260345 -719930290.18933678 0 -719930290.18933678 -186778663.20975196 0 0 0 0 19213057.127956741 6677798.985071186 0 6677798.985071186 -5730123.3814968457 0 0 0 0 -323304941.02520752 -83279810.039874077 0 -83279810.039874077 -92838057.191078186 0 0 0 0 17881191.121692911 5051425.7816113159 0 5051425.7816113159 -6261903.814980465 0 0 0 0 62675841.205535889 -255276431.33581376 0 -255276431.33581376 -206231816.61632371 0 0 0 0 71096726.486688569 -12450949.458329936 0 -12450949.458329936 -154893.00846698345 0 0 0 0 50999981.920300543 -75487736.758752346 0 -75487736.758752346 211774273.59082603 0 0 0 0 63380249.598144531 -9294998.4096922874 0 -9294998.4096922874 -126501899.95019662 0 0 0 0 -43723472.708251953 106440741.47535181 0 106440741.47535181 -821952338.91536522 0 0 0 0 57881740.150693804 31487445.577817041 0 31487445.577817041 -30674213.583050944 0 0 0 0 104184019.02576447 33238821.121664047 0 33238821.121664047 424436993.57775116 0 0 0 0 115110143.41729164 67427141.481775284 0 67427141.481775284 -114158794.91040611 0 0 0 0 15796889.157990456 -4303587.8065857887 0 -4303587.8065857887 158406873.61730385 0 0 0 0 -34197753.689998627 125529885.66208267 0 125529885.66208267 -94415954.663615227 0 0 0 0 120507599.45256042 -52137294.256706238 0 -52137294.256706238 93287000.048103333 0 0 0 0 82651190.934863091 117207253.22541142 0 117207253.22541142 30432120.745643616 0 0 0 0 109988385.47033691 73506549.625587463 0 73506549.625587463 -89344130.949062347 0 0 0 0 -42429979.382217407 44995540.139663696 0 44995540.139663696 84953999.616559982 0 0 0 0 81488123.965837181 10647930.843576314 0 10647930.843576314 -2932794.7645933344 0 0 0 0 139325132.08698654 -22179392.350161552 0 -22179392.350161552 174404600.15773582 0 0 0 0 92723156.461917877 139321563.66721344 0 139321563.66721344 122958466.45387268 0 0 0 0 191994741.31369781 150338577.28592813 0 150338577.28592813 -391939819.76304531 0 0 0 0 252153371.91497421 -102593433.25922775 0 -102593433.25922775 98575899.064996004 0 0 0 0 264402270.94595337 46804751.700695038 0 46804751.700695038 52021573.583096504 0 0 0 0 9242550.2333436478 4958503.2173175244 0 4958503.2173175244 -6778007.2026998103 0 0 0 0 -9556846.52318573 67192956.991233826 0 67192956.991233826 202445132.71263409 0 0 0 0 122273072.10391617 82280392.712993622 0 82280392.712993622 29719556.900405884 0 0 0 0 85810963.633272231 -1391061.4220281895 0 -1391061.4220281895 -2552601.1722384081 0 0 0 0 177652300.75436401 -3738904.5494499207 0 -3738904.5494499207 -49164943.625592828 0 0 0 0 113854748.6390419 126316908.40631676 0 126316908.40631676 -141297590.19023323 0 0 0 0 79521286.993713379 71226875.56233573 0 71226875.56233573 -154704180.58988714 0 0 0 0 77298157.385154724 282689926.41180801 0 282689926.41180801 -36297325.099960327 0 0 0 0 330116485.75835419 186323347.17530441 0 186323347.17530441 -146624539.21691132 0 0 0 0 270764593.85379028 265484608.98059845 0 265484608.98059845 -161481317.81199074 0 0 0 0 292245201.47947693 405749661.27075958 0 405749661.27075958 -194469689.27505493 0 0 0 0 10006257.714149475 179806924.53060913 0 179806924.53060913 -32983337.325223923 0 0 0 0 -144069550.80690765 121513025.1717453 0 121513025.1717453 -49953213.090029716 0 0 0 0 11408814.778760578 5567802.747918617 0 5567802.747918617 576813.71432504803 0 0 0 0 68027362.226125717 87230700.343900681 0 87230700.343900681 -314271586.63199997 0 0 0 0 138672552.9782486 152904614.0552597 0 152904614.0552597 -592170495.71912956 0 0 0 0 -366735113.46444321 11858547.748989105 0 11858547.748989105 -74780148.944343567 0 0 0 0 3574088.8683795035 2453326.2886698702 0 2453326.2886698702 694610.73098008893 0 0 0 0 190459769.19854355 -292011929.40454102 0 -292011929.40454102 330180521.65797424 0 0 0 0 299567193.75683594 458891445.34783173 0 458891445.34783173 217746506.25304413 0 0 0 0 439768572.41223907 -215332672.12390137 0 -215332672.12390137 -125845669.54842377 0 0 0 0 230867444.53229141 -108883567.35945511 0 -108883567.35945511 50815478.743486404 0 0 0 0 232102711.51346779 -110328937.34373331 0 -110328937.34373331 -19904596.888622284 0 0 0 0 92451527.622421265 -54061468.180170059 0 -54061468.180170059 -36005994.102338791 0 0 0 0 19039999.196465861 7534601.5166621329 0 7534601.5166621329 -903551.11705179885 0 0 0 0 41420350.897411346 19044972.782040596 0 19044972.782040596 -71197884.485271454 0 0 0 0 77612719.408184052 109635301.02162743 0 109635301.02162743 -440106030.32551575 0 0 0 0 133691725.64831924 -18472990.181856155 0 -18472990.181856155 -226627402.78417587 0 0 0 0 -64881613.104099274 3826090.4555473328 0 3826090.4555473328 -227612306.16893005 0 0 0 0 -49963339.546188354 231702175.42971039 0 231702175.42971039 -303081658.35867691 0 0 0 0 151040703.72055054 50447743.930400848 0 50447743.930400848 -33427546.507297516 0 0 0 0 51316300.794197083 43490008.973531723 0 43490008.973531723 -2310389.1205711365 0 0 0 0 16529333.696357727 26648258.510753632 0 26648258.510753632 -242572.79295730591 0 0 0 0 51557819.638656616 17839401.940828323 0 17839401.940828323 -19866660.828781128 0 0 0 0 15908577.287100792 20834707.015639663 0 20834707.015639663 -24492981.459655762 0 0 0 0 51830090.936965942 43310447.69469738 0 43310447.69469738 -24380513.053985596 0 0 0 0 77973161.189598083 9827335.5475263596 0 9827335.5475263596 -30259862.673152924 0 0 0 0 298478710.55381012 -17894569.374997139 0 -17894569.374997139 -118309373.29621506 0 0 0 0 286089516.94598389 -38883623.926891327 0 -38883623.926891327 -63988999.950014114 0 0 0 0 342868042.83946991 -33525931.722679138 0 -33525931.722679138 -242905187.02611542 0 0 0 0 341671504.78643036 22770592.760480881 0 22770592.760480881 -114359215.25307083 0 0 0 0 322678152.67851257 -33543116.600812912 0 -33543116.600812912 -34213192.020885468 0 0 0 0 326290443.83300161 10257838.080226421 0 10257838.080226421 -102263299.54712677 0 0 0 0 399486825.76887512 19650186.037847519 0 19650186.037847519 -70166430.163200378 0 0 0 0 270471988.18699646 -47537903.911634445 0 -47537903.911634445 -34386046.914384842 0 0 0 0 158517310.62193298 883892.09463477135 0 883892.09463477135 -54745467.768539429 0 0 0 0 307615611.14022827 -4197436.158033371 0 -4197436.158033371 -63682518.397766113 0 0 0 0 304056844.6442337 58091517.777189255 0 58091517.777189255 -53264148.836921692 0 0 0 0 181432824.48726654 41228633.099367142 0 41228633.099367142 -9139500.0127792358 0 0 0 0 382493241.35089874 119114936.31423378 0 119114936.31423378 -16422799.313304901 0 0 0 0 474485667.24921036 -47220572.427042007 0 -47220572.427042007 -18155289.475540161 0 0 0 0 214486197.54685211 -4797838.1523685455 0 -4797838.1523685455 86422092.476713181 0 0 0 0 372039475.38312149 -570397590.37246704 0 -570397590.37246704 63856848.468143463 0 0 0 0 696295895.40161133 -239649392.78383255 0 -239649392.78383255 -28748200.556135178 0 0 0 0 391705750.44773865 -136608603.03950882 0 -136608603.03950882 21671141.785896301 0 0 0 0 550378289.08166504 -52608879.143064499 0 -52608879.143064499 -160714414.32714844 0 0 0 0 2944617.3628257997 2653976.7403541515 0 2653976.7403541515 2663985.783316927 0 0 0 0 950656081.14702606 -612749915.00335121 0 -612749915.00335121 -2466670.2496833801 0 0 0 0 333007460.9592514 408246904.80564022 0 408246904.80564022 895716847.27410889 0 0 0 0 1452023172.9241791 -112268825.52734566 0 -112268825.52734566 -172666634.98003292 0 0 0 0 389560622.04254913 -186606186.74621391 0 -186606186.74621391 73472247.519440174 0 0 0 0 670534516.35140991 750395404.34346581 0 750395404.34346581 293539997.79162598 0 0 0 0 902546.9528218098 -977600.72847456299 0 -977600.72847456299 -583553.12397822179 0 0 0 0 257671086.42987061 -914049336.40777206 0 -914049336.40777206 1267175773.9215765 0 0 0 0 193452573.64738083 52332813.946054459 0 52332813.946054459 -36939925.440116882 0 0 0 0 754524.60237353295 -6389490.4023327958 0 -6389490.4023327958 -2453325.4761523562 0 0 0 0 4263141.2920485288 2789161.3686455097 0 2789161.3686455097 -2343275.4114431245 0 0 0 0 1831367.8340148926 -2956363.2116641998 0 -2956363.2116641998 -18069172.694648266 0 0 0 0 -1676114.6344985962 54267379.571750641 0 54267379.571750641 34086119.203826904 0 0 0 0 173856884.50534534 69627680.008184195 0 69627680.008184195 -17714603.479438782 0 0 0 0 -4561637.4953231812 -29168235.797271729 0 -29168235.797271729 -68938842.490871429 0 0 0 0 4768260.7918501608 1617337.5278658178 0 1617337.5278658178 -4073459.8585714377 0 0 0 0 -8098640.1428451538 -16004473.961096764 0 -16004473.961096764 -33279020.044792175 0 0 0 0 -50591.49577331543 17318937.29142189 0 17318937.29142189 2717003.0896949768 0 0 0 0 -13554342.445215702 -39566544.716259956 0 -39566544.716259956 -48578968.462680817 0 0 0 0 4510076.3895568848 -3373130.62672472 0 -3373130.62672472 -16439831.366837502 0 0 0 0 1549871.5052108765 -3194802.041110754 0 -3194802.041110754 -14622044.672400475 0 0 0 0 3262159.8776173219 -6074097.9362182505 0 -6074097.9362182505 -4089450.8981097899 0 0 0 0 90387294.236566544 30856530.537712574 0 30856530.537712574 38019633.58065033 0 0 0 0 -47704612.67665863 -39355448.68010807 0 -39355448.68010807 314752078.55128479 0 0 0 0 21455050.431613922 -127587473.73527193 0 -127587473.73527193 336910006.69382477 0 0 0 0 579036800.41638184 82720246.246482849 0 82720246.246482849 415347705.12512207 0 0 0 0 186839364.91435623 -319479689.30281281 0 -319479689.30281281 872865416.67200089 0 0 0 0 120183610.58135223 -109804730.74150515 0 -109804730.74150515 321388109.29266262 0 0 0 0 -13224234.784622192 -188909586.94247913 0 -188909586.94247913 317869809.67809677 0 0 0 0 14342905.313690186 -218967976.40296268 0 -218967976.40296268 434573747.96707869 0 0 0 0 500403594.17076874 -360374316.81732798 0 -360374316.81732798 127643360.52159166 0 0 0 0 496593927.08019257 -294825404.13220358 0 -294825404.13220358 45160170.608386993 0 0 0 0 174304932.30033946 -169583790.18940371 0 -169583790.18940371 5746332.6307239532 0 0 0 0 682500350.66066742 -38539208.576271057 0 -38539208.576271057 4721997.1088702679 0 0 0 0 723574063.84947157 -393231276.98392671 0 -393231276.98392671 -55434586.692225456 0 0 0 0 919128401.28190613 -631250538.18744183 0 -631250538.18744183 269752903.09223032 0 0 0 0 468059626.03063583 -332046882.47016144 0 -332046882.47016144 224072267.28405952 0 0 0 0 921600426.3948983 142927612.08175638 0 142927612.08175638 718530188.52257729 0 0 0 0 1632516.9879412241 1192216.4892259799 0 1192216.4892259799 738398.22188532446 0 0 0 0 918750151.69738388 -928992657.1237793 0 -928992657.1237793 645656319.68625641 0 0 0 0 875628719.74983978 -184735751.60076094 0 -184735751.60076094 -91068527.3658638 0 0 0 0 712256526.44465637 -555304228.03266525 0 -555304228.03266525 -168033728.73614502 0 0 0 0 136424877.69150543 -455981689.33171463 0 -455981689.33171463 347188089.7800293 0 0 0 0 1062409432.1827393 -851149734.56621838 0 -851149734.56621838 32443322.03698349 0 0 0 0 1545569788.0001297 -925277081.67633581 0 -925277081.67633581 227390031.74755478 0 0 0 0 635347626.90405273 -570368168.60998583 0 -570368168.60998583 512792792.67361259 0 0 0 0 -447756388.29483414 40273470.13300705 0 40273470.13300705 686698894.03560066 0 0 0 0 315702.90263404814 777934.96211236343 0 777934.96211236343 3108295.5212313039 0 0 0 0 772302.05744363554 531263.16684106924 0 531263.16684106924 7129025.6189585458 0 0 0 0 -60039987.840709686 -142474267.50450516 0 -142474267.50450516 531407587.66982174 0 0 0 0 821930455.56525421 -381956312.67209435 0 -381956312.67209435 -43243650.423304558 0 0 0 0 510766588.84156513 -28923048.59070462 0 -28923048.59070462 -143148933.86607742 0 0 0 0 1708797684.4189148 -842464261.63112426 0 -842464261.63112426 -306907578.85549212 0 0 0 0 -471826360.04774702 4507904.7992280107 0 4507904.7992280107 731581668.13718665 0 0 0 0 627537020.45698929 -1063088289.8090293 0 -1063088289.8090293 1000955969.2591593 0 0 0 0 1793980.9056561643 -719075.36665617116 0 -719075.36665617116 6141725.124545713 0 0 0 0 309400988.87353897 44585122.76327844 0 44585122.76327844 14825929.028204441 0 0 0 0 -159978218.70936203 6946716.2753412724 0 6946716.2753412724 123914480.50772572 0 0 0 0 -50332145.612640381 91827741.992526054 0 91827741.992526054 106384100.31871891 0 0 0 0 247561197.38998413 105851219.65558147 0 105851219.65558147 10019237.611332893 0 0 0 0 3867182.1553982794 -3568118.250436157 0 -3568118.250436157 84207.044318831599 0 0 0 0 3065011605.7146816 -1845811877.8408151 0 -1845811877.8408151 1101242293.3786118 0 0 0 0 1477753224.6065445 217079582.29204398 0 217079582.29204398 -664571612.3426013 0 0 0 0 2291551578.487114 -2220574048.0415378 0 -2220574048.0415378 1235621634.7023406 0 0 0 0 1801636362.2359352 -440902144.65686703 0 -440902144.65686703 1282709651.9228132 0 0 0 0 2269988897.7877121 -74153892.843827844 0 -74153892.843827844 689061328.18194616 0 0 0 0 2905353655.9258308 -1920368161.002048 0 -1920368161.002048 1296350781.8639174 0 0 0 0 1186955115.059185 -601240508.20324159 0 -601240508.20324159 518075618.01139927 0 0 0 0 1358382822.1935844 -189196198.74641919 0 -189196198.74641919 -254958760.59924197 0 0 0 0 403850714.28482056 328242949.85127544 0 328242949.85127544 30569621.700368881 0 0 0 0 1799370683.5285606 -504142666.53056765 0 -504142666.53056765 35575344.509100914 0 0 0 0 912568245.66187096 -493443901.84553194 0 -493443901.84553194 104382703.56193447 0 0 0 0 768701824.20170784 -619617234.09591103 0 -619617234.09591103 177052663.14166641 0 0 0 0 1026973252.7058792 -591565475.07995701 0 -591565475.07995701 179891964.26276267 0 0 0 0 785645479.78284454 -580443985.47533894 0 -580443985.47533894 267546855.42526054 0 0 0 0 475985550.91199875 -614468412.79535294 0 -614468412.79535294 264643081.79929113 0 0 0 0 432391818.39021301 -473462582.59424019 0 -473462582.59424019 381857418.73643112 0 0 0 0 452027505.06204987 -543933864.24820518 0 -543933864.24820518 397437623.88374758 0 0 0 0 533161920.3025856 -385441581.94718599 0 -385441581.94718599 253887686.27045822 0 0 0 0 1050300302.0295086 -299191473.15516329 0 -299191473.15516329 267303217.8141613 0 0 0 0 421766279.78762054 -583345176.55828285 0 -583345176.55828285 1011576211.5511618 0 0 0 0 585783888.55143356 -1296395626.1524048 0 -1296395626.1524048 877054574.99470139 0 0 0 0 226626676.65775299 -536618135.07812119 0 -536618135.07812119 554741548.30155993 0 0 0 0 395854075.40679169 551989272.87281132 0 551989272.87281132 461739014.00424051 0 0 0 0 206491758.2358036 -364364834.86817503 0 -364364834.86817503 235335639.18331909 0 0 0 0 3011170.6406490877 2670593.5267247697 0 2670593.5267247697 2197548.8184326943 0 0 0 0 742376509.86316681 -673785865.13560772 0 -673785865.13560772 201740829.32642937 0 0 0 0 663370392.75694275 -401211024.63319874 0 -401211024.63319874 -167051340.73856926 0 0 0 0 1690505.963052595 1224390.7572477274 0 1224390.7572477274 256346.47336485982 0 0 0 0 626463038.44675064 -701781221.68424559 0 -701781221.68424559 205014653.73179245 0 0 0 0 216657744.77129745 -24849071.927009583 0 -24849071.927009583 48570448.930751801 0 0 0 0 246729304.71035051 -176264119.61355031 0 -176264119.61355031 322942772.22417068 0 0 0 0 283297289.44549561 -61972620.315567017 0 -61972620.315567017 154464972.92191315 0 0 0 0 32228860.545021057 8621743.5713558197 0 8621743.5713558197 216726647.39696503 0 0 0 0 321894025.12285614 101701369.76069927 0 101701369.76069927 -365706064.80445099 0 0 0 0 -295960537.23899078 361584972.20915604 0 361584972.20915604 -125606831.06053925 0 0 0 0 295004085.69897079 87860679.77479887 0 87860679.77479887 -990885212.98227692 0 0 0 0 281367211.61893463 21556377.999858856 0 21556377.999858856 -216673409.65161514 0 0 0 0 -281978658.19110453 -515649120.96521634 0 -515649120.96521634 442921572.5806427 0 0 0 0 -197630993.29735851 449378118.19485927 0 449378118.19485927 -278408920.81956863 0 0 0 0 126349935.62195587 -537302555.57148552 0 -537302555.57148552 -186299751.44054508 0 0 0 0 283184059.04538727 -188893003.57330132 0 -188893003.57330132 451526275.38269913 0 0 0 0 -216473722.28775406 -349264120.52097511 0 -349264120.52097511 452289029.50979996 0 0 0 0 41501733.953849792 -155038830.92685127 0 -155038830.92685127 332851450.39621353 0 0 0 0 -70957665.422185898 -432834634.03606749 0 -432834634.03606749 1137363211.4459648 0 0 0 0 351755022.56411362 -745199013.04857159 0 -745199013.04857159 309016304.89034081 0 0 0 0 261696050.63587189 -673442421.26710892 0 -673442421.26710892 643421275.51363277 0 0 0 0 716474908.42070961 -796514515.93119621 0 -796514515.93119621 314165374.86574936 0 0 0 0 499190506.54265785 -566324116.73590851 0 -566324116.73590851 322896997.26035309 0 0 0 0 97300741.133230209 -389421881.72342157 0 -389421881.72342157 354632428.59718704 0 0 0 0 -492669199.94618225 162934475.08503723 0 162934475.08503723 -319931710.06171703 0 0 0 0 1120864304.6499672 -941874702.88172531 0 -941874702.88172531 -166425108.33734226 0 0 0 0 776979330.0736866 -613507801.78683376 0 -613507801.78683376 -834307.15625095367 0 0 0 0 866878651.97460938 -1324368200.0585403 0 -1324368200.0585403 952949396.84886932 0 0 0 0 156183236.84500694 -1163629419.4858379 0 -1163629419.4858379 2635292840.6277962 0 0 0 0 1695049579.6971436 -1928769096.4757862 0 -1928769096.4757862 818063050.63604355 0 0 0 0 1299786.3573321179 -2724901.6842893083 0 -2724901.6842893083 1011800.5019710059 0 0 0 0 1420106108.2906103 -649052667.70448256 0 -649052667.70448256 -1139957609.5389824 0 0 0 0 -1125492.3120407471 -2890305.8246954568 0 -2890305.8246954568 6142148.0232951548 0 0 0 0 1040635328.3365576 -2161356956.292315 0 -2161356956.292315 535856873.2610054 0 0 0 0 -863738870.29284739 598077456.74067855 0 598077456.74067855 1652646042.3544502 0 0 0 0 -746774782.90449524 129369279.12368298 0 129369279.12368298 2625876871.0383081 0 0 0 0 -540563335.56038094 118909176.36474991 0 118909176.36474991 -34634095.798550665 0 0 0 0 -868471618.97237396 -124568884.90426111 0 -124568884.90426111 1787050804.293972 0 0 0 0 -989220.53018536232 -6050459.8504538303 0 -6050459.8504538303 11207114.024726298 0 0 0 0 -1288634811.9953985 -1637023492.4094501 0 -1637023492.4094501 -70319027.654647872 0 0 0 0 -1055599899.1926801 -964599073.44671559 0 -964599073.44671559 -82264231.823568344 0 0 0 0 -132483245.99717331 -538366250.9279151 0 -538366250.9279151 -160994522.19969594 0 0 0 0 -598778622.14733648 -88783949.890375495 0 -88783949.890375495 876654335.34625721 0 0 0 0 -432703989.65058327 -1129973442.7659011 0 -1129973442.7659011 1860430566.321568 0 0 0 0 366859219.73300934 -738022165.72305679 0 -738022165.72305679 750565347.8892498 0 0 0 0 -291822951.62677288 -173636859.46425056 0 -173636859.46425056 357334422.59799576 0 0 0 0 831772066.12795067 -449154367.69814777 0 -449154367.69814777 -164821292.3240242 0 0 0 0 829068482.81075001 -692013707.38091278 0 -692013707.38091278 107038376.5473156 0 0 0 0 779712954.79566956 -601752164.12146187 0 -601752164.12146187 100346603.72214258 0 0 0 0 367804830.67721033 -713783705.55736804 0 -713783705.55736804 360764097.68068314 0 0 0 0 789999448.40763474 -929958673.50625134 0 -929958673.50625134 467687840.58054876 0 0 0 0 1213074859.2212591 -1333704357.4160662 0 -1333704357.4160662 404765190.95037818 0 0 0 0 678035559.24917221 -1031393475.9419135 0 -1031393475.9419135 412539837.89370883 0 0 0 0 381559516.5302825 -1340160450.7581286 0 -1340160450.7581286 1014403894.6208982 0 0 0 0 -190813891.8300457 -1252589728.675745 0 -1252589728.675745 1093557725.0836759 0 0 0 0 2509872565.6007872 -1521054936.1295338 0 -1521054936.1295338 346500800.49019623 0 0 0 0 800722610.25432587 -2157371261.6510296 0 -2157371261.6510296 1407356624.996484 0 0 0 0 -549216019.29591751 -438892598.03346634 0 -438892598.03346634 1494708203.538167 0 0 0 0 165512768.69241381 -638504322.60738754 0 -638504322.60738754 -844487387.15370846 0 0 0 0 6215872.1332967449 -12408048.579861777 0 -12408048.579861777 1774198.5820758841 0 0 0 0 1777126.8501031976 -2523985.8368838923 0 -2523985.8368838923 2030916.5535806203 0 0 0 0 324728513.75429535 -822282684.98916841 0 -822282684.98916841 -1953403377.8343101 0 0 0 0 8756832.0498689301 -9859632.4483511243 0 -9859632.4483511243 94818.41485657022 0 0 0 0 -347698796.45202994 -488118021.88631058 0 -488118021.88631058 229031637.72645998 0 0 0 0 -151533116.21588993 -1525667937.5460606 0 -1525667937.5460606 1121714677.9477808 0 0 0 0 5111898.9610157013 -1303414000.0425191 0 -1303414000.0425191 142791496.43812758 0 0 0 0 -412198769.02369499 -906746428.47441626 0 -906746428.47441626 838131497.10512412 0 0 0 0 -110261186.82867593 -1365041715.0061433 0 -1365041715.0061433 1122907113.6405249 0 0 0 0 325280524.81529236 -2279525761.7313919 0 -2279525761.7313919 2498281269.5854168 0 0 0 0 2219678065.0890613 -309435183.05692959 0 -309435183.05692959 489923535.18591094 0 0 0 0 2050400433.4597535 -1957379405.5140152 0 -1957379405.5140152 814395564.55268896 0 0 0 0 2492928119.2596235 -810327335.27058232 0 -810327335.27058232 -157720096.59043738 0 0 0 0 356571548.15686131 -836243461.70224583 0 -836243461.70224583 76468397.169251204 0 0 0 0 -285257877.55398321 -125833098.10175729 0 -125833098.10175729 -1247068440.2284875 0 0 0 0 885028154.47100449 -1331820771.787508 0 -1331820771.787508 -643106763.8566072 0 0 0 0 554679247.67804861 229887946.05325028 0 229887946.05325028 -714294471.54445887 0 0 0 0 1738607819.6934309 -148548116.94183064 0 -148548116.94183064 -1442349001.2336612 0 0 0 0 -889010238.50567341 263529665.32418656 0 263529665.32418656 -1447404296.9240971 0 0 0 0 709249912.51119566 -872935942.27137566 0 -872935942.27137566 -3508686401.7613792 0 0 0 0 8957716.1377705969 -6795799.701285867 0 -6795799.701285867 -708897.49666744785 0 0 0 0 3948747242.6180229 -357817848.96511775 0 -357817848.96511775 -1045517984.2172711 0 0 0 0 3957711343.7143898 105566654.21601331 0 105566654.21601331 -2516395274.3273344 0 0 0 0 2251452090.1231117 1246122945.8419142 0 1246122945.8419142 -3260194126.9901543 0 0 0 0 4189690.0592890377 -2385337.1197234229 0 -2385337.1197234229 -452961.5818855823 0 0 0 0 480273280.98748016 -697727582.09596038 0 -697727582.09596038 816063190.86847508 0 0 0 0 1891716223.7495539 1093306242.8153715 0 1093306242.8153715 -1854318990.2817192 0 0 0 0 3561692745.1693382 88313191.897599965 0 88313191.897599965 -1303776040.9412158 0 0 0 0 4095541881.2275324 296003317.48804808 0 296003317.48804808 -1917967447.1906316 0 0 0 0 2742645351.1017504 416407642.30238581 0 416407642.30238581 -992017218.91028702 0 0 0 0 4093317156.4774065 -623738565.79292917 0 -623738565.79292917 -252677755.3465502 0 0 0 0 2945025307.1246319 -405463029.73207468 0 -405463029.73207468 384224589.89022976 0 0 0 0 4095271473.2421169 -1125905759.7917435 0 -1125905759.7917435 708534828.6953361 0 0 0 0 3186847563.6424055 -1435365552.6876893 0 -1435365552.6876893 1135470228.8415487 0 0 0 0 2578584551.5926847 -1063889680.7329726 0 -1063889680.7329726 1517220391.3033464 0 0 0 0 2379098063.2861323 -2105299731.0579863 0 -2105299731.0579863 1357388708.8822796 0 0 0 0 2409611572.8457575 -1545286605.7050412 0 -1545286605.7050412 -1484385851.3480396 0 0 0 0 -811937300.23334384 -618189121.66552484 0 -618189121.66552484 3245383728.6963243 0 0 0 0 -540525.97476287931 -3077071.3127424903 0 -3077071.3127424903 5890502.9386189226 0 0 0 0 3246282626.3751698 -1570539604.200994 0 -1570539604.200994 1417124359.0586345 0 0 0 0 4123788774.1005211 -1541093377.8670013 0 -1541093377.8670013 164575634.67221284 0 0 0 0 -1322745174.5116744 -486405345.00860715 0 -486405345.00860715 1657284927.357615 0 0 0 0 772751619.97616816 -685336721.41337514 0 -685336721.41337514 2165185925.8491974 0 0 0 0 -43559169.99152565 339848988.1260128 0 339848988.1260128 1051771738.55861 0 0 0 0 262535289.03433323 -1385092812.8016553 0 -1385092812.8016553 5208248014.0017338 0 0 0 0 2977609260.0837364 -2431815213.1443243 0 -2431815213.1443243 3956705421.2003651 0 0 0 0 3817608587.7710323 -726612252.05912375 0 -726612252.05912375 3023383028.0599141 0 0 0 0 4093132680.5617771 -1706407695.0538681 0 -1706407695.0538681 2402300674.7877207 0 0 0 0 3367072001.3800049 -2281400107.4438229 0 -2281400107.4438229 1982489031.4445887 0 0 0 0 3917838111.58463 -1117276899.3230453 0 -1117276899.3230453 1187418529.4680018 0 0 0 0 61669589.025756836 -33446456.132652283 0 -33446456.132652283 73134219.864777565 0 0 0 0 61291452.148803711 -44869368.709054947 0 -44869368.709054947 55737879.854316711 0 0 0 0 40171439.113182068 -50922984.205112457 0 -50922984.205112457 55889277.760552108 0 0 0 0 110207315.64483643 -46761326.176868439 0 -46761326.176868439 28679923.907835007 0 0 0 0 119812400.22095871 -26709365.370123863 0 -26709365.370123863 31962916.208381653 0 0 0 0 122148490.76048279 -35236422.305696487 0 -35236422.305696487 28638124.283901215 0 0 0 0 102337670.97848511 -27687039.45792675 0 -27687039.45792675 32985044.995845795 0 0 0 0 88143154.566802979 -34299107.11491394 0 -34299107.11491394 51591853.263496399 0 0 0 0 61846005.079233766 -48701884.666998357 0 -48701884.666998357 44787799.173461914 0 0 0 0 113089482.25820923 -25886972.07301712 0 -25886972.07301712 28728094.270975113 0 0 0 0 27323252.477172852 -1713688.6548404694 0 -1713688.6548404694 -11732944.712274551 0 0 0 0 51789006.599059597 -431080.31178317592 0 -431080.31178317592 -5628426.3601668095 0 0 0 0 91584526.167144775 -21749228.130504608 0 -21749228.130504608 31107622.369112015 0 0 0 0 64644286.854751587 -34337775.997108459 0 -34337775.997108459 -23518192.763397217 0 0 0 0 38709088.653862 3260881.6552963257 0 3260881.6552963257 -31845191.307617188 0 0 0 0 -22660324.35559082 51878160.633888245 0 51878160.633888245 -41508859.930901527 0 0 0 0 -11715124.021614075 -38771068.928865433 0 -38771068.928865433 -31611558.748412848 0 0 0 0 -15577669.035541534 -21057704.625354767 0 -21057704.625354767 -105905988.73311615 0 0 0 0 -35781664.629272461 -45622663.311201096 0 -45622663.311201096 -120213101.95635986 0 0 0 0 45222817.514546156 -57356512.949530959 0 -57356512.949530959 -41276323.782543182 0 0 0 0 7866048.496383667 -86623858.004089355 0 -86623858.004089355 -246898133.58724213 0 0 0 0 14849723.039138794 78304095.049308777 0 78304095.049308777 -91780334.975800514 0 0 0 0 77455655.46005249 47347138.427932739 0 47347138.427932739 -202642609.14017868 0 0 0 0 70610730.453460693 -9860685.5461578369 0 -9860685.5461578369 73732310.336363792 0 0 0 0 66565362.8568573 -20926130.278858185 0 -20926130.278858185 44232569.941568375 0 0 0 0 51578630.264370672 -17836042.742643803 0 -17836042.742643803 -10273116.241048561 0 0 0 0 29470731.074417114 -23286994.206074715 0 -23286994.206074715 142375280.14361572 0 0 0 0 56276103.349886253 -6123726.3047978468 0 -6123726.3047978468 -13439644.064607393 0 0 0 0 43652571.816520691 -19434304.795780182 0 -19434304.795780182 -54507180.026008606 0 0 0 0 89629858.052253723 -83654515.933064818 0 -83654515.933064818 -172294679.476156 0 0 0 0 40589383.252313912 -25705524.348377429 0 -25705524.348377429 -7230435.5127225164 0 0 0 0 67148060.35492295 -4211293.1161889965 0 -4211293.1161889965 -25062313.587752517 0 0 0 0 50932361.182444572 120848079.66750145 0 120848079.66750145 205507162.02519989 0 0 0 0 35587275.400722504 -68592142.099330902 0 -68592142.099330902 79017582.09274292 0 0 0 0 30839114.427093506 -48214075.854011536 0 -48214075.854011536 123773069.99869156 0 0 0 0 61184374.866020203 -45389694.976829529 0 -45389694.976829529 32562754.216938019 0 0 0 0 -35284760.240726471 -77291638.611652374 0 -77291638.611652374 26096266.330615997 0 0 0 0 -259518358.13618469 138452449.04544449 0 138452449.04544449 28724340.786689758 0 0 0 0 121685680.6920929 15209997.113142014 0 15209997.113142014 54361751.071989059 0 0 0 0 117092111.95033264 102564176.50739765 0 102564176.50739765 -410484123.73027802 0 0 0 0 56625195.611480713 5447962.1598854065 0 5447962.1598854065 -292281493.15397263 0 0 0 0 -126754534.351717 -220602921.79891276 0 -220602921.79891276 -188470016.35790634 0 0 0 0 51893148.551208496 6447057.9758110046 0 6447057.9758110046 -62733443.785482407 0 0 0 0 112869299.43079376 -67704458.662516594 0 -67704458.662516594 -152385538.18784428 0 0 0 0 69888332.775901794 -81180606.14329958 0 -81180606.14329958 2143697.1437644958 0 0 0 0 143689003.08340454 -54046092.169044495 0 -54046092.169044495 -37784837.140081406 0 0 0 0 116713963.73923874 -42609186.492192745 0 -42609186.492192745 -25717997.494194031 0 0 0 0 166892127.2805481 -54556892.257451057 0 -54556892.257451057 -54033520.822242737 0 0 0 0 199502771.58473969 12612464.473615646 0 12612464.473615646 -4271529.7639532089 0 0 0 0 161374910.94887543 82047581.737031937 0 82047581.737031937 28469476.28904438 0 0 0 0 56438121.78086853 1989528.3904981613 0 1989528.3904981613 11629900.155263186 0 0 0 0 147551737.7283783 -15371139.855541229 0 -15371139.855541229 -1742260.9866962433 0 0 0 0 17902189.495172806 280993.8978740219 0 280993.8978740219 -3071691.5108376928 0 0 0 0 142816568.94120026 -23390740.305450439 0 -23390740.305450439 -15240833.805445194 0 0 0 0 153665960.0734024 -32598696.372766972 0 -32598696.372766972 -10007908.203533173 0 0 0 0 25199103.985197488 23836214.729392372 0 23836214.729392372 7417498.8019301239 0 0 0 0 8218486.7659301758 178141406.41197014 0 178141406.41197014 106849447.91124153 0 0 0 0 152708830.31855774 -47702882.047447205 0 -47702882.047447205 -74314958.307569504 0 0 0 0 192495048.45984459 -81209229.216091156 0 -81209229.216091156 -77087071.708227158 0 0 0 0 10288447.350351952 -298919.37322013825 0 -298919.37322013825 -2499487.4043639656 0 0 0 0 -9354884.5476379395 69456658.035152435 0 69456658.035152435 -10180612.176620483 0 0 0 0 101241.08697509766 42999820.935379028 0 42999820.935379028 -25669056.732046127 0 0 0 0 2921751.6375427246 54558284.324720383 0 54558284.324720383 21627882.321414948 0 0 0 0 -45509488.655265808 35533726.398931503 0 35533726.398931503 36852695.915212631 0 0 0 0 -13480869.529331207 19681360.567998886 0 19681360.567998886 75398762.147052765 0 0 0 0 -12700478.825454712 29365518.550527573 0 29365518.550527573 16760388.330524445 0 0 0 0 28459707.97906936 22116132.007027566 0 22116132.007027566 5015943.0205783863 0 0 0 0 66134234.16601944 22295675.035517693 0 22295675.035517693 19071150.217983246 0 0 0 0 -46666888.212254047 48123108.721983612 0 48123108.721983612 23882776.175437927 0 0 0 0 12264812.669326782 42213315.685518265 0 42213315.685518265 -24137954.61161232 0 0 0 0 74816.642230153084 17882203.020503823 0 17882203.020503823 2748054.577801215 0 0 0 0 -29179366.065689087 41642757.466550827 0 41642757.466550827 8280890.1394176483 0 0 0 0 22105454.043045044 22151420.013202667 0 22151420.013202667 -2442467.868396759 0 0 0 0 17968566.033088684 29156308.291858673 0 29156308.291858673 -9590454.4209957123 0 0 0 0 -10716017.75378418 39979683.190969467 0 39979683.190969467 999133.40289306641 0 0 0 0 -2390497.7315444946 -11896512.80165863 0 -11896512.80165863 -27799053.211738586 0 0 0 0 97178936.940177917 -1786289.3922491074 0 -1786289.3922491074 -4806497.471698761 0 0 0 0 59592063.246383667 -20256059.651760101 0 -20256059.651760101 20722580.103706837 0 0 0 0 128546828.09346771 -24739946.065912247 0 -24739946.065912247 26961957.748626709 0 0 0 0 11243414.228259165 502894.51150249876 0 502894.51150249876 -4724348.3180342559 0 0 0 0 126329501.60122299 -56767417.98852253 0 -56767417.98852253 28993391.082710266 0 0 0 0 166161997.23989868 -39898764.77781105 0 -39898764.77781105 -11860171.53344202 0 0 0 0 29496836.999003578 -4657009.4365049163 0 -4657009.4365049163 -239664.89885783941 0 0 0 0 62280322.816482544 9441783.698513031 0 9441783.698513031 14539126.322206497 0 0 0 0 89031532.23487854 5324108.5877342224 0 5324108.5877342224 -3041731.2416381836 0 0 0 0 32304518.398489431 5197741.7258980628 0 5197741.7258980628 -2959154.5965975504 0 0 0 0 14732785.293384552 663353.46490001678 0 663353.46490001678 -3542271.1388587952 0 0 0 0 22142413.452524096 6754647.9986560186 0 6754647.9986560186 346078.80902441964 0 0 0 0 13151058.069377899 -1680905.1433486938 0 -1680905.1433486938 -6290423.276093483 0 0 0 0 14067545.997407436 1960068.6529340744 0 1960068.6529340744 -9297678.196081996 0 0 0 0 16564131.776875496 6142855.6754760742 0 6142855.6754760742 -11391173.333501816 0 0 0 0 17479122.06132412 3401720.9604797363 0 3401720.9604797363 -15799343.078147888 0 0 0 0 11364132.134234175 -2074221.0086564003 0 -2074221.0086564003 -608677.01738848502 0 0 0 0 31190145.988574874 31975546.097881123 0 31975546.097881123 -5356619.5664726067 0 0 0 0 16186984.280415535 7706243.4804267883 0 7706243.4804267883 -7892540.4961414337 0 0 0 0 51820937.917667389 -21301195.478675842 0 -21301195.478675842 34891194.424057007 0 0 0 0 32412648.075293727 -5059643.094159767 0 -5059643.094159767 -6765723.0730066895 0 0 0 0 32056551.191411179 -3972049.1016458515 0 -3972049.1016458515 -9055060.557056969 0 0 0 0 69843038.632873535 -1468437.3449039459 0 -1468437.3449039459 -13645124.781723022 0 0 0 0 10197192.377151489 -845681.03319740295 0 -845681.03319740295 -9484135.7231140137 0 0 0 0 33053788.518748872 -680319.87536300113 0 -680319.87536300113 -479569.98303202353 0 0 0 0 82992414.960708618 -23920028.419120789 0 -23920028.419120789 -35221806.811559677 0 0 0 0 115267901.05848503 -36190156.890370846 0 -36190156.890370846 -45083808.683403015 0 0 0 0 58894449.122291565 2172779.1164207458 0 2172779.1164207458 -6086010.5292053223 0 0 0 0 109325712.7204361 -61074636.76799202 0 -61074636.76799202 -24410900.236570358 0 0 0 0 19712277.050035298 -2111748.2095294902 0 -2111748.2095294902 -4368441.9747803863 0 0 0 0 47177665.17237854 -5254112.6492671967 0 -5254112.6492671967 -6443570.0842661858 0 0 0 0 58786357.975882411 -3567283.4555106908 0 -3567283.4555106908 -2395253.077960968 0 0 0 0 28917091.700001214 -1924335.4800043572 0 -1924335.4800043572 -2085625.9473667424 0 0 0 0 19846869.174296975 4042494.6053373534 0 4042494.6053373534 -3218746.4661212899 0 0 0 0 96591124.952804565 -19910581.8179245 0 -19910581.8179245 -9989610.5120840073 0 0 0 0 5086451.3141128458 516927.39146819897 0 516927.39146819897 -1864192.9128027558 0 0 0 0 70843560.118282318 -6906909.0589189529 0 -6906909.0589189529 -23385165.796066284 0 0 0 0 41450334.261896133 889118.75115394592 0 889118.75115394592 -25109325.699607849 0 0 0 0 16788269.338989258 -5311059.7476291656 0 -5311059.7476291656 11045740.501588821 0 0 0 0 105576634.2955246 -34234609.520479202 0 -34234609.520479202 -19214337.29718399 0 0 0 0 105638187.76044846 -2976467.1188182831 0 -2976467.1188182831 -57668177.381771088 0 0 0 0 68499009.271308899 -236757.47365760803 0 -236757.47365760803 -53718429.320228577 0 0 0 0 53413016.357105255 19534909.263637543 0 19534909.263637543 -75618077.371711731 0 0 0 0 22566617.946135044 19114594.125778198 0 19114594.125778198 -22070341.521652222 0 0 0 0 71673079.641387939 10411198.117107391 0 10411198.117107391 -32345679.414901733 0 0 0 0 66858706.820358276 -7326736.1717853546 0 -7326736.1717853546 -29715395.93705368 0 0 0 0 5851359.4377059937 31293293.169847488 0 31293293.169847488 36936564.442792892 0 0 0 0 12943316.938964844 27822278.378232956 0 27822278.378232956 1101304.4567584991 0 0 0 0 13798249.44934845 29563291.289438248 0 29563291.289438248 4372950.6592969894 0 0 0 0 3622383.2157745361 19061270.760141373 0 19061270.760141373 12711491.545921326 0 0 0 0 5101541.5922470093 16386924.115224838 0 16386924.115224838 5680505.6776065826 0 0 0 0 8390094.660736084 23899086.732013702 0 23899086.732013702 564001.16703224182 0 0 0 0 7225348.6657028198 25984118.361871719 0 25984118.361871719 17358305.633255005 0 0 0 0 4154783.2769012451 39043796.810957909 0 39043796.810957909 6521295.4266052246 0 0 0 0 -5762865.6515083313 1594006.3950920105 0 1594006.3950920105 12048288.574117899 0 0 0 0 6658787.3630981445 19165425.313633919 0 19165425.313633919 10137476.827787399 0 0 0 0 12734033.121607872 3743046.1393138543 0 3743046.1393138543 -1019830.433355093 0 0 0 0 6487041.6991577148 -3549686.0653953552 0 -3549686.0653953552 19883089.595199585 0 0 0 0 6640802.1857910156 10556970.860239029 0 10556970.860239029 8714377.0498390198 0 0 0 0 5550391.8699369431 29474197.931913853 0 29474197.931913853 41234650.717136383 0 0 0 0 -145694751.51403809 46875878.313789368 0 46875878.313789368 -36157951.444789886 0 0 0 0 227333.0892453827 3417402.9282316049 0 3417402.9282316049 1674147.2764506498 0 0 0 0 -32236112.943675995 118956038.67367458 0 118956038.67367458 -90354999.799938202 0 0 0 0 10015669.845935822 -21424953.825184822 0 -21424953.825184822 -128775760.07184982 0 0 0 0 12101464.824768066 -14825888.895484924 0 -14825888.895484924 -1347913.2141666412 0 0 0 0 23962795.138427734 6195641.1822357178 0 6195641.1822357178 -82922158.620517731 0 0 0 0 1181608.917367544 269812.16468704678 0 269812.16468704678 -450965.82191112265 0 0 0 0 1748655.0144681446 -1651024.2779044192 0 -1651024.2779044192 -1408847.776141393 0 0 0 0 -20984406.103668213 661621.23453903198 0 661621.23453903198 31685705.200762391 0 0 0 0 -53563198.319736481 58679120.203241348 0 58679120.203241348 -44899733.959562302 0 0 0 0 42468187.444717407 -32332292.298490524 0 -32332292.298490524 -1410442.7477469444 0 0 0 0 -61964580.960882187 -83184397.673153222 0 -83184397.673153222 -2611779.7791671753 0 0 0 0 -592043.26105499268 30241117.204654694 0 30241117.204654694 -129590364.39442253 0 0 0 0 -586829.94741272926 -43774993.194511294 0 -43774993.194511294 -56142199.931125641 0 0 0 0 262600583.69797897 -25585863.560166359 0 -25585863.560166359 -62675449.193992615 0 0 0 0 181886699.86923218 151144343.41231155 0 151144343.41231155 -39505240.512667179 0 0 0 0 10746326.105435371 60669261.264338493 0 60669261.264338493 24488065.799301147 0 0 0 0 105265652.73479843 -37675798.303813934 0 -37675798.303813934 -26241168.249557495 0 0 0 0 38234146.593379974 -40176763.737091064 0 -40176763.737091064 18886348.286197662 0 0 0 0 126213300.64783859 -117975754.13413811 0 -117975754.13413811 79587901.152748108 0 0 0 0 409823.40732046962 -234805.56678428175 0 -234805.56678428175 -265562.96174413431 0 0 0 0 46240060.460876465 -14127429.87065506 0 -14127429.87065506 -66773917.95599556 0 0 0 0 61004063.186065674 68574542.322023392 0 68574542.322023392 -70402249.300750732 0 0 0 0 165925341.53646088 -24441445.314853668 0 -24441445.314853668 -20166877.100395203 0 0 0 0 29783846.290160071 -10661951.644525114 0 -10661951.644525114 -9180040.9026206229 0 0 0 0 43351227.00692749 -36627012.009312555 0 -36627012.009312555 3036439.8563377857 0 0 0 0 60879045.106147766 48876928.533648178 0 48876928.533648178 24201830.752124786 0 0 0 0 148052295.09056091 34301675.657588661 0 34301675.657588661 -21076539.365015984 0 0 0 0 -94908518.602874756 -31060331.087931812 0 -31060331.087931812 -32217075.91681844 0 0 0 0 -80910571.643718719 -67728956.769994363 0 -67728956.769994363 24844633.700707555 0 0 0 0 -67298365.843017578 -56275623.720791727 0 -56275623.720791727 -13797071.818040252 0 0 0 0 -32587213.581436157 -63693614.964786708 0 -63693614.964786708 -25102046.939905584 0 0 0 0 31103001.971994009 -12244794.121329207 0 -12244794.121329207 -7709275.5831109397 0 0 0 0 -80762038.104034424 -67736537.974417448 0 -67736537.974417448 -3441784.7112240791 0 0 0 0 94317656.641716003 4390735.1200447083 0 4390735.1200447083 -12322091.129824877 0 0 0 0 -10492797.58480835 -44342228.018829346 0 -44342228.018829346 -39960657.992980957 0 0 0 0 21619292.689196113 5887505.2714364268 0 5887505.2714364268 638108.282160128 0 0 0 0 22991885.61978209 35407554.073576927 0 35407554.073576927 -46045696.966461182 0 0 0 0 52924683.380439758 -123763144.32593727 0 -123763144.32593727 -2314117.26704216 0 0 0 0 4982889.9191914853 -1141929.971807749 0 -1141929.971807749 -436037.86676036008 0 0 0 0 16402815.8750946 2994691.0605341364 0 2994691.0605341364 -17658.38000038825 0 0 0 0 -34843420.317001343 -83696318.302639008 0 -83696318.302639008 22168997.279174805 0 0 0 0 53019491.059669495 -34753057.623882294 0 -34753057.623882294 -64275130.926109314 0 0 0 0 -16376806.99357605 -89021856.961727828 0 -89021856.961727828 -47810647.112046123 0 0 0 0 41511659.108947694 -8348724.2461697962 0 -8348724.2461697962 -5954688.5564406859 0 0 0 0 78231265.29211998 -187174.72015070915 0 -187174.72015070915 -5672251.9815368652 0 0 0 0 126471338.67358589 42254823.305286884 0 42254823.305286884 -22012646.134647369 0 0 0 0 -157985560.17658234 -123921793.43509483 0 -123921793.43509483 -63453567.150909424 0 0 0 0 5151888.6537764752 876898.36638897471 0 876898.36638897471 -33034.688379937783 0 0 0 0 -139505561.54765129 -60316427.330601692 0 -60316427.330601692 12178771.946235657 0 0 0 0 90380235.927932739 -11652207.18870163 0 -11652207.18870163 -40071786.709007263 0 0 0 0 -15777877.122245789 -68644877.855316162 0 -68644877.855316162 71889273.468347549 0 0 0 0 -23490875.124702454 -31985600.333520889 0 -31985600.333520889 -49039186.908620834 0 0 0 0 42525918.036445618 -77767386.279561758 0 -77767386.279561758 -105915384.75040436 0 0 0 0 60125915.238937378 -115985809.21536648 0 -115985809.21536648 -97038348.170217961 0 0 0 0 -14891298.126052856 -82741180.509996027 0 -82741180.509996027 -29470723.277931929 0 0 0 0 28259976.514091492 -97915576.513427526 0 -97915576.513427526 51906155.922216415 0 0 0 0 28772717.803894043 -98983820.3146694 0 -98983820.3146694 -24926936.686279401 0 0 0 0 -32010101.821331024 -70618753.287469447 0 -70618753.287469447 47157897.246801347 0 0 0 0 23208183.365341187 -33216935.973464444 0 -33216935.973464444 3011734.1970438212 0 0 0 0 36389865.289245605 -55105026.82936278 0 -55105026.82936278 25940200.420330539 0 0 0 0 64217600.377563477 -3282723.8645674549 0 -3282723.8645674549 111212850.41337238 0 0 0 0 153066352.79528809 -122788335.40771443 0 -122788335.40771443 5993740.9945235252 0 0 0 0 75192742.062744141 -138537634.58885896 0 -138537634.58885896 87064247.643703148 0 0 0 0 128569481.28569031 -27291602.226537049 0 -27291602.226537049 107031206.87330925 0 0 0 0 502367889.75294495 -101823154.49480295 0 -101823154.49480295 87299172.736222029 0 0 0 0 159177259.92159653 13209286.748832792 0 13209286.748832792 297773753.44305944 0 0 0 0 438668.0052665472 -341457.90199359506 0 -341457.90199359506 688414.65971676004 0 0 0 0 471703093.51525879 328294227.36237812 0 328294227.36237812 291000000.17722505 0 0 0 0 34228752.924339294 -254552876.35499197 0 -254552876.35499197 -23688976.232721865 0 0 0 0 144411753.94251251 195917078.02004963 0 195917078.02004963 176647423.03669226 0 0 0 0 89091952.643951416 84705345.861482024 0 84705345.861482024 170615483.77566278 0 0 0 0 324592509.54988861 -40979387.074534297 0 -40979387.074534297 -52535033.534037948 0 0 0 0 39220363.553695679 -86102141.905217409 0 -86102141.905217409 -148807281.21091688 0 0 0 0 150209733.89941406 -118585673.29149365 0 -118585673.29149365 -161214652.79348734 0 0 0 0 106980061.71559143 -84045122.530707359 0 -84045122.530707359 -26527435.503166318 0 0 0 0 51468277.565898895 -113851748.34691685 0 -113851748.34691685 -31843911.285273671 0 0 0 0 82944638.972091675 12061033.01534605 0 12061033.01534605 -64091800.721303582 0 0 0 0 -607358258.68199158 -352412890.8576501 0 -352412890.8576501 32944738.966392089 0 0 0 0 -32108538.947465897 -47178247.376554489 0 -47178247.376554489 -190918380.93089005 0 0 0 0 112949624.05671692 -46598697.570516527 0 -46598697.570516527 -183173202.43724567 0 0 0 0 -266264352.05757141 -237837693.86946315 0 -237837693.86946315 -213836298.70930099 0 0 0 0 -137170124.71375275 11340351.245285934 0 11340351.245285934 -128510292.31483935 0 0 0 0 46302891.636306763 -67465214.25812006 0 -67465214.25812006 -162682023.82697642 0 0 0 0 88086811.652435303 154394118.32833797 0 154394118.32833797 78534333.045877695 0 0 0 0 84451109.758331299 -107281764.21352708 0 -107281764.21352708 -159622883.67119968 0 0 0 0 567431.89980002493 775751.30448241532 0 775751.30448241532 570017.97785565909 0 0 0 0 1892197.5309656262 -622106.53512013331 0 -622106.53512013331 1371324.2247388237 0 0 0 0 113153418.99165344 17760872.917294621 0 17760872.917294621 -4642493.339078784 0 0 0 0 5110837.312286377 79557231.081164598 0 79557231.081164598 -30267913.404951572 0 0 0 0 144281024.95115662 17140041.264520049 0 17140041.264520049 -25051363.250371337 0 0 0 0 -16325734.724884033 83144551.111420512 0 83144551.111420512 -48535082.283357501 0 0 0 0 70837507.109876633 205617702.98256934 0 205617702.98256934 197687059.0761385 0 0 0 0 4091861.3592685685 -257595.88120157272 0 -257595.88120157272 1489762.3132552314 0 0 0 0 4481000.6165996939 2446685.8616551608 0 2446685.8616551608 207021.88462116779 0 0 0 0 106478372.99845552 165794912.60035944 0 165794912.60035944 -28475047.761989117 0 0 0 0 8526576.0936522856 1514585.5310996175 0 1514585.5310996175 300733.36196463834 0 0 0 0 69698789.080112457 191717346.02066633 0 191717346.02066633 80151538.257440805 0 0 0 0 -13486943.747161865 -42880126.556414962 0 -42880126.556414962 25863029.575780451 0 0 0 0 101757318.81188965 -107562066.11030722 0 -107562066.11030722 -26434141.959601879 0 0 0 0 59458709.835968018 89869839.346103907 0 89869839.346103907 -22823957.719439983 0 0 0 0 -339805514.84963989 290109163.68899691 0 290109163.68899691 488640950.75420505 0 0 0 0 113169779.05452347 -14150128.381399155 0 -14150128.381399155 -108075392.48477745 0 0 0 0 95041812.353607178 99362164.524536967 0 99362164.524536967 -95891171.470955014 0 0 0 0 29983784.132948875 -2349338.8106584549 0 -2349338.8106584549 165303121.50083733 0 0 0 0 155854481.95516968 52178850.088698924 0 52178850.088698924 -274895784.2553333 0 0 0 0 65221879.764143601 -3797441.8364156866 0 -3797441.8364156866 -359610.17203881626 0 0 0 0 43456857.295923233 -83037089.771188736 0 -83037089.771188736 34367387.770273209 0 0 0 0 51878832.856591702 -67889046.56171298 0 -67889046.56171298 67398876.204305649 0 0 0 0 139887011.61339951 11711153.524200678 0 11711153.524200678 -347775043.55971432 0 0 0 0 59361374.050480463 -2689636.9834498907 0 -2689636.9834498907 -870429.91302741342 0 0 0 0 61864906.698297501 -6148751.4718494415 0 -6148751.4718494415 -9544835.4221591949 0 0 0 0 76403154.998184204 -15085652.98134613 0 -15085652.98134613 -81316573.108312607 0 0 0 0 40329474.299819946 -59839187.919642448 0 -59839187.919642448 -24675943.122203827 0 0 0 0 61307090.961238861 -10999946.894033432 0 -10999946.894033432 -87852486.248512268 0 0 0 0 51506612.558376312 -11801315.976648331 0 -11801315.976648331 -74897326.096509933 0 0 0 0 66359255.815924644 19979099.095535278 0 19979099.095535278 -184170581.65535355 0 0 0 0 46939154.158678055 11131190.024564743 0 11131190.024564743 -184971065.10354614 0 0 0 0 116464201.97564983 -36684145.356483459 0 -36684145.356483459 -99727101.379512787 0 0 0 0 30522956.363308907 -8057204.9176979065 0 -8057204.9176979065 -90577701.612222672 0 0 0 0 66426315.366936207 -16132864.743106842 0 -16132864.743106842 -215060791.65403748 0 0 0 0 73042670.646230131 21333303.685047626 0 21333303.685047626 -249686612.06443787 0 0 0 0 -14343620.132784367 44960228.633914948 0 44960228.633914948 -162433171.47554016 0 0 0 0 5607197.7759164572 88562859.721483231 0 88562859.721483231 -242936389.64690399 0 0 0 0 80447215.162287712 84189889.519130707 0 84189889.519130707 -349108998.48489761 0 0 0 0 26827323.979065672 8220278.4222634062 0 8220278.4222634062 -4831908.9132953873 0 0 0 0 4573581.3866889477 36705150.762275696 0 36705150.762275696 -98810166.749824524 0 0 0 0 75920.184792518616 -44295818.456624985 0 -44295818.456624985 -230655013.01800919 0 0 0 0 18140498.694168091 -48423319.68255806 0 -48423319.68255806 -57833782.913442612 0 0 0 0 30843845.22492218 -18756535.603081703 0 -18756535.603081703 -52344618.140046835 0 0 0 0 4106532.2297935486 -43241199.812015533 0 -43241199.812015533 -54868277.867418289 0 0 0 0 20702891.858535767 -54360231.323508739 0 -54360231.323508739 -154178487.43896008 0 0 0 0 29852467.704946518 -31869012.053112984 0 -31869012.053112984 -19037375.07497406 0 0 0 0 46810990.896609657 -7512950.7744445456 0 -7512950.7744445456 -3437854.7691959264 0 0 0 0 144631068.07728577 -43167790.65226841 0 -43167790.65226841 -341490483.33184028 0 0 0 0 162463797.66325378 18377170.474379063 0 18377170.474379063 -345759263.75508761 0 0 0 0 53215754.697280899 -3571131.1213640631 0 -3571131.1213640631 -1737439.5923763569 0 0 0 0 59040242.162567139 -44253026.305555344 0 -44253026.305555344 10632111.600847483 0 0 0 0 55622092.833692551 -14361343.802757263 0 -14361343.802757263 -36499820.435194016 0 0 0 0 58565781.829175949 -29373393.011891365 0 -29373393.011891365 -49620033.32727623 0 0 0 0 63011383.722148895 -35724574.449975967 0 -35724574.449975967 -47029238.412320137 0 0 0 0 58435859.972740173 -15945436.653461456 0 -15945436.653461456 -54995058.054676056 0 0 0 0 49899541.788972855 -22706972.768960953 0 -22706972.768960953 -59409141.301017761 0 0 0 0 47513532.736553073 -2745174.3110575681 0 -2745174.3110575681 -22187804.158220463 0 0 0 0 321996063.88567352 32576037.28306675 0 32576037.28306675 -58812101.334352493 0 0 0 0 33240355.12348175 -21283620.568689346 0 -21283620.568689346 -49020826.788070679 0 0 0 0 45232675.758887291 -33702843.52458334 0 -33702843.52458334 -59522486.445373535 0 0 0 0 195100538.83011627 335935871.8457098 0 335935871.8457098 92172780.483722687 0 0 0 0 52234004.327971078 -4559644.4781451486 0 -4559644.4781451486 -21286876.91624888 0 0 0 0 309059296.14290619 104278639.32645893 0 104278639.32645893 -276305150.80787086 0 0 0 0 93438563.311080933 40490503.378902435 0 40490503.378902435 35377588.676964521 0 0 0 0 -120258522.49065781 252974515.66632175 0 252974515.66632175 82331276.711360931 0 0 0 0 98645032.77684021 11034946.268287659 0 11034946.268287659 -149969730.76853943 0 0 0 0 106456140.07025146 81338842.06073761 0 81338842.06073761 -160336145.54008484 0 0 0 0 -236985383.12766266 -476214812.62096214 0 -476214812.62096214 49962547.235492706 0 0 0 0 1899093.8482405096 1120951.1482902598 0 1120951.1482902598 -4138734.2241068278 0 0 0 0 118717617.80901337 -94249803.60492897 0 -94249803.60492897 -385434153.28367615 0 0 0 0 118365083.01291656 -147446360.65677357 0 -147446360.65677357 656308800.59623718 0 0 0 0 548415782.83396912 205745062.6110096 0 205745062.6110096 -93566592.841089308 0 0 0 0 475844914.52218628 -346285213.05937576 0 -346285213.05937576 -52454719.883403778 0 0 0 0 18729679.51865387 -78981118.582831383 0 -78981118.582831383 -84883922.073225975 0 0 0 0 568954769.16603732 -399307117.73729926 0 -399307117.73729926 -8954689.4340057373 0 0 0 0 607889076.80796814 290894927.69551849 0 290894927.69551849 -35136742.112129211 0 0 0 0 58897375.109825134 4631895.0192985535 0 4631895.0192985535 -63006890.801868439 0 0 0 0 4880128.2560014464 -8208594.1884201784 0 -8208594.1884201784 -7399401.3062600903 0 0 0 0 47076595.356321827 1270179.6555934977 0 1270179.6555934977 -22571642.071178216 0 0 0 0 20705067.615653992 -52407245.698266983 0 -52407245.698266983 -32802318.279270172 0 0 0 0 63452822.288711071 7184138.8136200905 0 7184138.8136200905 -97625182.79152298 0 0 0 0 -6684751.8852348328 -32447612.058471203 0 -32447612.058471203 -58355124.0193367 0 0 0 0 3313149.0926604122 -5064381.0339334933 0 -5064381.0339334933 -9513304.7148544174 0 0 0 0 27516996.615447506 10700663.629496466 0 10700663.629496466 -12705792.442936849 0 0 0 0 50481259.642562866 -15805579.090358734 0 -15805579.090358734 -46390133.91345787 0 0 0 0 72401595.546572685 -39395558.087917328 0 -39395558.087917328 -22860191.879360199 0 0 0 0 245445249.51272583 301065942.08747768 0 301065942.08747768 214416064.20594215 0 0 0 0 -179089326.8074646 -23771648.626804352 0 -23771648.626804352 -39586864.427027702 0 0 0 0 107099755.36322021 10169259.713470459 0 10169259.713470459 -158276475.19671249 0 0 0 0 1557144.8509232029 -780337.18595739442 0 -780337.18595739442 -3016303.673773312 0 0 0 0 86091636.288742065 97617976.23589325 0 97617976.23589325 30278490.404554367 0 0 0 0 276235686.12915039 156763908.33872032 0 156763908.33872032 -36810538.757297516 0 0 0 0 269346146.62620163 94477720.449039936 0 94477720.449039936 -107480167.88612366 0 0 0 0 185100281.58553696 -67005687.832416773 0 -67005687.832416773 3852729.0239391327 0 0 0 0 283399038.44807434 49965838.876890182 0 49965838.876890182 -50254814.355005264 0 0 0 0 41079116.286224365 26663431.913345337 0 26663431.913345337 -110237567.10567951 0 0 0 0 10425843.014819629 120867.42058413103 0 120867.42058413103 -10414326.557344753 0 0 0 0 31643078.361644745 12205212.174676895 0 12205212.174676895 -37782255.880825043 0 0 0 0 27273440.311859131 2001353.3655605316 0 2001353.3655605316 3965900.7034387589 0 0 0 0 124710144.55963135 731875161.46281624 0 731875161.46281624 -462171408.94437504 0 0 0 0 -203366937.76757812 -70640380.873135567 0 -70640380.873135567 100361253.5919857 0 0 0 0 425445.9954444468 -47028.494521672837 0 -47028.494521672837 -2103759.8217803687 0 0 0 0 112103866.2114563 122239934.52036476 0 122239934.52036476 82014119.874043465 0 0 0 0 284000116.88658231 132183815.95618096 0 132183815.95618096 -73126291.169055939 0 0 0 0 525163635.05848694 107764853.7732439 0 107764853.7732439 -106948192.74995422 0 0 0 0 395508450.88088989 431219816.78212357 0 431219816.78212357 20351026.14704895 0 0 0 0 428991734.20014954 -134592969.49163532 0 -134592969.49163532 -12719217.556485653 0 0 0 0 1487566.015822418 207933.6927076932 0 207933.6927076932 -1334725.8326346185 0 0 0 0 122004592.09791565 97197823.509489059 0 97197823.509489059 -48881601.63425827 0 0 0 0 157015106.76107788 67473226.338834763 0 67473226.338834763 -155249853.4204092 0 0 0 0 229199774.25076294 -143898413.66091728 0 -143898413.66091728 175668298.10692799 0 0 0 0 256606961.30647278 266288898.80042839 0 266288898.80042839 202436528.5801239 0 0 0 0 4297478.2875261623 2857613.2200271972 0 2857613.2200271972 -7761220.5782932388 0 0 0 0 -121117251.53466797 21821633.684506416 0 21821633.684506416 140923920.6103611 0 0 0 0 -119896918.13366699 -155947611.72134733 0 -155947611.72134733 -41482568.289957047 0 0 0 0 42086594.042366028 8181432.6548292637 0 8181432.6548292637 -15041372.208126068 0 0 0 0 157705292.09876633 -19508567.16839242 0 -19508567.16839242 -85315602.261756897 0 0 0 0 3512698.0206604004 -27383805.420322418 0 -27383805.420322418 26252485.191753387 0 0 0 0 27941558.708587646 -28925580.779554367 0 -28925580.779554367 -332429.35148239136 0 0 0 0 16383761.758827209 -14653732.323152542 0 -14653732.323152542 -15296559.768512726 0 0 0 0 10935796.484191895 31864478.815414429 0 31864478.815414429 37324853.878538609 0 0 0 0 -233606690.66163635 -45727001.604840279 0 -45727001.604840279 25102644.510290146 0 0 0 0 61965358.811813354 175294612.87290287 0 175294612.87290287 -214999967.26180267 0 0 0 0 286353189.13053894 164718351.47304726 0 164718351.47304726 -156453689.06856537 0 0 0 0 120405246.38244629 80434600.884525299 0 80434600.884525299 -89706214.764210045 0 0 0 0 144839819.52419281 22461540.052092552 0 22461540.052092552 -135339164.17727661 0 0 0 0 155601567.02352905 8791663.0606708527 0 8791663.0606708527 -336666989.52747154 0 0 0 0 14308402.428756714 14872879.890138626 0 14872879.890138626 -32818937.544281006 0 0 0 0 1216007.2774887085 6815747.9531288147 0 6815747.9531288147 -11766715.980922699 0 0 0 0 5379057.9510803223 -2032299.3943209648 0 -2032299.3943209648 -48671278.904964447 0 0 0 0 8770466.5953674316 16035342.873252869 0 16035342.873252869 -27186759.537612915 0 0 0 0 11768536.318494797 38921380.12529707 0 38921380.12529707 -22450981.448474884 0 0 0 0 8517065.4231948853 35224082.310520172 0 35224082.310520172 -26495158.635561943 0 0 0 0 -22559073.830978394 41460082.794113159 0 41460082.794113159 -41441068.405130386 0 0 0 0 6334071.2292385101 -35308110.209887505 0 -35308110.209887505 -20390333.124134064 0 0 0 0 31391145.25087738 30572417.458017349 0 30572417.458017349 -41639596.306774139 0 0 0 0 14212712.117965698 10352868.373708725 0 10352868.373708725 -88738130.270450592 0 0 0 0 -4662385.8235473633 -20521679.46559906 0 -20521679.46559906 -42457287.384536743 0 0 0 0 3103822.0391561892 3763830.7763866223 0 3763830.7763866223 -2912350.189869646 0 0 0 0 5409158.6692886353 20469691.393411636 0 20469691.393411636 -31908772.535545349 0 0 0 0 -26825697.431938171 57758657.580209732 0 57758657.580209732 -48238853.407476425 0 0 0 0 43011092.743895531 -600390.3821542263 0 -600390.3821542263 -47102309.932407379 0 0 0 0 25875880.307380676 45251085.611021042 0 45251085.611021042 -78703395.411582947 0 0 0 0 19512155.952875033 16314033.186594557 0 16314033.186594557 -634873.17178894579 0 0 0 0 15990900.672554016 13709749.287721634 0 13709749.287721634 -40528730.861532211 0 0 0 0 21058374.356112272 -1690589.26730678 0 -1690589.26730678 -12671412.240472022 0 0 0 0 -47041909.78616333 -30784393.204518318 0 -30784393.204518318 -14547165.162639618 0 0 0 0 37379309.806728929 7403565.0979094896 0 7403565.0979094896 -13037341.743467679 0 0 0 0 7271847.1611328125 4491876.988714695 0 4491876.988714695 -15815931.098855019 0 0 0 0 20583285.988525391 12512809.40329361 0 12512809.40329361 -32966457.982513428 0 0 0 0 20074677.372713607 -2037651.2743545808 0 -2037651.2743545808 -18054552.744814582 0 0 0 0 21998049.441429138 -2710092.7220807076 0 -2710092.7220807076 -20722074.118895531 0 0 0 0 24565783.363822937 6718293.8799858093 0 6718293.8799858093 -29954646.122556448 0 0 0 0 14315945.030280419 4103208.1223867219 0 4103208.1223867219 -10741774.947434049 0 0 0 0 30900471.437278748 -27199002.110749245 0 -27199002.110749245 -28638181.076227188 0 0 0 0 6419746.1149597168 2773952.2056922913 0 2773952.2056922913 -7615935.0623664856 0 0 0 0 1439065.5369756147 -4390667.2275625737 0 -4390667.2275625737 -8560294.8549285047 0 0 0 0 171109001.81756592 -123807164.83653259 0 -123807164.83653259 -1010354679.0941286 0 0 0 0 -177325529.65750122 998676448.88998747 0 998676448.88998747 445677379.80401421 0 0 0 0 1363136874.6368027 -1006967714.8714609 0 -1006967714.8714609 -534696557.84042549 0 0 0 0 -814885752.18128967 -527265640.4708662 0 -527265640.4708662 1095556524.9777317 0 0 0 0 -992288779.45875549 -36046195.155684471 0 -36046195.155684471 243795217.30724335 0 0 0 0 5993250.3013458252 -1813052.9875173569 0 -1813052.9875173569 -6444154.6580915451 0 0 0 0 9865443.453735318 -4210469.7912137248 0 -4210469.7912137248 -10578149.377162695 0 0 0 0 -221341107.5345459 -87581783.020645142 0 -87581783.020645142 -317898113.76921844 0 0 0 0 1412374.9289245605 -1610915.56919384 0 -1610915.56919384 -10875342.870524406 0 0 0 0 11812493.565959811 136932.28211630508 0 136932.28211630508 -8158162.0909055136 0 0 0 0 4019122.7720336914 -771609.90118083358 0 -771609.90118083358 -4538001.9302738309 0 0 0 0 3826278.1054091677 -1493492.0760939445 0 -1493492.0760939445 -12077101.867705375 0 0 0 0 5318314.3616784029 -471129.4215596877 0 -471129.4215596877 -8881302.8638605215 0 0 0 0 10041957.614565574 2761212.4889525566 0 2761212.4889525566 -6580600.9049952356 0 0 0 0 7099235.2506637573 3237400.1280894279 0 3237400.1280894279 -7678925.4545259476 0 0 0 0 6673112.8464355469 2863151.2328543663 0 2863151.2328543663 -7832056.5487928391 0 0 0 0 5389417.7932663783 6079983.016228145 0 6079983.016228145 -13539117.889949691 0 0 0 0 5264388.4901275635 3023704.5903129578 0 3023704.5903129578 -4326396.9224448204 0 0 0 0 3610296.116368752 -3081508.800360404 0 -3081508.800360404 -8089832.0793937361 0 0 0 0 3200758.8405364826 1900517.8698891643 0 1900517.8698891643 -4170819.6832421599 0 0 0 0 3005641.7022609711 -725398.65925705433 0 -725398.65925705433 -9039255.450884819 0 0 0 0 -1758895.5145492554 -3682667.2177677155 0 -3682667.2177677155 -25984844.297410965 0 0 0 0 5233228.5149230957 -2423898.1322550774 0 -2423898.1322550774 -14563182.339952707 0 0 0 0 4106416.9589074664 -751518.21344735101 0 -751518.21344735101 -5951001.7391414968 0 0 0 0 3613608.0244617462 -2924594.9995622635 0 -2924594.9995622635 -12129346.247491837 0 0 0 0 750888.24622996524 -1678803.299796531 0 -1678803.299796531 -2301624.8841649992 0 0 0 0 7192419.3793869019 -8212239.9928913116 0 -8212239.9928913116 -44662043.248807907 0 0 0 0 8537872.4554367065 -10219500.740715027 0 -10219500.740715027 -61450269.154533386 0 0 0 0 -71845421.217453003 -152710299.3935051 0 -152710299.3935051 366300902.70824003 0 0 0 0 -36277755.830513 -192854621.70526218 0 -192854621.70526218 185727305.60991669 0 0 0 0 -11689465.739646912 -18125757.548437595 0 -18125757.548437595 7743861.693775177 0 0 0 0 17101289.523376465 -19832305.44631958 0 -19832305.44631958 -853016.26226806641 0 0 0 0 5375230.9899895787 -5951261.4551199395 0 -5951261.4551199395 -6665646.969589157 0 0 0 0 -39001379.968307495 -129150185.41599083 0 -129150185.41599083 195037466.31689453 0 0 0 0 25966876.356826782 -35511402.279592514 0 -35511402.279592514 -44845305.97407341 0 0 0 0 -74803438.382766724 -91697792.092252731 0 -91697792.092252731 -67852047.22038269 0 0 0 0 1521377.6054653674 -283062.90906606242 0 -283062.90906606242 -2127994.6993633695 0 0 0 0 12109657.62638855 -53830334.342269897 0 -53830334.342269897 15334232.974826813 0 0 0 0 251386403.72026062 -147335542.42468262 0 -147335542.42468262 33112842.126644135 0 0 0 0 7490917.7991638184 -241291281.82302475 0 -241291281.82302475 211052874.33273315 0 0 0 0 254138526.26991272 -385680576.56830978 0 -385680576.56830978 252169734.15228033 0 0 0 0 59190998.259082794 55791153.296873331 0 55791153.296873331 104069117.0717907 0 0 0 0 -37866001.325714111 -12637758.083837986 0 -12637758.083837986 56128667.724655151 0 0 0 0 69973370.33367157 13036843.675347328 0 13036843.675347328 -109292532.06623459 0 0 0 0 5067551.0948784128 -7118574.1839672588 0 -7118574.1839672588 -10037847.501981843 0 0 0 0 136927232.26172638 -8805043.9905500412 0 -8805043.9905500412 -102445104.48644829 0 0 0 0 2235724265.9173737 1067185528.9247379 0 1067185528.9247379 -1100561782.9093151 0 0 0 0 49584561.503547668 -9848536.4146504402 0 -9848536.4146504402 -29342136.201025963 0 0 0 0 9689102.8738898188 -4572024.258066955 0 -4572024.258066955 -7793064.4413859155 0 0 0 0 22023607.313903809 16497450.461174488 0 16497450.461174488 55640980.590032578 0 0 0 0 4366172.4196596332 -7249071.0702446252 0 -7249071.0702446252 -18208447.447802939 0 0 0 0 1428260.2065267358 -5602831.5978605859 0 -5602831.5978605859 -13999340.786337074 0 0 0 0 224629173.63891983 -67923714.178787708 0 -67923714.178787708 -100500128.62036705 0 0 0 0 119334216.5705452 -237287370.91557622 0 -237287370.91557622 143448397.44610214 0 0 0 0 313051419.92095947 -282962737.67473698 0 -282962737.67473698 111577142.94035721 0 0 0 0 295897899.42630005 -181342425.22464085 0 -181342425.22464085 -115279023.81500864 0 0 0 0 351839567.0067749 33964719.125041962 0 33964719.125041962 84149899.698991776 0 0 0 0 188869898.68528366 -352754179.53248024 0 -352754179.53248024 324762892.49678802 0 0 0 0 -113880430.76135254 -361338429.79852009 0 -361338429.79852009 452808067.22516155 0 0 0 0 -926503.96105498075 219344.84207836539 0 219344.84207836539 1977517.4913278874 0 0 0 0 -447954498.00687408 -232000405.10551023 0 -232000405.10551023 407622742.05017114 0 0 0 0 452715212.43458557 -343757377.48257303 0 -343757377.48257303 -9889483.4233026505 0 0 0 0 175388669.5079422 -183121802.34727287 0 -183121802.34727287 -194975802.73878622 0 0 0 0 -271764722.42502594 44470898.484891415 0 44470898.484891415 122499148.08565998 0 0 0 0 -226879989.14491272 -172420592.77464962 0 -172420592.77464962 380588892.35932589 0 0 0 0 3949245.3968811035 -153259903.19383669 0 -153259903.19383669 263372497.88249016 0 0 0 0 -53339448.821586609 105567888.95919132 0 105567888.95919132 -111952179.65950489 0 0 0 0 -74525543.809463501 25002020.153396606 0 25002020.153396606 -10106076.92264986 0 0 0 0 1614352.1591908857 1844671.6982056117 0 1844671.6982056117 -2134722.8350504483 0 0 0 0 6727522.905117631 62370.538369320333 0 62370.538369320333 -641406.81386057893 0 0 0 0 6515508.105178833 949404.87916946411 0 949404.87916946411 -8451397.2995185852 0 0 0 0 6159708.1870269775 1274382.8182754517 0 1274382.8182754517 -6859556.3329696655 0 0 0 0 6844084.9562015533 -813383.90291452408 0 -813383.90291452408 -8776472.4090843201 0 0 0 0 6827811.3063278198 -1085603.1177082062 0 -1085603.1177082062 -3974374.2858390808 0 0 0 0 8192226.2371026836 -3133134.3355033929 0 -3133134.3355033929 -1844152.4048638043 0 0 0 0 7049311.1789398193 -1846579.8144054413 0 -1846579.8144054413 -5951962.9241437912 0 0 0 0 5018896.0327148438 -1231550.7388343811 0 -1231550.7388343811 -7109703.2613258362 0 0 0 0 8826142.9651596472 -1824489.2273896527 0 -1824489.2273896527 -2666574.1380378278 0 0 0 0 4811927.4211730957 527500.16561126709 0 527500.16561126709 -7959549.7888393402 0 0 0 0 3509741.6123962402 3098347.2105712891 0 3098347.2105712891 -12222093.013477325 0 0 0 0 7444374.01953125 -3938644.3459510803 0 -3938644.3459510803 -14637934.737220764 0 0 0 0 333074.98531879112 -59072.709870455787 0 -59072.709870455787 -145455.59959178977 0 0 0 0 181539310.22943115 -56126719.54365015 0 -56126719.54365015 -231612979.61418772 0 0 0 0 4908540.0847473145 5611896.5660715103 0 5611896.5660715103 -14185817.196180344 0 0 0 0 4687467.9748382568 3526193.9871025085 0 3526193.9871025085 -14185936.14588356 0 0 0 0 8851974.7746430188 -1193374.6966383457 0 -1193374.6966383457 -1226118.9160973653 0 0 0 0 5995637.4102313146 7269955.5678485353 0 7269955.5678485353 -4699477.3225960294 0 0 0 0 99429706.323974609 93903069.590557098 0 93903069.590557098 -116329581.01303864 0 0 0 0 76555157.364471436 -13569786.278643608 0 -13569786.278643608 -49151484.783054352 0 0 0 0 -368166341.6865387 31129118.559395552 0 31129118.559395552 180538469.88220596 0 0 0 0 -951172284.26574707 1093382159.301199 0 1093382159.301199 -770304452.75678349 0 0 0 0 -135768.81925906986 707674.36029242142 0 707674.36029242142 -267800.48937245063 0 0 0 0 560980859.65896606 365389411.05676651 0 365389411.05676651 151076173.09849834 0 0 0 0 -495025121.38925934 -910221321.76222849 0 -910221321.76222849 37937059.308872223 0 0 0 0 1473589015.1685791 -399631039.32868195 0 -399631039.32868195 54830244.926979065 0 0 0 0 -267660494.92311096 244304745.86155367 0 244304745.86155367 653985340.04151034 0 0 0 0 101542467.89709473 -205300993.4649353 0 -205300993.4649353 476383191.21232605 0 0 0 0 3662903.419369027 -1260678.1902950434 0 -1260678.1902950434 -2387245.1710466444 0 0 0 0 5231913.012339063 2653202.0724243652 0 2653202.0724243652 -612354.82447663043 0 0 0 0 100870126.41500854 35611511.319974899 0 35611511.319974899 38573094.576412201 0 0 0 0 -1402081275.398735 -3035650624.5600662 0 -3035650624.5600662 1672462198.4169312 0 0 0 0 1880517357.7054443 -259151020.5927372 0 -259151020.5927372 -135517258.88651276 0 0 0 0 167581455.70040894 229260002.10729599 0 229260002.10729599 155021428.59267807 0 0 0 0 288608859.70645905 20173322.705464363 0 20173322.705464363 -51324460.412797928 0 0 0 0 630594460.34698486 75376683.448606491 0 75376683.448606491 -131401304.5714798 0 0 0 0 282940566.59725952 -181121469.76994896 0 -181121469.76994896 -134781940.91230297 0 0 0 0 298227695.54602051 -55751128.749048233 0 -55751128.749048233 -171124609.69157982 0 0 0 0 281206659.79240417 -10545552.200229645 0 -10545552.200229645 -139281880.01316178 0 0 0 0 -14903624.847457886 120794673.57523155 0 120794673.57523155 -139881729.34189892 0 0 0 0 115976203.01307678 -52823868.503628731 0 -52823868.503628731 -108863652.25889587 0 0 0 0 206469918.746521 -42543018.230908155 0 -42543018.230908155 -116684735.71683693 0 0 0 0 198452935.89483643 -87843247.437332153 0 -87843247.437332153 -113522771.59460819 0 0 0 0 216646306.51821899 -26159212.669712067 0 -26159212.669712067 -164717672.20957375 0 0 0 0 196261838.64440918 -168825018.6127429 0 -168825018.6127429 -186752939.66409737 0 0 0 0 219260934.58718109 -92501198.970955133 0 -92501198.970955133 -20001180.687190056 0 0 0 0 101430862.34727478 -65261768.529023886 0 -65261768.529023886 35217432.170771122 0 0 0 0 141714963.84087181 5209640.2035545111 0 5209640.2035545111 -17550804.583584785 0 0 0 0 111890752.76164556 48346944.498691559 0 48346944.498691559 -376598541.35666084 0 0 0 0 -103196056.08744812 -190820519.81303406 0 -190820519.81303406 -174284186.16800499 0 0 0 0 49493644.196342468 116147544.65884662 0 116147544.65884662 -347027721.98478317 0 0 0 0 -10433511.511735916 125329911.8556689 0 125329911.8556689 -238432691.58694649 0 0 0 0 127463527.97288513 -86805517.779919624 0 -86805517.779919624 -538336780.01385021 0 0 0 0 201514855.85940552 285352768.34117174 0 285352768.34117174 246474310.23556498 0 0 0 0 265704358.85398865 152594233.52948999 0 152594233.52948999 85283467.068856001 0 0 0 0 82120140.019827366 107817016.03802338 0 107817016.03802338 263498643.9546442 0 0 0 0 102575078.58787537 -65436543.046949387 0 -65436543.046949387 -50079013.028396606 0 0 0 0 28051289.919631958 -15649442.638536453 0 -15649442.638536453 -39247075.551481724 0 0 0 0 17550123.292205811 9064535.5432386398 0 9064535.5432386398 -30512926.97480011 0 0 0 0 -4842626.3978729248 -28170546.99666214 0 -28170546.99666214 -28655201.606462479 0 0 0 0 246802528.87095642 -220424950.75028801 0 -220424950.75028801 3748552.5495109558 0 0 0 0 5695989.5220969394 -1045184.6516840067 0 -1045184.6516840067 -2407505.8379897373 0 0 0 0 287813567.93551636 222332618.29243851 0 222332618.29243851 173388370.87927246 0 0 0 0 -18525854.35357666 9528565.8552150726 0 9528565.8552150726 -121414333.08273697 0 0 0 0 317191843.57141113 134317980.54589272 0 134317980.54589272 -147998882.47838974 0 0 0 0 116562.08799409866 -176932.74833633914 0 -176932.74833633914 33484.074373848736 0 0 0 0 547299908.38628387 -528727928.48751473 0 -528727928.48751473 309089518.89591599 0 0 0 0 -61847097.880386353 288121066.44857788 0 288121066.44857788 -350590450.96672916 0 0 0 0 -73730722.362915039 661125197.71278572 0 661125197.71278572 -358411444.06254959 0 0 0 0 234154760.10067749 -101315169.97478771 0 -101315169.97478771 -158195825.92433548 0 0 0 0 349117465.18265152 87497456.121702194 0 87497456.121702194 -539256675.42911911 0 0 0 0 292087245.17993164 112477121.04051399 0 112477121.04051399 -155603055.27939034 0 0 0 0 280504006.41235352 309306128.83108711 0 309306128.83108711 37819728.610147476 0 0 0 0 257104836.23478699 194988489.36634064 0 194988489.36634064 103517312.40633392 0 0 0 0 325828147.51947021 246416545.3699398 0 246416545.3699398 -113319402.66204834 0 0 0 0 49995011.31703186 25680767.452218533 0 25680767.452218533 -8562149.4062564373 0 0 0 0 6865004.2390289307 13878111.410303831 0 13878111.410303831 4236143.1639719009 0 0 0 0 7113234.7696228027 -6612157.5407047272 0 -6612157.5407047272 -1516846.7183709145 0 0 0 0 17693407.703872681 -6348651.9737892151 0 -6348651.9737892151 -31197866.530510902 0 0 0 0 -90136582.471099854 111370664.7660408 0 111370664.7660408 -118577193.42162037 0 0 0 0 15630126.046913147 -11368598.330684662 0 -11368598.330684662 -17906155.583404541 0 0 0 0 6619154.3259477466 -363340.63710146467 0 -363340.63710146467 -1351297.5496634014 0 0 0 0 6567230.7986717224 3925260.7247719765 0 3925260.7247719765 -18929419.551397324 0 0 0 0 1591053.2370166518 536436.13936918415 0 536436.13936918415 -1986803.0635126466 0 0 0 0 3248568.2962348312 2313415.9646459967 0 2313415.9646459967 -6123619.7629929809 0 0 0 0 19642053.72524929 10821158.590323269 0 10821158.590323269 -13083443.113740921 0 0 0 0 75575598.370323181 3750521.8879756927 0 3750521.8879756927 -6679962.0964126587 0 0 0 0 7965436.9790613353 -371389.75031607738 0 -371389.75031607738 -1773961.5292694513 0 0 0 0 86933244.221817017 -78786439.151899338 0 -78786439.151899338 -513727349.88887024 0 0 0 0 108018310.79219055 -557843.45660018921 0 -557843.45660018921 -510170430.85182953 0 0 0 0 168952145.08602905 -19733950.866775513 0 -19733950.866775513 -506559425.54989243 0 0 0 0 136006078.78903198 27366906.47328949 0 27366906.47328949 -739882566.37732697 0 0 0 0 170551694.49554443 -75445822.695850372 0 -75445822.695850372 -553720130.77647018 0 0 0 0 118509087.60758209 27090643.866323471 0 27090643.866323471 -267208477.99849701 0 0 0 0 119399933.63328552 -97408462.487529755 0 -97408462.487529755 -544158410.8511734 0 0 0 0 -70198659.676132202 -144650989.73819733 0 -144650989.73819733 -264278895.54185486 0 0 0 0 102232199.99906158 -10483060.371556282 0 -10483060.371556282 -568003367.08750916 0 0 0 0 26108832.738113403 -219306126.32368469 0 -219306126.32368469 -452449472.47820282 0 0 0 0 162094012.35784912 139670006.56456757 0 139670006.56456757 -562980233.57283783 0 0 0 0 -95975976.428634644 260897019.84023666 0 260897019.84023666 -197859409.06085205 0 0 0 0 331226226.63566589 118448386.89215469 0 118448386.89215469 -150723211.44950867 0 0 0 0 80351211.966255188 -113077614.14002895 0 -113077614.14002895 280181147.13290024 0 0 0 0 60902419.474777222 87230466.930006027 0 87230466.930006027 -61768965.887928009 0 0 0 0 275309412.08961487 355117592.8966713 0 355117592.8966713 144289713.00040817 0 0 0 0 -68727860.267677307 344738394.69592953 0 344738394.69592953 602427738.19048119 0 0 0 0 74302728.975158691 -28301036.617546082 0 -28301036.617546082 -222016856.67685699 0 0 0 0 -10221061.629333496 111811931.31220245 0 111811931.31220245 189215179.30665588 0 0 0 0 -10657255.539245605 313465187.06489944 0 313465187.06489944 230419538.457376 0 0 0 0 131212714.87115479 364614399.04019165 0 364614399.04019165 -17799166.318850517 0 0 0 0 23384887.047431946 64072798.810643196 0 64072798.810643196 -54704980.177146912 0 0 0 0 29710375.160110474 202655661.68770981 0 202655661.68770981 -265004373.597332 0 0 0 0 1241678.9595650174 -1468845.3613319695 0 -1468845.3613319695 -664544.70162464306 0 0 0 0 -117162711.05715942 235291336.65489578 0 235291336.65489578 -65394434.528808594 0 0 0 0 6313301.2125177383 124971.49069285393 0 124971.49069285393 -3107662.0610542297 0 0 0 0 8816061.979759641 1307917.098602239 0 1307917.098602239 -4313162.2988671931 0 0 0 0 553784.09921838343 -597081.75427312031 0 -597081.75427312031 -58367.658565445803 0 0 0 0 -150401275.96826172 -4474040.0450763702 0 -4474040.0450763702 -3270014.5343408585 0 0 0 0 76025661.762420654 164527000.07314301 0 164527000.07314301 -258859529.63271713 0 0 0 0 102604730.10968781 -77001790.821871758 0 -77001790.821871758 -8854588.1645126343 0 0 0 0 165016218.22186279 18943035.410831451 0 18943035.410831451 69053873.2810058 0 0 0 0 136402536.58932495 161536863.62673759 0 161536863.62673759 -123344253.83269882 0 0 0 0 295797025.17770004 -40789655.706298828 0 -40789655.706298828 -326876559.6131897 0 0 0 0 143343920.27256393 297862820.2547698 0 297862820.2547698 63533629.984020233 0 0 0 0 4155609.4218968526 -440929.20816191845 0 -440929.20816191845 -2361496.1460273517 0 0 0 0 -1008151.5174255371 -1791415.4053993225 0 -1791415.4053993225 5076714.9798088074 0 0 0 0 3586493.9581451416 -5898333.8696165085 0 -5898333.8696165085 -12572816.99256897 0 0 0 0 626066.76260375977 -9653764.3594245911 0 -9653764.3594245911 6021833.6591315269 0 0 0 0 8540565.943284208 -3040099.050838355 0 -3040099.050838355 -2162537.1685412396 0 0 0 0 7399093.6112442017 -1178504.716547966 0 -1178504.716547966 -5214311.2635154724 0 0 0 0 3125752.0707321167 187184.5205373764 0 187184.5205373764 -5493503.493062973 0 0 0 0 -13351733.090812683 -10214343.943979263 0 -10214343.943979263 9519521.0008049011 0 0 0 0 13694301.568273544 3734609.0821280479 0 3734609.0821280479 -28420734.525878906 0 0 0 0 3666437.6047976334 -1374731.9400185794 0 -1374731.9400185794 -214878.07254178077 0 0 0 0 1170814.0865011644 -329680.47489109635 0 -329680.47489109635 -116020.5687417537 0 0 0 0 -33580579.098571777 63163568.200798035 0 63163568.200798035 -72877288.899463654 0 0 0 0 -17993416.390396118 33897281.859855652 0 33897281.859855652 -21222917.644233704 0 0 0 0 -14566231.019592285 21754979.451934814 0 21754979.451934814 -13472596.370466232 0 0 0 0 15049188.791870117 38061738.946723938 0 38061738.946723938 -50757768.17496109 0 0 0 0 -11271552.012523651 44049431.675177574 0 44049431.675177574 -45430477.666046143 0 0 0 0 -2628500.0327606201 28631527.259408951 0 28631527.259408951 -34166418.090864182 0 0 0 0 -1911691.8255310059 30873091.575408936 0 30873091.575408936 -51775323.288333893 0 0 0 0 7477904.9447405115 19858.6243968606 0 19858.6243968606 -1986346.344877732 0 0 0 0 -1094585.9635467529 17826454.453620911 0 17826454.453620911 -37005067.66261673 0 0 0 0 -36414.092124938965 15731590.502279282 0 15731590.502279282 -38865405.646224976 0 0 0 0 6687760.5553436279 -13135752.442005157 0 -13135752.442005157 -14561591.273724556 0 0 0 0 1623689.9669342041 -18593489.532846451 0 -18593489.532846451 -790690.29769706726 0 0 0 0 4742350.5306046568 -104363.90074584354 0 -104363.90074584354 -839672.75452362606 0 0 0 0 24586928.695655823 16823292.686627865 0 16823292.686627865 -34210002.785255432 0 0 0 0 -1262398.617401123 -26452997.342365265 0 -26452997.342365265 -42905264.394528389 0 0 0 0 -29311131.960922241 10560853.950624466 0 10560853.950624466 27459292.848236084 0 0 0 0 70472307.650344849 -3232779.2949523926 0 -3232779.2949523926 -132816097.71794701 0 0 0 0 1761193.7889237031 483904.97211176623 0 483904.97211176623 -1281940.4330635825 0 0 0 0 -109167543.86434937 -72170257.828014374 0 -72170257.828014374 55028603.606689453 0 0 0 0 47661628.665458679 7243887.0503463745 0 7243887.0503463745 -63639566.332075119 0 0 0 0 126399252.48958588 -45598209.652507782 0 -45598209.652507782 -81993876.545471191 0 0 0 0 -44518388.159667969 -10149963.203527451 0 -10149963.203527451 -89210531.442050934 0 0 0 0 43042105.91973877 22508565.49962616 0 22508565.49962616 -72263656.47568512 0 0 0 0 29253402.288787842 -11479765.218099594 0 -11479765.218099594 -107459354.73625946 0 0 0 0 -5703058.5108451843 4323349.3305287361 0 4323349.3305287361 -61863701.967411041 0 0 0 0 27223083.741088867 18494727.297019958 0 18494727.297019958 -73491574.129930496 0 0 0 0 14632311.845432281 50008054.817398071 0 50008054.817398071 -11249515.387657166 0 0 0 0 53721534.292694092 37599258.227552414 0 37599258.227552414 -59741830.53587532 0 0 0 0 9376870.2427482605 39880439.485258102 0 39880439.485258102 -11958966.196849823 0 0 0 0 150356202.34899902 63556982.488404274 0 63556982.488404274 -43446500.282403946 0 0 0 0 97968111.750713348 -8930784.7582130432 0 -8930784.7582130432 -8238680.1484603882 0 0 0 0 174885003.52336884 27830144.050515175 0 27830144.050515175 -49870418.373668671 0 0 0 0 70153224.259397507 55631253.085031033 0 55631253.085031033 -96775996.976142883 0 0 0 0 -23042184.886505127 105149981.69421387 0 105149981.69421387 -138441765.13109398 0 0 0 0 -393062783.0421524 -254511609.36102104 0 -254511609.36102104 -204706175.36696053 0 0 0 0 -74434108.433654785 61880311.487280846 0 61880311.487280846 75792039.033332825 0 0 0 0 -76412975.904542923 77450723.027598262 0 77450723.027598262 5214416.4729919434 0 0 0 0 496414.40822115913 268510.92963527516 0 268510.92963527516 -1225326.9684096612 0 0 0 0 20746632.353118896 -111621431.62334633 0 -111621431.62334633 63182844.128412962 0 0 0 0 -6300101.6442489624 -12350243.709495544 0 -12350243.709495544 -128696697.97672272 0 0 0 0 -5995605.8625392914 565817.20090055466 0 565817.20090055466 -18196727.728038788 0 0 0 0 -3314552.6529541016 22087338.189872742 0 22087338.189872742 -67213509.254955292 0 0 0 0 -3368148.4323806763 28392686.035461426 0 28392686.035461426 -37201813.535615921 0 0 0 0 235324776.12670898 53582471.852178574 0 53582471.852178574 -116030472.52956009 0 0 0 0 186631193.55146599 170914640.47744989 0 170914640.47744989 8563073.2976036072 0 0 0 0 218222199.1997261 53175056.311227798 0 53175056.311227798 -113907596.3886528 0 0 0 0 27740718.972946167 67993816.538255692 0 67993816.538255692 -49215758.352890015 0 0 0 0 31841754.477828979 96803676.790287018 0 96803676.790287018 -76033774.429988861 0 0 0 0 149606142.36763763 82309270.737789154 0 82309270.737789154 -81122163.976902008 0 0 0 0 -99163789.595619202 131149413.58037853 0 131149413.58037853 -34133719.213851929 0 0 0 0 -48491027.691549301 -335535.91682243347 0 -335535.91682243347 -42722019.66078949 0 0 0 0 228976476.63318253 56473907.358875275 0 56473907.358875275 -112614113.55921936 0 0 0 0 174672332.60913849 25417562.307971954 0 25417562.307971954 -111060297.10537338 0 0 0 0 245021846.43269348 -2965782.5105514526 0 -2965782.5105514526 -88150911.240310669 0 0 0 0 7833345.0312216775 881465.5617618151 0 881465.5617618151 -1446007.0369470213 0 0 0 0 79769724.989906311 -11697854.141759872 0 -11697854.141759872 -68127288.333534241 0 0 0 0 297760318.16630936 9623379.581202507 0 9623379.581202507 -44061212.406562805 0 0 0 0 191861711.31275177 -10561788.514030457 0 -10561788.514030457 24757839.380052567 0 0 0 0 2217725.3800201491 356922.64674803801 0 356922.64674803801 -462298.5616918765 0 0 0 0 197932125.22997284 -83038567.296049595 0 -83038567.296049595 -111950802.09994888 0 0 0 0 398445611.8491745 90576335.919798851 0 90576335.919798851 -50948803.090577126 0 0 0 0 -123738994.67326355 -215464025.18971539 0 -215464025.18971539 -84977126.798446655 0 0 0 0 419548412.3248291 290153416.83644676 0 290153416.83644676 169085454.37853622 0 0 0 0 616231960.81157494 -212862928.28348255 0 -212862928.28348255 -285268684.58393478 0 0 0 0 -40830749.386474609 -149026796.9750824 0 -149026796.9750824 34663162.039081573 0 0 0 0 -16346417.523162842 -78714563.082321167 0 -78714563.082321167 51111611.493249893 0 0 0 0 28445966.580093384 -104609041.97837448 0 -104609041.97837448 -113210458.40920234 0 0 0 0 188529326.94873047 301455896.28812408 0 301455896.28812408 560215720.75558281 0 0 0 0 1742869.4179941788 91665.331232030876 0 91665.331232030876 -242512.2380277901 0 0 0 0 250217947.2301178 372080949.82539558 0 372080949.82539558 599213852.39001465 0 0 0 0 185555964.89947128 124908030.64337063 0 124908030.64337063 249049148.93010712 0 0 0 0 125832368.77972412 179834029.4641571 0 179834029.4641571 641105635.39746284 0 0 0 0 271052057.06478882 31924211.37210083 0 31924211.37210083 299051926.09577942 0 0 0 0 634990219.68980026 31051047.541082382 0 31051047.541082382 94277348.901485443 0 0 0 0 368481525.90752411 -251042937.7928381 0 -251042937.7928381 180536681.72314835 0 0 0 0 319044975.93809509 325306139.35830116 0 325306139.35830116 473488805.80561447 0 0 0 0 315086643.54148102 -107715997.48940086 0 -107715997.48940086 -135616063.41715622 0 0 0 0 264470916.5982132 -85171220.265575409 0 -85171220.265575409 87665469.684645653 0 0 0 0 183274962.36385345 -38932246.911355972 0 -38932246.911355972 442638399.38778305 0 0 0 0 170733723.02557468 40616747.487733841 0 40616747.487733841 30976181.465705872 0 0 0 0 68228080.51108551 41367430.806747437 0 41367430.806747437 100226009.08682442 0 0 0 0 19178155.014778137 125514337.77597427 0 125514337.77597427 37587913.37317276 0 0 0 0 -19476682.664627075 77044201.724327087 0 77044201.724327087 14964753.086418152 0 0 0 0 -5553009.3678131104 43712877.279081345 0 43712877.279081345 71912944.267599106 0 0 0 0 27861578.462436676 74657682.14955616 0 74657682.14955616 -15874109.412834167 0 0 0 0 162101460.96105957 65422611.904711723 0 65422611.904711723 -36415846.517934799 0 0 0 0 481415374.27310181 124722356.70226669 0 124722356.70226669 -29932660.716657639 0 0 0 0 25903296.519172668 285405276.09838867 0 285405276.09838867 205102217.43660355 0 0 0 0 459556350.81674957 -189863283.80609894 0 -189863283.80609894 -465634389.41886902 0 0 0 0 514801536.44044495 -43076865.567156792 0 -43076865.567156792 -121901343.10247803 0 0 0 0 1926490.7750400975 1193123.3554472695 0 1193123.3554472695 -1082122.3373845429 0 0 0 0 284262462.6374054 595893543.20489693 0 595893543.20489693 898446222.27303982 0 0 0 0 823607105.22382259 479486404.09232628 0 479486404.09232628 122559567.81064987 0 0 0 0 717133596.98738098 -102732751.65084076 0 -102732751.65084076 -27672725.902187347 0 0 0 0 99924427.257873535 50372471.938835144 0 50372471.938835144 -66041564.400241852 0 0 0 0 -69798142.753845215 -102205728.20264053 0 -102205728.20264053 121959931.8371315 0 0 0 0 190602065.13294983 -157023667.84555435 0 -157023667.84555435 305770226.48139572 0 0 0 0 87718249.59274292 17275946.039634705 0 17275946.039634705 -355090408.09455109 0 0 0 0 -59720951.21913147 154433635.08772278 0 154433635.08772278 -74579450.189567566 0 0 0 0 202042474.73483276 213492452.16589737 0 213492452.16589737 64030276.383277893 0 0 0 0 171146703.74552631 72939667.891724229 0 72939667.891724229 -45812984.073513031 0 0 0 0 69608425.768798828 55545013.192480087 0 55545013.192480087 257194548.88283324 0 0 0 0 132738795.09440613 75973615.32909584 0 75973615.32909584 -360996882.99623108 0 0 0 0 42466502.656097412 -164122139.63866043 0 -164122139.63866043 -255537467.12102318 0 0 0 0 275815343.79645538 43775248.556693077 0 43775248.556693077 -148989454.7076149 0 0 0 0 86336819.641677856 -129798224.11995316 0 -129798224.11995316 58236126.175243855 0 0 0 0 79788730.964057922 -424946618.92506409 0 -424946618.92506409 -601615391.11243629 0 0 0 0 110597436.19691277 81128747.726774037 0 81128747.726774037 -531805818.43104553 0 0 0 0 5115722.4662251174 3083562.7545368485 0 3083562.7545368485 -3181888.1497191656 0 0 0 0 11559627.919281006 13973487.330413818 0 13973487.330413818 -879972671.77338219 0 0 0 0 133832079.01649475 -152803170.28217316 0 -152803170.28217316 -885277500.37934113 0 0 0 0 140725032.91040039 212507924.0054512 0 212507924.0054512 202768449.94757271 0 0 0 0 -270706073.06602478 40034874.811973572 0 40034874.811973572 -530697850.01321411 0 0 0 0 -62851513.263153076 -175699712.64865875 0 -175699712.64865875 -564849988.70905685 0 0 0 0 904497.00056836754 -11903.646365011111 0 -11903.646365011111 -829689.94112383202 0 0 0 0 -210576859.69813538 -471179176.78359604 0 -471179176.78359604 -1089930758.160347 0 0 0 0 -54914912.960494995 -26428010.940284729 0 -26428010.940284729 -513446305.03278351 0 0 0 0 -25336477.603515625 137298777.72095108 0 137298777.72095108 -1002102912.0301571 0 0 0 0 14509572.702575684 -112924011.17993164 0 -112924011.17993164 -450480871.02871132 0 0 0 0 -132108577.8243103 203960796.19541931 0 203960796.19541931 -509145648.13605499 0 0 0 0 103942589.5355854 171427367.72592139 0 171427367.72592139 167719863.27232742 0 0 0 0 156929207.56578064 168004414.47801971 0 168004414.47801971 97464417.501548767 0 0 0 0 264361492.92181396 229566667.32946014 0 229566667.32946014 51511235.527441025 0 0 0 0 243504012.83889008 256291377.32422829 0 256291377.32422829 28362190.198797226 0 0 0 0 195360022.10012817 216256610.90616417 0 216256610.90616417 155561410.92949677 0 0 0 0 168736779.49370956 239042021.17958164 0 239042021.17958164 220309744.61610794 0 0 0 0 305229875.75764465 348300765.12155056 0 348300765.12155056 149979472.84359932 0 0 0 0 254322531.29190063 213018473.48938131 0 213018473.48938131 164860597.17026138 0 0 0 0 286996479.75791168 241785284.25683498 0 241785284.25683498 32097220.139392853 0 0 0 0 251626441.07348633 237604711.13669395 0 237604711.13669395 148125883.7315712 0 0 0 0 302606894.48303223 241573095.8782177 0 241573095.8782177 14368148.026116371 0 0 0 0 185987881.1307373 189368515.84436035 0 189368515.84436035 51829332.283956528 0 0 0 0 106598236.13803864 -115653510.65323353 0 -115653510.65323353 -52079276.588866949 0 0 0 0 82051139.4789505 44041928.175839424 0 44041928.175839424 -219770883.61758804 0 0 0 0 101350358.51626587 -106680841.58024597 0 -106680841.58024597 -50046703.415466309 0 0 0 0 25608338.47718811 -178472630.72894096 0 -178472630.72894096 19571349.513458252 0 0 0 0 106641952.61523438 -205794006.96109772 0 -205794006.96109772 24968911.950977325 0 0 0 0 183724653.64330292 -144017187.19270515 0 -144017187.19270515 -40938289.328170776 0 0 0 0 151023976.44364929 -87863277.929750919 0 -87863277.929750919 87498608.17294693 0 0 0 0 82669336.040725708 239701539.71179962 0 239701539.71179962 151825704.99611545 0 0 0 0 390843980.45505524 316935719.57281876 0 316935719.57281876 -114590063.70808601 0 0 0 0 286588897.11561584 -131416880.72271538 0 -131416880.72271538 -90503160.779491425 0 0 0 0 -1465888.5712324511 1825208.1457452103 0 1825208.1457452103 1319283.4447642565 0 0 0 0 115756511.96929598 129941409.82751703 0 129941409.82751703 6216740.8437728882 0 0 0 0 192148075.94732666 95191038.135744095 0 95191038.135744095 -54223809.639341831 0 0 0 0 874992.36477162689 15893057.669917207 0 15893057.669917207 -18927246.284336906 0 0 0 0 -76705020.421951294 75800168.462756157 0 75800168.462756157 -24151216.600482941 0 0 0 0 -8255136.8779449463 207222214.63435364 0 207222214.63435364 164980409.33719826 0 0 0 0 113486363.96928978 235366377.98818398 0 235366377.98818398 168145777.04415131 0 0 0 0 -2075823.1108347066 17473705.926577508 0 17473705.926577508 -16285299.800081665 0 0 0 0 40822617.323554993 140214618.18052673 0 140214618.18052673 251562080.12037659 0 0 0 0 117634409.01904058 114199502.13097334 0 114199502.13097334 -44209340.1352005 0 0 0 0 81708775.776496887 -98326041.339875221 0 -98326041.339875221 -51099598.845118523 0 0 0 0 48392931.028465271 258709436.83979034 0 258709436.83979034 -138465888.11754608 0 0 0 0 172082871.53643227 97307775.837236166 0 97307775.837236166 -241777545.82672501 0 0 0 0 56303821.301099777 -3608966.5506687164 0 -3608966.5506687164 -30897022.597496033 0 0 0 0 97233644.084793091 60144117.89491272 0 60144117.89491272 -38119206.094791412 0 0 0 0 183031679.38942719 34501510.31432724 0 34501510.31432724 -58350302.533973694 0 0 0 0 119321184.74151516 35904314.806173801 0 35904314.806173801 -42970753.783149719 0 0 0 0 126696815.27738094 7454109.4212703705 0 7454109.4212703705 -57251025.315956116 0 0 0 0 184988072.08721161 -47376036.053364754 0 -47376036.053364754 -152466049.8080368 0 0 0 0 114028388.17547226 -46060922.604740143 0 -46060922.604740143 85551798.420406342 0 0 0 0 232775776.01441193 173076000.52149391 0 173076000.52149391 358015213.84889412 0 0 0 0 328847380.89422607 223565404.01031208 0 223565404.01031208 150485364.29235816 0 0 0 0 103626437.21513367 -80721895.337107658 0 -80721895.337107658 73617062.198550701 0 0 0 0 -1492104.3933557793 10511127.66986846 0 10511127.66986846 -18826953.668409903 0 0 0 0 268445930.94979858 280637867.9663167 0 280637867.9663167 189529581.24027157 0 0 0 0 10168749.709922902 1634405.5075141443 0 1634405.5075141443 -8123482.1773915244 0 0 0 0 48911875.555580139 69946878.292297363 0 69946878.292297363 24385835.569766998 0 0 0 0 -229684497.49951172 -17965061.156264305 0 -17965061.156264305 288215138.62161636 0 0 0 0 -760178820.54924011 135848445.90039635 0 135848445.90039635 251493027.68682218 0 0 0 0 510988291.11546326 -70208128.426220417 0 -70208128.426220417 82496774.005468369 0 0 0 0 -310428768.99078369 192565486.40289307 0 192565486.40289307 27540088.706069946 0 0 0 0 -800127180.36935806 -423162488.55441356 0 -423162488.55441356 586289706.35720634 0 0 0 0 470998357.26883698 -50649855.387013912 0 -50649855.387013912 -185230985.26490593 0 0 0 0 656729586.05004883 38321044.072742462 0 38321044.072742462 -428988426.77117687 0 0 0 0 -225819215.28570557 613959515.63099861 0 613959515.63099861 -362611749.33564758 0 0 0 0 -867502.26283759996 6588051.3879308868 0 6588051.3879308868 -15376124.275192689 0 0 0 0 -61993507.234283447 561583367.86766338 0 561583367.86766338 -1174998828.8776379 0 0 0 0 -6552236.7307739258 -8953822.8802318573 0 -8953822.8802318573 63940940.197875977 0 0 0 0 89179156.417129517 33251633.718544006 0 33251633.718544006 3141423.3564529419 0 0 0 0 110234481.43969727 154620365.50662136 0 154620365.50662136 114343669.01942444 0 0 0 0 72098881.184932709 186989390.89694691 0 186989390.89694691 283418553.16623306 0 0 0 0 107039647.03754425 174530321.81651115 0 174530321.81651115 202802975.99171448 0 0 0 0 122454090.90259552 188725507.89311028 0 188725507.89311028 115947035.17212677 0 0 0 0 137869020.09823608 186765562.17957687 0 186765562.17957687 84356289.308338165 0 0 0 0 -941626181.45030212 -193218760.3560257 0 -193218760.3560257 257088647.9222908 0 0 0 0 -385242.36202593893 1086804.8596445918 0 1086804.8596445918 -2135571.6764481911 0 0 0 0 -527994.95210541785 3529017.319598183 0 3529017.319598183 -9542887.3502404802 0 0 0 0 116935401.78067017 138677171.98179412 0 138677171.98179412 171622808.92677689 0 0 0 0 92257762.134975433 223288706.0358212 0 223288706.0358212 479711133.7444458 0 0 0 0 147451697.81839752 65802402.62219429 0 65802402.62219429 202328257.73269081 0 0 0 0 120205136.78276825 99458886.227550507 0 99458886.227550507 172837994.72801018 0 0 0 0 80876180.647315979 19528524.9193573 0 19528524.9193573 96082153.144001007 0 0 0 0 80178237.152597904 118849639.6866461 0 118849639.6866461 193906165.17634583 0 0 0 0 143003197.02307892 270013274.73006344 0 270013274.73006344 317813451.31394005 0 0 0 0 91928262.530543327 168689329.465487 0 168689329.465487 388443818.75092697 0 0 0 0 104531736.30989075 138353146.24292183 0 138353146.24292183 175432279.6041584 0 0 0 0 138630183.91793633 222714929.00988436 0 222714929.00988436 574396093.69169044 0 0 0 0 241808460.2790451 473800049.52150726 0 473800049.52150726 456273448.1336422 0 0 0 0 268928451.76757145 417893656.36353397 0 417893656.36353397 235290557.57118225 0 0 0 0 169252180.33603668 379944862.57669401 0 379944862.57669401 336754172.04362488 0 0 0 0 165843704.17276382 390085621.29175663 0 390085621.29175663 316552152.93541789 0 0 0 0 166248744.24071312 368754554.18244267 0 368754554.18244267 234895025.89540291 0 0 0 0 109976915.25465775 247748124.59974051 0 247748124.59974051 368543479.10786819 0 0 0 0 134701756.92518616 256008671.96753025 0 256008671.96753025 251919301.1995697 0 0 0 0 117452991.80623627 232277320.2313242 0 232277320.2313242 240680399.14920807 0 0 0 0 167700345.64590454 213312752.49349594 0 213312752.49349594 211143466.46134233 0 0 0 0 191753185.53338623 286458872.7212944 0 286458872.7212944 273517800.10972214 0 0 0 0 153252341.51992035 182912100.40472412 0 182912100.40472412 191989050.86257935 0 0 0 0 208609605.62908936 120574057.34041977 0 120574057.34041977 156700789.93131256 0 0 0 0 286319314.86181641 133071828.9895134 0 133071828.9895134 158608377.65920639 0 0 0 0 257628869.38444519 211139954.32123184 0 211139954.32123184 199280749.27366829 0 0 0 0 191320109.47825623 253016240.04658699 0 253016240.04658699 173649307.74580956 0 0 0 0 450877832.85499573 204593531.27334118 0 204593531.27334118 81726757.202667236 0 0 0 0 444757069.88485098 370892122.83788681 0 370892122.83788681 -53703027.259399414 0 0 0 0 335398126.8346405 402745519.44189739 0 402745519.44189739 65702287.9147892 0 0 0 0 310131585.12451935 291699599.28374958 0 291699599.28374958 159305994.04141998 0 0 0 0 238862494.77906799 380958899.47337914 0 380958899.47337914 96641276.588443756 0 0 0 0 303394538.46653748 326140039.43857956 0 326140039.43857956 -16384011.779315948 0 0 0 0 297936012.93252563 421300973.31706715 0 421300973.31706715 94777162.641738892 0 0 0 0 150448293.47192383 562946151.30508804 0 562946151.30508804 75672474.448685646 0 0 0 0 337982868.79567468 531477780.88456905 0 531477780.88456905 -247406872.84746933 0 0 0 0 178332225.32458878 397216355.48295617 0 397216355.48295617 259162563.58789444 0 0 0 0 185248512.9710083 348743155.27806282 0 348743155.27806282 222382145.25652313 0 0 0 0 238538638.05529404 362949998.47395039 0 362949998.47395039 191457250.82116699 0 0 0 0 170144854.09294128 425510683.36742592 0 425510683.36742592 166237835.61743498 0 0 0 0 115494119.72823715 443974794.07549345 0 443974794.07549345 331884881.23253536 0 0 0 0 139429264.1485405 422131940.03591299 0 422131940.03591299 250919193.62678528 0 0 0 0 63855629.863578796 505923807.7891109 0 505923807.7891109 258742814.35276321 0 0 0 0 45634427.292122841 384516312.03937322 0 384516312.03937322 501554845.29715252 0 0 0 0 157263463.65289307 603463607.83814573 0 603463607.83814573 276323410.35120773 0 0 0 0 187212300.73672485 471421482.2063632 0 471421482.2063632 260990750.09837151 0 0 0 0 103208276.17059326 298505897.9919951 0 298505897.9919951 188696216.5964067 0 0 0 0 66041158.267150879 336831252.53110266 0 336831252.53110266 403506585.54516196 0 0 0 0 193369024.9274025 350645110.3484745 0 350645110.3484745 127799424.47673607 0 0 0 0 168709428.14533234 264202913.10477495 0 264202913.10477495 168439797.97710061 0 0 0 0 209100446.56543922 398728200.51130486 0 398728200.51130486 230156098.49636841 0 0 0 0 189705344.92827988 383390432.15257788 0 383390432.15257788 271913908.93869209 0 0 0 0 595129631.95441437 321099943.6938045 0 321099943.6938045 57813642.968962193 0 0 0 0 684764447.02521515 334719424.45940834 0 334719424.45940834 -7582468.4169147015 0 0 0 0 616467857.89207458 288124953.80204743 0 288124953.80204743 -14275424.109654188 0 0 0 0 580149044.11645508 204440236.61339045 0 204440236.61339045 19351852.981190681 0 0 0 0 580950628.19526672 117242419.7222755 0 117242419.7222755 -103030303.83363444 0 0 0 0 678147469.13146973 191693544.84884042 0 191693544.84884042 -70034635.560873359 0 0 0 0 672860041.3507843 60177142.594772458 0 60177142.594772458 -199746934.36549735 0 0 0 0 713660370.79978943 213928402.96476066 0 213928402.96476066 -116768006.72886348 0 0 0 0 850168812.6869812 306057633.97397518 0 306057633.97397518 -60265303.999681592 0 0 0 0 757205033.18486023 326478867.47495151 0 326478867.47495151 7886447.6226530075 0 0 0 0 777743911.55690002 148936985.116045 0 148936985.116045 -100627290.95436668 0 0 0 0 918503316.49004364 345076235.31871986 0 345076235.31871986 238245735.57402325 0 0 0 0 988016760.02633667 221686011.82967401 0 221686011.82967401 31368750.310250044 0 0 0 0 874751991.85903931 282907562.27695632 0 282907562.27695632 -1628167.094399929 0 0 0 0 1006228094.4208374 359799596.58188963 0 359799596.58188963 12275731.925031841 0 0 0 0 557100203.83788085 318098240.05935782 0 318098240.05935782 57596756.997803211 0 0 0 0 903463072.41503906 462083277.32032752 0 462083277.32032752 82442515.540807962 0 0 0 0 43437379.832443237 275112588.83720946 0 275112588.83720946 348926800.09593582 0 0 0 0 563876847.07221985 464481910.27194977 0 464481910.27194977 107911916.8264643 0 0 0 0 779674887.05677032 360210784.77503097 0 360210784.77503097 -15926081.266762733 0 0 0 0 991986822.81735229 410278079.33970869 0 410278079.33970869 400088195.74527192 0 0 0 0 1133705.5721527562 125868.42559053376 0 125868.42559053376 -2996614.4885447514 0 0 0 0 426540479.57976532 185929407.69011831 0 185929407.69011831 395516333.54538155 0 0 0 0 187036828.32588196 269435843.61066985 0 269435843.61066985 584147663.5228765 0 0 0 0 271163368.77528381 444412010.17805576 0 444412010.17805576 485257787.95607972 0 0 0 0 998316249.83774567 469644804.42540455 0 469644804.42540455 140910895.54148436 0 0 0 0 690295814.87844849 -224732290.66931868 0 -224732290.66931868 -314664845.90527153 0 0 0 0 -295229237.23332214 618504746.74030304 0 618504746.74030304 362205460.56326485 0 0 0 0 872534.0053261593 1765148.7966037169 0 1765148.7966037169 -6742853.1779400948 0 0 0 0 579169292.33307552 351499406.40204233 0 351499406.40204233 136256488.55159712 0 0 0 0 574657050.61392975 309259577.52434123 0 309259577.52434123 55657585.599517226 0 0 0 0 486743333.57414246 260621192.68754244 0 260621192.68754244 145378628.34519839 0 0 0 0 520006565.98231125 254657297.87352389 0 254657297.87352389 223239952.51558137 0 0 0 0 518126313.60618591 276698716.21118158 0 276698716.21118158 100035440.21405745 0 0 0 0 -2204326325.5112305 668773475.36639977 0 668773475.36639977 1232582776.807827 0 0 0 0 -1852941749.3504639 -1676991577.3801918 0 -1676991577.3801918 -611229772.71434784 0 0 0 0 25865010.260681152 883665031.79642868 0 883665031.79642868 -75361194.975606918 0 0 0 0 47096733.009674072 129279527.81910133 0 129279527.81910133 -529189372.76294899 0 0 0 0 114479.63524011523 780633.61558220908 0 780633.61558220908 -3344890.1988718882 0 0 0 0 686089158.8793335 354881062.32896769 0 354881062.32896769 41956633.145006657 0 0 0 0 -464189.23428818956 2659403.2292213961 0 2659403.2292213961 -5981793.1825620113 0 0 0 0 629599726.28396606 209255504.50290251 0 209255504.50290251 90431635.328405857 0 0 0 0 454406133.90768433 246187277.58576393 0 246187277.58576393 61628216.007157326 0 0 0 0 479293884.03726196 206178806.18266153 0 206178806.18266153 124114661.48869336 0 0 0 0 558941335.77041626 283714112.22642493 0 283714112.22642493 40224502.00582695 0 0 0 0 471879103.71554565 239677000.28604269 0 239677000.28604269 48700569.908418775 0 0 0 0 478890747.31257629 244857852.17411518 0 244857852.17411518 -15831200.002980232 0 0 0 0 367983954.77429199 196966070.47416353 0 196966070.47416353 50093068.498648167 0 0 0 0 312174553.36868286 188668894.36979961 0 188668894.36979961 53021520.351348877 0 0 0 0 376457282.80075073 177406002.29723597 0 177406002.29723597 -19455149.811654091 0 0 0 0 280766520.52328491 139008518.24941397 0 139008518.24941397 60353948.79884088 0 0 0 0 312214599.73727417 108994352.98313475 0 108994352.98313475 -24266605.556447029 0 0 0 0 450476863.12010193 106077728.80064106 0 106077728.80064106 66339871.493085861 0 0 0 0 429774226.57363892 159730218.9440515 0 159730218.9440515 55642354.133975029 0 0 0 0 538133938.04636383 196913171.57069314 0 196913171.57069314 57315717.807881594 0 0 0 0 380482835.98378754 152885208.45092005 0 152885208.45092005 93847777.018548012 0 0 0 0 616625525.74520111 1435024.8647202849 0 1435024.8647202849 -43257192.107776284 0 0 0 0 599967228.17324829 90478824.451691031 0 90478824.451691031 -67084094.242099285 0 0 0 0 439233307.5640564 -29081948.791053534 0 -29081948.791053534 92302218.097363949 0 0 0 0 301673735.0140686 -496653.7622551918 0 -496653.7622551918 87023346.822508335 0 0 0 0 322466034.80950928 32187503.054627419 0 32187503.054627419 -368009.39666366577 0 0 0 0 425723771.81886673 -372705724.97408962 0 -372705724.97408962 154022081.5367775 0 0 0 0 161761328.677948 164093550.22821093 0 164093550.22821093 -428995544.60477161 0 0 0 0 -239291478.6895752 23936826.396949768 0 23936826.396949768 71572538.277208328 0 0 0 0 198566460.5362854 -148027357.81803894 0 -148027357.81803894 -563552651.90842009 0 0 0 0 134564573.44995117 -48333968.251516342 0 -48333968.251516342 -34869314.884179115 0 0 0 0 197292376.70040894 74733256.318058491 0 74733256.318058491 -10608200.597599745 0 0 0 0 239951219.00106812 109668798.7992208 0 109668798.7992208 -200149404.05986404 0 0 0 0 357240715.81306458 174398545.35923576 0 174398545.35923576 -123486351.15737534 0 0 0 0 228935342.25897217 183512239.16514778 0 183512239.16514778 -18486491.506517887 0 0 0 0 135581884.50040436 79718192.598459721 0 79718192.598459721 -86578710.001439095 0 0 0 0 215977602.34214783 47660714.106410503 0 47660714.106410503 -245824643.07132721 0 0 0 0 9792656.0239562988 -35949466.229361534 0 -35949466.229361534 -156521355.16324615 0 0 0 0 -103899289.64163208 -30586681.616094589 0 -30586681.616094589 -157003714.74030924 0 0 0 0 120548862.67089844 -30408242.999614716 0 -30408242.999614716 -259120243.9405098 0 0 0 0 3037946.4591421634 1347211.0583570844 0 1347211.0583570844 -1341335.2154440281 0 0 0 0 -153695160.32943726 -348917540.88562775 0 -348917540.88562775 -347697799.77248335 0 0 0 0 -13520673.598266602 38579181.758667707 0 38579181.758667707 77867403.092269421 0 0 0 0 14013293.513664246 6580199.9351625443 0 6580199.9351625443 -7043560.5552296638 0 0 0 0 2681029.2320963293 819669.12697369233 0 819669.12697369233 -1054127.5600090474 0 0 0 0 989592.74874721467 580510.17119669169 0 580510.17119669169 -1736165.1807089401 0 0 0 0 488886057.47753906 111371465.76010323 0 111371465.76010323 -45687384.562941551 0 0 0 0 630025372.83834839 108030629.64938188 0 108030629.64938188 -216459653.34920311 0 0 0 0 528280589.71337891 193197905.49807453 0 193197905.49807453 91539982.082973242 0 0 0 0 521936585.18463135 319023625.24855804 0 319023625.24855804 135942955.54992771 0 0 0 0 669727227.13415527 215923347.51389408 0 215923347.51389408 -124066193.76156235 0 0 0 0 549320694.22921753 233405607.03517246 0 233405607.03517246 -108814420.66909981 0 0 0 0 301058757.77708435 211382782.82812214 0 211382782.82812214 -53628682.751563549 0 0 0 0 481769588.35211182 267930228.56370664 0 267930228.56370664 -79316838.352701187 0 0 0 0 567304590.87295532 283689595.95109367 0 283689595.95109367 -25564900.217450142 0 0 0 0 505888733.23741913 223082915.60663104 0 223082915.60663104 1705066.9057788849 0 0 0 0 325665544.59136963 197036776.92889786 0 197036776.92889786 -1744819.3649394512 0 0 0 0 326543028.56898499 196465512.46105576 0 196465512.46105576 -90932896.268802643 0 0 0 0 7997738.6772155762 -27963665.36432457 0 -27963665.36432457 -46228361.238825321 0 0 0 0 174395009.56544495 275607161.25338268 0 275607161.25338268 142815279.42807579 0 0 0 0 601028126.1734848 402784363.96382856 0 402784363.96382856 -26596493.46109581 0 0 0 0 650265563.28440857 645286943.84478903 0 645286943.84478903 389079813.52044582 0 0 0 0 732953556.45898438 242795151.74198246 0 242795151.74198246 -180954257.73447227 0 0 0 0 731148619.39165497 234197936.31629324 0 234197936.31629324 -212838318.69729805 0 0 0 0 1214559359.9394226 89502799.716846466 0 89502799.716846466 -472213554.33189774 0 0 0 0 1187594062.1616364 465682102.40777969 0 465682102.40777969 -206829117.55195969 0 0 0 0 657281859.9165802 10990200.675457954 0 10990200.675457954 -225301434.92336655 0 0 0 0 821404595.66134644 151296970.50687742 0 151296970.50687742 -227293187.46881866 0 0 0 0 1455644.6021744162 725082.81799195986 0 725082.81799195986 -528736.26546234603 0 0 0 0 2923468.588051863 351799.93275695015 0 351799.93275695015 -2017226.1485176804 0 0 0 0 609009835.45553589 159657751.05102825 0 159657751.05102825 -666134878.74975967 0 0 0 0 1464264552.7641602 75786269.306369781 0 75786269.306369781 -676305242.26383352 0 0 0 0 744569574.96609497 872967320.54008675 0 872967320.54008675 564433545.88173485 0 0 0 0 1468665146.5736237 434699432.85807037 0 434699432.85807037 -38129160.388673782 0 0 0 0 -320146042.26921844 28236142.394577026 0 28236142.394577026 199211383.18058014 0 0 0 0 574678076.61278534 -580364781.19808793 0 -580364781.19808793 -132318682.76925659 0 0 0 0 572243142.26513672 -52943074.275504112 0 -52943074.275504112 -88551225.775390625 0 0 0 0 23656299.253829956 -223589447.53871202 0 -223589447.53871202 25325011.689781189 0 0 0 0 2182809.6816815287 1266255.7676545028 0 1266255.7676545028 -4044516.5407614228 0 0 0 0 484822189.14562988 601902990.86646938 0 601902990.86646938 644359323.52793455 0 0 0 0 331151107.45153809 18298827.263335228 0 18298827.263335228 115872385.83559036 0 0 0 0 229906930.22787476 319907773.71959782 0 319907773.71959782 227832155.19068432 0 0 0 0 18701022.630722046 17048284.012204647 0 17048284.012204647 32624482.279323578 0 0 0 0 23268498.752052307 57413694.717981339 0 57413694.717981339 -73078077.144634724 0 0 0 0 33247535.106254578 54733238.852693796 0 54733238.852693796 2000419.9690465927 0 0 0 0 2154353.9387186244 874521.78481317684 0 874521.78481317684 -3049986.0717893732 0 0 0 0 -291354103.85231781 68239783.646806717 0 68239783.646806717 -18609919.074056149 0 0 0 0 31965495.864795685 -9368043.4613890648 0 -9368043.4613890648 -11774464.670021057 0 0 0 0 5673656.4999694824 -151549.50206661224 0 -151549.50206661224 12370403.766820908 0 0 0 0 -136292.31330871582 10626343.067941666 0 10626343.067941666 -6937734.5303554535 0 0 0 0 -9337676.1802759171 -44219528.589141846 0 -44219528.589141846 -96315257.587827682 0 0 0 0 3324689.8450070322 -430707.13612420484 0 -430707.13612420484 -1639708.7062201966 0 0 0 0 -34538031.988677979 69781478.453535557 0 69781478.453535557 42118058.855229378 0 0 0 0 7684198.8645782471 6769999.0353031158 0 6769999.0353031158 73509559.533468008 0 0 0 0 669397271.75961304 157642876.60717607 0 157642876.60717607 93890927.792660236 0 0 0 0 12346433.793131828 -238423309.3277244 0 -238423309.3277244 -51487139.708377361 0 0 0 0 1350612.1984787285 -146313.73248274252 0 -146313.73248274252 -724819.5848836978 0 0 0 0 210901541.0302124 36448036.060504913 0 36448036.060504913 117742803.00869703 0 0 0 0 261042472.44721222 -164434120.6256876 0 -164434120.6256876 -25176073.873277128 0 0 0 0 81178754.278846741 -162065088.41534567 0 -162065088.41534567 80392989.940049648 0 0 0 0 615051.02574927546 -3864022.7152123861 0 -3864022.7152123861 -10319865.355281105 0 0 0 0 308313873.76062775 -157564217.84063911 0 -157564217.84063911 44825979.549200535 0 0 0 0 426682568.29730988 -10084210.753029346 0 -10084210.753029346 -52683120.756890297 0 0 0 0 3886820.0020294189 31261818.248279333 0 31261818.248279333 213102916.39057434 0 0 0 0 689455.00263556838 -1949200.8030805066 0 -1949200.8030805066 -6608815.7625828339 0 0 0 0 688129880.57458115 -266431208.3868891 0 -266431208.3868891 -34494125.187691212 0 0 0 0 726280720.59723282 -216194914.00504565 0 -216194914.00504565 -15915583.766242027 0 0 0 0 715634.93710035644 -541760.65246165916 0 -541760.65246165916 -2978597.0741161872 0 0 0 0 501223880.57057953 51869164.893011123 0 51869164.893011123 -5903715.2093420029 0 0 0 0 293727176.57054138 126867745.05827475 0 126867745.05827475 -17221110.422219753 0 0 0 0 278820876.55784607 93186866.438635588 0 93186866.438635588 -68316007.819666386 0 0 0 0 357048268.04175568 54127105.86213553 0 54127105.86213553 -109004709.86170578 0 0 0 0 243224988.99612427 -37911845.322860241 0 -37911845.322860241 -68211469.440472126 0 0 0 0 323597678.71389008 -293997684.08582807 0 -293997684.08582807 -192031384.93031502 0 0 0 0 627532648.69255066 -198376036.78966093 0 -198376036.78966093 -164445469.5416801 0 0 0 0 183715302.65492249 -244367821.3536377 0 -244367821.3536377 -176643296.63270736 0 0 0 0 171630799.94981384 -513444992.17874908 0 -513444992.17874908 -340917449.68437576 0 0 0 0 345826480.51702881 -545464097.16648102 0 -545464097.16648102 -500528479.472085 0 0 0 0 245249322.44143677 -575367554.71089125 0 -575367554.71089125 -295260394.9695797 0 0 0 0 276212192.04302979 -238265683.14447737 0 -238265683.14447737 -675950668.86980629 0 0 0 0 272206482.04751587 -261232662.42056561 0 -261232662.42056561 -157999664.74419069 0 0 0 0 876906.64815158397 193905.11412031529 0 193905.11412031529 -285472.72430544288 0 0 0 0 45383976.064376831 -124496924.05015743 0 -124496924.05015743 338554554.89059591 0 0 0 0 99304490.151367188 91198060.520666599 0 91198060.520666599 151201403.3725791 0 0 0 0 336046490.07678223 -393739185.88362622 0 -393739185.88362622 29970182.518382549 0 0 0 0 19455205.52973938 6134520.6718506813 0 6134520.6718506813 -109238318.00714254 0 0 0 0 611298253.1907196 -195394678.85886335 0 -195394678.85886335 -55128623.318159819 0 0 0 0 427167268.61299896 -125003261.57558234 0 -125003261.57558234 338478988.89097404 0 0 0 0 546266047.08709717 61696347.407123566 0 61696347.407123566 -37238092.953852415 0 0 0 0 -191215872.98555374 -239982593.73549986 0 -239982593.73549986 -18086602.319535255 0 0 0 0 -1273588.4201527014 76318.169717546552 0 76318.169717546552 3302369.9476123657 0 0 0 0 -230418587.81770706 -369654823.35493112 0 -369654823.35493112 -23123510.1051054 0 0 0 0 -82673549.257022858 -92918651.455430269 0 -92918651.455430269 4178580.0453472137 0 0 0 0 -90341216.390632629 -113599996.93218374 0 -113599996.93218374 -60756819.255877137 0 0 0 0 237578447.52818298 -166188543.34371853 0 -166188543.34371853 -88081926.343382835 0 0 0 0 235705784.68454742 -221520886.23065329 0 -221520886.23065329 127699122.55130482 0 0 0 0 455247349.92666626 -202632119.51064873 0 -202632119.51064873 -77651254.256433487 0 0 0 0 513874248.00435257 -318015778.10408449 0 -318015778.10408449 72616639.423918724 0 0 0 0 520433760.73918152 -118164971.91258478 0 -118164971.91258478 35894817.201768935 0 0 0 0 437417424.61419678 -266175519.46028244 0 -266175519.46028244 -28560835.011835098 0 0 0 0 370538065.8066864 -124137059.20229626 0 -124137059.20229626 -1548449.5782709122 0 0 0 0 483442422.82549286 -344223560.30405563 0 -344223560.30405563 109815658.25063217 0 0 0 0 1607894.5021291948 523917.17917251587 0 523917.17917251587 11487.197646577086 0 0 0 0 103990992.47901917 -108275135.87994707 0 -108275135.87994707 117747185.90622294 0 0 0 0 -4965903.7379608154 -21400193.340885878 0 -21400193.340885878 -29421246.139102638 0 0 0 0 -60120988.507898092 -75090144.896468803 0 -75090144.896468803 -64823320.469610214 0 0 0 0 534603.18594067381 613918.37747855484 0 613918.37747855484 3329.4192719529383 0 0 0 0 419121346.08390045 -182647098.41276836 0 -182647098.41276836 45543950.986181736 0 0 0 0 -66067134.297996521 -218596067.45001435 0 -218596067.45001435 20818750.343619823 0 0 0 0 -3088438.9901247025 -75404174.664722979 0 -75404174.664722979 -200112967.00432348 0 0 0 0 -19702012.304473877 -25848346.792958088 0 -25848346.792958088 -21312178.253355458 0 0 0 0 3937852.4985543787 -3091273.8787825331 0 -3091273.8787825331 -1513986.8568343464 0 0 0 0 255407446.04666138 -99609337.30747509 0 -99609337.30747509 103059457.66022074 0 0 0 0 -258041662.33203125 -282573143.29840231 0 -282573143.29840231 -333014911.43520117 0 0 0 0 -335094503.91408539 -214436256.68767595 0 -214436256.68767595 -69572004.438371181 0 0 0 0 607021798.00363922 -431313362.0205307 0 -431313362.0205307 358707651.0993529 0 0 0 0 656219316.66562271 -393146668.13782299 0 -393146668.13782299 152846652.86897206 0 0 0 0 570830359.21955872 -479545167.3091414 0 -479545167.3091414 290740892.96304941 0 0 0 0 40961231.038444519 -173102124.39039588 0 -173102124.39039588 242119105.87840188 0 0 0 0 158477529.84680557 22367475.69844228 0 22367475.69844228 -78805317.04138279 0 0 0 0 3716597.1983562037 -4471197.3785044281 0 -4471197.3785044281 -1888111.4584615075 0 0 0 0 -46254326.707344055 -45208478.65188694 0 -45208478.65188694 204827190.02684736 0 0 0 0 2659667.4983563363 -2735630.7381864861 0 -2735630.7381864861 -2351768.6158939581 0 0 0 0 -53125550.58269763 -59932906.303229675 0 -59932906.303229675 -54836330.655115366 0 0 0 0 205374116.85771179 -218607356.07089162 0 -218607356.07089162 147054587.84537399 0 0 0 0 7435782.0724766999 -1347240.2350111613 0 -1347240.2350111613 -2269350.9200157891 0 0 0 0 276394818.0372467 -149236251.42029357 0 -149236251.42029357 91720308.569118738 0 0 0 0 24396759.726577759 -117799140.91224509 0 -117799140.91224509 -28272192.893236995 0 0 0 0 319445386.14152527 -77479920.047051817 0 -77479920.047051817 -71262120.839800656 0 0 0 0 -337075490.19297266 -160938921.18051478 0 -160938921.18051478 1772016.0497144759 0 0 0 0 299150306.55453491 -330873455.94153428 0 -330873455.94153428 -110350740.04932642 0 0 0 0 1259332.7826073058 -2867585.662282031 0 -2867585.662282031 77892.65216847806 0 0 0 0 304177640.31729698 -268862170.01149994 0 -268862170.01149994 277187741.09375721 0 0 0 0 517412783.39514923 -500640602.38698906 0 -500640602.38698906 360362834.85813481 0 0 0 0 399951479.68171692 -106770317.19904125 0 -106770317.19904125 -27240399.449031159 0 0 0 0 915909434.58178711 -413912716.55625719 0 -413912716.55625719 72389188.335594416 0 0 0 0 968760025.59744263 -817516243.59843016 0 -817516243.59843016 410532597.18130767 0 0 0 0 663907305.39155197 -394202164.31862581 0 -394202164.31862581 375755653.63214862 0 0 0 0 122671982.36543274 -252914200.43492007 0 -252914200.43492007 -384894000.07721412 0 0 0 0 -61406458.088409424 -80450774.886703014 0 -80450774.886703014 -300376553.89515972 0 0 0 0 520824729.61297607 105318654.82949716 0 105318654.82949716 -24962309.921665192 0 0 0 0 268694412.6463623 75390122.241436556 0 75390122.241436556 -25886686.101939183 0 0 0 0 -406904513.0795517 -778891656.65251827 0 -778891656.65251827 -246227568.40639222 0 0 0 0 937499112.16148376 62733199.335584104 0 62733199.335584104 -82530973.220959425 0 0 0 0 1010219.07702218 -894971.6889000088 0 -894971.6889000088 -209288.34074866772 0 0 0 0 -536050848.67797089 -349784819.37848759 0 -349784819.37848759 17662070.290262222 0 0 0 0 -147226539.6663208 -432080693.68703413 0 -432080693.68703413 -234015773.1400075 0 0 0 0 79699229.453117371 -74683490.105134726 0 -74683490.105134726 -115192525.90401459 0 0 0 0 -430594835.9862442 -159407861.21660185 0 -159407861.21660185 -41144725.098972321 0 0 0 0 84637979.980560303 -78525904.795616627 0 -78525904.795616627 -124434105.5646553 0 0 0 0 230457811.42306519 110409196.13709521 0 110409196.13709521 63894493.977517605 0 0 0 0 -35685090.759605408 -225158482.82620844 0 -225158482.82620844 83140420.473031044 0 0 0 0 272747683.35319519 284788309.2711221 0 284788309.2711221 -9758460.7189717293 0 0 0 0 908565399.20225525 -856925696.82247686 0 -856925696.82247686 725746274.51808047 0 0 0 0 2615407.7056541741 -396845.8217384601 0 -396845.8217384601 -657216.24821539491 0 0 0 0 1885372746.1416321 179444520.2458365 0 179444520.2458365 -590260525.75836205 0 0 0 0 322348014.38929749 -86547098.956305593 0 -86547098.956305593 -301006873.70633787 0 0 0 0 1153253928.4859009 92575704.808339 0 92575704.808339 -263732333.2901932 0 0 0 0 144409557.30279541 -333061687.6127606 0 -333061687.6127606 -233622635.51988059 0 0 0 0 244693951.1133461 -91238949.450635746 0 -91238949.450635746 -83936920.819300532 0 0 0 0 902894428.80914307 -1094586966.0035281 0 -1094586966.0035281 830058143.3490026 0 0 0 0 161258.5516654402 -260100.60972943529 0 -260100.60972943529 -447160.0413060002 0 0 0 0 849982544.32834816 -317136420.18063408 0 -317136420.18063408 -425152239.86366707 0 0 0 0 -6990663.0196533203 -240690566.47382367 0 -240690566.47382367 -136935816.44471332 0 0 0 0 842478756.3194046 -325433276.51091665 0 -325433276.51091665 -239445057.07615015 0 0 0 0 1064086640.653965 -646575146.83590579 0 -646575146.83590579 -86365956.080028534 0 0 0 0 309024735.83888245 -205350870.81281441 0 -205350870.81281441 -160477402.00258937 0 0 0 0 1189231512.6433029 140430684.91458869 0 140430684.91458869 -124617886.29211205 0 0 0 0 -359634679.63546765 -771766984.46865499 0 -771766984.46865499 110661711.3617363 0 0 0 0 926332.79999461025 -834743.4903479442 0 -834743.4903479442 -42744.926184248878 0 0 0 0 -354546570.89250183 66855252.906208634 0 66855252.906208634 72888853.743479729 0 0 0 0 -223594153.12945557 -75391612.71718359 0 -75391612.71718359 98419789.785739422 0 0 0 0 300295395.81772614 -261528738.69998789 0 -261528738.69998789 98258295.710423231 0 0 0 0 14894851.822387695 188063981.02232611 0 188063981.02232611 -362357116.33146405 0 0 0 0 371696229.15739441 -114498125.1279732 0 -114498125.1279732 -167863502.49272788 0 0 0 0 1899872.0784589425 -1718643.7355286665 0 -1718643.7355286665 -226657.09026500536 0 0 0 0 382567828.90005493 -73313559.232071638 0 -73313559.232071638 -433266374.54566228 0 0 0 0 89043742.74886322 -243199711.34583345 0 -243199711.34583345 -188669011.60494313 0 0 0 0 -13122767.177490234 -267185084.70569861 0 -267185084.70569861 -250485283.25694299 0 0 0 0 579559191.95907593 91237115.132144332 0 91237115.132144332 -183821863.1517449 0 0 0 0 534816281.0174942 -866106.20375724696 0 -866106.20375724696 -172316132.39028424 0 0 0 0 349541707.99359131 -117024857.41804338 0 -117024857.41804338 -222846635.7517097 0 0 0 0 615113295.72631836 34951410.728336096 0 34951410.728336096 -291802162.01827669 0 0 0 0 766661448.31808472 182746905.96426058 0 182746905.96426058 -172285509.87563238 0 0 0 0 591009085.39778137 17121714.22475338 0 17121714.22475338 -164515068.19084573 0 0 0 0 733408028.94488525 164020112.140522 0 164020112.140522 -114574468.60511541 0 0 0 0 383072414.71194363 47248803.940507457 0 47248803.940507457 -143693072.71116924 0 0 0 0 657297486.27764893 167757428.33793259 0 167757428.33793259 -47701441.711391449 0 0 0 0 586159233.94824219 -37636420.498383999 0 -37636420.498383999 -133090391.66083193 0 0 0 0 777394181.85856628 93410080.28041178 0 93410080.28041178 -29074068.188920021 0 0 0 0 916404947.49597168 231962776.2142911 0 231962776.2142911 24514414.473764062 0 0 0 0 1083430913.6169586 323240854.84672499 0 323240854.84672499 242832679.0600791 0 0 0 0 856926122.84332275 150048742.54132771 0 150048742.54132771 373393480.37836742 0 0 0 0 909716959.95977783 165040710.82867432 0 165040710.82867432 174986800.41060045 0 0 0 0 685141352.19111633 66522012.210554242 0 66522012.210554242 168832058.69956493 0 0 0 0 929227248.4875412 50736866.473024726 0 50736866.473024726 450085365.98615408 0 0 0 0 609738940.18634033 130956504.55585051 0 130956504.55585051 445892653.90700245 0 0 0 0 1254483012.9560242 308510326.54210424 0 308510326.54210424 372751242.00302476 0 0 0 0 1215135572.1387634 275138328.20809174 0 275138328.20809174 775215627.39712429 0 0 0 0 1123446476.8020172 386484702.85350752 0 386484702.85350752 640612931.62782502 0 0 0 0 1016551341.2805176 -131306074.63721848 0 -131306074.63721848 383550807.27566987 0 0 0 0 771999032.76985741 -8251094.9419571906 0 -8251094.9419571906 701179362.51189017 0 0 0 0 419973719.86140442 -108052539.95694911 0 -108052539.95694911 447767239.97819889 0 0 0 0 759113158.88741302 -86345796.957262576 0 -86345796.957262576 125051309.40566397 0 0 0 0 614041057.30541992 -534440678.28565574 0 -534440678.28565574 -63013736.440498888 0 0 0 0 349173321.7148819 -28947785.58147648 0 -28947785.58147648 199939479.80568284 0 0 0 0 742634892.88630676 -356206524.49634987 0 -356206524.49634987 182354419.48295188 0 0 0 0 834381570.4667511 -152848636.09612826 0 -152848636.09612826 5276144.2400197685 0 0 0 0 840029475.98907471 173432365.31651425 0 173432365.31651425 382635544.71966898 0 0 0 0 842970773.9005127 243639230.17787266 0 243639230.17787266 227022383.35565692 0 0 0 0 515922490.64854813 -1892373.2206564546 0 -1892373.2206564546 386188761.38028836 0 0 0 0 940904718.51890564 -18192477.531977177 0 -18192477.531977177 199116775.83112979 0 0 0 0 1263557919.3864594 461665209.8516984 0 461665209.8516984 392159398.87483895 0 0 0 0 1378785836.8945351 513390003.22887683 0 513390003.22887683 172226331.01908636 0 0 0 0 1409639720.6274567 573618972.5513823 0 573618972.5513823 265598085.19862986 0 0 0 0 2045634535.5134583 1149926788.0754833 0 1149926788.0754833 619324503.38370037 0 0 0 0 2425227173.15802 150058124.1611402 0 150058124.1611402 778451804.64372551 0 0 0 0 1080049192.0131798 411963544.6860857 0 411963544.6860857 1336415705.0607452 0 0 0 0 1191230947.1592636 436186797.77419364 0 436186797.77419364 565328563.10087979 0 0 0 0 1183829943.938797 -872863386.92992115 0 -872863386.92992115 313413176.81878984 0 0 0 0 952065391.96307468 -814854334.35634041 0 -814854334.35634041 305818238.93150997 0 0 0 0 849120104.53129196 -746807233.33787322 0 -746807233.33787322 418541895.46489793 0 0 0 0 1126045212.0508652 -636066880.735183 0 -636066880.735183 232391590.45445654 0 0 0 0 311559.27825733228 -543514.66841079667 0 -543514.66841079667 586902.60391205165 0 0 0 0 1168149705.2565689 -623954721.1648463 0 -623954721.1648463 235785537.71238518 0 0 0 0 677700.82559162984 -2004754.141274225 0 -2004754.141274225 1098182.7812198871 0 0 0 0 -893128524.62256622 -136690075.21749961 0 -136690075.21749961 195695155.74367487 0 0 0 0 -1291473654.2583313 -141241122.58691025 0 -141241122.58691025 319288736.37647521 0 0 0 0 222118343.25028801 -409919980.36199331 0 -409919980.36199331 -164758060.67239046 0 0 0 0 805633050.18709755 -617361598.3651073 0 -617361598.3651073 148690335.0879612 0 0 0 0 1021634977.9844284 -542914407.94405913 0 -542914407.94405913 116878961.51126814 0 0 0 0 1025765199.4501572 -666535602.15651226 0 -666535602.15651226 112338759.46176267 0 0 0 0 2656398124.8541765 -1043146404.9402816 0 -1043146404.9402816 94014633.04038775 0 0 0 0 1043102896.1870804 -1047227346.8940792 0 -1047227346.8940792 402010397.40184641 0 0 0 0 964686415.4776001 -691490697.82552886 0 -691490697.82552886 102178606.75191116 0 0 0 0 914938842.65576172 -510654295.88065243 0 -510654295.88065243 -436080689.71734476 0 0 0 0 557712111.13114929 -782420812.68434894 0 -782420812.68434894 22742520.879628897 0 0 0 0 1021611804.8750756 -631504905.14262247 0 -631504905.14262247 30483314.37240243 0 0 0 0 733340996.4377594 -906920440.75134003 0 -906920440.75134003 444023095.06275594 0 0 0 0 36502161.339082718 -17372148.241914988 0 -17372148.241914988 3866942.8005619049 0 0 0 0 3201316.9621643368 -267608.92004677653 0 -267608.92004677653 -367636.53613326326 0 0 0 0 31549913.689035416 -4351960.913762331 0 -4351960.913762331 17946559.855773926 0 0 0 0 587231477.39646339 -71855275.290639758 0 -71855275.290639758 -9893736.785161972 0 0 0 0 508739655.37950134 -319043455.01186466 0 -319043455.01186466 -44261824.939831734 0 0 0 0 989286541.41341782 -703602727.4446584 0 -703602727.4446584 -51175026.198023796 0 0 0 0 731249820.56056976 -495880485.87864065 0 -495880485.87864065 79824925.321146488 0 0 0 0 854577648.925354 -435936731.37671661 0 -435936731.37671661 -62844770.136432409 0 0 0 0 355563903.68562317 -312393775.33621931 0 -312393775.33621931 255949475.43531847 0 0 0 0 920956004.49667168 -647334912.77445793 0 -647334912.77445793 144665087.638834 0 0 0 0 1235139209.6125565 -521007193.02833033 0 -521007193.02833033 115618046.36838686 0 0 0 0 1203223245.3019028 -602713104.54592943 0 -602713104.54592943 6319665.9921045303 0 0 0 0 1394359052.061882 -473312066.86650372 0 -473312066.86650372 73902571.778069615 0 0 0 0 1203230596.8083658 -540755167.77317441 0 -540755167.77317441 96465499.066496849 0 0 0 0 1927354916.1262512 -505587737.61927843 0 -505587737.61927843 49445358.134312391 0 0 0 0 1269389342.5315475 -643935499.55304503 0 -643935499.55304503 201645020.64594746 0 0 0 0 3064159082.3475647 -689509304.37368822 0 -689509304.37368822 107959724.53978252 0 0 0 0 5259669.6993815452 -1372078.0006519873 0 -1372078.0006519873 -741681.55732306652 0 0 0 0 754929044.52492523 -1143680639.6133018 0 -1143680639.6133018 1215572214.5061941 0 0 0 0 662869890.57997894 -734480043.88803005 0 -734480043.88803005 435358549.95690823 0 0 0 0 9052500.2883181646 605668.43534784392 0 605668.43534784392 -4527006.081425963 0 0 0 0 6949291.2937316895 310943.90198898315 0 310943.90198898315 -2431963.7633514404 0 0 0 0 8552622.4197441079 -1634514.0639507025 0 -1634514.0639507025 -4025799.4142132257 0 0 0 0 11631198.115974426 -2169850.024651885 0 -2169850.024651885 -9775781.8849730492 0 0 0 0 258397000.19327545 39966023.440506935 0 39966023.440506935 292913661.14180362 0 0 0 0 10157563.149665833 -4014712.1489999294 0 -4014712.1489999294 -8270912.3160290718 0 0 0 0 10122368.973182678 -1424623.0027557611 0 -1424623.0027557611 -5145387.8341565132 0 0 0 0 12103843.072532654 -4102025.6802649498 0 -4102025.6802649498 -3819928.2253501415 0 0 0 0 9108761.1115039364 980348.12402810156 0 980348.12402810156 -4834936.2023534719 0 0 0 0 1082473308.0799942 336289581.6816504 0 336289581.6816504 133847310.6412313 0 0 0 0 1535006936.9579315 639425302.83137178 0 639425302.83137178 81268969.571044445 0 0 0 0 1502026339.4384842 502605125.43158978 0 502605125.43158978 -33017809.621723652 0 0 0 0 1492927690.1012039 479962286.87415588 0 479962286.87415588 172607079.34844518 0 0 0 0 1395496194.5367024 25036563.220366731 0 25036563.220366731 189640704.73521137 0 0 0 0 1688025369.235672 59071779.840536118 0 59071779.840536118 66672251.160979748 0 0 0 0 2028190887.8732452 131652571.25428438 0 131652571.25428438 75476518.804368496 0 0 0 0 1922190857.5635071 355710549.99472094 0 355710549.99472094 113748782.42542997 0 0 0 0 1440570705.5325775 426053972.51143122 0 426053972.51143122 117687907.11720657 0 0 0 0 1743498836.0222321 161533289.60979533 0 161533289.60979533 198018189.8001194 0 0 0 0 2417150457.8845062 259511199.14336967 0 259511199.14336967 212244900.81730843 0 0 0 0 2596544316.0328255 635143188.48411036 0 635143188.48411036 908733103.53419113 0 0 0 0 2123916367.2703552 -231042446.35415936 0 -231042446.35415936 1998082355.600934 0 0 0 0 1814114298.6759701 311914917.85580248 0 311914917.85580248 233180074.51376247 0 0 0 0 2109826181.0595245 -29890499.581159592 0 -29890499.581159592 483879790.42274666 0 0 0 0 1791130020.4880066 198459513.05423307 0 198459513.05423307 956970513.37369347 0 0 0 0 1641105821.8100128 74586900.920481682 0 74586900.920481682 568061817.05114937 0 0 0 0 1504165613.7028198 308558871.48494625 0 308558871.48494625 316869344.59663963 0 0 0 0 1490760508.8387985 369362937.87533236 0 369362937.87533236 432666000.21088123 0 0 0 0 1494022650.1199293 394119963.59238625 0 394119963.59238625 14386019.288910866 0 0 0 0 1696360.7448825873 1578525.8322822899 0 1578525.8322822899 9551187.1520828102 0 0 0 0 951006689.46965027 270557711.83534575 0 270557711.83534575 337776669.47713184 0 0 0 0 1727332421.3231964 487341340.88210869 0 487341340.88210869 -72134365.951236725 0 0 0 0 452476.07850646973 8186907.0398879051 0 8186907.0398879051 7169320.434864521 0 0 0 0 7323683.8279533386 4564468.244466871 0 4564468.244466871 8831842.3892717361 0 0 0 0 7150520.7513122559 5708716.6706380844 0 5708716.6706380844 3142407.6037216187 0 0 0 0 11395124.072319031 7088085.5497236252 0 7088085.5497236252 2057008.2451133728 0 0 0 0 17514457.942497253 9564553.8938546181 0 9564553.8938546181 -7176900.5291051865 0 0 0 0 12576213.767089844 8862385.7778129578 0 8862385.7778129578 432590.84137916565 0 0 0 0 9740053.5186767578 12757983.212018967 0 12757983.212018967 6455749.9295053482 0 0 0 0 30385336.235702515 72725338.245946407 0 72725338.245946407 3392099.5167388916 0 0 0 0 -41642508.820976257 8443801.8898873329 0 8443801.8898873329 20409074.943066597 0 0 0 0 1735436.3932458926 1890216.1730116494 0 1890216.1730116494 8757373.2335776128 0 0 0 0 52040783.427246094 -68365334.852201462 0 -68365334.852201462 31554806.615497589 0 0 0 0 1160973.9017853588 159207.2691963166 0 159207.2691963166 14567.667728770059 0 0 0 0 85351801.760906219 -8285067.6989226341 0 -8285067.6989226341 -6095467.2307929993 0 0 0 0 85644638.398277283 85154487.184521675 0 85154487.184521675 -55937214.621214628 0 0 0 0 2416304.3070091531 3696726.5320811532 0 3696726.5320811532 7750687.2487387694 0 0 0 0 -53154224.429298401 -70391366.557557583 0 -70391366.557557583 60295972.533545017 0 0 0 0 7009040.8555336744 10786262.867433812 0 10786262.867433812 11216298.171116531 0 0 0 0 11521263.849571228 33903733.039840698 0 33903733.039840698 -86436996.97415781 0 0 0 0 -69958713.056732178 9332526.959631443 0 9332526.959631443 62761368.290782928 0 0 0 0 -40692260.283782959 -60684462.746482849 0 -60684462.746482849 80871752.307495594 0 0 0 0 -36141923.688678741 44031826.36738205 0 44031826.36738205 -2277432.206577301 0 0 0 0 35403143.159408569 6957355.2637910843 0 6957355.2637910843 9702461.1299877167 0 0 0 0 -18238240.617050171 5272651.8534259796 0 5272651.8534259796 29068570.237921238 0 0 0 0 -21276161.101348877 -2883905.589343071 0 -2883905.589343071 13562126.045516968 0 0 0 0 2043723.2469949387 1741287.2242299728 0 1741287.2242299728 1297347.0064074406 0 0 0 0 20365401.008018494 12322589.869257212 0 12322589.869257212 312008.30942344666 0 0 0 0 24650323.596555799 3973677.5535242781 0 3973677.5535242781 724186.00133378082 0 0 0 0 27833391.992362976 -4244620.9729185104 0 -4244620.9729185104 8848183.9749412537 0 0 0 0 230238119.20803833 -133802063.69215047 0 -133802063.69215047 17251716.089988559 0 0 0 0 -14608578.280853271 36201866.474181175 0 36201866.474181175 6833863.1227716804 0 0 0 0 -18577485.921081543 -31253912.232212365 0 -31253912.232212365 -11308609.667858005 0 0 0 0 17804823.432884678 1702564.1867195889 0 1702564.1867195889 2177526.8708827682 0 0 0 0 158954789.64318848 151425303.14777508 0 151425303.14777508 -52748848.739083707 0 0 0 0 -15055456.035217285 77532313.55862534 0 77532313.55862534 24742456.705030441 0 0 0 0 24482825.926467896 1534542.2122774124 0 1534542.2122774124 -2462500.2294778824 0 0 0 0 31183857.63381958 -8805060.6207399368 0 -8805060.6207399368 -5524015.0469398499 0 0 0 0 4656489.3348622508 1129194.4530776553 0 1129194.4530776553 -770024.62102876976 0 0 0 0 5098134.5829494968 2711986.1881535724 0 2711986.1881535724 3862057.2642528568 0 0 0 0 4455260.2375297546 -751385.12196993828 0 -751385.12196993828 -1804949.4727514982 0 0 0 0 10957110.904983521 715956.29027271271 0 715956.29027271271 -973143.4772799015 0 0 0 0 10024823.511208203 -3556588.7952886224 0 -3556588.7952886224 -5833581.2574363574 0 0 0 0 145182600.88464355 38715111.070146084 0 38715111.070146084 -39642520.451661706 0 0 0 0 149925174.04248428 68095601.576622903 0 68095601.576622903 -42272802.569282055 0 0 0 0 151091906.18375111 42182594.441285864 0 42182594.441285864 -38280528.12237072 0 0 0 0 36741082.606140137 7105233.2798764706 0 7105233.2798764706 -7990311.6979335099 0 0 0 0 25173882.270141602 -35157395.881237626 0 -35157395.881237626 -1378311.8688015938 0 0 0 0 -5873923.4052124023 2259790.3883397579 0 2259790.3883397579 4498088.5724446774 0 0 0 0 14560559.602905273 -65156816.977744102 0 -65156816.977744102 8274797.5793375671 0 0 0 0 64393960.234420776 -25159081.733049989 0 -25159081.733049989 -20443639.412290096 0 0 0 0 55774968.993591309 -25828627.96252203 0 -25828627.96252203 -20490422.058547974 0 0 0 0 166305273.9090271 4958168.4038811922 0 4958168.4038811922 -94435040.754680634 0 0 0 0 244990201.40124512 -8119245.5652079582 0 -8119245.5652079582 -101464471.48693609 0 0 0 0 271003774.72399902 -71596449.863207817 0 -71596449.863207817 -148483145.98372412 0 0 0 0 171964558.16656494 -104613393.02233505 0 -104613393.02233505 6563157.5958189964 0 0 0 0 278228337.29812622 31952285.754264832 0 31952285.754264832 -141781522.0669055 0 0 0 0 26376278.262084961 -81589985.380758286 0 -81589985.380758286 -119265081.02542353 0 0 0 0 282670361.3174324 94608440.604451954 0 94608440.604451954 -77550484.689112842 0 0 0 0 3463367.8361825868 2009930.3076579943 0 2009930.3076579943 539113.40896533872 0 0 0 0 357481962.53619385 -302027393.87999392 0 -302027393.87999392 -132674155.36008811 0 0 0 0 275583285.8687439 -61387836.067447066 0 -61387836.067447066 -243588090.19238949 0 0 0 0 248339656.98815918 -7046893.1023879051 0 -7046893.1023879051 -189781932.7646842 0 0 0 0 228918619.3550415 69567574.806102991 0 69567574.806102991 -54366838.87328124 0 0 0 0 62635563.79598999 5064794.8266643286 0 5064794.8266643286 -37554350.368321896 0 0 0 0 212941136.83966064 23271467.379877329 0 23271467.379877329 -211511305.99889612 0 0 0 0 104763084.10519409 78104737.196781516 0 78104737.196781516 17244306.790560722 0 0 0 0 36563199.36680603 24939979.226498723 0 24939979.226498723 -24796468.4550246 0 0 0 0 65937721.760025024 56866937.44611609 0 56866937.44611609 3889528.6292209625 0 0 0 0 91048513.289581299 34842633.430969834 0 34842633.430969834 -74676424.770602703 0 0 0 0 36696245.203826904 28342409.370253444 0 28342409.370253444 -18710739.229701519 0 0 0 0 50536574.592037201 21852472.076208368 0 21852472.076208368 -24477747.056075335 0 0 0 0 52698423.975860596 15649333.057786584 0 15649333.057786584 -21422720.650657773 0 0 0 0 51684551.781459808 14846637.716246277 0 14846637.716246277 -20750315.527822018 0 0 0 0 11125869.197781496 6663751.1658516005 0 6663751.1658516005 2031915.9535565693 0 0 0 0 93790992.206451416 -8096574.5461729169 0 -8096574.5461729169 56559335.536992669 0 0 0 0 6397188.256074816 4079572.8684213907 0 4079572.8684213907 -795097.33516987797 0 0 0 0 239804366.55297852 28589819.445859194 0 28589819.445859194 -20096533.505392671 0 0 0 0 228806402.4822998 18272739.955134019 0 18272739.955134019 23729418.479706049 0 0 0 0 222870002.40222168 95979662.014407337 0 95979662.014407337 -61258494.87737608 0 0 0 0 225949668.00984192 73116224.17017585 0 73116224.17017585 15824373.497363448 0 0 0 0 15187981.418914795 21939853.537790775 0 21939853.537790775 2254747.620649457 0 0 0 0 -5919753.5829057693 28194169.835215382 0 28194169.835215382 -10054906.090533733 0 0 0 0 14650840.985740662 14645530.006616354 0 14645530.006616354 -57574.779945373535 0 0 0 0 13890470.227439716 10027521.63028108 0 10027521.63028108 3833386.3467176631 0 0 0 0 -4203436.2648143768 44055073.1200689 0 44055073.1200689 16036920.259403467 0 0 0 0 21055092.908332825 9475839.1081847772 0 9475839.1081847772 1578027.0432220586 0 0 0 0 13382970.354118347 19370434.159455299 0 19370434.159455299 22521632.049098969 0 0 0 0 5968188.585144043 5947967.3157320023 0 5947967.3157320023 6180981.3338215351 0 0 0 0 -3187000.6361923218 -3223411.2618379593 0 -3223411.2618379593 22104496.28427124 0 0 0 0 693985.61014556885 -7212813.6538410187 0 -7212813.6538410187 1834042.1302947998 0 0 0 0 2116953.0307846069 -4706075.2578439713 0 -4706075.2578439713 3787668.6839637756 0 0 0 0 2059336.258272171 3307859.3204393387 0 3307859.3204393387 -4684400.1383419037 0 0 0 0 2385330.1941986084 6797228.7263965607 0 6797228.7263965607 12824259.654340744 0 0 0 0 182631.76125335693 -10830249.706240654 0 -10830249.706240654 -2380471.616394043 0 0 0 0 113948243.91162872 80833826.435647964 0 80833826.435647964 966359.39129161835 0 0 0 0 9480691.298164852 4327359.4006422497 0 4327359.4006422497 -1687028.7619102933 0 0 0 0 29330986.538906679 4131437.1714542415 0 4131437.1714542415 -3416636.1031358205 0 0 0 0 -2934098.3711853027 -8857272.7004203796 0 -8857272.7004203796 4186219.1252346039 0 0 0 0 -11786526.233695984 -54132892.416660309 0 -54132892.416660309 -40794595.960952759 0 0 0 0 -1721109.0680007935 -6482733.6022310257 0 -6482733.6022310257 5912360.6635475159 0 0 0 0 27883397.864793159 -2196048.4133734778 0 -2196048.4133734778 -7220428.3801981099 0 0 0 0 41707286.365707397 11189530.002651215 0 11189530.002651215 1918362.9197463989 0 0 0 0 62571930.347167969 10350985.317061543 0 10350985.317061543 39416782.939482555 0 0 0 0 31960785.340843201 23075292.295986176 0 23075292.295986176 16632971.979927063 0 0 0 0 17717758.774497986 138574664.45872301 0 138574664.45872301 40668043.391529977 0 0 0 0 23786269.241858266 8826665.2556466814 0 8826665.2556466814 -2277863.3627214842 0 0 0 0 35806069.943283081 10951800.827731967 0 10951800.827731967 3761782.4120249748 0 0 0 0 25054745.286103532 4836690.7102503125 0 4836690.7102503125 -5046854.0068869544 0 0 0 0 56023941.484741211 33739938.341720462 0 33739938.341720462 18297428.05910635 0 0 0 0 50364909.011520386 22994846.243591309 0 22994846.243591309 16587938.924194336 0 0 0 0 13953107.474133238 14226681.283152834 0 14226681.283152834 8249140.5512758 0 0 0 0 11677541.257171631 3954104.7633476257 0 3954104.7633476257 -3288856.3585605621 0 0 0 0 23269796.682932638 11870819.253596431 0 11870819.253596431 4082618.3246120205 0 0 0 0 21790007.434024334 13156162.240413342 0 13156162.240413342 2089006.0618976932 0 0 0 0 14913534.286522062 2747061.3221768625 0 2747061.3221768625 229147.716902202 0 0 0 0 43707128.060913086 23476883.105911255 0 23476883.105911255 20824481.269119263 0 0 0 0 75722061.043457031 24048805.926609039 0 24048805.926609039 20334423.246650696 0 0 0 0 3105153.9881855622 245251.165693257 0 245251.165693257 -2449439.4240639452 0 0 0 0 50771247.159896851 25726999.336807251 0 25726999.336807251 29067112.229393005 0 0 0 0 105724665.15972137 44130133.652906418 0 44130133.652906418 6520163.3181686401 0 0 0 0 14005469.892456055 2901804.6306037903 0 2901804.6306037903 -4384820.9815673828 0 0 0 0 17234297.742135614 11565186.515913844 0 11565186.515913844 7960370.7278622463 0 0 0 0 27991417.484924022 4732999.6694396585 0 4732999.6694396585 -6956063.9608005323 0 0 0 0 10839369.227877393 5840926.5701415185 0 5840926.5701415185 -477692.69688582234 0 0 0 0 41762393.9426651 18262567.946878433 0 18262567.946878433 19907908.942705154 0 0 0 0 40835742.499382019 21995733.730035782 0 21995733.730035782 15590044.723220825 0 0 0 0 14772321.746267557 -21294827.195628405 0 -21294827.195628405 -76672420.82503891 0 0 0 0 58915342.087078094 53167119.140379906 0 53167119.140379906 25797152.424926758 0 0 0 0 76801109.927490234 29497159.529602051 0 29497159.529602051 5191600.1500968933 0 0 0 0 -24888911.775253296 4654872.8904685974 0 4654872.8904685974 -9122924.8580989838 0 0 0 0 45641514.027454376 -14335907.593929291 0 -14335907.593929291 -86625145.651409149 0 0 0 0 106506752.86181641 19412383.587708473 0 19412383.587708473 55374947.034028053 0 0 0 0 86219782.915641785 61742739.355644226 0 61742739.355644226 14517218.076530457 0 0 0 0 101913518.10110474 32907121.080698967 0 32907121.080698967 26002141.333435535 0 0 0 0 106265207.94297409 52121129.559284449 0 52121129.559284449 15535700.462188721 0 0 0 0 8702441.9278050959 879844.9525142312 0 879844.9525142312 -4113350.4871494621 0 0 0 0 60149534.779373169 -10200084.596857071 0 -10200084.596857071 -84875753.128596306 0 0 0 0 -49946460.85609436 -123444311.07536888 0 -123444311.07536888 -3177753.1973190308 0 0 0 0 24525700.031974792 -38955959.399501324 0 -38955959.399501324 159560022.02923584 0 0 0 0 89821562.38444519 22115187.874112606 0 22115187.874112606 69379871.470989227 0 0 0 0 30056611.358108521 -54078859.269310951 0 -54078859.269310951 51012889.179080963 0 0 0 0 103528449.98948669 51023247.517662048 0 51023247.517662048 -9515838.2090816498 0 0 0 0 30439678.041904449 -3078113.5418408141 0 -3078113.5418408141 -2877341.1525187921 0 0 0 0 37272522.980300903 -34070903.754630804 0 -34070903.754630804 11829027.863824844 0 0 0 0 63875381.623729706 28583229.260314941 0 28583229.260314941 18944739.548709869 0 0 0 0 122504987.98726654 26788289.004634857 0 26788289.004634857 14296536.784380913 0 0 0 0 5282826.3481668271 -208996.26081220806 0 -208996.26081220806 -877747.89057620615 0 0 0 0 167717584.54740334 121236562.09293437 0 121236562.09293437 2510968.7424468994 0 0 0 0 118064362.04325104 33914357.529424667 0 33914357.529424667 6343196.7977237701 0 0 0 0 120695268.00021362 39441645.294773102 0 39441645.294773102 -1372676.8578634262 0 0 0 0 123419245.3096199 33924084.971452951 0 33924084.971452951 1679551.6674308777 0 0 0 0 108675269.29127693 39531138.775583029 0 39531138.775583029 -23532832.541290283 0 0 0 0 118387231.37289047 75671674.8527596 0 75671674.8527596 46571136.2713871 0 0 0 0 115743966.50661087 95588147.993356705 0 95588147.993356705 29695033.929281235 0 0 0 0 121874622.25540543 84824678.199192524 0 84824678.199192524 47715142.650636196 0 0 0 0 6517558.3627740405 -885185.44162312523 0 -885185.44162312523 -4455620.9777556695 0 0 0 0 163436358.57522583 88663948.612630844 0 88663948.612630844 16477047.089225292 0 0 0 0 171324546.9287262 53319909.281383038 0 53319909.281383038 66045336.914966106 0 0 0 0 163867146.85064745 238001966.94162434 0 238001966.94162434 240650992.38666439 0 0 0 0 3201729.6547283418 -831622.53195920773 0 -831622.53195920773 -2595847.5000719815 0 0 0 0 103698337.46203995 142280661.90954161 0 142280661.90954161 24476914.531099319 0 0 0 0 33629951.00869751 49377755.611966133 0 49377755.611966133 360211714.29613769 0 0 0 0 31517470.260795593 124190904.39007664 0 124190904.39007664 169611757.8515892 0 0 0 0 -55053011.9741745 23760449.551968098 0 23760449.551968098 186454303.84464264 0 0 0 0 -30834067.866119385 109731981.97943306 0 109731981.97943306 102159713.7919054 0 0 0 0 9153522.4116611481 40530932.51220727 0 40530932.51220727 208433310.14875031 0 0 0 0 49738702.373069763 186365932.58674073 0 186365932.58674073 292452720.04223144 0 0 0 0 40253574.217819214 88192706.095321178 0 88192706.095321178 119322636.35583353 0 0 0 0 70437049.984817505 310754400.79217529 0 310754400.79217529 351173589.34919453 0 0 0 0 70125317.481409401 359501018.48158532 0 359501018.48158532 536285976.23676682 0 0 0 0 2820309.2035675049 180420721.54832029 0 180420721.54832029 403074640.74612904 0 0 0 0 58608251.369018555 212179314.87340927 0 212179314.87340927 358389640.16698313 0 0 0 0 62842309.237983704 145473550.92173314 0 145473550.92173314 531930450.19344616 0 0 0 0 345974890.70648193 435749800.69340253 0 435749800.69340253 563728408.77299118 0 0 0 0 136889340.22351074 210460184.54050922 0 210460184.54050922 756045633.2369175 0 0 0 0 178100932.79140472 217196459.06332445 0 217196459.06332445 478748479.68781662 0 0 0 0 88422247.499084473 52863767.083715439 0 52863767.083715439 485228190.59129524 0 0 0 0 83007036.948654175 142696774.55512047 0 142696774.55512047 662001120.34991837 0 0 0 0 263181301.77127075 260817844.84590101 0 260817844.84590101 590664388.8148613 0 0 0 0 166286521.59576416 132438295.39708424 0 132438295.39708424 406618516.54307938 0 0 0 0 174890913.34092712 -16907207.086063385 0 -16907207.086063385 288067068.19898033 0 0 0 0 91731079.867179871 121932143.29227543 0 121932143.29227543 289937921.16008377 0 0 0 0 -8765854.4697570801 -108670604.17910004 0 -108670604.17910004 686219922.66071796 0 0 0 0 166274455.39758301 -120775113.29449272 0 -120775113.29449272 190448921.6081028 0 0 0 0 92546392.670349121 9403316.2540359497 0 9403316.2540359497 493410759.34922791 0 0 0 0 131661495.6849823 88153511.731204033 0 88153511.731204033 522005506.7087326 0 0 0 0 121005168.22473145 363617606.07592392 0 363617606.07592392 939302055.29815817 0 0 0 0 -11862028.37689209 320530.40041160583 0 320530.40041160583 823449251.54436874 0 0 0 0 -308016251.67144775 -14012607.956623077 0 -14012607.956623077 1183973165.8014145 0 0 0 0 52667578.63217926 101603304.41716862 0 101603304.41716862 794702702.1411438 0 0 0 0 -95420526.503875732 513827378.59361219 0 513827378.59361219 1699839254.6671143 0 0 0 0 38361726.097015381 1016979956.5169926 0 1016979956.5169926 1159345415.0443783 0 0 0 0 249239110.94259644 856069900.90424275 0 856069900.90424275 1077590510.463747 0 0 0 0 1144088603.7594681 1052004892.7921365 0 1052004892.7921365 696211514.85657978 0 0 0 0 603638610.20639038 556727662.0676198 0 556727662.0676198 730776196.51274538 0 0 0 0 85510173.541137695 328268751.27698183 0 328268751.27698183 907965710.47327995 0 0 0 0 305013546.82459641 495386053.95890558 0 495386053.95890558 849971377.72900295 0 0 0 0 320554710.49697876 839687799.54827571 0 839687799.54827571 577115440.77072287 0 0 0 0 1503616253.3465424 1060164430.1833487 0 1060164430.1833487 262581990.77853203 0 0 0 0 945685164.87083435 418498558.02629447 0 418498558.02629447 1067342284.0996761 0 0 0 0 1088598114.4001465 724998677.64143181 0 724998677.64143181 1271775895.2255011 0 0 0 0 2426896572.8943787 39576299.983736992 0 39576299.983736992 544771253.62073708 0 0 0 0 440889341.59329224 1782890785.6157503 0 1782890785.6157503 2555397740.6379223 0 0 0 0 1051115716.6993713 464800360.45563126 0 464800360.45563126 532918652.26177979 0 0 0 0 848119243.19224548 202281451.90993381 0 202281451.90993381 235820739.21381712 0 0 0 0 852953143.69681549 367796456.78964746 0 367796456.78964746 265741852.55817413 0 0 0 0 1005769922.208313 243663030.24271679 0 243663030.24271679 290469607.53689599 0 0 0 0 1088310840.5618896 508564802.28885889 0 508564802.28885889 349687881.90717745 0 0 0 0 1214121771.8341064 769605826.87857437 0 769605826.87857437 995624691.01668215 0 0 0 0 1102839729.4243164 606962945.79277754 0 606962945.79277754 995092559.43096542 0 0 0 0 1055606364.1149673 282144999.19922817 0 282144999.19922817 514906256.26665974 0 0 0 0 1038910222.3349304 523323020.34220457 0 523323020.34220457 1147232544.7998505 0 0 0 0 1042371537.6634483 326082081.57487839 0 326082081.57487839 763006162.4860878 0 0 0 0 1123434705.162178 569434135.02075589 0 569434135.02075589 702346449.18617344 0 0 0 0 981913887.06665039 277868736.11023474 0 277868736.11023474 477416968.47118044 0 0 0 0 1420353884.6969757 1338197496.950913 0 1338197496.950913 696221690.45376801 0 0 0 0 1084807799.4464722 553939011.46092176 0 553939011.46092176 739665687.12673712 0 0 0 0 1861313265.5193481 1004041411.7433665 0 1004041411.7433665 903112932.77561259 0 0 0 0 993471271.29905701 845726310.31975579 0 845726310.31975579 1757607969.8100338 0 0 0 0 1440732249.4745026 1563716938.0691142 0 1563716938.0691142 1239230844.1964755 0 0 0 0 1038224.0399916321 -1201426.4224880449 0 -1201426.4224880449 2775614.5607339372 0 0 0 0 1501421866.9276886 1843134661.6623435 0 1843134661.6623435 2037023320.421222 0 0 0 0 -584271905.43012238 -418814281.85838175 0 -418814281.85838175 948852267.13762093 0 0 0 0 -420625581.62710571 180137941.40803337 0 180137941.40803337 2372089625.9986048 0 0 0 0 1115563066.3648682 298847132.31557703 0 298847132.31557703 2662049472.4948893 0 0 0 0 12054099.227020264 -216126151.12872601 0 -216126151.12872601 -62192439.832641602 0 0 0 0 1853696.5209404994 -1663021.7034724094 0 -1663021.7034724094 8011499.6249723183 0 0 0 0 -20575331.108718872 215429696.80855083 0 215429696.80855083 -97926025.495075226 0 0 0 0 -300568219.98258209 76833134.014079094 0 76833134.014079094 1591426.6441383362 0 0 0 0 115606022.7396698 386842878.51173019 0 386842878.51173019 1325509537.4164808 0 0 0 0 1933176514.1628132 1291292170.1358988 0 1291292170.1358988 631545848.01104188 0 0 0 0 562424.98452480137 1398667.1009954605 0 1398667.1009954605 3009411.6856753998 0 0 0 0 2361443796.5626278 12855004.157849137 0 12855004.157849137 -79750376.774436593 0 0 0 0 827355176.80366516 -126385208.82291794 0 -126385208.82291794 141431618.65059769 0 0 0 0 -40298604.949970245 110385487.1040864 0 110385487.1040864 -43523649.128204346 0 0 0 0 874370.15236207098 6507616.530438045 0 6507616.530438045 12696370.746352319 0 0 0 0 46607650.633483887 8334955.2500038147 0 8334955.2500038147 -45961023.183097839 0 0 0 0 -20584342.156162262 140184149.33169842 0 140184149.33169842 -28898455.484409332 0 0 0 0 71247925.044265747 26967459.999862671 0 26967459.999862671 -85960459.022434711 0 0 0 0 30849773.926979065 -1427638.7554397583 0 -1427638.7554397583 -44068230.594482422 0 0 0 0 117155730.885849 -5177920.8945064545 0 -5177920.8945064545 -45743937.865347385 0 0 0 0 79022390.239635468 56657745.989690304 0 56657745.989690304 11794859.58221817 0 0 0 0 84269606.457168579 -44267524.906095505 0 -44267524.906095505 217691374.86503601 0 0 0 0 113424071.81120491 68619736.092882633 0 68619736.092882633 232334035.77932739 0 0 0 0 159662574.64193726 -41391193.834787369 0 -41391193.834787369 62412654.795618057 0 0 0 0 104167743.73596191 92725675.748722076 0 92725675.748722076 153466781.49741578 0 0 0 0 82848941.163963318 11193290.801721096 0 11193290.801721096 -15835494.173271179 0 0 0 0 1973373995.2025576 -1326875197.4122751 0 -1326875197.4122751 -611209716.52626777 0 0 0 0 1050038528.3622017 -1310391048.8327603 0 -1310391048.8327603 220094843.89264947 0 0 0 0 4084167473.2776184 -2046339103.7948372 0 -2046339103.7948372 -580124314.52205634 0 0 0 0 1932170063.2764854 -1127364348.9188075 0 -1127364348.9188075 -968213254.33190262 0 0 0 0 2536411513.1141109 -1197237862.1393831 0 -1197237862.1393831 -1118776569.0677857 0 0 0 0 2080716772.3199997 -706032164.52401781 0 -706032164.52401781 -1647983322.1888914 0 0 0 0 4096387741.1629734 688187256.52827942 0 688187256.52827942 -2358964300.8290348 0 0 0 0 1365603907.7068405 -903304261.67860222 0 -903304261.67860222 -667604044.09800637 0 0 0 0 1368847262.3725014 -871110275.97617912 0 -871110275.97617912 -770486969.78517866 0 0 0 0 981575883.64380646 -798240799.11717665 0 -798240799.11717665 -242475460.34739929 0 0 0 0 1357135818.3319244 -836911541.54717588 0 -836911541.54717588 -392560107.1695962 0 0 0 0 938778610.09514284 -415940434.71863914 0 -415940434.71863914 -276962659.59548187 0 0 0 0 479918081.36851501 -776020902.35482061 0 -776020902.35482061 115461290.21476072 0 0 0 0 1002385892.0503006 -981917524.88955736 0 -981917524.88955736 1594665.9854763895 0 0 0 0 151451375.97861862 -367701019.94704276 0 -367701019.94704276 537328377.51531196 0 0 0 0 777157614.35232925 -1097942854.2215841 0 -1097942854.2215841 386154246.55126858 0 0 0 0 228967547.94438934 -182075366.79789495 0 -182075366.79789495 -180152134.02377278 0 0 0 0 780595365.28966904 -580281597.9509449 0 -580281597.9509449 -134773994.73372149 0 0 0 0 239816919.80435944 -81819542.703774273 0 -81819542.703774273 -142949288.54652396 0 0 0 0 204534874.83853912 -59955269.973603725 0 -59955269.973603725 -577888446.60581779 0 0 0 0 206857720.37046432 -340173532.65103102 0 -340173532.65103102 -496859323.3670311 0 0 0 0 75037593.861450195 -248217601.91722488 0 -248217601.91722488 -353413440.79984105 0 0 0 0 521159086.21362495 -425552654.63183069 0 -425552654.63183069 -363786268.07205296 0 0 0 0 247175040.23809433 -156260761.28968763 0 -156260761.28968763 -386026875.48834133 0 0 0 0 474894588.19434738 -372279455.78880835 0 -372279455.78880835 -722680970.47886276 0 0 0 0 772501749.17217636 -1172673602.3596168 0 -1172673602.3596168 181683902.66205716 0 0 0 0 1701976191.0338469 -2702864637.4978108 0 -2702864637.4978108 1251704787.8888726 0 0 0 0 4091025081.6419148 2223361841.2340417 0 2223361841.2340417 870491920.95882368 0 0 0 0 -680000330.50011826 -1256641629.9162111 0 -1256641629.9162111 1854179666.6992915 0 0 0 0 3885032.7182865813 -2239687.3131818213 0 -2239687.3131818213 2362144.9362942046 0 0 0 0 2117610723.7165184 950988599.73042214 0 950988599.73042214 65541215.231344879 0 0 0 0 -226891528.60684586 -582961028.10284519 0 -582961028.10284519 -651050619.44089603 0 0 0 0 9236477.3800780606 -6999272.4009819087 0 -6999272.4009819087 4043097.4326171698 0 0 0 0 2125408691.4516335 571451813.25224936 0 571451813.25224936 9781530.7400779724 0 0 0 0 683067646.93404865 492145324.536892 0 492145324.536892 175575809.06886625 0 0 0 0 4094804734.9278641 870099879.99638867 0 870099879.99638867 -639325794.74861526 0 0 0 0 2843340859.3555622 238623987.34461737 0 238623987.34461737 -573994757.47814071 0 0 0 0 2854946741.013195 169504962.31349212 0 169504962.31349212 -271175551.78898722 0 0 0 0 722307293.26069736 -421485598.01848209 0 -421485598.01848209 -24482136.212548792 0 0 0 0 3283299680.8941002 -1042921271.1062641 0 -1042921271.1062641 89048490.393936634 0 0 0 0 2561928.718470566 -1989523.166843175 0 -1989523.166843175 -1595076.0806333497 0 0 0 0 416368556.13124752 112218791.42987585 0 112218791.42987585 -364712148.26876402 0 0 0 0 3331880520.2676568 -1749810036.0082893 0 -1749810036.0082893 -632334576.7556808 0 0 0 0 3529870067.700593 224085583.15651059 0 224085583.15651059 -577357230.76717687 0 0 0 0 4094501424.2141895 381516903.26101971 0 381516903.26101971 -287380761.85059828 0 0 0 0 5515112854.9383736 -506720542.94501781 0 -506720542.94501781 -1049230960.5883647 0 0 0 0 21952342.030931473 -8357658.44227314 0 -8357658.44227314 -86814776.784680977 0 0 0 0 39806243.466703415 -62347274.447206497 0 -62347274.447206497 -2647951.3214793205 0 0 0 0 -89573832.911000729 -23562481.399816751 0 -23562481.399816751 50176702.217164516 0 0 0 0 -100785758.14707565 -36523948.136065006 0 -36523948.136065006 319635143.23284292 0 0 0 0 -5965143.82056427 -56152830.718064308 0 -56152830.718064308 62719403.511819363 0 0 0 0 418117868.04091465 264197917.36608469 0 264197917.36608469 11180881.989724398 0 0 0 0 6476510.6743072625 -6562883.7613530466 0 -6562883.7613530466 -4540499.4493604749 0 0 0 0 7630112.6475193501 12077326.617549956 0 12077326.617549956 100116097.43167591 0 0 0 0 50998446.636043549 5957787.5730400085 0 5957787.5730400085 -14021500.459860802 0 0 0 0 2887600.1928288443 75269.00395044731 0 75269.00395044731 -2543315.1051779985 0 0 0 0 16757816.630748749 -30557071.100118518 0 -30557071.100118518 -143870220.48814964 0 0 0 0 18058603.842592143 -4543907.8810561895 0 -4543907.8810561895 -7989832.2764549404 0 0 0 0 9014209.5486755371 224285360.61155796 0 224285360.61155796 -459066159.32791471 0 0 0 0 401213238.6444416 -268641603.37500358 0 -268641603.37500358 88727373.188397571 0 0 0 0 15905768.942494154 -48629650.438649878 0 -48629650.438649878 -401291357.57953835 0 0 0 0 13205474.319597643 -10312351.680033039 0 -10312351.680033039 2845512.1505146795 0 0 0 0 162574716.34897614 -118907672.92998123 0 -118907672.92998123 -410083125.18414849 0 0 0 0 202188329.4630127 26603797.784979105 0 26603797.784979105 -585788518.86750793 0 0 0 0 171423391.06668854 -26001784.786999702 0 -26001784.786999702 -632463914.20003319 0 0 0 0 311979737.26752472 -152938148.76142931 0 -152938148.76142931 -616395447.31116009 0 0 0 0 125184469.93803406 -197332607.92305946 0 -197332607.92305946 -797421772.24172831 0 0 0 0 186890508.74795532 117214028.38910675 0 117214028.38910675 -740100194.98657012 0 0 0 0 -294016252.31924438 -110257336.85478449 0 -110257336.85478449 -855541970.68645048 0 0 0 0 -346274922.84291077 590252510.88938856 0 590252510.88938856 -420413094.16333389 0 0 0 0 2527069.945227772 -333271.39304038696 0 -333271.39304038696 -2225351.6904011285 0 0 0 0 175103648.19619751 44034785.889530182 0 44034785.889530182 -1152697479.8876162 0 0 0 0 -1041930647.2602005 -301425500.34031463 0 -301425500.34031463 -3094444.3373937607 0 0 0 0 -331168886.81552887 350512742.03608131 0 350512742.03608131 -963971559.77832091 0 0 0 0 -124693428.4728241 -68265230.65657711 0 -68265230.65657711 -1682930691.2711854 0 0 0 0 2335455.7394695953 -2224166.4532391848 0 -2224166.4532391848 -1596852.5473081244 0 0 0 0 7398417.5580406189 137056529.26326871 0 137056529.26326871 -1647865235.4156332 0 0 0 0 -301694788.47455597 -482719868.48176003 0 -482719868.48176003 -1195834218.0414443 0 0 0 0 -469207549.7518692 -161811251.05103207 0 -161811251.05103207 -83158234.00655365 0 0 0 0 6356950.6821770668 -24521926.318779647 0 -24521926.318779647 4476907.4430351257 0 0 0 0 5999989.0084407441 -10346772.247226985 0 -10346772.247226985 7174245.6778981574 0 0 0 0 10662340.995628357 50342576.608411789 0 50342576.608411789 -298791932.59023476 0 0 0 0 15948479.054205365 -4217054.8726884704 0 -4217054.8726884704 -7316910.6977564525 0 0 0 0 8572037.1125581264 -13955196.65325439 0 -13955196.65325439 -4666125.9758377075 0 0 0 0 18628023.999549866 -20203135.504210472 0 -20203135.504210472 -2619337.9097595215 0 0 0 0 -26851.360767364502 -26885535.408817768 0 -26885535.408817768 54142954.367267609 0 0 0 0 37769916.702943802 -39724919.500112414 0 -39724919.500112414 16238735.706630707 0 0 0 0 -8480815.9514789581 -7172982.59357512 0 -7172982.59357512 7209284.6522421837 0 0 0 0 -11955704.260528564 -6635648.7897491455 0 -6635648.7897491455 20409216.39155376 0 0 0 0 11994532.857347488 -29818414.001998186 0 -29818414.001998186 7773706.1189575195 0 0 0 0 -3063383.7511959076 3514362.2701691389 0 3514362.2701691389 6692852.8656888008 0 0 0 0 14388039.583432674 39596179.583389461 0 39596179.583389461 21782937.487455845 0 0 0 0 13882805.60974884 2459208.8337576389 0 2459208.8337576389 -53763860.137696475 0 0 0 0 -666679101.14766693 -454893720.07027584 0 -454893720.07027584 31988368.831719398 0 0 0 0 562791905.09535599 19775576.815059006 0 19775576.815059006 -207483560.83245122 0 0 0 0 8421553.0503866561 -4590808.7027626019 0 -4590808.7027626019 -883326.77873275382 0 0 0 0 3964205.7868537903 -1257006.554056406 0 -1257006.554056406 -17872808.45884122 0 0 0 0 6041198.8088082764 -7136157.7610850427 0 -7136157.7610850427 4735894.3472262267 0 0 0 0 -639906050.30092621 -467271793.37018657 0 -467271793.37018657 -98338275.106815338 0 0 0 0 -527581807.54033947 -127615878.64104447 0 -127615878.64104447 92533860.370105743 0 0 0 0 584600621.89641571 -360643535.68491858 0 -360643535.68491858 -199618340.94150114 0 0 0 0 -51260682.512626648 80834307.187744141 0 80834307.187744141 -85985517.919387579 0 0 0 0 -521244759.56396484 -238666430.14831305 0 -238666430.14831305 -103755897.29429118 0 0 0 0 -191156102.5011816 -409245042.34339213 0 -409245042.34339213 -263449702.24232864 0 0 0 0 153047608.35334396 -111444312.62630582 0 -111444312.62630582 -840693699.06238699 0 0 0 0 -128609294.2703476 -71036665.16986084 0 -71036665.16986084 -217457971.68467265 0 0 0 0 231945198.01736736 170461689.07413447 0 170461689.07413447 -189837585.9338603 0 0 0 0 743736999.57619858 -77403405.269442558 0 -77403405.269442558 -389903756.48032606 0 0 0 0 615904378.18169785 388076313.78430212 0 388076313.78430212 -365488932.17121792 0 0 0 0 421119435.57724762 479704541.64973772 0 479704541.64973772 94974325.144417048 0 0 0 0 220852495.09517097 84690784.679978654 0 84690784.679978654 -457689155.93217671 0 0 0 0 138967.05772311985 -567032.05299863312 0 -567032.05299863312 137285.80404612303 0 0 0 0 49815119.829603195 306063072.4231869 0 306063072.4231869 -468061847.49775791 0 0 0 0 -172142408.65277863 42447793.422974586 0 42447793.422974586 -367486921.06075621 0 0 0 0 -962463588.88547897 -322924147.39733815 0 -322924147.39733815 -738109231.4776783 0 0 0 0 -246718224.80068207 139601353.26790023 0 139601353.26790023 -513456347.50509453 0 0 0 0 21019439.919342041 -24059912.397469044 0 -24059912.397469044 -316792728.16126394 0 0 0 0 94191515.929340363 -22006869.602726519 0 -22006869.602726519 -859618927.47349167 0 0 0 0 -384625240.03341675 -345397162.62929583 0 -345397162.62929583 -562609878.73259592 0 0 0 0 -90364860.740089417 -239247987.90855151 0 -239247987.90855151 -180021163.84631729 0 0 0 0 -242886734.3013649 -93238563.751504898 0 -93238563.751504898 -239117313.8712132 0 0 0 0 392086.19789134338 -1339905.4103437322 0 -1339905.4103437322 322030.31543078943 0 0 0 0 -205946629.97512436 92070831.033944413 0 92070831.033944413 -23487790.852249712 0 0 0 0 239674820.87392044 2395278.8021339178 0 2395278.8021339178 -459709840.47990847 0 0 0 0 493122511.17789459 -627752569.48865557 0 -627752569.48865557 -201316296.3088823 0 0 0 0 149662.54832085967 -1045687.8827080792 0 -1045687.8827080792 277584.11386260093 0 0 0 0 179490637.04319763 205513779.86966729 0 205513779.86966729 -48638406.023489237 0 0 0 0 376196807.38793182 304950565.49583721 0 304950565.49583721 -50615259.095376372 0 0 0 0 426477409.6271143 291447124.01895499 0 291447124.01895499 -108140538.98173666 0 0 0 0 432095183.04837799 316105557.76791465 0 316105557.76791465 -48389192.768386543 0 0 0 0 670561822.91301727 348611350.48246372 0 348611350.48246372 -96519588.652896717 0 0 0 0 142381409.72575569 347869347.84964883 0 347869347.84964883 56635899.06132102 0 0 0 0 558899735.88217545 167393443.11617294 0 167393443.11617294 -124390003.36433357 0 0 0 0 545136774.88631058 185078681.61409089 0 185078681.61409089 -145345695.8832331 0 0 0 0 430704049.35612869 257640572.86430287 0 257640572.86430287 -67009679.977542639 0 0 0 0 411242964.47618103 101130278.2281909 0 101130278.2281909 -154100077.60584331 0 0 0 0 17463853.09677124 -115920476.07815051 0 -115920476.07815051 -84865870.974308014 0 0 0 0 470556229.87479401 -195551102.65693152 0 -195551102.65693152 -83056917.332159281 0 0 0 0 532869530.04053307 -170573209.13147467 0 -170573209.13147467 -73423802.786949873 0 0 0 0 408546065.04457855 -154894398.24675012 0 -154894398.24675012 -31361241.386897087 0 0 0 0 949930629.74125671 -326191070.04376531 0 -326191070.04376531 70862731.342893749 0 0 0 0 478631993.68743324 -121949403.995488 0 -121949403.995488 -16983460.109432042 0 0 0 0 807159972.22167349 -823616350.75970423 0 -823616350.75970423 316955380.8300674 0 0 0 0 866664970.29603767 -418638286.88758248 0 -418638286.88758248 2484574.6978442669 0 0 0 0 1133355378.4635773 -574506361.5703665 0 -574506361.5703665 92814065.084830761 0 0 0 0 1298189646.1277847 -126983425.55936694 0 -126983425.55936694 -209181557.20306504 0 0 0 0 700195519.70384598 15987741.853132516 0 15987741.853132516 -98515590.757412434 0 0 0 0 865876763.32086563 123276325.51316512 0 123276325.51316512 -176966130.62195936 0 0 0 0 971848421.5899334 222168464.33049899 0 222168464.33049899 -92020657.893535614 0 0 0 0 1290608236.5552788 -274272322.72987384 0 -274272322.72987384 -37702034.386711121 0 0 0 0 1438439337.663528 -637713124.41045809 0 -637713124.41045809 824163306.60677004 0 0 0 0 1681321872.5850449 -102498670.22862136 0 -102498670.22862136 -8895113.178072691 0 0 0 0 1480017231.0484009 -429492421.83299375 0 -429492421.83299375 -58590658.544059657 0 0 0 0 1002281951.7758865 -624627215.16671181 0 -624627215.16671181 175158146.80252135 0 0 0 0 828168111.24320984 34658619.053429842 0 34658619.053429842 -22028566.260921478 0 0 0 0 1983178764.8225174 -634368461.06172919 0 -634368461.06172919 439837019.457371 0 0 0 0 2279214875.6207047 -1786295752.4052215 0 -1786295752.4052215 975736836.88267922 0 0 0 0 2498939409.9602661 -1662444392.8306451 0 -1662444392.8306451 520460425.86669159 0 0 0 0 1909188574.1754713 -1713589586.8473518 0 -1713589586.8473518 563413865.59176004 0 0 0 0 2049040281.4884386 -488754645.15393132 0 -488754645.15393132 -386383190.86596292 0 0 0 0 3988510801.5908737 -1334378938.2372527 0 -1334378938.2372527 -247641221.43095523 0 0 0 0 4082268.1219004132 -2611354.2929618191 0 -2611354.2929618191 -893982.05433106655 0 0 0 0 176852960.72777557 51554024.931221485 0 51554024.931221485 -91604066.864819884 0 0 0 0 20812524.730419159 -52327740.014302254 0 -52327740.014302254 -46292434.029974937 0 0 0 0 211718.4207704626 -287912.57281345781 0 -287912.57281345781 107460.70434960347 0 0 0 0 1998527366.0858517 -914662428.99062848 0 -914662428.99062848 -212866208.46438032 0 0 0 0 3106813195.3237152 -1730860676.9630039 0 -1730860676.9630039 182088304.34352231 0 0 0 0 2659477862.0534134 -988849605.47147036 0 -988849605.47147036 799717395.15363979 0 0 0 0 4425717043.5809135 -1785336801.7869363 0 -1785336801.7869363 233689383.88918781 0 0 0 0 -111918.52695921168 -137774.01357937232 0 -137774.01357937232 2901407.880905455 0 0 0 0 2373972368.3244095 -1812148532.0529642 0 -1812148532.0529642 2678680849.6761298 0 0 0 0 42359935.537957668 183644918.41130358 0 183644918.41130358 855986817.88296986 0 0 0 0 131235068.50497437 -1074862495.327395 0 -1074862495.327395 1418985899.7943964 0 0 0 0 1612196459.6183205 -1422526468.2549775 0 -1422526468.2549775 615178595.90966177 0 0 0 0 2244448706.2782879 -495429314.53613019 0 -495429314.53613019 408691974.04662514 0 0 0 0 1755366007.250267 -824807955.43698359 0 -824807955.43698359 191369923.93528795 0 0 0 0 1278729189.8262258 -578447949.99669099 0 -578447949.99669099 64254488.040996552 0 0 0 0 1210512296.8876247 -1089003000.3098109 0 -1089003000.3098109 335791711.37438059 0 0 0 0 586244060.67870331 -795968101.2280221 0 -795968101.2280221 362070539.41444373 0 0 0 0 573791170.34593964 -885368134.90866506 0 -885368134.90866506 452629680.9291513 0 0 0 0 799730827.23518372 -373527846.47706664 0 -373527846.47706664 328912728.58368981 0 0 0 0 218119581.60607719 -853550287.825068 0 -853550287.825068 420183747.14986944 0 0 0 0 -79399672.891866684 -297230010.50089735 0 -297230010.50089735 389506766.71341276 0 0 0 0 553680885.40218353 -1080795109.7212887 0 -1080795109.7212887 526028208.12998962 0 0 0 0 279694182.15303802 -316832920.32653666 0 -316832920.32653666 105972792.33622503 0 0 0 0 4762651.6720007844 -1851135.0322517287 0 -1851135.0322517287 -1692411.4955037115 0 0 0 0 503708945.04989624 -299181592.74997139 0 -299181592.74997139 106015934.67764568 0 0 0 0 476513417.07192993 -342575115.4936353 0 -342575115.4936353 112090810.69958878 0 0 0 0 374763050.59988117 -183416804.34964406 0 -183416804.34964406 17522282.357048035 0 0 0 0 51140877.618124008 -81158732.450595856 0 -81158732.450595856 50139067.476754189 0 0 0 0 740455356.08760071 -252070070.80849409 0 -252070070.80849409 -170072705.64618421 0 0 0 0 678132052.13420868 -420878746.3079803 0 -420878746.3079803 -26596407.927396297 0 0 0 0 136282268.1390419 8542328.6988939047 0 8542328.6988939047 -55150845.561985016 0 0 0 0 1195136429.2378693 -346981770.03707623 0 -346981770.03707623 -209280212.0264287 0 0 0 0 -288699185.0433445 -34117508.648023158 0 -34117508.648023158 -77945254.885528564 0 0 0 0 -646265.33309779689 94087.391222354025 0 94087.391222354025 1653198.5198183311 0 0 0 0 691040467.60137939 -199510026.60929966 0 -199510026.60929966 66320260.918115616 0 0 0 0 2245039.2498647496 -783341.76339078508 0 -783341.76339078508 -922415.18230010802 0 0 0 0 873271314.05303955 -1005967650.0292106 0 -1005967650.0292106 776950404.0702188 0 0 0 0 1202788371.4313049 91830055.715332985 0 91830055.715332985 -1629811776.1284046 0 0 0 0 1536715025.1803818 -902894173.1081214 0 -902894173.1081214 356951302.24909782 0 0 0 0 1452381325.3646393 -102375087.1517477 0 -102375087.1517477 -1483262630.9567547 0 0 0 0 1037967906.4539185 -1190338139.1927378 0 -1190338139.1927378 1183228758.9578953 0 0 0 0 1740427292.6112061 401509923.45580053 0 401509923.45580053 -1512355226.7087798 0 0 0 0 -1055376343.1492462 130575824.96884203 0 130575824.96884203 -107806215.37606001 0 0 0 0 2023631.6701010168 -1320331.0867524901 0 -1320331.0867524901 -690838.44900756143 0 0 0 0 566896078.92826843 -498734505.84286708 0 -498734505.84286708 241535757.75990033 0 0 0 0 1261793365.3180847 -888110431.85616112 0 -888110431.85616112 445278481.3694725 0 0 0 0 323779181.71181011 -548395423.7089839 0 -548395423.7089839 711919882.9045105 0 0 0 0 1015901358.324173 -667395778.86718333 0 -667395778.86718333 255588751.11924914 0 0 0 0 1201484999.4459887 -669282310.7255882 0 -669282310.7255882 288186874.74183512 0 0 0 0 913732203.78505707 -821896419.32537675 0 -821896419.32537675 226445750.45325291 0 0 0 0 767120803.39093018 -750855920.05210376 0 -750855920.05210376 393438438.90416193 0 0 0 0 728427798.8735733 -846788357.72767544 0 -846788357.72767544 443103349.67991757 0 0 0 0 717614302.86048889 -899115004.44200635 0 -899115004.44200635 270168109.42212605 0 0 0 0 190556765.61429977 -628877921.50192666 0 -628877921.50192666 398190991.39354116 0 0 0 0 763744934.20626068 -774832215.98541844 0 -774832215.98541844 275275047.0852443 0 0 0 0 1377074223.3802261 -785658649.18534327 0 -785658649.18534327 170830184.71495694 0 0 0 0 689481122.94074249 -1042681775.5315021 0 -1042681775.5315021 320810927.97268164 0 0 0 0 -978239469.53246307 -713303630.42002821 0 -713303630.42002821 281796993.41479725 0 0 0 0 1080738.5963692851 -1343357.7045475543 0 -1343357.7045475543 1708998.0181183787 0 0 0 0 1604794903.0240707 -1147306462.4912863 0 -1147306462.4912863 644632493.71934009 0 0 0 0 1137732381.8239632 -651255782.64955902 0 -651255782.64955902 387797022.6882596 0 0 0 0 992777505.3592453 -627427186.2854495 0 -627427186.2854495 380187943.82670295 0 0 0 0 964816674.32292175 -640045609.64083672 0 -640045609.64083672 739700857.47257507 0 0 0 0 1213604474.964756 -493279067.74672449 0 -493279067.74672449 392484513.40308022 0 0 0 0 1103476676.6000137 -123367219.35321271 0 -123367219.35321271 104786898.01846838 0 0 0 0 933570268.23124695 -783973255.92151523 0 -783973255.92151523 361016183.72795463 0 0 0 0 925025543.68917847 -727925599.88596022 0 -727925599.88596022 443841933.58353508 0 0 0 0 2681729080.6206322 69092265.004267454 0 69092265.004267454 124771142.99285316 0 0 0 0 198619590.06193161 -314347091.2676475 0 -314347091.2676475 -462159313.85070229 0 0 0 0 -638614374.37039185 -554134822.14263749 0 -554134822.14263749 -283043163.73675632 0 0 0 0 3317989.9688390791 -3887057.1859268621 0 -3887057.1859268621 3289261.3394597583 0 0 0 0 877158328.03713608 296790870.70506066 0 296790870.70506066 236863301.73879647 0 0 0 0 757376756.14357758 69827224.723002911 0 69827224.723002911 125118415.79240043 0 0 0 0 484672001.31747437 232010415.88326418 0 232010415.88326418 278380978.69840908 0 0 0 0 571812470.51592445 -64171301.632728726 0 -64171301.632728726 -204643378.42140245 0 0 0 0 351856665.11099243 -96544913.271933913 0 -96544913.271933913 -28606435.138502121 0 0 0 0 570857063.97611618 20198461.986561611 0 20198461.986561611 -448710823.83365726 0 0 0 0 511943341.42510223 87812239.718812108 0 87812239.718812108 -715265402.01832938 0 0 0 0 356999932.97706604 350578222.1063084 0 350578222.1063084 -805277575.50833559 0 0 0 0 436461621.96482468 -112076125.68758091 0 -112076125.68758091 -220998840.25922489 0 0 0 0 545975038.5655365 129649516.09033942 0 129649516.09033942 -358436220.62284505 0 0 0 0 369723441.34919739 50047928.583188176 0 50047928.583188176 -389373151.13526988 0 0 0 0 481589356.64796448 -7123040.5512961149 0 -7123040.5512961149 -641474193.44805598 0 0 0 0 340804570.27007294 -133746770.47386932 0 -133746770.47386932 -515304053.30635977 0 0 0 0 319897021.19932556 50419907.56541276 0 50419907.56541276 -374803211.88311291 0 0 0 0 -21173779.249168396 -241772053.373909 0 -241772053.373909 -168471960.74157476 0 0 0 0 596390328.81178284 -194197103.10312974 0 -194197103.10312974 -176194054.35980272 0 0 0 0 341840232.55360794 -153587008.77024251 0 -153587008.77024251 115979755.017699 0 0 0 0 361307130.30792236 -655945973.37294865 0 -655945973.37294865 139648367.90134764 0 0 0 0 793027666.51074886 -576847739.17969477 0 -576847739.17969477 120162183.94132876 0 0 0 0 581063247.5264535 -391084515.41045678 0 -391084515.41045678 -327020497.22183418 0 0 0 0 176642320.82939148 -742446532.60741591 0 -742446532.60741591 -621711751.21595502 0 0 0 0 -218189751.60144043 -73056552.923553944 0 -73056552.923553944 -302746364.31576204 0 0 0 0 -68746143.946060181 -267006913.44134474 0 -267006913.44134474 -885419669.93630147 0 0 0 0 2025361.5017265901 308255.55918395892 0 308255.55918395892 -1343266.2884100983 0 0 0 0 -445887275.90472412 -355572863.57490873 0 -355572863.57490873 -87716943.840604782 0 0 0 0 1577332.6537882909 -498826.65370425954 0 -498826.65370425954 -1478480.9150379484 0 0 0 0 73894679.236053467 -422425427.7814467 0 -422425427.7814467 -1019651756.7479947 0 0 0 0 62993876.29536438 130288035.63905752 0 130288035.63905752 -766242982.09081173 0 0 0 0 231276437.92513275 -113474486.99368346 0 -113474486.99368346 -418570753.41415405 0 0 0 0 -17181471.267261982 -200694112.27196896 0 -200694112.27196896 -365387726.98638988 0 0 0 0 16451975.521598816 -64596740.854344368 0 -64596740.854344368 -65843602.273376584 0 0 0 0 11097741.278106689 -1994879.1923704147 0 -1994879.1923704147 -282302.87445569038 0 0 0 0 5948827.1334536634 -4477749.4804998301 0 -4477749.4804998301 -1572430.4840267035 0 0 0 0 -34109996.061691284 11121535.764402628 0 11121535.764402628 -77770402.879896775 0 0 0 0 8858604.6062382124 2234011.2975569144 0 2234011.2975569144 -3443774.1279420885 0 0 0 0 8685253.0662078857 -1746983.8487234116 0 -1746983.8487234116 -307268.87757873535 0 0 0 0 9732007.0525970459 -2302120.6520681381 0 -2302120.6520681381 -3501845.0719285011 0 0 0 0 14674230.549812317 26873179.071681798 0 26873179.071681798 -54429422.264644623 0 0 0 0 6003329.9433658458 -4214960.5367369987 0 -4214960.5367369987 -1948664.3625394753 0 0 0 0 7045408.3938903809 -3636309.6317360401 0 -3636309.6317360401 -3662295.2166692019 0 0 0 0 8176909.0141940117 -4772615.2563588843 0 -4772615.2563588843 -7495849.2598390579 0 0 0 0 10947674.995422363 -3060121.9497822523 0 -3060121.9497822523 -10419298.261941195 0 0 0 0 4739010.9152490348 445765.90652834252 0 445765.90652834252 -3169861.0565225249 0 0 0 0 822407227.29703522 -25983787.333281994 0 -25983787.333281994 138845220.797575 0 0 0 0 693127367.53746414 150456572.6482563 0 150456572.6482563 39682403.012861252 0 0 0 0 17479600.132064819 -7946605.8506176472 0 -7946605.8506176472 11529175.174448773 0 0 0 0 6643862.2927736714 -4465212.8579355851 0 -4465212.8579355851 -3180643.419288523 0 0 0 0 8281351.5094094276 -2856184.8367797956 0 -2856184.8367797956 -5132650.0225305557 0 0 0 0 -16866397.736686707 -13177217.665341318 0 -13177217.665341318 11058236.49025017 0 0 0 0 2359838.2293139771 -253188.14899075031 0 -253188.14899075031 -2832727.6916851187 0 0 0 0 1471978384.5066681 -181932044.44987857 0 -181932044.44987857 -534840844.45135593 0 0 0 0 6753951.5419158936 12545437.648109794 0 12545437.648109794 -98872154.903817296 0 0 0 0 37340437.803447723 16957594.758781269 0 16957594.758781269 -100864132.23058176 0 0 0 0 48895585.348602295 14759458.860708356 0 14759458.860708356 -403399114.01304317 0 0 0 0 266896221.33978271 43491414.625694275 0 43491414.625694275 -401077913.1600371 0 0 0 0 186897636.58488464 211879388.21289021 0 211879388.21289021 -606067109.33090138 0 0 0 0 227875766.68064499 -69467155.31719625 0 -69467155.31719625 -629809477.76133418 0 0 0 0 633803.75652332231 -376465.11518905312 0 -376465.11518905312 -1231886.764206629 0 0 0 0 -424468707.06991577 560416731.25316501 0 560416731.25316501 -452034591.6445502 0 0 0 0 -151258950.90080261 222163496.9034574 0 222163496.9034574 -238051323.79265106 0 0 0 0 157013913.95883179 194879366.45495915 0 194879366.45495915 -588755409.91879892 0 0 0 0 163864130.02141511 508604382.93442798 0 508604382.93442798 -808521782.16488791 0 0 0 0 525584339.52107239 -210236432.28130969 0 -210236432.28130969 -331055254.01427412 0 0 0 0 1014745239.4635086 -857167488.98928308 0 -857167488.98928308 -387722910.3928169 0 0 0 0 299156153.04575348 -902524510.40863979 0 -902524510.40863979 -231550277.42516926 0 0 0 0 6161888.8772556633 -7903464.488821527 0 -7903464.488821527 6208347.5337315109 0 0 0 0 -34260971.99753952 -186740776.25807762 0 -186740776.25807762 -143410536.34906673 0 0 0 0 653646761.76785278 -260542764.38930988 0 -260542764.38930988 502765415.39616823 0 0 0 0 654000140.37973022 -296797927.4609673 0 -296797927.4609673 -1121268383.0341415 0 0 0 0 794134721.71315002 -90375608.30350256 0 -90375608.30350256 -346213602.70412827 0 0 0 0 792162230.80495453 88697897.583441257 0 88697897.583441257 33678457.519724369 0 0 0 0 -413714435.29017639 403666235.0040617 0 403666235.0040617 -284751517.82870388 0 0 0 0 -1393635150.8933811 -807163674.80053806 0 -807163674.80053806 -37925040.516027451 0 0 0 0 -1169825511.1363287 -2078307084.2830276 0 -2078307084.2830276 12944465.172841072 0 0 0 0 1382403467.7910767 -571026389.97281909 0 -571026389.97281909 -228762758.82342517 0 0 0 0 586698050.21723938 -2119198190.2745585 0 -2119198190.2745585 -521333967.41062164 0 0 0 0 770422571.20785522 -104968879.0742321 0 -104968879.0742321 25348119.297482967 0 0 0 0 833261879.07398987 -362397603.13902259 0 -362397603.13902259 772385868.03651667 0 0 0 0 710930040.42513657 285328654.08521557 0 285328654.08521557 356073751.02899265 0 0 0 0 2737634.0781066418 -753223.85609041294 0 -753223.85609041294 -361483.86524150474 0 0 0 0 2133387720.267971 662387054.85350251 0 662387054.85350251 -793935873.8103857 0 0 0 0 1797298700.4297791 727978521.20150137 0 727978521.20150137 -737265389.75568676 0 0 0 0 -136698132.39213562 129129046.20867443 0 129129046.20867443 -168840497.40264606 0 0 0 0 2657601902.7312469 612464319.16611719 0 612464319.16611719 -854506669.99932718 0 0 0 0 -1824970800.5144806 13702978.676478386 0 13702978.676478386 977377362.66246974 0 0 0 0 2277001224.5912323 467533842.46212196 0 467533842.46212196 -576109881.36418915 0 0 0 0 523502203.99671173 -134648526.20758438 0 -134648526.20758438 59521290.61608696 0 0 0 0 942565785.83444977 1245113941.2862225 0 1245113941.2862225 1740388041.7689562 0 0 0 0 4719778.7743120007 -7385534.953636203 0 -7385534.953636203 8455215.5952165499 0 0 0 0 248347250.02507019 -463956842.00525665 0 -463956842.00525665 759248335.01254177 0 0 0 0 1204579524.7639084 -656496389.5649066 0 -656496389.5649066 8705370.2615213394 0 0 0 0 538897930.25604033 -517141947.28652942 0 -517141947.28652942 -219685601.88155174 0 0 0 0 544424641.76007986 -317809014.21384752 0 -317809014.21384752 -163855963.10378647 0 0 0 0 649138343.16385651 -387354812.24602699 0 -387354812.24602699 -295320550.80133915 0 0 0 0 624332345.1337204 126361073.24521255 0 126361073.24521255 -136396283.23062181 0 0 0 0 390874229.21913147 -152684936.09355116 0 -152684936.09355116 -236342683.98202133 0 0 0 0 30178937.099618912 -66368637.538628101 0 -66368637.538628101 -159029867.63779831 0 0 0 0 428401795.42033386 -347349552.32467175 0 -347349552.32467175 -278882082.37485743 0 0 0 0 408662554.3038311 -508092079.7686255 0 -508092079.7686255 -354896339.72600365 0 0 0 0 338034972.12480164 -328061840.86141682 0 -328061840.86141682 -222061055.61922836 0 0 0 0 242592029.38907689 -309145405.44799101 0 -309145405.44799101 -203011565.09657478 0 0 0 0 221738673.30973053 -245833581.85090351 0 -245833581.85090351 -79142915.152107 0 0 0 0 226178076.42377472 -97257039.752693176 0 -97257039.752693176 -134763435.23767686 0 0 0 0 207582548.58135986 -115617490.6853466 0 -115617490.6853466 -42037270.543323517 0 0 0 0 203863199.3755722 -157642739.86130238 0 -157642739.86130238 -240555321.51458597 0 0 0 0 192226402.9991188 -173042404.74436045 0 -173042404.74436045 -244788481.17329693 0 0 0 0 84521104.358833313 -221821134.15864897 0 -221821134.15864897 -209911841.40362835 0 0 0 0 -246107834.81188202 -159565705.44102144 0 -159565705.44102144 -152652948.75745916 0 0 0 0 50689736.540916443 -131176478.17160964 0 -131176478.17160964 -186253855.57531548 0 0 0 0 5205790.8581459969 -5992365.9615825806 0 -5992365.9615825806 3922601.0141002228 0 0 0 0 153827408.03887177 792694015.32205796 0 792694015.32205796 -131197611.5860796 0 0 0 0 -347073014.38738632 -408180437.44688988 0 -408180437.44688988 -225145676.10894012 0 0 0 0 75049796.761413574 -215237989.20105505 0 -215237989.20105505 -307753141.82371235 0 0 0 0 76011653.391448975 -155764573.11447763 0 -155764573.11447763 -157284830.16531038 0 0 0 0 -90620630.289474487 -171627709.3606298 0 -171627709.3606298 -186600341.51727962 0 0 0 0 122352214.35894775 -205488467.81669688 0 -205488467.81669688 -318312135.09435034 0 0 0 0 -65657915.560562134 -253630971.87873626 0 -253630971.87873626 -362902045.40533781 0 0 0 0 313767835.83898163 -28662927.337789059 0 -28662927.337789059 -297337248.87805939 0 0 0 0 272701553.59222603 94312679.624914616 0 94312679.624914616 -107941311.17514133 0 0 0 0 320599911.93614197 96099869.343535542 0 96099869.343535542 -41763042.637682915 0 0 0 0 251376461.7963028 -18399505.692483425 0 -18399505.692483425 -190681924.14681005 0 0 0 0 202873302.00647354 -22773129.649639845 0 -22773129.649639845 -143400480.26039505 0 0 0 0 367169621.8598671 154510535.14368939 0 154510535.14368939 194915125.91646576 0 0 0 0 314659151.72119904 197706195.47677612 0 197706195.47677612 184590807.8259266 0 0 0 0 271717536.4762764 107953880.41240454 0 107953880.41240454 29488132.073905945 0 0 0 0 397918412.02838135 272543489.10160589 0 272543489.10160589 -28517294.016962528 0 0 0 0 339809110.65137482 335582974.71688485 0 335582974.71688485 141973523.62847662 0 0 0 0 827966640.85397339 243923804.23496628 0 243923804.23496628 115137308.29648256 0 0 0 0 485262770.97282028 43476313.687085867 0 43476313.687085867 16126099.221777916 0 0 0 0 740003567.27684212 -151298347.18005669 0 -151298347.18005669 -60180517.312446594 0 0 0 0 1141585390.1142726 103677206.77277285 0 103677206.77277285 269135206.40481853 0 0 0 0 1089988415.1258163 377905322.13954353 0 377905322.13954353 339012425.64700794 0 0 0 0 1528755940.7050858 219515676.21824265 0 219515676.21824265 99725033.5956707 0 0 0 0 689955634.97195435 99518900.208607674 0 99518900.208607674 181335571.54676437 0 0 0 0 474000783.61264038 297458885.30183935 0 297458885.30183935 373231801.13814354 0 0 0 0 502147761.65000534 253643982.91165781 0 253643982.91165781 833227505.38750172 0 0 0 0 400896766.82397461 25581422.440873146 0 25581422.440873146 436856909.41777158 0 0 0 0 1401629669.329586 -190991228.32549429 0 -190991228.32549429 867649499.39733887 0 0 0 0 904424799.67489624 231160154.78880858 0 231160154.78880858 896569040.43448257 0 0 0 0 652457980.36856842 -149104251.70504761 0 -149104251.70504761 561471798.27257538 0 0 0 0 444564422.77071381 39043003.686280251 0 39043003.686280251 419584636.88332653 0 0 0 0 90651850.41701889 -204256437.81672263 0 -204256437.81672263 435759558.76031208 0 0 0 0 173430983.01504517 -194802348.11387396 0 -194802348.11387396 229243116.10956192 0 0 0 0 322991803.48839569 107903861.59384608 0 107903861.59384608 382100832.87362766 0 0 0 0 191264187.19400787 -53837651.589818954 0 -53837651.589818954 221546531.54108864 0 0 0 0 235108594.62046432 -45709982.41683197 0 -45709982.41683197 132740867.69314861 0 0 0 0 110830774.95205688 -319363459.11210871 0 -319363459.11210871 71001215.604781628 0 0 0 0 242473857.57392061 -329688495.93489772 0 -329688495.93489772 -10160223.481427193 0 0 0 0 124082898.65506172 -468316111.40354955 0 -468316111.40354955 -82705176.640405655 0 0 0 0 109037683.81954956 -526698077.10472059 0 -526698077.10472059 -143660522.46458197 0 0 0 0 -393124814.85196733 -188733549.44762897 0 -188733549.44762897 -50461288.842313766 0 0 0 0 177642710.74554062 -218145463.23054433 0 -218145463.23054433 -51426960.264761925 0 0 0 0 -78219918.265884399 -465649750.54764748 0 -465649750.54764748 175570981.48758984 0 0 0 0 -307812636.70319366 -732281186.31818247 0 -732281186.31818247 -237367325.61168766 0 0 0 0 286257803.20243835 -401536026.83259106 0 -401536026.83259106 -239382671.11330605 0 0 0 0 253119505.86407471 -564664278.8293891 0 -564664278.8293891 -828451368.50384521 0 0 0 0 17939155.930137634 -113276344.4949522 0 -113276344.4949522 226274129.68237114 0 0 0 0 47058582.601402283 -79422618.79202652 0 -79422618.79202652 -63360681.23381424 0 0 0 0 74589146.661727905 55427155.568799973 0 55427155.568799973 -283819138.66554928 0 0 0 0 67914136.754800797 73592934.803098679 0 73592934.803098679 -31036303.45026207 0 0 0 0 670343.07226600498 637155.68370257877 0 637155.68370257877 -1864334.1981346607 0 0 0 0 3272809.1354522705 -23386206.787800312 0 -23386206.787800312 -14851726.432226181 0 0 0 0 6097275.8782885447 -2203004.2006654902 0 -2203004.2006654902 -1225747.3072380326 0 0 0 0 -1311699.3530597687 -25424753.592272043 0 -25424753.592272043 24907044.480381012 0 0 0 0 -99708232.892883301 -468381125.64622593 0 -468381125.64622593 -647423710.31489277 0 0 0 0 -99554336.782274246 -817874896.78502834 0 -817874896.78502834 177259796.27888298 0 0 0 0 1347480.2778278664 -43047.730922779068 0 -43047.730922779068 -610923.39373168955 0 0 0 0 800321204.94860077 -413890677.73570299 0 -413890677.73570299 208573666.81939423 0 0 0 0 133921430.83503819 247674304.41974503 0 247674304.41974503 -698437913.45099354 0 0 0 0 -387491.63830979913 -208476.55354151456 0 -208476.55354151456 -273995.19746591826 0 0 0 0 8032143.2394551411 -1862980.5197385275 0 -1862980.5197385275 -3303406.4982279125 0 0 0 0 -46133701.761306763 -295903009.97585201 0 -295903009.97585201 -583924080.69676399 0 0 0 0 3426499.5286459923 1817459.7193740737 0 1817459.7193740737 -6775259.3657507291 0 0 0 0 39268538.67489624 -3817220.918346405 0 -3817220.918346405 -23108459.407172918 0 0 0 0 -480305737.63759232 -903109711.8305831 0 -903109711.8305831 -815676928.67321968 0 0 0 0 225828184.7115097 -173527704.46819782 0 -173527704.46819782 -551831833.16396308 0 0 0 0 1039388632.3137169 226604719.83148789 0 226604719.83148789 -712490475.85086727 0 0 0 0 275900449.16539383 -226154776.35387897 0 -226154776.35387897 -545995949.52776909 0 0 0 0 1091525874.5797539 189966836.21429375 0 189966836.21429375 -479445476.62181473 0 0 0 0 1126807967.8302612 -103595544.58337069 0 -103595544.58337069 -668096941.57904577 0 0 0 0 303377010.72043991 -275963222.7463119 0 -275963222.7463119 -117339441.1525631 0 0 0 0 373027893.89251709 -176357732.79302216 0 -176357732.79302216 -854216023.62581086 0 0 0 0 820132830.75772095 -99872103.458233833 0 -99872103.458233833 -139247550.17983246 0 0 0 0 138602620.26306152 -349944095.28887749 0 -349944095.28887749 434650399.70938921 0 0 0 0 1148465859.1291046 -570598833.66190577 0 -570598833.66190577 529684619.0868988 0 0 0 0 1439860505.2985001 -72938300.25335741 0 -72938300.25335741 -287083690.1290226 0 0 0 0 1826175436.8669434 191069823.49164867 0 191069823.49164867 -183663687.29690695 0 0 0 0 1425982170.6214333 611463961.39928079 0 611463961.39928079 -113827338.54667568 0 0 0 0 1753047501.5279694 602016431.51297474 0 602016431.51297474 -119528008.09511089 0 0 0 0 1444979690.9152603 185486463.5811615 0 185486463.5811615 -654151916.34799671 0 0 0 0 1868891127.9483871 208338403.1958611 0 208338403.1958611 -665958468.63851643 0 0 0 0 1411949140.4256134 8913437.7388465405 0 8913437.7388465405 -769415295.0230546 0 0 0 0 1283471357.3321838 310115932.49861908 0 310115932.49861908 -520704231.22401005 0 0 0 0 1478713041.2233143 405375866.40110874 0 405375866.40110874 -694818486.33688164 0 0 0 0 1519395755.8505554 291273763.44657969 0 291273763.44657969 -524145625.77120972 0 0 0 0 1106264126.9753723 628789094.45325732 0 628789094.45325732 -331192918.59175622 0 0 0 0 1411701759.6606445 440699180.57377887 0 440699180.57377887 -442954052.11014843 0 0 0 0 1033520109.6245575 395345042.46892124 0 395345042.46892124 -7211990.3604727089 0 0 0 0 1081164030.3394012 248632582.12640408 0 248632582.12640408 -164379915.37974799 0 0 0 0 1289424739.6070938 185857305.94518125 0 185857305.94518125 -325037188.79412603 0 0 0 0 1333571546.0505676 -9433092.3937475681 0 -9433092.3937475681 -240424428.10115004 0 0 0 0 1128572878.7630157 252012704.68931323 0 252012704.68931323 -257731299.39375108 0 0 0 0 2691796448.7401085 498957674.56274474 0 498957674.56274474 -1365945589.999686 0 0 0 0 4083560283.5346985 1446244962.2237687 0 1446244962.2237687 -1010455777.1156018 0 0 0 0 1227631121.0620041 843187914.07156694 0 843187914.07156694 -9535068.4408855438 0 0 0 0 1374578691.4982119 -357481513.63813257 0 -357481513.63813257 -1556081601.3032889 0 0 0 0 1448957856.8590012 519396578.91040897 0 519396578.91040897 -559138163.11760378 0 0 0 0 4093793963.1224289 602080426.57045794 0 602080426.57045794 -456850981.06598151 0 0 0 0 5647783.8762663305 -370929.91395949572 0 -370929.91395949572 -2692799.2491838234 0 0 0 0 -195458139.48683167 -698726978.74578094 0 -698726978.74578094 -765445053.10041904 0 0 0 0 4086726636.6321259 606059372.43404436 0 606059372.43404436 -458857258.52326453 0 0 0 0 1013770522.1149635 239264064.47766924 0 239264064.47766924 -411637081.38484955 0 0 0 0 1001657408.2660522 91258304.530063152 0 91258304.530063152 -245689754.25401545 0 0 0 0 5467678.188543018 868875.95276433788 0 868875.95276433788 -4423883.182622022 0 0 0 0 555489643.29697418 -820537161.95529103 0 -820537161.95529103 738529212.71599281 0 0 0 0 670243516.29200745 -124714168.81805402 0 -124714168.81805402 45819136.337658405 0 0 0 0 9479774.0566215012 -16599502.111803984 0 -16599502.111803984 518670.24986814545 0 0 0 0 -294139630.13383484 -142626341.92509329 0 -142626341.92509329 197633234.69407296 0 0 0 0 70497720.601470947 103201553.65657949 0 103201553.65657949 17935800.157104909 0 0 0 0 -10122673.537620544 -50666841.623604059 0 -50666841.623604059 -73204823.68477416 0 0 0 0 7835078.6985003967 -1956196.2320476137 0 -1956196.2320476137 1620170.0440864288 0 0 0 0 4037037990.4349899 -330138504.20728916 0 -330138504.20728916 25225358.361465085 0 0 0 0 181513335.18109131 -10690255.167057991 0 -10690255.167057991 -101609054.31342793 0 0 0 0 27810382.495704651 -9957355.8221526146 0 -9957355.8221526146 -29981181.337222576 0 0 0 0 49991363.585769653 -62855038.38019371 0 -62855038.38019371 93462775.384289265 0 0 0 0 5292129.8346130848 1036701.1442436241 0 1036701.1442436241 -5956443.9022143055 0 0 0 0 3919194034.1991196 850040770.37193978 0 850040770.37193978 184000507.59268501 0 0 0 0 1888812.6415656283 -6174581.774265755 0 -6174581.774265755 -5022655.5561255412 0 0 0 0 13035461.568662278 -4464074.4923336059 0 -4464074.4923336059 -5554520.7810523678 0 0 0 0 89120711.379989624 21960268.687412262 0 21960268.687412262 -77460677.019065857 0 0 0 0 268951358.48744202 -436965499.57843304 0 -436965499.57843304 374194371.69981194 0 0 0 0 346417230.47852325 -237814562.27004337 0 -237814562.27004337 119374322.48292828 0 0 0 0 -80440301.485733032 -179661224.9584713 0 -179661224.9584713 283504404.82591057 0 0 0 0 11457687.62415415 -5415792.0811384721 0 -5415792.0811384721 -4989644.5886828732 0 0 0 0 335831772.85401917 -76764953.823967934 0 -76764953.823967934 -28407959.901769638 0 0 0 0 12923171.1720047 11688329.017405391 0 11688329.017405391 -17432317.905510426 0 0 0 0 -16711900.775886536 26038368.136843443 0 26038368.136843443 -24365005.976735592 0 0 0 0 6561500.5060086958 2938541.8575582448 0 2938541.8575582448 -8102014.1789252535 0 0 0 0 2758557067.144619 1307103614.679399 0 1307103614.679399 29576748.229799271 0 0 0 0 326929068.04466248 275596731.20999718 0 275596731.20999718 613252932.02503681 0 0 0 0 1276553373.349968 1488265378.4332857 0 1488265378.4332857 1304220825.7962704 0 0 0 0 4126524.0440637618 578471.06013113167 0 578471.06013113167 -1310219.9911543925 0 0 0 0 2899405134.9093552 -740763040.37153292 0 -740763040.37153292 617512457.78239632 0 0 0 0 1719657862.0087967 562618571.763731 0 562618571.763731 2399116269.6948624 0 0 0 0 3427072639.8698807 900241434.78609657 0 900241434.78609657 733383524.15220642 0 0 0 0 1813655130.4658966 -79535942.192947388 0 -79535942.192947388 195764203.71802616 0 0 0 0 1915535317.7051773 739261321.2996707 0 739261321.2996707 768046583.14711511 0 0 0 0 -294172206.54469299 -72983828.29583931 0 -72983828.29583931 783837569.47069931 0 0 0 0 1474283.5420928113 -739732.68580075726 0 -739732.68580075726 -1241220.2064691624 0 0 0 0 932199661.80691528 -1299560241.2621078 0 -1299560241.2621078 1816628645.5596828 0 0 0 0 3773576334.1370454 -1283627674.2471318 0 -1283627674.2471318 412493708.49058533 0 0 0 0 1266146348.3248901 -575308264.93143082 0 -575308264.93143082 276557206.58218002 0 0 0 0 948647641.87286377 -835417007.22002602 0 -835417007.22002602 555995300.41661644 0 0 0 0 1290582756.5221329 -560823564.05277538 0 -560823564.05277538 142538017.55448151 0 0 0 0 1447928192.3068237 -485607516.37692308 0 -485607516.37692308 -198240808.34453666 0 0 0 0 1259494591.8291779 -714287215.53806686 0 -714287215.53806686 133000760.03788441 0 0 0 0 1076443665.9057159 -524365129.00000858 0 -524365129.00000858 11568301.123628616 0 0 0 0 1271411971.5214996 -676475968.9075985 0 -676475968.9075985 246943931.96274948 0 0 0 0 1499462062.6308403 -466531118.52987289 0 -466531118.52987289 -454488908.55997658 0 0 0 0 2531158905.9331512 -368598114.37332964 0 -368598114.37332964 -188829081.68545628 0 0 0 0 1731621132.211401 -367399717.77104783 0 -367399717.77104783 -362636314.90599155 0 0 0 0 1321244314.6573792 -362133054.84272718 0 -362133054.84272718 -274940226.88924825 0 0 0 0 1245237857.2872505 -439347814.24472451 0 -439347814.24472451 -344606780.16267204 0 0 0 0 1355160927.957016 -628616577.43168259 0 -628616577.43168259 -449287944.09012222 0 0 0 0 1383472507.4263287 -649933695.70023191 0 -649933695.70023191 -529102082.67891216 0 0 0 0 1313504577.1604919 -519529577.29179859 0 -519529577.29179859 -708558374.13499188 0 0 0 0 1419401634.3173676 -429617998.12964344 0 -429617998.12964344 -683663747.31345177 0 0 0 0 813645055.26925659 -135217015.27221298 0 -135217015.27221298 -674814720.38621581 0 0 0 0 -38923968.384502411 300654971.22557354 0 300654971.22557354 -406528208.3680687 0 0 0 0 1756667.7285649367 1078661.1491732188 0 1078661.1491732188 -2017009.215526242 0 0 0 0 813064179.87580872 305989745.1052289 0 305989745.1052289 -1555585431.0855544 0 0 0 0 4227448427.8307304 209503278.85805136 0 209503278.85805136 -978671512.8462671 0 0 0 0 347633073.39495087 -96358261.732442856 0 -96358261.732442856 -12927056.759928703 0 0 0 0 4093120280.2727361 430702963.20895666 0 430702963.20895666 370095110.5977633 0 0 0 0 153371903.32925415 -39931201.974971771 0 -39931201.974971771 -1356906.7026920319 0 0 0 0 248307804.99873352 -269924205.34015083 0 -269924205.34015083 166863208.30845737 0 0 0 0 685890531.21089935 -405463156.22055817 0 -405463156.22055817 -23405498.136934757 0 0 0 0 1329951443.0522003 -581327743.0437212 0 -581327743.0437212 -307517371.04879761 0 0 0 0 349358816.7257309 -74950767.238653183 0 -74950767.238653183 -201598215.1139679 0 0 0 0 693988802.88084459 -277489212.4178468 0 -277489212.4178468 -87993966.02368927 0 0 0 0 3248645080.2386551 -704277242.92457545 0 -704277242.92457545 68608664.745060474 0 0 0 0 3398115612.2492447 -319962370.00729185 0 -319962370.00729185 -414947659.46037382 0 0 0 0 4093953526.0124588 169085068.68900418 0 169085068.68900418 -766862725.02440155 0 0 0 0 3073135976.4214325 -172408489.6627841 0 -172408489.6627841 -417537106.45737457 0 0 0 0 3093026143.1062775 -320782668.613469 0 -320782668.613469 -305808623.16292733 0 0 0 0 93721269.158554077 -156947276.43314067 0 -156947276.43314067 -17980108.075080872 0 0 0 0 2813972419.4909515 -343006281.10260701 0 -343006281.10260701 -228778189.14829391 0 0 0 0 -52474889.544868469 -43889401.343873322 0 -43889401.343873322 6400617.0979492664 0 0 0 0 1147491.897399893 -843467.07447819412 0 -843467.07447819412 -433506.28099142597 0 0 0 0 29360944.182548523 -25337765.278930724 0 -25337765.278930724 -9640464.9868791103 0 0 0 0 40280208.034011841 -38482847.100113153 0 -38482847.100113153 5566007.6085571051 0 0 0 0 3252921.0620889571 -2358406.3939794078 0 -2358406.3939794078 -1170249.9586440045 0 0 0 0 77260370.917785645 -25051776.61288321 0 -25051776.61288321 -19443673.292676449 0 0 0 0 71017217.571102142 205489.6837593317 0 205489.6837593317 -93467694.395236969 0 0 0 0 20505378.720301583 9278808.9420488849 0 9278808.9420488849 -1024149.7668862222 0 0 0 0 15802953.879486084 17382692.531878114 0 17382692.531878114 -46628491.082132101 0 0 0 0 43161080.560035706 44546665.985007644 0 44546665.985007644 -27027990.652074575 0 0 0 0 29017586.764526367 -18530056.556385756 0 -18530056.556385756 -1227197.1498212814 0 0 0 0 3405069704.2864609 -1075017640.0219183 0 -1075017640.0219183 -25215790.438297734 0 0 0 0 2931363089.2138977 -797367670.3316977 0 -797367670.3316977 55345782.94271338 0 0 0 0 4093629337.3778839 -774870593.88363385 0 -774870593.88363385 -347400121.09204191 0 0 0 0 4097274068.0766602 -1293106111.146107 0 -1293106111.146107 -139328608.47441402 0 0 0 0 3504297833.3759232 -861012506.75253868 0 -861012506.75253868 -286994291.40249813 0 0 0 0 3483633716.522131 -1235588299.7440047 0 -1235588299.7440047 826188095.89714599 0 0 0 0 3318647748.6099415 -2173847755.6028967 0 -2173847755.6028967 1158213566.5287745 0 0 0 0 5560536230.3591614 -1133820244.56797 0 -1133820244.56797 807059997.89478922 0 0 0 0 6578326.5225622058 -2616903.712108694 0 -2616903.712108694 -2746749.6741994522 0 0 0 0 1807692343.9687042 -933456922.80555618 0 -933456922.80555618 566822916.28076065 0 0 0 0 129785848.25058746 280620746.80658787 0 280620746.80658787 728226922.35828233 0 0 0 0 -1117582796.5837479 306880425.82456779 0 306880425.82456779 -1011310268.7331176 0 0 0 0 -1995780256.412674 436141498.66497743 0 436141498.66497743 648970577.4302026 0 0 0 0 2467893.1891098395 438936.28341777995 0 438936.28341777995 215511.07499302807 0 0 0 0 -1077739819.9809265 1670592560.2017007 0 1670592560.2017007 1740643070.5766804 0 0 0 0 4831535079.4649811 1401152226.852704 0 1401152226.852704 -785244691.95929468 0 0 0 0 4089421183.0783615 122027309.42074411 0 122027309.42074411 2376398108.566474 0 0 0 0 4173934502.8643494 -2242012611.6920853 0 -2242012611.6920853 1148545399.9525127 0 0 0 0 5551283.5802787691 222480.65240865387 0 222480.65240865387 -300002.4149932281 0 0 0 0 1569408419.151886 -588683764.98013473 0 -588683764.98013473 -1973912291.4830477 0 0 0 0 2209204575.3909454 2622668845.2194304 0 2622668845.2194304 1226929519.8909581 0 0 0 0 239916433.77560425 1540196615.3484578 0 1540196615.3484578 1370277416.4667225 0 0 0 0 282632.57486412674 3642478.247472344 0 3642478.247472344 2290944.0217421553 0 0 0 0 -1190859049.2155342 52347413.449520588 0 52347413.449520588 535186912.59795237 0 0 0 0 -605240857.43476868 -876086221.47297835 0 -876086221.47297835 -881188662.09097385 0 0 0 0 248980859.62895966 -169647240.19980025 0 -169647240.19980025 -477945276.92727661 0 0 0 0 708334032.38397217 1042022474.906684 0 1042022474.906684 766150369.81548166 0 0 0 0 -991796498.18312836 425579722.33850098 0 425579722.33850098 878539546.7105577 0 0 0 0 1007427836.4779282 834840053.50191116 0 834840053.50191116 -9269457.0896989107 0 0 0 0 -86655355.346046448 336655322.65840793 0 336655322.65840793 355997081.33590513 0 0 0 0 812841003.50480652 722926528.24569964 0 722926528.24569964 439276771.43617988 0 0 0 0 4090222369.2163744 2387140606.5277376 0 2387140606.5277376 -259176796.58803558 0 0 0 0 2028232533.1916962 1777982492.9140441 0 1777982492.9140441 442002890.26402438 0 0 0 0 2645563398.5595093 1303113393.8335121 0 1303113393.8335121 -892977122.69322813 0 0 0 0 430572397.14686584 1379109581.3484125 0 1379109581.3484125 554246831.39442921 0 0 0 0 854237229.16544342 232298666.8725667 0 232298666.8725667 52072355.666619778 0 0 0 0 960713251.69216919 -4808535.1922539771 0 -4808535.1922539771 -202482474.50680202 0 0 0 0 1120896229.6559753 226584696.10800511 0 226584696.10800511 -165073871.04493976 0 0 0 0 1132821892.9178467 230539860.84563822 0 230539860.84563822 -163762392.52213049 0 0 0 0 1153325909.9013786 178131094.96420416 0 178131094.96420416 -139071241.76350927 0 0 0 0 566131779.86514282 334411955.93725193 0 334411955.93725193 7158815.6959784627 0 0 0 0 998149996.11170197 129677050.77670455 0 129677050.77670455 28688406.179781914 0 0 0 0 1109727692.1405182 203169612.11358905 0 203169612.11358905 -315087646.8901577 0 0 0 0 611549308.0402832 57445778.342059374 0 57445778.342059374 15547250.811552525 0 0 0 0 200136990.13198853 -54196182.565318584 0 -54196182.565318584 -89563789.196844578 0 0 0 0 703814900.20065308 197924958.88836241 0 197924958.88836241 17458930.300655603 0 0 0 0 829588326.97827148 -105282166.5198288 0 -105282166.5198288 -629410917.4638052 0 0 0 0 890980401.24945068 934539516.50824761 0 934539516.50824761 -563515642.05394745 0 0 0 0 1407689.4236587062 -1108739.3779376503 0 -1108739.3779376503 -210241.31241754326 0 0 0 0 1652608493.7620811 514479680.17726994 0 514479680.17726994 -7861448.3670122623 0 0 0 0 1221640591.4021111 -18549791.917026401 0 -18549791.917026401 114217902.85959911 0 0 0 0 486364546.84045029 -308222498.19546354 0 -308222498.19546354 161232564.16990805 0 0 0 0 891926251.74264526 878582465.31924844 0 878582465.31924844 505376880.62879634 0 0 0 0 893741602.43509293 775435044.24075985 0 775435044.24075985 681085303.95596743 0 0 0 0 381419607.15519714 -176753768.43355179 0 -176753768.43355179 221324730.89537239 0 0 0 0 892396417.14400482 426070174.54230022 0 426070174.54230022 -1646984722.0029054 0 0 0 0 -1421178793.9070129 1012989904.752174 0 1012989904.752174 590605576.39654756 0 0 0 0 1316271.2508828342 2549462.3190252976 0 2549462.3190252976 1503413.7492116522 0 0 0 0 1866032953.3192062 954036442.99106383 0 954036442.99106383 -793200887.81715107 0 0 0 0 420877475.30358887 1838895461.0114093 0 1838895461.0114093 467838583.72537678 0 0 0 0 360192192.09957123 1611439423.5072722 0 1611439423.5072722 -1311354392.7862766 0 0 0 0 18451537.397253275 8833057.7880274691 0 8833057.7880274691 226759.02534406539 0 0 0 0 36678365.588371277 1507723.7763997316 0 1507723.7763997316 -27496299.422156811 0 0 0 0 -582975059.07354736 1151299715.0976791 0 1151299715.0976791 -723161798.90181601 0 0 0 0 278743533.74315643 -235860584.54164982 0 -235860584.54164982 -1531436894.1780825 0 0 0 0 271827736.26380253 -424438773.2372998 0 -424438773.2372998 -475576204.14916277 0 0 0 0 359645140.53128433 267791593.68860134 0 267791593.68860134 -467403271.65522099 0 0 0 0 -447958458.6410675 -268543126.17266703 0 -268543126.17266703 -766072933.03655434 0 0 0 0 111605431.15291977 -147573641.58182579 0 -147573641.58182579 -843061845.71928501 0 0 0 0 -75101403.184875488 50609751.254209518 0 50609751.254209518 -345054710.40193272 0 0 0 0 -12851522.432556152 65330857.036251307 0 65330857.036251307 -733918946.93506002 0 0 0 0 255174028.59633636 320476062.78796554 0 320476062.78796554 -823628440.91660368 0 0 0 0 -5626497.5042266846 -195318917.51219344 0 -195318917.51219344 -320072560.19123483 0 0 0 0 214444526.4482348 -58727557.905084684 0 -58727557.905084684 -236666973.42583799 0 0 0 0 -9937532.7490997314 -178205711.90520763 0 -178205711.90520763 -89266975.343880653 0 0 0 0 -50020737.434867859 -136801202.45305634 0 -136801202.45305634 91979009.062345505 0 0 0 0 88844689.434768677 -76638878.425137997 0 -76638878.425137997 15122208.125338078 0 0 0 0 14838778.703491211 -225738491.81409001 0 -225738491.81409001 -223670728.39908767 0 0 0 0 -33504161.72946167 -55570296.276655197 0 -55570296.276655197 71329741.956018686 0 0 0 0 -6650941.1493301392 -5386475.0623290539 0 -5386475.0623290539 45564601.813392639 0 0 0 0 -9374987.4852142334 18430417.61732769 0 18430417.61732769 288799011.01717508 0 0 0 0 17035892.88420105 -33109541.670187235 0 -33109541.670187235 22485393.844355822 0 0 0 0 -10024496.496932983 -37214607.848368883 0 -37214607.848368883 106350940.66265392 0 0 0 0 -12408882.563854218 -52701170.981929302 0 -52701170.981929302 9471600.7213578224 0 0 0 0 5635558.6351337433 -6680207.0249116421 0 -6680207.0249116421 17921521.54485178 0 0 0 0 7622104.7889060974 -15274537.434612334 0 -15274537.434612334 9771477.3953032494 0 0 0 0 3294110.1296584681 -5609160.5548422867 0 -5609160.5548422867 -2487113.4864413543 0 0 0 0 -235543855.83891296 -26692148.17237711 0 -26692148.17237711 -11031816.605111241 0 0 0 0 516494933.78401184 67720578.596869349 0 67720578.596869349 4285623.2588100433 0 0 0 0 4545533.0731945038 -9003199.0811776519 0 -9003199.0811776519 24962408.881577015 0 0 0 0 4259369.0101694465 -3591521.989355389 0 -3591521.989355389 -1117571.8551194528 0 0 0 0 6076256.9698448181 -16762069.932116985 0 -16762069.932116985 33780268.436547279 0 0 0 0 533275467.40659332 11386802.712286711 0 11386802.712286711 -6424126.1622021198 0 0 0 0 -421423690.08361816 -160604665.36172915 0 -160604665.36172915 135134462.59934711 0 0 0 0 -386039228.50654602 -500140980.73873186 0 -500140980.73873186 914598380.41425896 0 0 0 0 -513881692.92055511 -166987697.75514698 0 -166987697.75514698 223271662.97813034 0 0 0 0 -210732094.99530792 -224086294.72142029 0 -224086294.72142029 54022349.288521767 0 0 0 0 13067256.659653664 -11778569.518637016 0 -11778569.518637016 -536706.40925359726 0 0 0 0 -944081775.71358144 -88843300.356287032 0 -88843300.356287032 1402244769.6676359 0 0 0 0 3460270.591693189 -5351248.962765323 0 -5351248.962765323 -2100927.4581214841 0 0 0 0 -919464026.73218536 908336353.68738556 0 908336353.68738556 103155290.98117463 0 0 0 0 -74314385.304756165 182839552.66290247 0 182839552.66290247 83412218.312964678 0 0 0 0 436001.51890006661 -2162749.4403631166 0 -2162749.4403631166 187792.2959911623 0 0 0 0 34460577.332077026 -15368127.975051403 0 -15368127.975051403 -659462.83958401531 0 0 0 0 42316166.114395142 -19178111.982574344 0 -19178111.982574344 -27530237.737591743 0 0 0 0 207925661.02497649 93268918.607646883 0 93268918.607646883 -10512690.625622749 0 0 0 0 -141677577.76841736 -348991920.43295991 0 -348991920.43295991 -587988976.18315303 0 0 0 0 -168168.69977017492 -674740.60566175543 0 -674740.60566175543 300961.59368090366 0 0 0 0 71168284.878242493 203448579.03436959 0 203448579.03436959 -355411020.6912899 0 0 0 0 -137092496.90138245 145105900.44493628 0 145105900.44493628 -734531210.0142076 0 0 0 0 -12753717.386942863 -227320275.08464971 0 -227320275.08464971 -337564873.93841887 0 0 0 0 -51268976.852298737 100199996.34760165 0 100199996.34760165 173751905.62960911 0 0 0 0 129051165.57209778 62552226.423888683 0 62552226.423888683 -50639232.047791481 0 0 0 0 -41155129.545518875 -4348600.6101193428 0 -4348600.6101193428 -71565259.823439598 0 0 0 0 55495059.519165039 149245477.9714334 0 149245477.9714334 -135858029.90264702 0 0 0 0 24474120.380773757 1212015.619151542 0 1212015.619151542 -4809175.6907393159 0 0 0 0 -10432342.067611694 77559942.51211369 0 77559942.51211369 -63172670.742870569 0 0 0 0 -3070569.1729413122 884167.39594607311 0 884167.39594607311 -45132.507193837839 0 0 0 0 29617048.686630249 -44914161.777851582 0 -44914161.777851582 -50549105.831848145 0 0 0 0 222124846.39545441 -216009327.31104892 0 -216009327.31104892 -1515669402.9602087 0 0 0 0 -3766523.2790689096 11045872.163449956 0 11045872.163449956 -1722767.2928107916 0 0 0 0 139132258.28184509 -42078466.104714632 0 -42078466.104714632 -1237711813.7897029 0 0 0 0 -30446103.352698326 100284370.25599277 0 100284370.25599277 909220.68214225769 0 0 0 0 27679067.338220336 4624378.5280889124 0 4624378.5280889124 -4082113.9033359457 0 0 0 0 1793898.3984882161 6780204.4116704259 0 6780204.4116704259 -1385433.8016728228 0 0 0 0 187715174.41252136 425025897.11595225 0 425025897.11595225 -1675530925.1582775 0 0 0 0 56936419.650909424 -21375620.439299345 0 -21375620.439299345 -123201506.59419787 0 0 0 0 -233143076.24958038 297966811.87800407 0 297966811.87800407 -856712318.72282076 0 0 0 0 62401629.294815063 -17624613.093548775 0 -17624613.093548775 -62405808.088650703 0 0 0 0 6961452.914894104 23587331.957452059 0 23587331.957452059 -92442401.092485905 0 0 0 0 109770649.37232971 22058932.195505619 0 22058932.195505619 -94100019.236335129 0 0 0 0 52629149.117034912 68754130.225664139 0 68754130.225664139 -122712946.14470744 0 0 0 0 16579028.826629639 15488051.157321095 0 15488051.157321095 -92510985.577295601 0 0 0 0 45984890.854217529 67782419.701696873 0 67782419.701696873 -25198804.246715784 0 0 0 0 42089562.088562012 31630658.012838483 0 31630658.012838483 -20080818.818276688 0 0 0 0 6012643.0045166016 70142297.089458883 0 70142297.089458883 26125090.377199411 0 0 0 0 227925696.88079071 11719239.036514223 0 11719239.036514223 -57330081.214138418 0 0 0 0 98629279.352165222 112444270.63874903 0 112444270.63874903 95115330.080860853 0 0 0 0 4403479.1489715576 -5654480.6105822027 0 -5654480.6105822027 171045396.19442606 0 0 0 0 6923289.9420013428 -10111265.834829986 0 -10111265.834829986 39072689.888669536 0 0 0 0 -11118185.319976807 21041118.294538558 0 21041118.294538558 5408831.1087815762 0 0 0 0 -19270291.984832764 18110980.278868079 0 18110980.278868079 73511923.291728616 0 0 0 0 -19575497.196472168 17923689.04303053 0 17923689.04303053 22033149.426053345 0 0 0 0 -17927147.4986763 23667862.410931602 0 23667862.410931602 6585652.6250712872 0 0 0 0 -13205212.162147522 35067063.258107871 0 35067063.258107871 -19145330.793217659 0 0 0 0 12119757.341674805 38595735.04305172 0 38595735.04305172 -50737736.976418972 0 0 0 0 16247718.126963951 -5373279.9433560837 0 -5373279.9433560837 -4897096.1778045539 0 0 0 0 -81595961.118164062 171659089.68114853 0 171659089.68114853 -238540660.74134445 0 0 0 0 -102215068.26245117 159056708.18485069 0 159056708.18485069 -234314723.90280724 0 0 0 0 -83072081.69519043 188659079.94987106 0 188659079.94987106 -225121894.25719643 0 0 0 0 -44848638.605583191 106328408.10182762 0 106328408.10182762 -214009832.55561066 0 0 0 0 20343013.369972505 -1904798.2451775726 0 -1904798.2451775726 -5073397.6939609321 0 0 0 0 -7046309.8991394043 14176696.610444307 0 14176696.610444307 -2941550.5180976093 0 0 0 0 -1546125.669883728 2005343.7770463228 0 2005343.7770463228 10782669.686194658 0 0 0 0 -3516206.3528442383 1963262.6263843775 0 1963262.6263843775 12314024.720823318 0 0 0 0 -991241.28056335449 1625460.9919211268 0 1625460.9919211268 8570726.4025101662 0 0 0 0 -4523662.791267395 -1676346.0131833255 0 -1676346.0131833255 10529064.158902168 0 0 0 0 5784932.053894043 -317246.6973836422 0 -317246.6973836422 8663159.9513764381 0 0 0 0 18302006.239501953 -7109778.0906214714 0 -7109778.0906214714 5019714.5494718552 0 0 0 0 1968505.8614501953 -2969048.3600853682 0 -2969048.3600853682 10265035.640762448 0 0 0 0 4651373.1534423828 -8904262.8835760355 0 -8904262.8835760355 6891627.8609631062 0 0 0 0 2397914.4336147308 -8227122.3514354005 0 -8227122.3514354005 6876568.2281141281 0 0 0 0 46558982.650299072 114889021.66042328 0 114889021.66042328 -461048513.16155243 0 0 0 0 10274111.897079468 -12110130.762370169 0 -12110130.762370169 5260631.6117208004 0 0 0 0 2456886.4237670898 -12697019.428876638 0 -12697019.428876638 5430176.8618479371 0 0 0 0 9779385.7432941347 -8274661.0879999865 0 -8274661.0879999865 -5061610.0759315332 0 0 0 0 11685956.760528564 -16148787.069055438 0 -16148787.069055438 5998649.2823029757 0 0 0 0 11515608.942230225 -16302616.748310089 0 -16302616.748310089 5912464.2555463314 0 0 0 0 1186866.4858253449 -1378429.1398896854 0 -1378429.1398896854 1095570.5662512521 0 0 0 0 56590098.774291992 168089351.68621826 0 168089351.68621826 -451370205.99869537 0 0 0 0 15702968.229003906 -6537689.7769522667 0 -6537689.7769522667 5374877.7578111887 0 0 0 0 5531353.4759521484 -7067889.4352045059 0 -7067889.4352045059 5435050.5392360687 0 0 0 0 10740529.948028564 -12681954.936643124 0 -12681954.936643124 5351983.5414104462 0 0 0 0 12363086.348022461 -13828129.202093601 0 -13828129.202093601 5425308.272495985 0 0 0 0 7548814.19140625 -13983551.933156729 0 -13983551.933156729 5608544.7685953379 0 0 0 0 9209976.6272888184 -15462553.392745495 0 -15462553.392745495 5969123.5797023773 0 0 0 0 8824095.2746582031 -16346079.749871135 0 -16346079.749871135 5498892.5472350121 0 0 0 0 7941319.9947509766 -16562802.091049671 0 -16562802.091049671 6325727.0051950067 0 0 0 0 8705820.1939086914 -15767197.054551601 0 -15767197.054551601 5113255.4136641026 0 0 0 0 9187542.2005615234 -17165417.74895525 0 -17165417.74895525 6280122.8914072812 0 0 0 0 10418716.041519165 -17247866.473754883 0 -17247866.473754883 6025438.5580120087 0 0 0 0 8406351.8414916992 -16231364.386835098 0 -16231364.386835098 5856405.6068401337 0 0 0 0 10286357.573883057 -16713696.894905806 0 -16713696.894905806 5905525.2133555412 0 0 0 0 77396934.022827148 150159713.71959686 0 150159713.71959686 -441463694.40690231 0 0 0 0 77669941.515014648 162980059.56976318 0 162980059.56976318 -426468336.7156105 0 0 0 0 68197651.598815918 143667998.67652893 0 143667998.67652893 -394693297.9628067 0 0 0 0 65497031.168884277 143054776.52272797 0 143054776.52272797 -405874470.47421265 0 0 0 0 70155458.762939453 138173462.66676331 0 138173462.66676331 -431579426.44251442 0 0 0 0 43553128.406311035 110724324.28546143 0 110724324.28546143 -442110885.36191344 0 0 0 0 31770456.795654297 117477497.10402679 0 117477497.10402679 -414349436.55438232 0 0 0 0 -14731332.053649902 77072909.90322113 0 77072909.90322113 -443173446.26171875 0 0 0 0 -45692061.483337402 67954805.374298096 0 67954805.374298096 -421699691.9553833 0 0 0 0 19368455.533950806 -10607471.373136282 0 -10607471.373136282 5553513.0110006332 0 0 0 0 14763481.723754883 -14823283.57423687 0 -14823283.57423687 6023867.945640564 0 0 0 0 31064955.005737305 -42052024.019982338 0 -42052024.019982338 31796157.04000473 0 0 0 0 -81114551.228256226 20776270.148223877 0 20776270.148223877 -302001500.78707886 0 0 0 0 -26064232.975448608 4204379.5159086436 0 4204379.5159086436 42267683.987021923 0 0 0 0 -32184500.489318848 -17472447.421263456 0 -17472447.421263456 84368743.97978878 0 0 0 0 -100890000.53063965 167459212.22669983 0 167459212.22669983 -361220402.81671143 0 0 0 0 -140860534.27452087 101037468.20345688 0 101037468.20345688 -314078891.22045898 0 0 0 0 13562466.906768799 -15938041.802748561 0 -15938041.802748561 5958691.3990857601 0 0 0 0 19666651.250366211 -14425670.771388531 0 -14425670.771388531 6236467.0505312681 0 0 0 0 10517792.936065674 -17091453.796624303 0 -17091453.796624303 6199881.4254617691 0 0 0 0 -26939067.077880859 190565437.52258301 0 190565437.52258301 -392998786.112854 0 0 0 0 70462308.679387569 142887674.69037443 0 142887674.69037443 -389654005.18392944 0 0 0 0 70643172.028381348 163478977.33061981 0 163478977.33061981 -418820649.51869202 0 0 0 0 20650936.596618652 137993705.54520416 0 137993705.54520416 -375192371.14489746 0 0 0 0 73413412.013671875 146820596.64957428 0 146820596.64957428 -398081647.95440674 0 0 0 0 15566837.341186523 182185794.29167175 0 182185794.29167175 -404964131.8680706 0 0 0 0 694962.12840270996 128172042.00373077 0 128172042.00373077 -348702997.49987793 0 0 0 0 -5202029.704284668 64487019.440963745 0 64487019.440963745 -317733971.06964111 0 0 0 0 -39172246.061950684 111467016.00967407 0 111467016.00967407 -347265319.14041138 0 0 0 0 60993196.667663574 82044165.682182312 0 82044165.682182312 -346701680.02703488 0 0 0 0 29634311.896850586 55932753.722484589 0 55932753.722484589 -345340690.76423645 0 0 0 0 88260864.512695312 12525946.724349976 0 12525946.724349976 -330739574.73549271 0 0 0 0 52477013.184265137 -26431906.150650024 0 -26431906.150650024 -308530366.65750122 0 0 0 0 -33646683.043579102 37924813.768630981 0 37924813.768630981 -332348357.89594746 0 0 0 0 158526434.41217041 38367189.538963318 0 38367189.538963318 -349617146.95162964 0 0 0 0 140927949.89552307 39282511.048644066 0 39282511.048644066 -341173929.17203522 0 0 0 0 124186583.09155273 28833941.083351135 0 28833941.083351135 -339524985.36099243 0 0 0 0 74269119.184951782 97297479.292953491 0 97297479.292953491 -361485411.04968262 0 0 0 0 164884201.29779053 65466006.334602356 0 65466006.334602356 -350426249.49674988 0 0 0 0 113829774.55834961 124058114.39726067 0 124058114.39726067 -336319770.5281601 0 0 0 0 74937319.097381592 145012315.2967186 0 145012315.2967186 -388668836.42070007 0 0 0 0 87188326.821594238 104412780.21461487 0 104412780.21461487 -358798368.48880005 0 0 0 0 75179521.173400879 126760474.68480682 0 126760474.68480682 -360713398.17157745 0 0 0 0 82792977.09841156 147522929.97911263 0 147522929.97911263 -393929394.65046692 0 0 0 0 94819513.367996216 152869072.01402187 0 152869072.01402187 -347200863.05093384 0 0 0 0 111685497.67987061 114303756.30644989 0 114303756.30644989 -363468455.80853271 0 0 0 0 134447628.23609924 184170614.775177 0 184170614.775177 -293207707.8744812 0 0 0 0 184845294.46588135 101697749.67020035 0 101697749.67020035 -331987536.03248024 0 0 0 0 264681727.12382507 34390916.275693893 0 34390916.275693893 -344769691.19938278 0 0 0 0 173794498.681427 95127985.947378159 0 95127985.947378159 -323410973.04616928 0 0 0 0 -114564331.72029114 117757298.55220699 0 117757298.55220699 -294827176.12042236 0 0 0 0 -17894923.432739258 139993515.71244812 0 139993515.71244812 -313644640.76802063 0 0 0 0 -56786647.805480957 128650477.57079315 0 128650477.57079315 -285756540.86175919 0 0 0 0 -71625888.912719727 165227118.198349 0 165227118.198349 -242411425.99741745 0 0 0 0 -82786732.231414795 71876457.569019318 0 71876457.569019318 -370654067.29364014 0 0 0 0 -59359826.310516357 103230727.63544083 0 103230727.63544083 -332795052.46224976 0 0 0 0 -13881359.448120117 110418101.10412979 0 110418101.10412979 -369537773.19929504 0 0 0 0 -2575867.2104797363 94853504.20161438 0 94853504.20161438 -398268878.39909363 0 0 0 0 30120512.656951904 113841542.65180874 0 113841542.65180874 -395233808.56813049 0 0 0 0 23235038.416564941 128767724.72854614 0 128767724.72854614 -358243687.29173279 0 0 0 0 57724254.162414551 129291737.25795746 0 129291737.25795746 -362098107.45851135 0 0 0 0 60422660.142700195 140449837.16366577 0 140449837.16366577 -374570557.86368561 0 0 0 0 9444135.9356689453 133848124.99747467 0 133848124.99747467 -326839725.83906555 0 0 0 0 54584436.517456055 152780073.60164642 0 152780073.60164642 -321284686.81786346 0 0 0 0 -4310711.1438903809 114128025.473423 0 114128025.473423 -354966354.96116638 0 0 0 0 -17856817.012512207 166620497.17911339 0 166620497.17911339 -267525962.10678101 0 0 0 0 105778674.82824707 155320102.81350327 0 155320102.81350327 -310547911.37651825 0 0 0 0 47375158.445007324 143054509.67234039 0 143054509.67234039 -313122261.40830612 0 0 0 0 31557122.951080322 185933404.13137436 0 185933404.13137436 -272253453.58193207 0 0 0 0 34447757.0103302 192192566.94868851 0 192192566.94868851 -258937740.31643677 0 0 0 0 -29382719.211730957 197052277.79609108 0 197052277.79609108 -234423421.18421173 0 0 0 0 -82909402.93762207 190097166.5287323 0 190097166.5287323 -214090460.06655502 0 0 0 0 -25725039.446258545 158245022.70653915 0 158245022.70653915 -271770575.11576653 0 0 0 0 -41083841.507507324 192772182.10441971 0 192772182.10441971 -236134355.57982826 0 0 0 0 -125225884.33569336 233379145.31575012 0 233379145.31575012 -171586213.83613968 0 0 0 0 -36621690.812496185 230720946.79530454 0 230720946.79530454 -178477261.65517426 0 0 0 0 35968210.834152222 236771857.84836006 0 236771857.84836006 -226630395.35246277 0 0 0 0 111478040.07348633 192213778.51182556 0 192213778.51182556 -271759987.15429592 0 0 0 0 58648608.119293213 231445406.39962196 0 231445406.39962196 -225523383.82975721 0 0 0 0 94910619.50440979 256623428.58108234 0 256623428.58108234 -250544510.05745697 0 0 0 0 273419451.16094971 250317713.8217907 0 250317713.8217907 -261573434.53040791 0 0 0 0 -18418884.412643433 306492134.5777874 0 306492134.5777874 -168259300.52984238 0 0 0 0 -62654988.129302979 300130417.47625732 0 300130417.47625732 -167694685.05124974 0 0 0 0 276341632.73312378 1899065.3164272308 0 1899065.3164272308 -307680701.2347908 0 0 0 0 342958887.09841156 113153215.96870422 0 113153215.96870422 -325357155.20082855 0 0 0 0 240658131.22149658 197795370.26154327 0 197795370.26154327 -284833226.85147667 0 0 0 0 207320273.44810486 148286333.8031559 0 148286333.8031559 -272306059.25099754 0 0 0 0 99977345.142608643 172830113.45806789 0 172830113.45806789 -277886560.13401794 0 0 0 0 406507656.98260498 157923837.95815277 0 157923837.95815277 -292859474.20294189 0 0 0 0 242879439.78651428 207923847.80953026 0 207923847.80953026 -264639741.99996185 0 0 0 0 355590346.87661743 84320032.307227135 0 84320032.307227135 -244424498.67233086 0 0 0 0 780956682.6990509 31861201.736379623 0 31861201.736379623 -302423017.72409248 0 0 0 0 497547809.81980515 -11863000.624667943 0 -11863000.624667943 -222818165.45950699 0 0 0 0 528915357.00958252 99747544.300173759 0 99747544.300173759 -259615618.38487625 0 0 0 0 470365119.36462116 208376872.19659871 0 208376872.19659871 -327088855.35323524 0 0 0 0 544652056.78813171 115501844.66444254 0 115501844.66444254 -244018483.18743896 0 0 0 0 -36131372.852264404 369608367.91321278 0 369608367.91321278 -225323489.75576234 0 0 0 0 -36589225.385221481 370782363.97282636 0 370782363.97282636 -216959619.93109512 0 0 0 0 94219492.396316528 381366515.19018745 0 381366515.19018745 -229090262.79647827 0 0 0 0 88935253.965026855 332574682.70866942 0 332574682.70866942 -340524006.38399833 0 0 0 0 402356586.97975159 439203281.27135015 0 439203281.27135015 -417393230.70601559 0 0 0 0 -368689780.15551758 523774382.22053242 0 523774382.22053242 -283127615.79810905 0 0 0 0 -291141346.67070007 363079948.54505539 0 363079948.54505539 -589261569.66495061 0 0 0 0 -253618851.47357941 167739602.91157818 0 167739602.91157818 -13505584.901596069 0 0 0 0 -512503941.93651581 396810539.72400093 0 396810539.72400093 -51028497.962751389 0 0 0 0 -163538204.40493011 398279885.17322111 0 398279885.17322111 -187280205.64212799 0 0 0 0 -142751380.88218975 114644821.27302647 0 114644821.27302647 -70385592.740491867 0 0 0 0 -315316495.9970932 272951619.03783035 0 272951619.03783035 -85945700.807071686 0 0 0 0 -134206452.33101463 189200658.74878502 0 189200658.74878502 -153596228.08330917 0 0 0 0 -125534059.8086853 227766083.3845768 0 227766083.3845768 -76869932.577082634 0 0 0 0 -50620425.749961853 88863437.691426277 0 88863437.691426277 -158470439.62506676 0 0 0 0 -260850717.01364136 141394815.01474762 0 141394815.01474762 -68144008.629418433 0 0 0 0 -126032667.09416199 -32903002.839633942 0 -32903002.839633942 135396868.0356369 0 0 0 0 -356703935.23731995 138872406.86032581 0 138872406.86032581 315823574.70542693 0 0 0 0 -1253766.771971114 -1060626.6081400192 0 -1060626.6081400192 205301.21192069817 0 0 0 0 213012230.90203857 -42444526.356663644 0 -42444526.356663644 -1722321313.7516947 0 0 0 0 -152026954.49279594 -324768338.61105454 0 -324768338.61105454 -981585071.17819428 0 0 0 0 39534609.905593872 -394278412.50497627 0 -394278412.50497627 -627184966.64358616 0 0 0 0 -6450790.6262512207 339384889.45321941 0 339384889.45321941 -362906395.64850712 0 0 0 0 -460988363.81699371 636851326.23627424 0 636851326.23627424 -742589697.27783942 0 0 0 0 -1051545479.1907959 76330099.071046636 0 76330099.071046636 -562403847.02603662 0 0 0 0 -1045957898.4358521 106291857.66998953 0 106291857.66998953 -715947452.9970938 0 0 0 0 484448.89258745313 -1433838.7884293478 0 -1433838.7884293478 -1205827.0686650402 0 0 0 0 -1325661183.9682617 -208219853.75261092 0 -208219853.75261092 60978375.35074234 0 0 0 0 -220922478.33049011 -158619344.81234646 0 -158619344.81234646 -1147670034.5874004 0 0 0 0 -665364559.93518066 185909592.33731747 0 185909592.33731747 220147791.40231276 0 0 0 0 -1238514092.1954727 658210681.69683933 0 658210681.69683933 -120140828.86535645 0 0 0 0 -565849074.49221802 198840241.99150515 0 198840241.99150515 -7469515.6406215429 0 0 0 0 -814831578.53594208 60640134.102906466 0 60640134.102906466 392900852.89710522 0 0 0 0 -249686434.18037415 -141623291.29515815 0 -141623291.29515815 237976280.58135653 0 0 0 0 -322587794.62221527 2902748.0863699913 0 2902748.0863699913 -4940549.3336377144 0 0 0 0 -96014421.932213783 -174968819.86255252 0 -174968819.86255252 146837921.04715824 0 0 0 0 1003039.6905638054 -3891039.7636496536 0 -3891039.7636496536 -1944661.7576575833 0 0 0 0 -605847618.47149658 -169170859.26147223 0 -169170859.26147223 13641078.715410769 0 0 0 0 2408962.284135282 -6788155.8476141542 0 -6788155.8476141542 5206531.2392824739 0 0 0 0 3173108603.5877991 -2033254757.5298882 0 -2033254757.5298882 368652625.34695435 0 0 0 0 -606086379.68694305 -65689126.227413177 0 -65689126.227413177 253801212.49175692 0 0 0 0 -311516770.90458679 -240772054.80450892 0 -240772054.80450892 329923153.54253006 0 0 0 0 517277.32901382446 -2989388.0878045857 0 -2989388.0878045857 3211042.2082553641 0 0 0 0 11129683.946212769 -130965248.46628094 0 -130965248.46628094 -327535745.76087093 0 0 0 0 -2039235764.0415077 648581195.02767658 0 648581195.02767658 -738286216.30750084 0 0 0 0 1704917.4777852297 -2951851.5038952623 0 -2951851.5038952623 4507863.8580297893 0 0 0 0 2858952392.3054657 261311034.23050785 0 261311034.23050785 -943922850.02466106 0 0 0 0 2867607593.3626251 -967845736.49117327 0 -967845736.49117327 -105560871.98134232 0 0 0 0 2285400782.8259583 -604794241.18385315 0 -604794241.18385315 33843955.179193497 0 0 0 0 1383796586.2876282 -1394308675.8339496 0 -1394308675.8339496 1269239271.1211739 0 0 0 0 1221341028.3384171 -216854086.91339183 0 -216854086.91339183 8274062.0434873104 0 0 0 0 1369348999.3303986 -737923254.39654922 0 -737923254.39654922 -82534088.906909943 0 0 0 0 1373525042.3548515 -267869883.2566402 0 -267869883.2566402 -320325468.78069592 0 0 0 0 579393710.049263 -804000901.73863411 0 -804000901.73863411 164340983.8713851 0 0 0 0 602330020.90995789 -857679835.31685972 0 -857679835.31685972 -376683672.47900295 0 0 0 0 576501158.72115707 -921794797.96119785 0 -921794797.96119785 438247946.58285904 0 0 0 0 1065959044.0383301 -713177094.70504117 0 -713177094.70504117 -43380235.517057419 0 0 0 0 462312750.25158691 -560214180.26184797 0 -560214180.26184797 66486510.685376167 0 0 0 0 -126515430.32971191 -86165052.462752819 0 -86165052.462752819 255611352.95940852 0 0 0 0 101908410.96687317 -484437211.75835204 0 -484437211.75835204 654809813.16361332 0 0 0 0 480333874.53135681 -403271680.94503307 0 -403271680.94503307 450428586.94201422 0 0 0 0 1953628404.0735855 -1489713747.1345501 0 -1489713747.1345501 632645010.36192942 0 0 0 0 596989886.61065674 -852102412.12807178 0 -852102412.12807178 1935318815.5158348 0 0 0 0 2659514817.1293106 -657589650.05845642 0 -657589650.05845642 -456558204.55277443 0 0 0 0 2607535027.1398773 -156522307.60052806 0 -156522307.60052806 22951340.157345772 0 0 0 0 1111798387.5152435 478523785.29977894 0 478523785.29977894 1205507907.2422981 0 0 0 0 -278092164.91746521 -257271692.10401678 0 -257271692.10401678 782987125.8185811 0 0 0 0 523243960.70101929 -224950844.40452135 0 -224950844.40452135 402820885.29883528 0 0 0 0 -187745000.21194458 -296524943.79866076 0 -296524943.79866076 -46302811.060864568 0 0 0 0 288456541.0046463 124421054.83074152 0 124421054.83074152 304550487.0865984 0 0 0 0 35527000.740631104 341450257.25683951 0 341450257.25683951 -222076340.8916834 0 0 0 0 430709413.10836029 -54613783.796984434 0 -54613783.796984434 -381518915.17537546 0 0 0 0 1106042246.7850342 423630564.92153454 0 423630564.92153454 -55785799.943897426 0 0 0 0 660630382.0401001 391300834.97690511 0 391300834.97690511 -512827105.18672764 0 0 0 0 90372848.077133179 311094871.36575985 0 311094871.36575985 -681198680.19136596 0 0 0 0 1037565794.8022308 -142751114.8038888 0 -142751114.8038888 -236322383.49825311 0 0 0 0 1257233539.0213556 -425895340.25403804 0 -425895340.25403804 -28714071.526030421 0 0 0 0 893880660.23037338 -190781706.61123085 0 -190781706.61123085 -226774074.06539917 0 0 0 0 1292600516.560585 -675035113.43317103 0 -675035113.43317103 44956867.562364578 0 0 0 0 1009582213.789856 -765245261.2956531 0 -765245261.2956531 396253075.81647933 0 0 0 0 938067323.00151062 -603459529.92796516 0 -603459529.92796516 256003072.310431 0 0 0 0 378149361.45021057 -426401723.62052488 0 -426401723.62052488 526767389.88088226 0 0 0 0 -497201593.84117508 -256479517.10032737 0 -256479517.10032737 -89069024.656749249 0 0 0 0 5270891.9988020025 -1276976.3335078545 0 -1276976.3335078545 -1922009.5351869357 0 0 0 0 1028286195.517704 -1104836181.2562151 0 -1104836181.2562151 1183707128.571825 0 0 0 0 1377727663.7383842 595297924.7641865 0 595297924.7641865 245424400.47031593 0 0 0 0 3989032.5518712848 -3845292.1860896777 0 -3845292.1860896777 -209595.96852039499 0 0 0 0 9426659.5954610184 -5429164.2979996502 0 -5429164.2979996502 -3901812.8753923015 0 0 0 0 5889528.464515686 -5326973.3253713846 0 -5326973.3253713846 -7216846.0024080276 0 0 0 0 -4837672.1227645874 -6751400.0013666153 0 -6751400.0013666153 8415649.7663568854 0 0 0 0 -595763.7649659887 -110110.01201685518 0 -110110.01201685518 -977749.2864747413 0 0 0 0 1207116683.2967913 148838390.92308518 0 148838390.92308518 17510832.359416962 0 0 0 0 8757968.6924512386 -7955224.2198826373 0 -7955224.2198826373 -15107587.302924633 0 0 0 0 12392399.436518557 -8394039.166144466 0 -8394039.166144466 -3572634.2709357324 0 0 0 0 8601910.7010498047 -4654087.3218958378 0 -4654087.3218958378 -7783033.0024623871 0 0 0 0 5557868.4893188477 -139329311.22096419 0 -139329311.22096419 -107429788.17510986 0 0 0 0 7628471.2001647949 -6318087.1607345343 0 -6318087.1607345343 -9421822.7942891121 0 0 0 0 7313257.7724746168 -9717961.0526055545 0 -9717961.0526055545 -524222.60255326593 0 0 0 0 92542993.769256592 -29111388.464213371 0 -29111388.464213371 -251640665.83286285 0 0 0 0 20282939.444061279 -149173610.13109827 0 -149173610.13109827 -408667568.10453939 0 0 0 0 559538031.00169373 -207049931.28283918 0 -207049931.28283918 -405307709.43068945 0 0 0 0 253258326.99048615 90067216.847803921 0 90067216.847803921 -297655558.10231161 0 0 0 0 7931046.7557373047 -533096852.92952991 0 -533096852.92952991 -246783175.99666363 0 0 0 0 877677165.87756348 -578642730.75870252 0 -578642730.75870252 -246900241.34309682 0 0 0 0 1127019861.278862 294744203.43766582 0 294744203.43766582 -251451630.36990821 0 0 0 0 1321960471.1877899 -1136190353.7131112 0 -1136190353.7131112 1032199194.2608256 0 0 0 0 3391216642.8818016 461978748.45158798 0 461978748.45158798 -149818010.6958847 0 0 0 0 245928.00196068734 -1329031.6053396799 0 -1329031.6053396799 3963198.43256051 0 0 0 0 3033177752.9645767 -764223325.27880025 0 -764223325.27880025 -25339283.094495773 0 0 0 0 1618241826.2170105 380604775.87045431 0 380604775.87045431 171425769.92043304 0 0 0 0 1342587350.3191071 -543750316.69611263 0 -543750316.69611263 186772354.2650919 0 0 0 0 2029299074.8292847 -318762887.2467823 0 -318762887.2467823 -201995404.87502193 0 0 0 0 -714206335.7852478 -228457533.21862149 0 -228457533.21862149 355375231.05395126 0 0 0 0 -460132483.62371826 -231071524.21514034 0 -231071524.21514034 -112556345.71094131 0 0 0 0 2256908.111155577 1012911.5866357572 0 1012911.5866357572 -1171788.9580245474 0 0 0 0 -1889264559.0543976 -722250580.70590687 0 -722250580.70590687 1019770617.2720222 0 0 0 0 186936818.74807739 -813412723.9000988 0 -813412723.9000988 436056910.43997765 0 0 0 0 1466103497.3451309 -1056098768.4898715 0 -1056098768.4898715 157459007.02379894 0 0 0 0 669191302.67666626 -316545315.28696728 0 -316545315.28696728 15277227.355567932 0 0 0 0 1104985425.0660744 -435638780.78993118 0 -435638780.78993118 -146537510.55121613 0 0 0 0 416471414.99699402 -174384681.69959259 0 -174384681.69959259 -187978334.16814804 0 0 0 0 595987377.10679626 -114439521.88783169 0 -114439521.88783169 -172288196.45637035 0 0 0 0 369039024.8951416 -81598770.456720829 0 -81598770.456720829 -300270296.16379547 0 0 0 0 507458497.76885986 30691264.810768127 0 30691264.810768127 -321491106.10476875 0 0 0 0 -316177918.04470825 -503167530.61563873 0 -503167530.61563873 251896447.57908821 0 0 0 0 734351645.38290787 -507784276.9916501 0 -507784276.9916501 -103189183.38074875 0 0 0 0 205270515.57452393 -319861626.89394569 0 -319861626.89394569 -163526473.13160133 0 0 0 0 414199519.67773438 -179878239.33312082 0 -179878239.33312082 -354681222.4838562 0 0 0 0 248974535.03848267 -369494337.87388992 0 -369494337.87388992 -246234186.35136032 0 0 0 0 -76997033.102722168 -321580260.89641571 0 -321580260.89641571 -241479125.0370903 0 0 0 0 -212891099.58416748 -171164188.44157791 0 -171164188.44157791 -348408504.72026825 0 0 0 0 174218057.69746399 -179078601.71217203 0 -179078601.71217203 -347449920.64713287 0 0 0 0 200992764.24966431 -265839083.80197906 0 -265839083.80197906 -419354707.35801315 0 0 0 0 -11964192.607330322 -288326610.11399841 0 -288326610.11399841 -338588482.70845032 0 0 0 0 90605245.820709229 -191823607.30123138 0 -191823607.30123138 -321199079.61563873 0 0 0 0 93410814.113067627 -237583331.01441956 0 -237583331.01441956 -317908353.73228073 0 0 0 0 1628296.2253112793 -329677339.70229626 0 -329677339.70229626 -448297856.4574585 0 0 0 0 -250610388.49494934 -390210660.59424591 0 -390210660.59424591 -274871317.1663208 0 0 0 0 238316828.45748901 25996131.612663269 0 25996131.612663269 -319608732.44585037 0 0 0 0 336500446.70082855 -74837698.706388474 0 -74837698.706388474 -362535616.4655571 0 0 0 0 314431519.26361084 -210222597.60641861 0 -210222597.60641861 -362762730.14310932 0 0 0 0 250426847.52514648 -111481145.88288116 0 -111481145.88288116 -305518525.12807369 0 0 0 0 222288902.40222168 -106586974.1320076 0 -106586974.1320076 -354803190.17610931 0 0 0 0 192041894.90637207 -200158497.51351166 0 -200158497.51351166 -371426495.65094757 0 0 0 0 177356669.03033447 -69665212.277366638 0 -69665212.277366638 -361485097.82549763 0 0 0 0 194429695.72071838 -54345514.835570335 0 -54345514.835570335 -350135866.64230347 0 0 0 0 5396517.4278821796 -14659396.97416684 0 -14659396.97416684 -3176747.3249968467 0 0 0 0 36382486.382202148 -56828132.401504517 0 -56828132.401504517 -267823764.70182419 0 0 0 0 -1964440.0978393555 -20874.583181262016 0 -20874.583181262016 -7771915.3764331341 0 0 0 0 38180907.097808838 -48320721.054702759 0 -48320721.054702759 -266858971.92936134 0 0 0 0 88539288.982513428 -58683056.331058502 0 -58683056.331058502 -316677448.46640015 0 0 0 0 61552368.180175781 -26854223.483917236 0 -26854223.483917236 -331098721.02215576 0 0 0 0 83501845.932596207 -36291559.28626585 0 -36291559.28626585 -327639771.44737244 0 0 0 0 112174902.9598999 -38726476.686424255 0 -38726476.686424255 -352877540.41024399 0 0 0 0 146792431.39779663 -78405442.347070694 0 -78405442.347070694 -339839259.61114502 0 0 0 0 73730062.99786377 -59335134.671630859 0 -59335134.671630859 -315824883.64192581 0 0 0 0 86689837.155059814 -68234975.121078491 0 -68234975.121078491 -337872681.71994019 0 0 0 0 70427985.903503418 -68053260.648513794 0 -68053260.648513794 -304295058.4390831 0 0 0 0 89161562.247383118 -101963333.77435017 0 -101963333.77435017 -294042331.52235413 0 0 0 0 55989477.843383789 -95991138.781524658 0 -95991138.781524658 -295033207.12582016 0 0 0 0 94698672.746704102 -84181915.848312378 0 -84181915.848312378 -312437966.11989975 0 0 0 0 120851378.05212402 -108926625.76195526 0 -108926625.76195526 -352742096.42705536 0 0 0 0 107775066.29660034 -114656608.94224548 0 -114656608.94224548 -319817403.84479523 0 0 0 0 99269741.018161774 -163298934.26426029 0 -163298934.26426029 -297622133.41033936 0 0 0 0 43897432.763549805 -91661989.756355286 0 -91661989.756355286 -235359338.83251953 0 0 0 0 42563332.077758789 -113349210.03118515 0 -113349210.03118515 -235948894.6824646 0 0 0 0 57160446.57635498 -105800960.01196289 0 -105800960.01196289 -266366696.61523438 0 0 0 0 43081621.18560791 -81483609.984672546 0 -81483609.984672546 -258765282.00431824 0 0 0 0 54384199.556137085 -74024624.209884644 0 -74024624.209884644 -286987477.02027893 0 0 0 0 77652040.254516602 -80827076.581542969 0 -80827076.581542969 -286393109.59877014 0 0 0 0 7894351.7383422852 -28435131.246765137 0 -28435131.246765137 -276171154.90681458 0 0 0 0 -19689155.419509888 -22390800.666927338 0 -22390800.666927338 -58667771.412498474 0 0 0 0 -122804884.03253937 -14818621.631535053 0 -14818621.631535053 11521009.196807861 0 0 0 0 -22802855.855037689 -109531174.91474771 0 -109531174.91474771 -110919987.73530579 0 0 0 0 -95150165.735961914 -159208238.72779846 0 -159208238.72779846 -144593548.48890686 0 0 0 0 -49178636.284210205 -207964450.27376556 0 -207964450.27376556 -109993601.31948853 0 0 0 0 -34270278.151733398 -242821197.50618362 0 -242821197.50618362 -263495893.66674042 0 0 0 0 34442587.335754395 -155623438.44100189 0 -155623438.44100189 -261787188.06497192 0 0 0 0 33447454.535614014 -169024361.99753571 0 -169024361.99753571 -195835122.06394196 0 0 0 0 -14213612.410575867 -152196505.73980284 0 -152196505.73980284 -196671693.5512085 0 0 0 0 13001045.015625 -104632863.11001587 0 -104632863.11001587 -161737206.40488434 0 0 0 0 12098190.859985352 -16180399.168502808 0 -16180399.168502808 -209006809.99666595 0 0 0 0 6366942.7909545898 -94332131.764068604 0 -94332131.764068604 -168800050.40455627 0 0 0 0 14564136.984130859 -103677599.3187561 0 -103677599.3187561 -239287474.6579361 0 0 0 0 12986141.67074585 -113541876.13164902 0 -113541876.13164902 -200908114.83355713 0 0 0 0 22471182.427185059 -71907799.067253113 0 -71907799.067253113 -242813873.97185135 0 0 0 0 6849998.9993286133 -63339962.420318604 0 -63339962.420318604 -196991382.1107769 0 0 0 0 486505.16030883789 -85668912.52179718 0 -85668912.52179718 -120365383.09677124 0 0 0 0 4458060.483581543 -6854199.2402114868 0 -6854199.2402114868 -153477433.53432846 0 0 0 0 3216229.7873535156 5165459.5176010132 0 5165459.5176010132 -56538724.18025589 0 0 0 0 6234837.0333709717 -70244816.762615204 0 -70244816.762615204 -122974300.69219971 0 0 0 0 -23833386.975326538 -70757526.71679306 0 -70757526.71679306 -21504214.94834137 0 0 0 0 21381739.500717163 -65423113.885919571 0 -65423113.885919571 -127632868.35360718 0 0 0 0 -659337.70828063786 -7732318.3017839082 0 -7732318.3017839082 10534221.395492535 0 0 0 0 1227611862.7929688 42778432.427193165 0 42778432.427193165 -188978091.36032152 0 0 0 0 2482544.5107863769 -4959066.70961532 0 -4959066.70961532 4311334.814940488 0 0 0 0 544316748.34042358 -76464863.280464113 0 -76464863.280464113 176419537.17375779 0 0 0 0 663257409.34512329 -202594589.806683 0 -202594589.806683 -6514383.6478428841 0 0 0 0 1260667528.8976345 -475511969.64640516 0 -475511969.64640516 -67114643.597584963 0 0 0 0 837042149.56695557 -172719161.76517224 0 -172719161.76517224 -158570457.77567387 0 0 0 0 546473.03173390031 -255365.61282343417 0 -255365.61282343417 248573.06062035833 0 0 0 0 1194312397.2922058 -157091018.39420748 0 -157091018.39420748 -227638875.69613588 0 0 0 0 1225396378.2615204 -267262742.56050086 0 -267262742.56050086 -187154653.21654415 0 0 0 0 967897415.49872589 62817169.13892293 0 62817169.13892293 37917804.066355705 0 0 0 0 1443184405.4547424 -173977837.26132965 0 -173977837.26132965 -229497361.82115102 0 0 0 0 1373915.1432369649 -5351212.8395169601 0 -5351212.8395169601 10196490.089620123 0 0 0 0 930950905.9099884 -57865993.72636795 0 -57865993.72636795 69047987.652362823 0 0 0 0 -336586150.14100647 -348014175.76120377 0 -348014175.76120377 -307438366.30953979 0 0 0 0 -344347916.72169495 -452758646.61954689 0 -452758646.61954689 -90092722.367318153 0 0 0 0 -469073199.96102905 -185762294.34654617 0 -185762294.34654617 45239673.010822296 0 0 0 0 -30429.832389142364 -1871546.8188707791 0 -1871546.8188707791 1191398.6096115764 0 0 0 0 5401011.5704193115 -5949211.0643627644 0 -5949211.0643627644 2837287.3002204895 0 0 0 0 4610546.1321258545 -8809627.503247261 0 -8809627.503247261 65155.700832366943 0 0 0 0 4728734.0119628906 -5170318.2595615387 0 -5170318.2595615387 2685109.3978862762 0 0 0 0 4792996.4330673218 -4638708.8164129257 0 -4638708.8164129257 6383073.900352478 0 0 0 0 5361503.883972168 -11108878.359398842 0 -11108878.359398842 11097141.057901382 0 0 0 0 5958589.0033416748 -8052796.932993412 0 -8052796.932993412 -1701455.7166309357 0 0 0 0 6357991.3637390137 -5053625.3684444427 0 -5053625.3684444427 5438184.3360271454 0 0 0 0 1238791241.6686673 -268487869.84032315 0 -268487869.84032315 192385349.89029342 0 0 0 0 4717627.6055531129 -4409009.5659801736 0 -4409009.5659801736 3862328.6523782965 0 0 0 0 985110870.89520073 -564124384.76557553 0 -564124384.76557553 94869995.739720017 0 0 0 0 852339940.74147034 79815065.325521082 0 79815065.325521082 15643642.276437193 0 0 0 0 1540174.7153908312 -73980.11143091321 0 -73980.11143091321 459436.62791734561 0 0 0 0 1228560081.0188942 -638775584.05643547 0 -638775584.05643547 298336033.62339449 0 0 0 0 1113788.7228537202 -1343004.499828551 0 -1343004.499828551 185428.3587172124 0 0 0 0 783682501.33551025 -324576791.95643169 0 -324576791.95643169 77138170.931113243 0 0 0 0 601435258.50053406 -637432801.61894631 0 -637432801.61894631 353939461.34923673 0 0 0 0 2807079.2019805908 -4595032.02257061 0 -4595032.02257061 344150.22221279144 0 0 0 0 7406221.9446258545 -3369761.5942044258 0 -3369761.5942044258 -1071789.7575321198 0 0 0 0 4582915.0796880797 -5348589.30420685 0 -5348589.30420685 1961548.0229720725 0 0 0 0 7595395.4477233887 -2175527.9642515182 0 -2175527.9642515182 1682311.848742485 0 0 0 0 22839775.137680054 7628805.0417542458 0 7628805.0417542458 -3390712.8874028921 0 0 0 0 9727308.8940128125 -5304423.4662731215 0 -5304423.4662731215 -4139293.0485166344 0 0 0 0 12498790.722109437 -10599540.230373956 0 -10599540.230373956 -6855240.7989095924 0 0 0 0 -46300398.820220947 -30388064.141525269 0 -30388064.141525269 154741200.44264221 0 0 0 0 3040367.6305847168 -18771224.271153063 0 -18771224.271153063 -9017918.10936285 0 0 0 0 1044697.3090820312 -20553181.418836385 0 -20553181.418836385 -6003139.7208827734 0 0 0 0 3960323.5601043701 -16757693.836889699 0 -16757693.836889699 -5372529.9892694652 0 0 0 0 1114278.3324165344 -20179808.607314341 0 -20179808.607314341 -4056117.3290352225 0 0 0 0 9701362.7580566406 -17496177.865488537 0 -17496177.865488537 -12236711.42869176 0 0 0 0 2232553.0593803227 -598159.50216813758 0 -598159.50216813758 -752458.73530900059 0 0 0 0 7303418.4757041931 -2957304.4050437808 0 -2957304.4050437808 6868996.9611968994 0 0 0 0 28196374.349838257 -23813464.585331678 0 -23813464.585331678 -7372.9615612030029 0 0 0 0 45505110.265838623 26135529.763479233 0 26135529.763479233 -1557015.1174840927 0 0 0 0 33555417.883117676 -24135252.41003418 0 -24135252.41003418 10219362.30218184 0 0 0 0 6975800.0651550293 -8005925.7719707489 0 -8005925.7719707489 13976279.787165642 0 0 0 0 14717251.398742676 -8808875.2829732895 0 -8808875.2829732895 -2217523.7293844223 0 0 0 0 18584398.195648193 -323604.8375518322 0 -323604.8375518322 -16310190.506258011 0 0 0 0 1818135.8191680908 -5571316.8893022537 0 -5571316.8893022537 -2931520.9081840515 0 0 0 0 -3677506.1686401367 1849022.9705759287 0 1849022.9705759287 -5206460.3991606236 0 0 0 0 22593514.367950439 -12754626.646109164 0 -12754626.646109164 -18666396.750807166 0 0 0 0 14030065.863471493 -4194142.0626859702 0 -4194142.0626859702 -4234328.6022005342 0 0 0 0 10156895.039234266 -4602154.3377270633 0 -4602154.3377270633 195365.42612175705 0 0 0 0 13108022.075042725 -5588184.6715769619 0 -5588184.6715769619 246667.81541329157 0 0 0 0 11956286.928695679 -3031752.9251774224 0 -3031752.9251774224 682303.88145624567 0 0 0 0 14802929.22315979 -3481630.7765795905 0 -3481630.7765795905 -967482.13889272138 0 0 0 0 14313300.888336182 -2459123.3984326087 0 -2459123.3984326087 877755.48588900641 0 0 0 0 9544936.8184661865 -9983814.8879175186 0 -9983814.8879175186 -10574252.560364246 0 0 0 0 11381271.738215104 -2646376.7533416869 0 -2646376.7533416869 -802114.94078080344 0 0 0 0 7348201.6481628418 -14213620.793400288 0 -14213620.793400288 -1675739.6113491058 0 0 0 0 755905392.50260925 -168529563.96689811 0 -168529563.96689811 162369343.51777431 0 0 0 0 5774208.7704584748 -3298995.7004871927 0 -3298995.7004871927 2641906.4578834744 0 0 0 0 7587840.119720459 -2367079.5759830475 0 -2367079.5759830475 -1961034.8669748306 0 0 0 0 13012760.911682129 -419138.06848221226 0 -419138.06848221226 1369844.8899494298 0 0 0 0 11798669.808662415 -1336373.7464297172 0 -1336373.7464297172 836112.71247054636 0 0 0 0 13251401.846588135 -4259424.379162956 0 -4259424.379162956 1434498.7400681153 0 0 0 0 6532902.6030537933 -356229.70700707287 0 -356229.70700707287 1497752.9582163927 0 0 0 0 17289583.017852783 -2229534.5773644438 0 -2229534.5773644438 -249405.40986752696 0 0 0 0 16167833.130310059 -1712166.76002522 0 -1712166.76002522 272192.66512634046 0 0 0 0 8202.6431530676782 -1015.2681782916188 0 -1015.2681782916188 3365.772540837871 0 0 0 0 17875238.416442871 -3705304.8181709377 0 -3705304.8181709377 -44829.469125065953 0 0 0 0 16019022.807281494 -3263772.974948681 0 -3263772.974948681 572450.95780226216 0 0 0 0 15131389.877258301 -2631854.9987543076 0 -2631854.9987543076 682097.27912606997 0 0 0 0 15791497.888793945 -3683042.4749259744 0 -3683042.4749259744 1187221.4326402014 0 0 0 0 14676166.905693054 -2777626.4540789025 0 -2777626.4540789025 405543.08931149542 0 0 0 0 14327629.538189292 -3433304.1449350179 0 -3433304.1449350179 217586.10054635815 0 0 0 0 14901123.569869995 -2963921.0705012907 0 -2963921.0705012907 225366.11061739549 0 0 0 0 15008552.603622437 -2544747.1067178352 0 -2544747.1067178352 -663750.42796415463 0 0 0 0 15020581.852119446 -2350931.1676372928 0 -2350931.1676372928 261696.46921431087 0 0 0 0 14561120.555732727 -2584542.8157875394 0 -2584542.8157875394 363252.04641540302 0 0 0 0 14628107.667816162 -2754403.3234532555 0 -2754403.3234532555 778384.46855432913 0 0 0 0 15142167.78729248 -2404094.5021712654 0 -2404094.5021712654 121586.18534485437 0 0 0 0 14327321.362503052 -2114134.9668329973 0 -2114134.9668329973 116090.16973629252 0 0 0 0 14428243.593595505 -2623740.4901800337 0 -2623740.4901800337 374206.68980022427 0 0 0 0 14905283.716018677 -1804178.2910262954 0 -1804178.2910262954 -242610.25396080175 0 0 0 0 15325372.513183594 -2054343.3678707259 0 -2054343.3678707259 -414108.73256376572 0 0 0 0 15074835.911193848 -1323832.5589520824 0 -1323832.5589520824 -2436.3459961768863 0 0 0 0 14213394.417701721 -1977913.5859747338 0 -1977913.5859747338 -269425.79492839519 0 0 0 0 13774896.490463257 -1488757.2840390606 0 -1488757.2840390606 985.9174034015598 0 0 0 0 17237695.490264893 -786185.63881274313 0 -786185.63881274313 8199.7390820698602 0 0 0 0 16300772.854736328 -1899919.7182166786 0 -1899919.7182166786 -891231.55907406448 0 0 0 0 15196350.67678833 -2346824.2224339088 0 -2346824.2224339088 -1035924.7253226449 0 0 0 0 16109192.434398651 -2979549.756401862 0 -2979549.756401862 -3731568.2238783352 0 0 0 0 15939603.545013428 -2646170.2241101423 0 -2646170.2241101423 -986342.68630955229 0 0 0 0 14576123.170717239 -3962533.0960055348 0 -3962533.0960055348 -2103622.6912714122 0 0 0 0 14508270.006591797 -3021658.1708016284 0 -3021658.1708016284 64672.809030532837 0 0 0 0 15223245.26713562 -5519202.5741097983 0 -5519202.5741097983 -300672.12372434465 0 0 0 0 33621421.644462585 5279498.4644574448 0 5279498.4644574448 -16572188.531507298 0 0 0 0 15322073.391296387 -5865537.3329863194 0 -5865537.3329863194 -3114868.1838479801 0 0 0 0 8032532.5806351155 -159079.69926892221 0 -159079.69926892221 -1451091.152865587 0 0 0 0 21142883.205337524 4034555.6061527655 0 4034555.6061527655 3036093.6593566798 0 0 0 0 1823493.8502201959 277752.07866538316 0 277752.07866538316 -52909.405164027899 0 0 0 0 65162642.048454285 14532585.375673817 0 14532585.375673817 -4257254.827411823 0 0 0 0 7445026.7127227783 -7910675.1009111442 0 -7910675.1009111442 -1529464.9337056754 0 0 0 0 41115935.83000946 181475.46941319943 0 181475.46941319943 -10434.905004672411 0 0 0 0 28424061.135147095 -9844106.3104691878 0 -9844106.3104691878 -1533892.6143885388 0 0 0 0 31235666.265050888 -2390601.9653472146 0 -2390601.9653472146 5042.1656964657868 0 0 0 0 33086165.848007202 3418005.1421828754 0 3418005.1421828754 5572985.8029636955 0 0 0 0 33662197.679351807 -2871280.9509024825 0 -2871280.9509024825 -4346487.3825596459 0 0 0 0 35126853.414321899 -7444033.7136015911 0 -7444033.7136015911 7921596.9503362272 0 0 0 0 22312719.440620422 -2827461.0273157274 0 -2827461.0273157274 5169872.3240325823 0 0 0 0 19731260.400503635 -11536563.902461458 0 -11536563.902461458 -8930888.5553463995 0 0 0 0 19530956.906661987 -3408281.0132180899 0 -3408281.0132180899 -21614.473282475024 0 0 0 0 31302925.269264221 -8719994.4339676127 0 -8719994.4339676127 -27224886.098386392 0 0 0 0 -9910220.5533065796 -33487586.942973793 0 -33487586.942973793 -30409002.256071329 0 0 0 0 -401892.13893155754 150574.69031402655 0 150574.69031402655 380954.70898886811 0 0 0 0 -49048910.201934576 5299185.8630905356 0 5299185.8630905356 12009975.434666157 0 0 0 0 -47426495.233825684 -41822787.185352862 0 -41822787.185352862 -14696408.248027027 0 0 0 0 12426201.431007385 -23852054.362350702 0 -23852054.362350702 -37340174.24441874 0 0 0 0 -5111787.6642055511 -38933070.111031324 0 -38933070.111031324 -50212039.930449009 0 0 0 0 22128917.783006139 -1854514.6126500517 0 -1854514.6126500517 -1614431.3142542751 0 0 0 0 22002808.613115937 -3765026.2365542483 0 -3765026.2365542483 -2179246.2709907782 0 0 0 0 15473014.832763672 -16660919.034295976 0 -16660919.034295976 -16362787.961824715 0 0 0 0 12244197.427688599 -13749667.961306512 0 -13749667.961306512 -18709463.816557527 0 0 0 0 -484983.51411437988 -17704411.349875223 0 -17704411.349875223 -5541474.2520195097 0 0 0 0 2390784.7910690308 -23956514.011641916 0 -23956514.011641916 -10570908.428997159 0 0 0 0 12760333.516830444 -19313659.543387085 0 -19313659.543387085 -9427055.6121476069 0 0 0 0 2852854.68775177 -16828477.176507592 0 -16828477.176507592 -5371729.23058635 0 0 0 0 15389156.284698486 -21080983.582561225 0 -21080983.582561225 -23465462.548526414 0 0 0 0 15242745.210464478 -16947879.536024034 0 -16947879.536024034 -12497457.43068184 0 0 0 0 16117348.677185059 -22756260.693927377 0 -22756260.693927377 -7926250.0730037093 0 0 0 0 17712043.684570312 -17905685.255909681 0 -17905685.255909681 -4752910.7237966657 0 0 0 0 14041158.021022797 -16598868.124282666 0 -16598868.124282666 -3827652.6097238064 0 0 0 0 22058296.677627563 -15477582.63631323 0 -15477582.63631323 -3670859.157653749 0 0 0 0 11818280.321716309 -17251582.109141976 0 -17251582.109141976 5725453.440536648 0 0 0 0 21861907.482971191 -15590720.020107746 0 -15590720.020107746 4954627.9846954346 0 0 0 0 25866824.729064941 -12457644.384264588 0 -12457644.384264588 4903651.857753098 0 0 0 0 6420520.1996459961 -26002236.015178159 0 -26002236.015178159 9979437.5473256111 0 0 0 0 17984589.335754395 -21255487.364153385 0 -21255487.364153385 4404305.196696043 0 0 0 0 47892209.972747803 -25955361.822063684 0 -25955361.822063684 2377731.900575161 0 0 0 0 18989918.259338379 -52288912.076363206 0 -52288912.076363206 47184911.76595974 0 0 0 0 9442319.326965332 -26920064.737385869 0 -26920064.737385869 10235245.104622602 0 0 0 0 2292760.188293457 -13535875.941511706 0 -13535875.941511706 2785129.3777555227 0 0 0 0 3670592.3783798218 -14884647.853414699 0 -14884647.853414699 -755813.18225175142 0 0 0 0 5533670.1881713867 -17621393.511756539 0 -17621393.511756539 654422.34858459234 0 0 0 0 10800782.207611084 -14175044.769694626 0 -14175044.769694626 3610596.2913713455 0 0 0 0 10456361.632369995 -14876746.657773495 0 -14876746.657773495 2184150.057564497 0 0 0 0 9147451.854675293 -15301624.7613976 0 -15301624.7613976 6412949.512181282 0 0 0 0 8395941.902053833 -16901036.916915476 0 -16901036.916915476 3012731.6745824814 0 0 0 0 6489720.1327667236 -13675304.766361117 0 -13675304.766361117 4017999.088373661 0 0 0 0 1345950.4032897949 -15012908.090661168 0 -15012908.090661168 4054857.4872111082 0 0 0 0 5016385.7536621094 -15602692.023934722 0 -15602692.023934722 5544571.5042537451 0 0 0 0 -10350201.807052612 -5931210.5725635216 0 -5931210.5725635216 10000644.98801057 0 0 0 0 -3745848.0531921387 -10462047.775309384 0 -10462047.775309384 6843085.4423973262 0 0 0 0 -1835758.1933517456 -6987270.2429131716 0 -6987270.2429131716 7273164.0447046757 0 0 0 0 -13378594.861236572 -9399794.8332590759 0 -9399794.8332590759 6780919.121760536 0 0 0 0 -5849435.3788909912 -18405231.01763159 0 -18405231.01763159 -126452.33095262945 0 0 0 0 -8068909.9714355469 -5965296.2660825253 0 -5965296.2660825253 9382520.3071637154 0 0 0 0 -21152829.941925049 -2334279.3712099567 0 -2334279.3712099567 12342008.133821175 0 0 0 0 -15207339.730142593 11303201.736348011 0 11303201.736348011 9434201.7585963607 0 0 0 0 -8379426.4366760254 1064999.4545031786 0 1064999.4545031786 12631214.272849515 0 0 0 0 -23189958.838748932 10698410.568410054 0 10698410.568410054 12321944.942356944 0 0 0 0 -47322028.452178955 -12752111.035266757 0 -12752111.035266757 9084747.7335349917 0 0 0 0 -5093707.5510864258 -21984893.452546164 0 -21984893.452546164 -6181003.1388703212 0 0 0 0 -599285.96994231641 328779.85506368801 0 328779.85506368801 707672.51709062525 0 0 0 0 -76138129.699150085 -45623489.831332922 0 -45623489.831332922 116077716.48300207 0 0 0 0 -4736529.0437316895 -947660.39654883742 0 -947660.39654883742 21270960.367080443 0 0 0 0 -8623160.5230903625 -4413317.4707299955 0 -4413317.4707299955 38621895.82640332 0 0 0 0 -280851.2324097082 219497.79319305904 0 219497.79319305904 412059.37753278541 0 0 0 0 175441690.4016571 139669899.99307948 0 139669899.99307948 4164443.1015684605 0 0 0 0 116956414.79387665 56745338.524701729 0 56745338.524701729 242465687.65288913 0 0 0 0 124449123.06288147 -93202925.198106498 0 -93202925.198106498 161648080.12464496 0 0 0 0 17994806.45640564 -75316198.675419673 0 -75316198.675419673 83903905.522089213 0 0 0 0 -73011107.286628723 -33760692.423080146 0 -33760692.423080146 159786763.62884605 0 0 0 0 -16428824.132246464 -101940804.15989615 0 -101940804.15989615 56421003.778026819 0 0 0 0 -16610329.531661987 -35228117.705334544 0 -35228117.705334544 171050661.19252539 0 0 0 0 124129595.08810425 -56772546.384154201 0 -56772546.384154201 -12354896.306488514 0 0 0 0 51081376.67427063 -157496668.11295211 0 -157496668.11295211 -358002.832239151 0 0 0 0 26523778.985595703 -59444410.524274826 0 -59444410.524274826 -202679951.77030706 0 0 0 0 -76376424.509658813 -59817239.231230319 0 -59817239.231230319 33404115.326791465 0 0 0 0 -22827739.435073853 -179297731.7484796 0 -179297731.7484796 -88853779.19519043 0 0 0 0 -11915928.674591064 -54261263.341709614 0 -54261263.341709614 -298080683.80186701 0 0 0 0 5583943.1895904541 -49411286.383836031 0 -49411286.383836031 -92892986.28668642 0 0 0 0 -35850568.100585938 -113466227.73601192 0 -113466227.73601192 -36837837.467489481 0 0 0 0 -61350913.271057129 -94753493.262191534 0 -94753493.262191534 -93311538.555694282 0 0 0 0 -15569529.894378662 -92832941.294250607 0 -92832941.294250607 -93603983.250400007 0 0 0 0 19435261.632766724 -115653446.7508682 0 -115653446.7508682 15157228.310897708 0 0 0 0 39393338.009407043 -25949375.117513418 0 -25949375.117513418 19696000.74334991 0 0 0 0 44788930.309921265 -74715155.963201523 0 -74715155.963201523 -144871853.44064927 0 0 0 0 21525969.044353068 -1639213.5713417064 0 -1639213.5713417064 -1308512.9775089019 0 0 0 0 22757917.998916626 -8495333.1272202618 0 -8495333.1272202618 -20685530.244316056 0 0 0 0 22815488.019851685 -8103533.5137614757 0 -8103533.5137614757 -12131705.196559845 0 0 0 0 20123653.057358988 -3184146.5122598922 0 -3184146.5122598922 -942143.22131388844 0 0 0 0 325849.60095977783 -85677750.175883055 0 -85677750.175883055 -226061170.23765612 0 0 0 0 18860573.128387451 -7028523.0914406423 0 -7028523.0914406423 -7357595.4867920019 0 0 0 0 20740427.748428345 -7319067.3517335486 0 -7319067.3517335486 -7351208.3179349843 0 0 0 0 17414662.732299805 -5063664.2501474479 0 -5063664.2501474479 982314.0489642946 0 0 0 0 23007811.065246582 -2787742.8548003854 0 -2787742.8548003854 -953925.68386340141 0 0 0 0 21789049.664550781 -5104581.0387933999 0 -5104581.0387933999 -2535064.4784986135 0 0 0 0 20220892.500038147 -6053450.3464043662 0 -6053450.3464043662 -2799383.0215589218 0 0 0 0 20364017.527526855 -4672827.4470161796 0 -4672827.4470161796 949.21186800248552 0 0 0 0 36244862.842987061 -15228249.814815445 0 -15228249.814815445 975808.31507678051 0 0 0 0 7127032.409246102 -2699695.9356144667 0 -2699695.9356144667 397738.49980060227 0 0 0 0 21146538.541641235 -5270228.2423883006 0 -5270228.2423883006 641976.36769270338 0 0 0 0 26976157.17918396 -3768286.3919600709 0 -3768286.3919600709 10965.891097944437 0 0 0 0 19381642.707931519 -9516533.137348555 0 -9516533.137348555 1300845.7217885228 0 0 0 0 20047512.375396729 -4758077.4369308306 0 -4758077.4369308306 -5623565.4905356234 0 0 0 0 28039820.09602356 -6451302.4813396763 0 -6451302.4813396763 -5427051.5109712835 0 0 0 0 21648170.968303934 -1011960.5025956333 0 -1011960.5025956333 -1559932.6957297379 0 0 0 0 23120524.859848022 -6836310.9278022321 0 -6836310.9278022321 -9793309.9249946866 0 0 0 0 29031561.226226807 -68073617.267780304 0 -68073617.267780304 -7628938.0316171646 0 0 0 0 23535720.135826111 -5718326.8764712755 0 -5718326.8764712755 -9359879.9024599772 0 0 0 0 34042354.852874756 33549838.296617985 0 33549838.296617985 -163829066.67242038 0 0 0 0 -64923971.198616982 -224766505.88405776 0 -224766505.88405776 -370498284.21999264 0 0 0 0 3138637.4122310504 1862482.7489985377 0 1862482.7489985377 -1884023.1939720018 0 0 0 0 75718328.092224121 -182972410.465096 0 -182972410.465096 -467191185.71057034 0 0 0 0 -1359447.8093505874 -3188979.6791534089 0 -3188979.6791534089 413812.44537546521 0 0 0 0 -16684431.80178833 -192888490.40751314 0 -192888490.40751314 -315561955.99307251 0 0 0 0 -46605333.671159744 -67242335.848809928 0 -67242335.848809928 -331227553.34087563 0 0 0 0 -8633805.9657287598 -165040911.78761005 0 -165040911.78761005 -198866687.59594119 0 0 0 0 126225877.83076477 -132061165.9720664 0 -132061165.9720664 -338517025.41382027 0 0 0 0 75604887.112205505 -68804925.15822053 0 -68804925.15822053 -273231852.71839523 0 0 0 0 147912392.7479248 -139674745.80128765 0 -139674745.80128765 -212314408.67756128 0 0 0 0 215951597.73147583 -35634925.867718697 0 -35634925.867718697 -316803719.5657208 0 0 0 0 136238869.73951721 -48915877.818941593 0 -48915877.818941593 -314128590.12344837 0 0 0 0 109992270.02456665 -32866706.869008303 0 -32866706.869008303 -308684978.73053932 0 0 0 0 103025269.38485718 -107502351.6608181 0 -107502351.6608181 -289829969.52605009 0 0 0 0 39387666.546066284 -79233368.219073296 0 -79233368.219073296 -258932155.59827995 0 0 0 0 183389658.58187866 61312717.880777836 0 61312717.880777836 -481840305.88737869 0 0 0 0 191446303.7898407 -115230120.04630566 0 -115230120.04630566 -372524038.38705564 0 0 0 0 5482252.7563680857 247269.1352404952 0 247269.1352404952 -925460.50680610666 0 0 0 0 -24268302.789291382 175044416.81881714 0 175044416.81881714 -339586097.13610888 0 0 0 0 10020767.707733154 -4211797.6914846897 0 -4211797.6914846897 5802848.5816674232 0 0 0 0 58749096.730010986 5193646.342128396 0 5193646.342128396 6598079.4108233452 0 0 0 0 9794384.1201693341 2933118.4098979868 0 2933118.4098979868 3220213.6535114283 0 0 0 0 19769805.247552186 -753041.28069789708 0 -753041.28069789708 -850009.01236592908 0 0 0 0 -31711278.451782227 51045222.561383247 0 51045222.561383247 -100604285.24025001 0 0 0 0 18511587.363647461 -11417417.435250029 0 -11417417.435250029 -5822916.1034331257 0 0 0 0 -27254935.984512329 62185310.683175564 0 62185310.683175564 -157639737.00822544 0 0 0 0 31113206.549926758 -48780227.485209465 0 -48780227.485209465 -99911328.671674728 0 0 0 0 24248264.705722809 -132508789.85594428 0 -132508789.85594428 -250484990.57310486 0 0 0 0 15266898.410736084 14669251.723075867 0 14669251.723075867 -318795391.73079836 0 0 0 0 20153249.975524902 -7984283.5706072412 0 -7984283.5706072412 -4176369.0952399177 0 0 0 0 26121561.181655884 5019003.329908357 0 5019003.329908357 -3053501.6335618384 0 0 0 0 10988614.300561406 -2662545.469302237 0 -2662545.469302237 -1415077.1697189906 0 0 0 0 17017762.066375732 3961744.280825804 0 3961744.280825804 2636834.089193996 0 0 0 0 3687452.8381958008 1117310.3809400201 0 1117310.3809400201 -1408251.2467951775 0 0 0 0 14253499.086676352 -190627.41744842753 0 -190627.41744842753 1792039.7467348457 0 0 0 0 30022237.080383301 -15226433.828257609 0 -15226433.828257609 -8548838.1965002418 0 0 0 0 17553154.172912598 10875491.806459822 0 10875491.806459822 1302330.8005853556 0 0 0 0 761516.72789794207 -473860.49790849164 0 -473860.49790849164 -560845.12322887406 0 0 0 0 10103266.291050509 2563632.9118316993 0 2563632.9118316993 -164059.85540853502 0 0 0 0 18938124.873352051 249770.03583914787 0 249770.03583914787 -1321779.6003348939 0 0 0 0 25826705.214447021 4970569.6366930287 0 4970569.6366930287 -2916836.7487277202 0 0 0 0 23990356.804260254 1077110.1653779764 0 1077110.1653779764 -1511907.5477144311 0 0 0 0 26298550.727127075 5369416.8601781316 0 5369416.8601781316 -2659198.2324984968 0 0 0 0 29325990.497634888 -295906.55150679959 0 -295906.55150679959 -4775335.0959716253 0 0 0 0 9784646.6273491383 -631231.29743412882 0 -631231.29743412882 -562116.94343473506 0 0 0 0 20903758.921447754 5470279.8345711082 0 5470279.8345711082 -6967.8923356894175 0 0 0 0 9502060.3832092285 1551581.5500953626 0 1551581.5500953626 -954737.01229161397 0 0 0 0 26066860.830154419 4848492.5142054074 0 4848492.5142054074 -3162632.1942925677 0 0 0 0 2659895014.736084 81875940.100558311 0 81875940.100558311 815774.93279444671 0 0 0 0 4088089855.7289352 -437947918.00369686 0 -437947918.00369686 -635357701.93298864 0 0 0 0 3854597853.819458 -435959459.21719843 0 -435959459.21719843 217879779.35762617 0 0 0 0 2786302096.4315948 1542990336.7920303 0 1542990336.7920303 276090145.96780938 0 0 0 0 1813165.5173622221 33444.832270588726 0 33444.832270588726 -24052.359174913261 0 0 0 0 11447162.010787964 -39353.629067748785 0 -39353.629067748785 1875262.1156951189 0 0 0 0 7356676.1912231445 1063934.53044267 0 1063934.53044267 4631522.7933761906 0 0 0 0 4477447.7342151552 306153.901347626 0 306153.901347626 -114921.24820661178 0 0 0 0 8224501.8550412133 -386706.04812553525 0 -386706.04812553525 440468.12288746535 0 0 0 0 1032593912.946228 -325277578.204243 0 -325277578.204243 152650240.52714252 0 0 0 0 303372596.78329468 282452806.9175964 0 282452806.9175964 181432248.44648108 0 0 0 0 855518785.54095459 25284886.389026463 0 25284886.389026463 -100929663.19689411 0 0 0 0 460660835.59468079 4144538.8983267695 0 4144538.8983267695 295250179.98088896 0 0 0 0 2128425802.8141036 -2154496183.4488277 0 -2154496183.4488277 1090754220.6733963 0 0 0 0 2017458771.4473658 -353301869.37276357 0 -353301869.37276357 -202945654.80998507 0 0 0 0 8928953.7712176889 1961754.8002669122 0 1961754.8002669122 1550090.7265864937 0 0 0 0 2870094.2656643763 -754592.95720459148 0 -754592.95720459148 -2909019.5773465727 0 0 0 0 193131180.06951904 -340057476.25015366 0 -340057476.25015366 408328574.10238636 0 0 0 0 670911241.69953918 185661235.65782934 0 185661235.65782934 44830460.134046942 0 0 0 0 14035039.42791748 963344332.13549912 0 963344332.13549912 1984923715.5658231 0 0 0 0 3948254.1120280996 149240.7910370566 0 149240.7910370566 1521882.6528536458 0 0 0 0 3261967916.2726898 1959388892.8536122 0 1959388892.8536122 641562471.87224531 0 0 0 0 4088503506.1103835 1886172943.9496613 0 1886172943.9496613 -276153584.88694632 0 0 0 0 3091142499.0961761 1059905410.3475255 0 1059905410.3475255 290263115.53197432 0 0 0 0 3092364358.7514496 1028589976.9038713 0 1028589976.9038713 -218812346.35017014 0 0 0 0 2151054153.4903564 1281290163.4127102 0 1281290163.4127102 343923053.30574024 0 0 0 0 -455226359.83728027 589287822.43232989 0 589287822.43232989 284470180.09860849 0 0 0 0 2021171052.2733459 -220451911.16027868 0 -220451911.16027868 -451966603.56574905 0 0 0 0 2517379.3302575573 1010143.9087870643 0 1010143.9087870643 1868554.4065198374 0 0 0 0 630383482.69406128 1010184390.1662472 0 1010184390.1662472 441260866.06225377 0 0 0 0 116527628.28373718 -74739117.410009861 0 -74739117.410009861 -115269024.13222456 0 0 0 0 299924137.29736328 23788718.651601195 0 23788718.651601195 -84932485.014586926 0 0 0 0 30221088.338645935 3935534.7737518549 0 3935534.7737518549 254439838.52452707 0 0 0 0 144365711.99455261 -28029797.637112975 0 -28029797.637112975 -156575247.17527717 0 0 0 0 153351879.01119995 -141200093.55631059 0 -141200093.55631059 75959690.589118481 0 0 0 0 107062216.25325012 -93619069.899625868 0 -93619069.899625868 168842960.59650314 0 0 0 0 241068305.07369995 44465426.248960793 0 44465426.248960793 143529733.55629134 0 0 0 0 377961651.93019104 -60728885.553991169 0 -60728885.553991169 221345290.39797625 0 0 0 0 258071449.2938385 61009402.198761076 0 61009402.198761076 177762287.40891641 0 0 0 0 572831187.06761169 528220657.10763776 0 528220657.10763776 313715879.21815622 0 0 0 0 683602672.17860413 422623596.41147304 0 422623596.41147304 392264641.74201626 0 0 0 0 1790499928.2395935 660583910.36607587 0 660583910.36607587 189575101.52649459 0 0 0 0 706628182.02853394 138703000.93806645 0 138703000.93806645 264031881.39115644 0 0 0 0 643208879.67485046 209199390.64056325 0 209199390.64056325 228266069.65463972 0 0 0 0 256018583.74468231 -28882380.131792843 0 -28882380.131792843 201604142.94204295 0 0 0 0 220361543.28488159 63286765.149581611 0 63286765.149581611 366109775.65753466 0 0 0 0 680115469.71153259 -97514100.966432989 0 -97514100.966432989 -19069927.870989982 0 0 0 0 174202302.65917206 165033720.63856256 0 165033720.63856256 234011650.16805351 0 0 0 0 1241743623.888092 353490930.32231498 0 353490930.32231498 49096653.474010706 0 0 0 0 1681105342.926178 -235232989.18787777 0 -235232989.18787777 -141312051.00949699 0 0 0 0 3029296545.9231567 385604444.40218067 0 385604444.40218067 -707680248.96204305 0 0 0 0 4095659716.326787 924649139.17191505 0 924649139.17191505 -604170562.09634471 0 0 0 0 1925152900.4187317 569256334.64902425 0 569256334.64902425 -109801059.94923258 0 0 0 0 2928177703.4342346 607337908.05722976 0 607337908.05722976 -322570301.69711435 0 0 0 0 20068044.599658966 7794529.2914332151 0 7794529.2914332151 55423118.629456043 0 0 0 0 7564400.8286474496 -7701674.8051956929 0 -7701674.8051956929 5092870.3713044273 0 0 0 0 116517991.15135193 76231395.649774551 0 76231395.649774551 -22795438.116439819 0 0 0 0 55109417.867126465 -68740838.947014332 0 -68740838.947014332 17236929.68640089 0 0 0 0 243799506.64404297 5328126.0393521786 0 5328126.0393521786 46306652.819082856 0 0 0 0 270125431.27233887 37472945.162812591 0 37472945.162812591 6403442.3621391058 0 0 0 0 266674696.66973877 122286069.53980732 0 122286069.53980732 112135176.21134782 0 0 0 0 -272161051.72597504 -306666643.16056824 0 -306666643.16056824 -147063379.69904709 0 0 0 0 -222441176.00514221 28462307.774236679 0 28462307.774236679 36066912.354124546 0 0 0 0 1615837.4000083581 -1413365.1245405972 0 -1413365.1245405972 -529575.77190952771 0 0 0 0 -351301443.94198608 -191768181.17200136 0 -191768181.17200136 171161780.40784454 0 0 0 0 4750243.724105835 24403819.650471687 0 24403819.650471687 -4445624.6491351128 0 0 0 0 5700657.2416229248 737053.69796180725 0 737053.69796180725 245728260.02222157 0 0 0 0 408120365.79852867 89281548.768754363 0 89281548.768754363 243483783.74681664 0 0 0 0 392905403.71749878 8336535.3067903519 0 8336535.3067903519 55529272.602721214 0 0 0 0 349896970.64730835 -144908356.70527935 0 -144908356.70527935 -282188540.97976804 0 0 0 0 255515580.84374237 108899835.08272576 0 108899835.08272576 -170695162.02498055 0 0 0 0 248411752.99798203 74202673.981402636 0 74202673.981402636 223416646.19271088 0 0 0 0 337107651.46783447 -200537485.72200656 0 -200537485.72200656 73725483.953811646 0 0 0 0 -235066862.39037323 54225576.559159756 0 54225576.559159756 181248027.06607008 0 0 0 0 28868098.308259964 -87294923.352510929 0 -87294923.352510929 -155765934.02692318 0 0 0 0 10098065.100316897 -8165819.8783092126 0 -8165819.8783092126 3818895.5603868715 0 0 0 0 43880572.640235901 4606398.5298090875 0 4606398.5298090875 -87845164.256542206 0 0 0 0 -309211219.34060669 -511533800.05666542 0 -511533800.05666542 35711093.972374678 0 0 0 0 -211251044.00186157 327514803.37506723 0 327514803.37506723 99920657.809503794 0 0 0 0 122461127.59655762 -46318024.607539654 0 -46318024.607539654 -186278396.37091589 0 0 0 0 141818131.64692307 35440028.31703794 0 35440028.31703794 -151693756.40685272 0 0 0 0 129787122.14318848 340025286.95467281 0 340025286.95467281 -119031327.93003625 0 0 0 0 119370685.7321167 47590978.592263222 0 47590978.592263222 -148358460.84293556 0 0 0 0 -112843379.12225342 -193748973.31576252 0 -193748973.31576252 -89079827.367489815 0 0 0 0 3650375.857030943 27304.302966175601 0 27304.302966175601 -619304.22113697487 0 0 0 0 127686727.41088867 35484351.638014793 0 35484351.638014793 -151021121.13894844 0 0 0 0 84244030.327392578 55646331.770028114 0 55646331.770028114 -147126772.64332104 0 0 0 0 146100749.82056427 -3262984.1669073105 0 -3262984.1669073105 -79937956.865685463 0 0 0 0 127693114.80859375 34536824.25086689 0 34536824.25086689 -137903490.23097897 0 0 0 0 66165197.316864014 33413109.073816776 0 33413109.073816776 -90371348.464517593 0 0 0 0 -41442875.954483032 -7267803.6810083389 0 -7267803.6810083389 -21868907.599011898 0 0 0 0 967151791.45397186 585420596.33485413 0 585420596.33485413 146250237.36919236 0 0 0 0 28469329.315505981 68085784.085133076 0 68085784.085133076 -114930944.53637314 0 0 0 0 -987101270.71337891 519452625.10808182 0 519452625.10808182 1865358905.6658468 0 0 0 0 51068936.901947021 286276081.22266293 0 286276081.22266293 137966397.49794579 0 0 0 0 1092069142.5491943 786545416.51501465 0 786545416.51501465 346590864.48770714 0 0 0 0 536784377.99987793 621337561.30506325 0 621337561.30506325 311134750.44913244 0 0 0 0 1157247131.5131588 186418626.80207968 0 186418626.80207968 65859833.449176788 0 0 0 0 799633131.31628418 33340202.110290527 0 33340202.110290527 7328663.9055614471 0 0 0 0 592090904.77062988 -145822274.84914875 0 -145822274.84914875 58184247.969293594 0 0 0 0 646949432.934021 768215215.49039888 0 768215215.49039888 43177202.525832772 0 0 0 0 2540678.013462916 1457859.7180485148 0 1457859.7180485148 344096.29577335552 0 0 0 0 27978482.810592651 -252685238.84404111 0 -252685238.84404111 -270177153.81873608 0 0 0 0 -88953838.613021851 -256690800.90740848 0 -256690800.90740848 225463199.49928951 0 0 0 0 -56454317.840682983 311330686.0130496 0 311330686.0130496 566070860.73854232 0 0 0 0 2493247.4511879832 325232.61480721086 0 325232.61480721086 -608281.12488253927 0 0 0 0 105483147.06089783 -200837500.80668736 0 -200837500.80668736 -60832998.496490002 0 0 0 0 -51788942.080001831 13282772.331296921 0 13282772.331296921 -179827581.55506945 0 0 0 0 -34267987.635349274 -29105962.069244623 0 -29105962.069244623 -241386620.94149208 0 0 0 0 -41720350.011260986 58586404.875840664 0 58586404.875840664 -121939313.79215145 0 0 0 0 94022371.718307495 3420535.6243071556 0 3420535.6243071556 -528181101.57527399 0 0 0 0 6817487.8275584877 2654940.0672357883 0 2654940.0672357883 173403.03920313623 0 0 0 0 20452051.864700317 169556673.88138771 0 169556673.88138771 71811477.316736817 0 0 0 0 -93208387.942581177 18035581.855711937 0 18035581.855711937 208343040.86730433 0 0 0 0 -53933917.60181427 -11955518.143155217 0 -11955518.143155217 -165939942.97389221 0 0 0 0 -36876135.142799377 86739809.301234603 0 86739809.301234603 -140706494.14742661 0 0 0 0 -59658454.381782532 114483158.04831851 0 114483158.04831851 44759838.35848856 0 0 0 0 -11675469.118370056 216395824.86295405 0 216395824.86295405 99847978.897075877 0 0 0 0 -38888331.114990234 99407406.07734108 0 99407406.07734108 55294068.472526073 0 0 0 0 102189864.81196594 147378724.52138126 0 147378724.52138126 -57925734.678113043 0 0 0 0 198052866.46352386 -101725925.60182998 0 -101725925.60182998 -110286748.021281 0 0 0 0 308204654.29840088 -178804537.6260125 0 -178804537.6260125 -91969407.711632073 0 0 0 0 441076622.26934052 340594258.55864108 0 340594258.55864108 36173650.316046596 0 0 0 0 329004483.85209656 82793547.582393885 0 82793547.582393885 -178346186.35558963 0 0 0 0 358692276.75857544 182030721.16758662 0 182030721.16758662 -64290338.876018614 0 0 0 0 62319839.592662811 -123566450.23437457 0 -123566450.23437457 38194846.356901124 0 0 0 0 1024611.6932978928 411225.9021515213 0 411225.9021515213 -858025.61333236122 0 0 0 0 -96974341.139003754 -54691073.554179341 0 -54691073.554179341 52952637.123596251 0 0 0 0 85233195.317977905 131234078.49000651 0 131234078.49000651 75988836.656366706 0 0 0 0 346048165.28820801 67365239.177064478 0 67365239.177064478 5062097.1090067625 0 0 0 0 94868296.52107811 149591102.99158749 0 149591102.99158749 108039386.61650658 0 0 0 0 2497108.7532378361 1926527.402807869 0 1926527.402807869 -1747161.6188183974 0 0 0 0 -5604716.8118133545 59212813.100468874 0 59212813.100468874 93340097.270438194 0 0 0 0 -8389393.9385681152 45354604.443651676 0 45354604.443651676 53960319.156757355 0 0 0 0 5835646.2966906726 4415595.9245004356 0 4415595.9245004356 -2909985.5147789069 0 0 0 0 19342448.710876465 -82588755.434129238 0 -82588755.434129238 60829217.685406685 0 0 0 0 -40247687.388211727 32111868.995890252 0 32111868.995890252 32455494.448252201 0 0 0 0 41053931.547790527 59292256.80188632 0 59292256.80188632 14271754.467628956 0 0 0 0 -42647437.368589401 -3497098.4750148468 0 -3497098.4750148468 15545152.957844257 0 0 0 0 -1249196.5590667725 -16378457.503675461 0 -16378457.503675461 -33987349.451524734 0 0 0 0 2000103.8450105786 288609.61264562234 0 288609.61264562234 -1798124.175477213 0 0 0 0 371274168.69441986 -8670275.2770015597 0 -8670275.2770015597 -31143166.718461037 0 0 0 0 240175435.64674377 113809540.81393898 0 113809540.81393898 5658730.1483130287 0 0 0 0 65355266.486251831 42648265.9967767 0 42648265.9967767 -1768414.3021670282 0 0 0 0 72890541.343887329 23637705.499789834 0 23637705.499789834 41103808.552038789 0 0 0 0 70617646.342391968 56272518.477938354 0 56272518.477938354 53987758.687908649 0 0 0 0 60281161.356811523 34686190.944373667 0 34686190.944373667 8919014.6503520012 0 0 0 0 152375734.91278076 45140865.499132872 0 45140865.499132872 11571008.312226862 0 0 0 0 199426027.32769775 40680358.116241455 0 40680358.116241455 16837254.457021236 0 0 0 0 220739908.63431549 -10601665.06603685 0 -10601665.06603685 8599378.5834965706 0 0 0 0 254967620.44506836 11425458.868656456 0 11425458.868656456 -6762705.1099505424 0 0 0 0 355985517.99636841 -78743790.050702572 0 -78743790.050702572 27361280.548305511 0 0 0 0 131723790.68413544 -21631152.421609581 0 -21631152.421609581 224476944.67419386 0 0 0 0 260703293.59899902 266657699.63349843 0 266657699.63349843 43748834.520380974 0 0 0 0 131467010.96444702 -256518366.90046835 0 -256518366.90046835 296671239.28169012 0 0 0 0 399267.73149062693 -1389345.326150137 0 -1389345.326150137 -55377.223371392669 0 0 0 0 302037666.60193634 126134544.44523394 0 126134544.44523394 15914946.988519669 0 0 0 0 -4335530.0643114299 -5948233.6973727494 0 -5948233.6973727494 437624.00131395931 0 0 0 0 47656029.591949463 -25870659.915158868 0 -25870659.915158868 -19884054.252309799 0 0 0 0 3328756.7807769775 -657598.63440936804 0 -657598.63440936804 -824594.76730203629 0 0 0 0 4478518.1071853638 1516364.165143013 0 1516364.165143013 -14425910.645624161 0 0 0 0 6260037.3200409636 -1342964.7405121662 0 -1342964.7405121662 1983725.7811623225 0 0 0 0 91575294.898117065 17970684.344392896 0 17970684.344392896 40178305.404625893 0 0 0 0 1748218.5512992386 -1158122.1039071232 0 -1158122.1039071232 1688277.7431259681 0 0 0 0 -22176680.111579895 19490580.864650726 0 19490580.864650726 -17751899.348118782 0 0 0 0 2777463.7737191245 -2236138.7907676147 0 -2236138.7907676147 -564038.72616219218 0 0 0 0 -25456843.759872437 84415941.335158348 0 84415941.335158348 -73752147.379642487 0 0 0 0 -35799205.170417786 77476760.58050251 0 77476760.58050251 -8075561.6582641602 0 0 0 0 -69456081.290527344 23913364.031387329 0 23913364.031387329 -11282156.096911788 0 0 0 0 -91120637.972808838 70835956.491772652 0 70835956.491772652 -8842796.4585347176 0 0 0 0 23881601.082099915 6750400.6486952156 0 6750400.6486952156 24483662.378411174 0 0 0 0 -127804431.36752319 38791447.108256817 0 38791447.108256817 17271696.451855659 0 0 0 0 2088502.6151636317 -365983.35730198771 0 -365983.35730198771 87701.788550919504 0 0 0 0 4145062.2962480318 -4651309.7231782712 0 -4651309.7231782712 5386609.3499169359 0 0 0 0 360613819.4480381 -28251290.776275478 0 -28251290.776275478 -73514757.119213104 0 0 0 0 -103632223.3012619 72817489.215703011 0 72817489.215703011 25143659.455278397 0 0 0 0 -57103853.808639526 132501169.70262218 0 132501169.70262218 52308696.649208069 0 0 0 0 -143188412.92868423 32325070.49146378 0 32325070.49146378 101043111.60923386 0 0 0 0 -126103891.8966217 -11057527.807098389 0 -11057527.807098389 -43467132.449479103 0 0 0 0 -324828190.77919006 -57260728.624575615 0 -57260728.624575615 111338644.87288666 0 0 0 0 5541328.1305848695 -6466674.2599567212 0 -6466674.2599567212 5373652.2546951286 0 0 0 0 -18359211.680603027 -6010681.0500882566 0 -6010681.0500882566 35721417.35623616 0 0 0 0 -1630698.533164233 -363511.90313933045 0 -363511.90313933045 1866548.1281597512 0 0 0 0 336471117.70362854 244195189.24019736 0 244195189.24019736 30880553.347463071 0 0 0 0 424987779.56281281 -42101576.835952282 0 -42101576.835952282 130927727.07145309 0 0 0 0 469375240.73247528 45572249.754695415 0 45572249.754695415 235910986.77742958 0 0 0 0 228909465.25226593 145840651.40171289 0 145840651.40171289 131336869.85642242 0 0 0 0 -45964711.8777771 89718759.389307976 0 89718759.389307976 84470911.992434025 0 0 0 0 -34936165.859710693 50733201.647066116 0 50733201.647066116 206579649.96502399 0 0 0 0 -208471120.39226532 -15870188.001157045 0 -15870188.001157045 169464832.93118286 0 0 0 0 154168813.38645935 82015364.526338577 0 82015364.526338577 69863045.926568985 0 0 0 0 11843837.928009033 149494861.72376156 0 149494861.72376156 101909063.34200668 0 0 0 0 139884033.33950043 62032765.538904905 0 62032765.538904905 229601274.41235733 0 0 0 0 319574024.16708374 112577627.07610416 0 112577627.07610416 68561756.233679771 0 0 0 0 135342985.77709961 124943811.61577582 0 124943811.61577582 -39853005.37310791 0 0 0 0 152953770.16442871 22884678.554653168 0 22884678.554653168 25648656.133196831 0 0 0 0 -36505144.060577393 10353303.842850685 0 10353303.842850685 -111056485.22539806 0 0 0 0 -8334283.9339294434 119420430.00335693 0 119420430.00335693 -11827128.273506999 0 0 0 0 -5256691.575553894 101931246.55189466 0 101931246.55189466 -11514681.202074051 0 0 0 0 43882555.482391357 145880032.55431843 0 145880032.55431843 -141158467.19291878 0 0 0 0 8089918.4931230471 2573201.5067656161 0 2573201.5067656161 1215548.5633659423 0 0 0 0 -31172287.028015137 27684311.844006062 0 27684311.844006062 -981993.21422767639 0 0 0 0 22113674.144607544 19430538.420106888 0 19430538.420106888 -57098458.908090353 0 0 0 0 22133942.579676017 936147.88968246756 0 936147.88968246756 -216581810.3162117 0 0 0 0 109063.2049908191 903722.84678022191 0 903722.84678022191 1295776.8654781366 0 0 0 0 7792705.041906178 2475026.2627352453 0 2475026.2627352453 1503873.7454498897 0 0 0 0 40144155.607223511 -1104506.7161245346 0 -1104506.7161245346 -54162747.780683517 0 0 0 0 165705134.08881378 11631414.779950142 0 11631414.779950142 -234444781.10429192 0 0 0 0 35022016.306610107 63788679.114295959 0 63788679.114295959 -208168342.8912816 0 0 0 0 94933944.868644714 -75332039.094996691 0 -75332039.094996691 -193650996.01876831 0 0 0 0 -50572535.684082031 -93721095.259232044 0 -93721095.259232044 -148714348.04936123 0 0 0 0 2280455.7199710384 2075529.5718701147 0 2075529.5718701147 3018423.4875005973 0 0 0 0 1436904885.4382095 -146094696.50952768 0 -146094696.50952768 149141482.69541931 0 0 0 0 1854479071.7193909 -51830179.20851326 0 -51830179.20851326 -126909411.75787282 0 0 0 0 109496.57182992995 266592.44403966004 0 266592.44403966004 650271.42228333559 0 0 0 0 943551.05598708242 407407.1769641079 0 407407.1769641079 993297.07138667069 0 0 0 0 -226711373.92256927 -691334116.49730778 0 -691334116.49730778 154511489.16282463 0 0 0 0 217471055.26748657 -65553207.487477303 0 -65553207.487477303 -193548245.03236389 0 0 0 0 189630922.92939758 21713097.825968742 0 21713097.825968742 -20742701.170186996 0 0 0 0 2152381017.4420776 25154398.067768097 0 25154398.067768097 14195940.727703094 0 0 0 0 3171330033.9263611 -207701371.27498817 0 -207701371.27498817 9255563.1323165894 0 0 0 0 1638608295.8843994 71481110.691419601 0 71481110.691419601 166046433.40072632 0 0 0 0 1682304040.070282 53787812.316518784 0 53787812.316518784 297239755.37587512 0 0 0 0 1987645196.5688782 -207264854.45116329 0 -207264854.45116329 396788078.6100831 0 0 0 0 1893636394.2046013 59373297.546139956 0 59373297.546139956 136612456.45918655 0 0 0 0 2171771571.0770569 -540777775.33204651 0 -540777775.33204651 934076648.97129011 0 0 0 0 2053434473.1651382 -236630358.94970989 0 -236630358.94970989 192275251.5909586 0 0 0 0 2962089725.7845154 -1020026277.6015415 0 -1020026277.6015415 906187485.09107971 0 0 0 0 2576486854.519104 -447369200.63436174 0 -447369200.63436174 56371044.207689285 0 0 0 0 2247757795.4834747 -204319689.48165894 0 -204319689.48165894 -120388407.60103703 0 0 0 0 2365562454.9211807 -357056504.47479725 0 -357056504.47479725 56899994.370666504 0 0 0 0 2257094479.1488361 -396239000.34638715 0 -396239000.34638715 285396225.83874702 0 0 0 0 2303629158.7597504 -462590788.92873526 0 -462590788.92873526 197162879.09556293 0 0 0 0 2179330086.0758209 -182168883.8218708 0 -182168883.8218708 -87431163.830144882 0 0 0 0 2309942744.3607368 -249127029.30181122 0 -249127029.30181122 -198952617.94404602 0 0 0 0 2447670422.7449951 -63893894.949373245 0 -63893894.949373245 -277670820.03887415 0 0 0 0 1906955336.9128876 -22495845.17526722 0 -22495845.17526722 -247414815.13430214 0 0 0 0 2445549502.859848 -199311797.54117012 0 -199311797.54117012 -196686952.87231255 0 0 0 0 2293276241.2466736 -309183843.67070103 0 -309183843.67070103 -391571485.78986549 0 0 0 0 2054095828.1883698 19014620.624921322 0 19014620.624921322 -346609494.83419037 0 0 0 0 1816409838.1409912 -64536617.53340292 0 -64536617.53340292 -314158562.10934067 0 0 0 0 1487476486.0620041 -631611325.21127892 0 -631611325.21127892 -682794017.26015091 0 0 0 0 1769700725.5271683 -3104272.5104959011 0 -3104272.5104959011 -389610714.63172531 0 0 0 0 3546974950.6598282 -302513006.17476344 0 -302513006.17476344 -714992527.76486516 0 0 0 0 2088486417.4034119 113107623.49325752 0 113107623.49325752 -144139982.52074432 0 0 0 0 2398036137.2901001 -175937427.74574852 0 -175937427.74574852 -526674573.43629265 0 0 0 0 1932848551.5935097 -253230910.19833684 0 -253230910.19833684 -123051317.86200714 0 0 0 0 1809937041.0892639 -255425664.34799767 0 -255425664.34799767 -46633494.507541656 0 0 0 0 2326460385.9915466 -355120283.76930904 0 -355120283.76930904 -178734089.36418629 0 0 0 0 1139380436.1244812 -130350578.52260303 0 -130350578.52260303 124201853.01778316 0 0 0 0 1124007177.5546417 61938891.18330574 0 61938891.18330574 71099453.539158821 0 0 0 0 1830388329.2125702 -152030009.28283596 0 -152030009.28283596 -59905728.899596214 0 0 0 0 1014067509.875412 -71849776.193810463 0 -71849776.193810463 9529452.716386795 0 0 0 0 1018208728.7328074 -283235129.34901226 0 -283235129.34901226 80547245.813468933 0 0 0 0 349040411.42645359 -211086779.17245102 0 -211086779.17245102 194671226.44830513 0 0 0 0 1951475680.6116333 -604096161.85543251 0 -604096161.85543251 -21409646.324975967 0 0 0 0 2274981250.0811386 -443544461.05415225 0 -443544461.05415225 187035640.64217567 0 0 0 0 1876152944.1428833 -136369581.66647434 0 -136369581.66647434 -25954013.840781212 0 0 0 0 -57771840.146800995 228089534.36451119 0 228089534.36451119 -386839550.88704395 0 0 0 0 31887635.2162323 -6110834.2884130478 0 -6110834.2884130478 -15573216.020788193 0 0 0 0 9518434.0174789056 -1549257.2850230671 0 -1549257.2850230671 -8913488.1907463279 0 0 0 0 11774934.191390991 -4653387.2540997267 0 -4653387.2540997267 -12822194.887479305 0 0 0 0 17128522.070953369 2231245.4568328857 0 2231245.4568328857 -5033576.1971950531 0 0 0 0 11637515.116844118 3243702.3985929973 0 3243702.3985929973 -5841302.1957948208 0 0 0 0 7174595.0746640787 2054711.6541629024 0 2054711.6541629024 -3450701.3633694304 0 0 0 0 5115747.5441596024 1000453.5999457911 0 1000453.5999457911 -783286.08754386567 0 0 0 0 -490797.66415405273 17217290.515240669 0 17217290.515240669 -11681140.679894447 0 0 0 0 30969310.276443481 12988062.642225266 0 12988062.642225266 -28551808.123389244 0 0 0 0 326056768.7518959 286805468.30560017 0 286805468.30560017 243745589.27050781 0 0 0 0 1289019171.4083099 -38645131.725741863 0 -38645131.725741863 -166960132.44959164 0 0 0 0 1722723052.1839294 1077336349.1862192 0 1077336349.1862192 675327646.66953468 0 0 0 0 13900397.051513672 -5492479.6127490997 0 -5492479.6127490997 16607951.348564148 0 0 0 0 2203430.6659422666 -264446.54100448266 0 -264446.54100448266 -1668931.461089449 0 0 0 0 3495424334.6224442 -20207596.533828974 0 -20207596.533828974 -285769950.61228085 0 0 0 0 1987251809.0815125 418547217.22153854 0 418547217.22153854 -290932535.80123788 0 0 0 0 2008642466.9485321 189436772.95883751 0 189436772.95883751 -311297952.78189278 0 0 0 0 2772490249.7547531 32093990.635140657 0 32093990.635140657 -311361451.39072227 0 0 0 0 1871890255.7785339 152713168.65459919 0 152713168.65459919 -224604440.24225426 0 0 0 0 1933656171.7532043 120402590.94941235 0 120402590.94941235 -216359592.7511754 0 0 0 0 1929345149.0184479 -28578486.06762743 0 -28578486.06762743 -420480501.37626457 0 0 0 0 1901566751.8161545 -46963439.460191011 0 -46963439.460191011 -113074030.53168106 0 0 0 0 1929699672.1893845 121162869.60214424 0 121162869.60214424 -206867789.27567005 0 0 0 0 1454390.0248418227 169183.91362852231 0 169183.91362852231 171135.18980396912 0 0 0 0 7171002.5123672485 99026660.845684767 0 99026660.845684767 -28923559.543361664 0 0 0 0 1912732998.3590851 86422841.523563385 0 86422841.523563385 -202540981.23728967 0 0 0 0 1967503967.4066772 87404627.136257648 0 87404627.136257648 -223583648.58369732 0 0 0 0 6978947.3556311131 1265159.1403793655 0 1265159.1403793655 -5413273.4938212559 0 0 0 0 50462985.228979111 -30475176.982726097 0 -30475176.982726097 -6197588.8280515671 0 0 0 0 -490734661.91888428 795922818.46203125 0 795922818.46203125 -305314201.72489667 0 0 0 0 37689528.818603516 193970809.89973164 0 193970809.89973164 -488069726.34103966 0 0 0 0 272297700.95282745 77182826.834775448 0 77182826.834775448 -444922685.84328747 0 0 0 0 1328260215.1834717 -482642554.55984783 0 -482642554.55984783 -69918076.821444631 0 0 0 0 609751539.73007584 -679019977.22052503 0 -679019977.22052503 335013715.81660748 0 0 0 0 876994625.03222656 -89592004.938492298 0 -89592004.938492298 131965152.7922231 0 0 0 0 422718930.68293762 48389571.234871149 0 48389571.234871149 977882140.80706024 0 0 0 0 383548454.71868896 604479340.64794385 0 604479340.64794385 -828532.24258613586 0 0 0 0 189717884.37620544 -334906170.90507913 0 -334906170.90507913 403302154.9037199 0 0 0 0 51785506.45898056 236354729.11854017 0 236354729.11854017 -335863858.80767536 0 0 0 0 -897910754.8059082 137096629.95697069 0 137096629.95697069 144908894.37663317 0 0 0 0 -184018555.35163879 -225283198.35138798 0 -225283198.35138798 145760886.29884887 0 0 0 0 444866095.92866135 -181790338.98822051 0 -181790338.98822051 -217954391.97060204 0 0 0 0 -153565644.12914276 290449654.87175137 0 290449654.87175137 -839570821.50109005 0 0 0 0 -316704924.33743286 -201368601.80030441 0 -201368601.80030441 -207975334.51764107 0 0 0 0 -1008516736.6933136 1384961612.9297528 0 1384961612.9297528 -583611943.54911423 0 0 0 0 -1195797671.0995293 997367565.09324765 0 997367565.09324765 -316381300.63788319 0 0 0 0 1585349645.0392685 -153191242.49606037 0 -153191242.49606037 -89767758.345497608 0 0 0 0 1584781724.4523239 -166871215.78419542 0 -166871215.78419542 11757235.874450088 0 0 0 0 4668323.718412444 1951138.082362853 0 1951138.082362853 -2192984.9892756618 0 0 0 0 2304242025.7847137 -776367050.68815565 0 -776367050.68815565 275095395.61646318 0 0 0 0 1767861283.1345062 -320500961.0656867 0 -320500961.0656867 -62198139.541784286 0 0 0 0 2141477214.8309021 -220994079.72452736 0 -220994079.72452736 -351325403.55605507 0 0 0 0 3868676295.4516449 -1199552030.7408724 0 -1199552030.7408724 -60339220.607543945 0 0 0 0 1580069.4395942986 735118.68606702611 0 735118.68606702611 -259343.17228048528 0 0 0 0 2866977973.9920311 660798618.90677547 0 660798618.90677547 129906507.59059477 0 0 0 0 1526660656.3026733 606749886.84496164 0 606749886.84496164 -590333376.97300863 0 0 0 0 2346211837.8840141 220055675.49223119 0 220055675.49223119 -493907874.19580746 0 0 0 0 2285474634.178936 502801180.38146567 0 502801180.38146567 100640323.71107531 0 0 0 0 3064380251.9788361 727933675.35222566 0 727933675.35222566 -343148284.33804595 0 0 0 0 2576659888.109787 34575998.461158633 0 34575998.461158633 -56448881.442009754 0 0 0 0 1090828660.348877 258730840.13111496 0 258730840.13111496 -25921302.064304829 0 0 0 0 1265113488.4045868 74865399.38185811 0 74865399.38185811 68525664.384177685 0 0 0 0 532288954.81164551 -156925126.20426649 0 -156925126.20426649 262672996.24343562 0 0 0 0 -37286285.247344971 209375000.36313581 0 209375000.36313581 59667115.030106187 0 0 0 0 472981563.71485901 -582055334.45544624 0 -582055334.45544624 -16385024.185180187 0 0 0 0 650086754.3883667 -374251649.91559839 0 -374251649.91559839 -86069380.462620258 0 0 0 0 141334850.77093506 26670825.836867929 0 26670825.836867929 -264337883.83823204 0 0 0 0 757654673.40240479 -224086460.01962578 0 -224086460.01962578 51679102.915811658 0 0 0 0 708674135.407547 -485332049.17473114 0 -485332049.17473114 50178215.267302036 0 0 0 0 786001707.12487793 -371064930.08975184 0 -371064930.08975184 164014052.68422675 0 0 0 0 805949273.73278809 -394833095.09386587 0 -394833095.09386587 -2118211.4171682596 0 0 0 0 874153372.25854492 -376676525.97769785 0 -376676525.97769785 -36253740.650384903 0 0 0 0 888332160.21536255 -453483779.46074438 0 -453483779.46074438 -91352708.039163828 0 0 0 0 928206616.25923157 -450373457.07079339 0 -450373457.07079339 -161852855.30562019 0 0 0 0 854612407.07273865 -503137297.86968935 0 -503137297.86968935 -93913817.164725304 0 0 0 0 717355943.052948 -415690228.84432793 0 -415690228.84432793 -70259056.119245052 0 0 0 0 893051463.56903076 -640338725.67134094 0 -640338725.67134094 -26167614.698888242 0 0 0 0 1332703690.8195572 -411792602.10780036 0 -411792602.10780036 -159907635.15213728 0 0 0 0 2082200121.3110924 548413454.75557876 0 548413454.75557876 277243433.070467 0 0 0 0 2102515773.9221497 -72283576.09431982 0 -72283576.09431982 264954222.22805634 0 0 0 0 1863156285.6643219 334265425.47894621 0 334265425.47894621 -12865684.859189987 0 0 0 0 1297963049.6060181 -79205658.154800415 0 -79205658.154800415 130173778.31185919 0 0 0 0 913055706.3523407 368662924.95825768 0 368662924.95825768 58543337.992584229 0 0 0 0 1175482915.1952972 367264198.74495792 0 367264198.74495792 170831691.54655075 0 0 0 0 1068398802.2120056 -11698291.584331512 0 -11698291.584331512 75694455.426772118 0 0 0 0 1888989755.4710693 240975870.40715218 0 240975870.40715218 4155878.8304615021 0 0 0 0 2984224864.9422302 239718849.14896035 0 239718849.14896035 -312485233.51526546 0 0 0 0 1836953478.0894165 -30729301.725076675 0 -30729301.725076675 25494695.600114822 0 0 0 0 1736645.8440513629 -1024417.3957318142 0 -1024417.3957318142 -1091590.6003275439 0 0 0 0 1929087033.3354874 407402567.66277552 0 407402567.66277552 282909876.40051079 0 0 0 0 1782553.0341326855 -1402720.6760764532 0 -1402720.6760764532 -295070.28955353424 0 0 0 0 513173621.7233429 -527404765.52886724 0 -527404765.52886724 -36706092.249337196 0 0 0 0 743533466.90066528 217162410.80208826 0 217162410.80208826 63861444.097784042 0 0 0 0 1741711081.6072388 558580915.97506475 0 558580915.97506475 -210258502.32167816 0 0 0 0 1505565803.7475891 -235090290.95617676 0 -235090290.95617676 -427226623.56616688 0 0 0 0 1812508292.9704742 159422818.71946383 0 159422818.71946383 -416905605.74287987 0 0 0 0 2470019017.463131 -78414004.529495239 0 -78414004.529495239 -423008099.74253082 0 0 0 0 1879668883.3566246 43871702.870228171 0 43871702.870228171 -38572020.569749355 0 0 0 0 2306124078.0486832 -89511796.147870779 0 -89511796.147870779 144400093.56578398 0 0 0 0 3437115.5814130977 -2810829.4665541798 0 -2810829.4665541798 -565106.3448457527 0 0 0 0 1876157181.3114624 46794975.38482666 0 46794975.38482666 38692719.240898132 0 0 0 0 1904513702.9656906 73446746.839176893 0 73446746.839176893 -50934505.298210859 0 0 0 0 1910642156.2267303 67190431.872373223 0 67190431.872373223 -112763830.53225017 0 0 0 0 3697209.8766159127 -2529857.3277946562 0 -2529857.3277946562 -2312192.6580830677 0 0 0 0 776791929.30310059 -182436437.02018589 0 -182436437.02018589 260498905.15889075 0 0 0 0 1901921.0607727915 -1507471.4051001966 0 -1507471.4051001966 -342486.08596802154 0 0 0 0 1216471424.3027802 393538204.71480376 0 393538204.71480376 165621174.25981832 0 0 0 0 2041345272.4207001 -91113878.993407369 0 -91113878.993407369 26923251.659249991 0 0 0 0 1966648462.266098 509894307.18174887 0 509894307.18174887 160135131.52872086 0 0 0 0 1325844852.8475037 -38025844.908370018 0 -38025844.908370018 119774200.80894101 0 0 0 0 2743612849.1523628 224410063.41429222 0 224410063.41429222 -265386511.37386322 0 0 0 0 1327288219.4482117 -32858883.378326416 0 -32858883.378326416 -208992710.48574317 0 0 0 0 441737500.76581573 462673748.73957515 0 462673748.73957515 -233150535.80788612 0 0 0 0 941830069.64678955 -283582672.40379649 0 -283582672.40379649 -78281593.286690086 0 0 0 0 9223142.1135856211 -6731204.4703184143 0 -6731204.4703184143 2717889.0212167557 0 0 0 0 204831073.28717041 -845814126.84681702 0 -845814126.84681702 -163649696.6213398 0 0 0 0 277572439.86338806 132984050.1830802 0 132984050.1830802 -758588666.28165531 0 0 0 0 -409124748.82180786 272331948.23295021 0 272331948.23295021 -118301569.3317194 0 0 0 0 102641830.11578369 -55375122.316574097 0 -55375122.316574097 66086401.217858315 0 0 0 0 4021733.7894156873 -2624880.5057551563 0 -2624880.5057551563 1027519.7002059012 0 0 0 0 -437807898.43544793 -825406838.77564311 0 -825406838.77564311 136986381.79088736 0 0 0 0 3836147617.9138947 1279528625.9537535 0 1279528625.9537535 -555082102.70708323 0 0 0 0 977744725.84190416 280136709.93672901 0 280136709.93672901 197821670.45068026 0 0 0 0 2129783220.2841644 453216731.82282591 0 453216731.82282591 4364805.3130567074 0 0 0 0 4117485.5488563366 -2977241.4907948151 0 -2977241.4907948151 -629998.38069235138 0 0 0 0 2709464920.1106491 255258540.14782989 0 255258540.14782989 -318618249.59115887 0 0 0 0 2211512984.9608841 232038147.60758254 0 232038147.60758254 -233091878.76631507 0 0 0 0 1626951399.7646103 -267867777.35260418 0 -267867777.35260418 -140839944.15518323 0 0 0 0 2139399334.0737076 141344627.52125865 0 141344627.52125865 58954848.802829191 0 0 0 0 1418349251.0379181 -253582741.1564756 0 -253582741.1564756 1989228646.7753401 0 0 0 0 2317134231.8443146 115973168.90160584 0 115973168.90160584 -34377967.885948777 0 0 0 0 3180567416.6619415 -476691687.88578486 0 -476691687.88578486 -578707893.41264153 0 0 0 0 3222199.985564433 -1794367.459656857 0 -1794367.459656857 1605662.3824325185 0 0 0 0 2262964167.5753632 144047670.04008371 0 144047670.04008371 106098469.86616302 0 0 0 0 2264559357.4291315 -24131093.315287314 0 -24131093.315287314 -6199448.4249744415 0 0 0 0 2844931444.8034897 175741429.83282107 0 175741429.83282107 -74816067.185331821 0 0 0 0 2130643511.768219 61519661.512637377 0 61519661.512637377 144088804.29497337 0 0 0 0 1387569.5845247246 -323028.2091461271 0 -323028.2091461271 1011508.5095679798 0 0 0 0 1442422460.462204 87813086.432560086 0 87813086.432560086 -422611377.83274412 0 0 0 0 1423498742.0927124 139145172.67091566 0 139145172.67091566 -197233267.33654535 0 0 0 0 1266082478.5521698 -77525034.18234539 0 -77525034.18234539 -125274066.53292966 0 0 0 0 695673129.77532959 -202856600.90938568 0 -202856600.90938568 -33617530.926938534 0 0 0 0 1228045834.8404541 -157645280.96894431 0 -157645280.96894431 -40315682.780346811 0 0 0 0 689028952.87944031 -168034842.3423233 0 -168034842.3423233 113213627.39225101 0 0 0 0 314775840.47885132 -46171617.02093029 0 -46171617.02093029 117818387.75383875 0 0 0 0 396002804.40007782 -64846978.34700954 0 -64846978.34700954 53345409.423258781 0 0 0 0 174361496.40657043 -525799170.16027546 0 -525799170.16027546 191356227.2103529 0 0 0 0 1678226814.1353149 -173026577.83773518 0 -173026577.83773518 -622855380.39700532 0 0 0 0 1154112647.2689209 -1049546630.4457421 0 -1049546630.4457421 168468308.36519396 0 0 0 0 1549996891.3806 -625113983.6105628 0 -625113983.6105628 62312207.946585178 0 0 0 0 736700458.03384399 -368005999.70906281 0 -368005999.70906281 141743372.64129937 0 0 0 0 680661780.04927063 -241884182.72114897 0 -241884182.72114897 189183353.00843704 0 0 0 0 773815578.47848511 -275999801.44235408 0 -275999801.44235408 74983291.969969988 0 0 0 0 791766563.69589233 -318658101.83306277 0 -318658101.83306277 65282173.460231304 0 0 0 0 831815650.85317993 -286849882.0380072 0 -286849882.0380072 126075365.01848033 0 0 0 0 815014128.4949646 -342641183.88328689 0 -342641183.88328689 90015206.461696386 0 0 0 0 764943990.81874084 -279616738.5866062 0 -279616738.5866062 171518644.62341976 0 0 0 0 778186345.95753479 -297535158.18475688 0 -297535158.18475688 190485578.3506448 0 0 0 0 934745265.29519653 -341684928.74328876 0 -341684928.74328876 135349697.54595271 0 0 0 0 896176406.88624763 -179400406.56229132 0 -179400406.56229132 244728665.48500007 0 0 0 0 1263814407.2378235 -111799813.39646144 0 -111799813.39646144 168900623.10950041 0 0 0 0 972285146.97016907 -218919409.02115101 0 -218919409.02115101 217272125.51161784 0 0 0 0 980238769.61560059 -248750141.62146991 0 -248750141.62146991 152941338.78912932 0 0 0 0 1338490732.1196442 -209727872.77550963 0 -209727872.77550963 75610298.25434792 0 0 0 0 1549040700.2589569 -102127278.73558703 0 -102127278.73558703 99178058.127848744 0 0 0 0 1420406898.4380798 -27666598.406997621 0 -27666598.406997621 165052011.96430159 0 0 0 0 1330975354.713501 -184460060.19639915 0 -184460060.19639915 184934744.9571903 0 0 0 0 1363362651.073822 -40120909.075424284 0 -40120909.075424284 176279198.44107503 0 0 0 0 1416962409.0816383 -157706376.40784347 0 -157706376.40784347 275676047.24174964 0 0 0 0 1555471672.9427948 50316719.575770788 0 50316719.575770788 291373177.85209447 0 0 0 0 1978437267.7244568 71865531.625079453 0 71865531.625079453 100417607.26867384 0 0 0 0 2033889246.1414948 314768.24414864182 0 314768.24414864182 33402562.800323486 0 0 0 0 1928627696.2274742 -150526108.26481962 0 -150526108.26481962 63561622.223475218 0 0 0 0 2028930394.4111481 97662659.839675665 0 97662659.839675665 43458331.235741362 0 0 0 0 2110028840.8404236 -38813025.333648384 0 -38813025.333648384 -8118486.6851385832 0 0 0 0 1835507433.516326 -73798074.030929029 0 -73798074.030929029 109724268.87870347 0 0 0 0 1840121436.3566284 -124889700.45879734 0 -124889700.45879734 -20452252.073828995 0 0 0 0 1451121317.7647552 -217392558.97874153 0 -217392558.97874153 126255678.00892329 0 0 0 0 1764898072.2345581 -10448358.558911532 0 -10448358.558911532 36364978.00547266 0 0 0 0 1433937375.3697357 -169932826.25038767 0 -169932826.25038767 33900067.929086924 0 0 0 0 1089535507.8516083 -198249756.88507122 0 -198249756.88507122 154654379.33544624 0 0 0 0 1537952911.1231689 -305980571.52748942 0 -305980571.52748942 -25042552.489085495 0 0 0 0 1032552268.5714569 -408780891.29922557 0 -408780891.29922557 121948832.42662656 0 0 0 0 1100257882.5737457 -404357768.66303539 0 -404357768.66303539 111462741.632349 0 0 0 0 2367094.39443174 613247.72168874741 0 613247.72168874741 627033.90578448249 0 0 0 0 849867522.24258423 -156726183.10879961 0 -156726183.10879961 170466541.82617033 0 0 0 0 1067142153.6797104 -264258310.94008553 0 -264258310.94008553 54807134.168471456 0 0 0 0 1087675514.8469491 -232946692.72991624 0 -232946692.72991624 9034940.6126650572 0 0 0 0 15227440.087631226 -746156.67022121861 0 -746156.67022121861 2044022.693040147 0 0 0 0 19302.074889175594 -363.43451281636953 0 -363.43451281636953 4793.8313808979738 0 0 0 0 3779954.9594825245 339326.38829217851 0 339326.38829217851 -135831.82381659685 0 0 0 0 14266880.320484161 -5846710.9951567054 0 -5846710.9951567054 135919.4177533621 0 0 0 0 1104268790.6637421 -382431261.47696513 0 -382431261.47696513 129290134.23606277 0 0 0 0 5100995.1010210067 422637.36022357643 0 422637.36022357643 387705.9420313561 0 0 0 0 2599234.278716553 941835.74821675569 0 941835.74821675569 637363.50451903697 0 0 0 0 1434136940.684021 -200102440.87187299 0 -200102440.87187299 145323389.02837345 0 0 0 0 1103863936.4076576 -390006239.94707263 0 -390006239.94707263 220209102.85780478 0 0 0 0 1552128730.1138763 -368294815.05030483 0 -368294815.05030483 141696851.08117521 0 0 0 0 1267274315.0087891 -488547820.90624213 0 -488547820.90624213 -8948648.9833847284 0 0 0 0 2271859515.7101593 -453444284.52598137 0 -453444284.52598137 109136663.66889948 0 0 0 0 2232719614.7107849 38703546.472075999 0 38703546.472075999 71069053.671345085 0 0 0 0 1988736599.0859985 -169007809.82332581 0 -169007809.82332581 41800129.06899631 0 0 0 0 1542344587.9440393 -191171772.28362656 0 -191171772.28362656 100339325.11317372 0 0 0 0 1946393650.6639748 -29608959.927703544 0 -29608959.927703544 94011892.944532871 0 0 0 0 2160547798.9175415 22276713.561526418 0 22276713.561526418 52918952.483753085 0 0 0 0 2182476551.1955719 -5317275.3680120707 0 -5317275.3680120707 32622992.671930254 0 0 0 0 2173824671.6734161 13874849.38570907 0 13874849.38570907 125992132.12252474 0 0 0 0 2282046302.6681824 47188576.7571261 0 47188576.7571261 25033322.197399825 0 0 0 0 2323693338.2660065 -94038869.621051669 0 -94038869.621051669 153606142.43897316 0 0 0 0 2262213725.1666183 -128163985.57083875 0 -128163985.57083875 103199450.93445455 0 0 0 0 2311641559.0347519 -34754724.874252081 0 -34754724.874252081 242480017.03088734 0 0 0 0 2656344692.0137329 -255211187.0064455 0 -255211187.0064455 208146.34006846667 0 0 0 0 2595901821.7834778 35917720.577916294 0 35917720.577916294 130945876.10733023 0 0 0 0 2890961949.8831635 -365355796.32057393 0 -365355796.32057393 -15284969.441549659 0 0 0 0 1411157.0398613587 461762.16817876697 0 461762.16817876697 232000.83311838011 0 0 0 0 1195751258.5376892 -430996205.60745764 0 -430996205.60745764 391755667.26892769 0 0 0 0 14558991.801712036 287606.48596468702 0 287606.48596468702 8870.1167690225593 0 0 0 0 2420218865.8741455 -23937187.044937037 0 -23937187.044937037 -15153113.868924931 0 0 0 0 3046261.9183450565 -88600.344115294516 0 -88600.344115294516 -210203.26976511138 0 0 0 0 23426.388414412737 -1141.2059765383601 0 -1141.2059765383601 1566.7248185851104 0 0 0 0 11828956.387176514 -2003576.1241401713 0 -2003576.1241401713 416804.04531490523 0 0 0 0 17521420.25856781 -3694528.5254666344 0 -3694528.5254666344 160218.92725005816 0 0 0 0 16894787.374649048 -3831865.0002350863 0 -3831865.0002350863 143184.82560119382 0 0 0 0 1647599702.4363403 -262897306.47711077 0 -262897306.47711077 22332483.888643071 0 0 0 0 809447404.00831604 -57463608.311065614 0 -57463608.311065614 126184260.43034005 0 0 0 0 1202481442.18262 -11299696.724301986 0 -11299696.724301986 -22577351.819321156 0 0 0 0 745757603.33404541 -51820503.971542001 0 -51820503.971542001 15714287.990179062 0 0 0 0 1182207285.9978771 -137836721.21233112 0 -137836721.21233112 171295710.51931405 0 0 0 0 1284460381.3820496 114246669.21484637 0 114246669.21484637 35479064.998534381 0 0 0 0 2582408863.6416702 -104900327.51010996 0 -104900327.51010996 -577760.06336557865 0 0 0 0 2241911596.3717308 -97389866.452539057 0 -97389866.452539057 135218431.36945951 0 0 0 0 2033249173.3069 68495837.364236802 0 68495837.364236802 115185937.79909039 0 0 0 0 2051240422.3494415 57123519.043615505 0 57123519.043615505 -24713763.037967116 0 0 0 0 2045891807.4625549 52059249.411054417 0 52059249.411054417 59358.015385790713 0 0 0 0 1806434747.193985 -180279389.04149529 0 -180279389.04149529 1142454.1127385348 0 0 0 0 1517061864.3182602 52471096.249015629 0 52471096.249015629 -78166.204401737326 0 0 0 0 1183352559.2867355 53543227.768551566 0 53543227.768551566 25933301.858912513 0 0 0 0 862731538.95619202 85865445.57411164 0 85865445.57411164 130832.66963039432 0 0 0 0 1216585702.810997 -188409300.13580531 0 -188409300.13580531 52304971.108942926 0 0 0 0 703472821.7494812 -95347119.840949386 0 -95347119.840949386 5201256.327947706 0 0 0 0 402605934.10158539 89218568.130338565 0 89218568.130338565 8195.8050175378048 0 0 0 0 419717293.52583313 24189479.713014215 0 24189479.713014215 -67255602.804664254 0 0 0 0 426831551.02337646 61005412.736519277 0 61005412.736519277 84479987.376939893 0 0 0 0 73790717.315254211 85061685.887509272 0 85061685.887509272 33217.180301050743 0 0 0 0 262734839.74079895 -22365674.230701506 0 -22365674.230701506 -5588983.7755310684 0 0 0 0 205452859.78614807 98161428.204226136 0 98161428.204226136 8350935.6451942325 0 0 0 0 64989411.684768677 -13128478.65294838 0 -13128478.65294838 -41761947.550126731 0 0 0 0 317520.5846682936 280870.63789492473 0 280870.63789492473 72308.524586888729 0 0 0 0 202319120.06069946 97050637.441625059 0 97050637.441625059 -78332540.942829698 0 0 0 0 220232058.63380814 55637085.937848747 0 55637085.937848747 -34037177.47194171 0 0 0 0 -88123880.392822266 -5083180.5140604973 0 -5083180.5140604973 136731589.68931818 0 0 0 0 244845195.17973328 43295931.192419767 0 43295931.192419767 -86679645.768891573 0 0 0 0 22146984.1640625 137194499.96079475 0 137194499.96079475 162877660.45286608 0 0 0 0 -153214513.36952209 210044077.39765203 0 210044077.39765203 154174175.86465406 0 0 0 0 802246939.75990295 6326781.5242270827 0 6326781.5242270827 -76281342.496086717 0 0 0 0 -15364.243797041476 340809.17358750105 0 340809.17358750105 195523.86710840615 0 0 0 0 509811653.65290833 30012538.21610409 0 30012538.21610409 80043001.050535679 0 0 0 0 466834222.68847656 134669690.74874508 0 134669690.74874508 32666215.723368168 0 0 0 0 763979708.65485382 -3491404.0373674631 0 -3491404.0373674631 29443052.610156536 0 0 0 0 531147771.0925293 81325737.448752046 0 81325737.448752046 103828075.09176242 0 0 0 0 518559759.64691162 13063734.109939337 0 13063734.109939337 75486179.908270597 0 0 0 0 533206366.80566406 62900470.960474491 0 62900470.960474491 23223726.965664387 0 0 0 0 434269874.0378418 73597604.988078117 0 73597604.988078117 79799675.665153027 0 0 0 0 408823681.06317139 134739703.77740717 0 134739703.77740717 11399686.883448124 0 0 0 0 455771490.78355408 164667984.03098297 0 164667984.03098297 -14582937.764472961 0 0 0 0 451559074.00027466 36979875.035544395 0 36979875.035544395 -63878633.867353916 0 0 0 0 429534242.86753845 141053439.59692448 0 141053439.59692448 -32593718.298791885 0 0 0 0 352677858.66223145 86443587.78570646 0 86443587.78570646 1359651.7619066238 0 0 0 0 349807136.50717163 106298408.68401074 0 106298408.68401074 38223214.95407176 0 0 0 0 521364531.49209547 127106270.05246207 0 127106270.05246207 -19429362.847250938 0 0 0 0 82871909.57131815 -19817695.213798761 0 -19817695.213798761 45405074.536122799 0 0 0 0 147606.73130615801 1274901.9490029216 0 1274901.9490029216 -89587.264963524183 0 0 0 0 97324054.9112854 170867583.03613186 0 170867583.03613186 89360358.558393717 0 0 0 0 3817947.0349159241 50489514.048935756 0 50489514.048935756 24378049.141597271 0 0 0 0 6933810.4941864014 -41238114.570359409 0 -41238114.570359409 -41589636.424450457 0 0 0 0 179943379.96862793 12153257.725035667 0 12153257.725035667 -16817422.183469772 0 0 0 0 105521999.09988403 72834180.251134872 0 72834180.251134872 -10161407.560752511 0 0 0 0 175617996.22900391 62288786.299128532 0 62288786.299128532 11983186.143212795 0 0 0 0 224109552.52037811 -53230485.247844934 0 -53230485.247844934 -45608415.684635162 0 0 0 0 755509527.60655212 -98985388.203527451 0 -98985388.203527451 -42446524.353811264 0 0 0 0 818382.70944767445 551095.53631977737 0 551095.53631977737 -98623.812418797985 0 0 0 0 -1656602.2080917358 -121393598.55114675 0 -121393598.55114675 -431209346.51833248 0 0 0 0 -23786.842112585902 696831.45885310322 0 696831.45885310322 -97145.645292383153 0 0 0 0 2077002.3865862265 1490413.8212370016 0 1490413.8212370016 -355256.33640211727 0 0 0 0 19276135.145202637 60740463.502479553 0 60740463.502479553 -253382731.35037708 0 0 0 0 104159049.97131348 168302095.31939125 0 168302095.31939125 -310870899.78742027 0 0 0 0 320667255.38496399 227767695.63005781 0 227767695.63005781 -445248158.14766312 0 0 0 0 93549724.664169312 218000297.78831911 0 218000297.78831911 11414535.157454491 0 0 0 0 82427491.629119873 425684082.26306963 0 425684082.26306963 116859330.61380386 0 0 0 0 440268259.01306152 114876555.07305622 0 114876555.07305622 -7442289.0998253822 0 0 0 0 427841533.14196777 136331952.33255959 0 136331952.33255959 30835147.658750534 0 0 0 0 -84700846.615371704 422007404.56566954 0 422007404.56566954 170049688.19502831 0 0 0 0 -137413852.27084351 298012609.40941 0 298012609.40941 87370300.289585114 0 0 0 0 223374406.47389221 533746907.34613514 0 533746907.34613514 37865384.91736412 0 0 0 0 59712714.896179199 408782649.36449432 0 408782649.36449432 117200217.67451668 0 0 0 0 107645401.34030151 427387933.02648306 0 427387933.02648306 -43248913.323347092 0 0 0 0 1378736.28731893 -51471.500435682014 0 -51471.500435682014 -203354.9417385417 0 0 0 0 77318113.182863235 -259420725.55596483 0 -259420725.55596483 233310469.01087761 0 0 0 0 306408784.20641327 -275387147.38318253 0 -275387147.38318253 -295832780.99343109 0 0 0 0 365236435.19464111 -112048197.54422855 0 -112048197.54422855 -100826821.90279245 0 0 0 0 391280131.90463257 116827719.91924858 0 116827719.91924858 -238451224.66544485 0 0 0 0 208817622.24655151 228732939.28111553 0 228732939.28111553 -105378201.00166798 0 0 0 0 344654789.24810791 105260222.76464939 0 105260222.76464939 -1707123.760035038 0 0 0 0 400024678.53964996 200582416.94051683 0 200582416.94051683 -35506558.648061752 0 0 0 0 576648638.07403564 293698351.19807529 0 293698351.19807529 117578354.96932113 0 0 0 0 379345084.2806778 93666743.806231499 0 93666743.806231499 -69964717.32861042 0 0 0 0 82050517.998142242 30322395.610786319 0 30322395.610786319 -103140210.20440197 0 0 0 0 71505076.043804169 -11510460.799816012 0 -11510460.799816012 -110606529.04758835 0 0 0 0 107275877.28619385 18177521.049591541 0 18177521.049591541 -87578318.038723946 0 0 0 0 43179751.415466309 24830555.018771648 0 24830555.018771648 -73287665.528691292 0 0 0 0 43546417.860229492 59472050.230816841 0 59472050.230816841 -54603846.20500803 0 0 0 0 8322611.2360782623 58673244.431081384 0 58673244.431081384 -14839612.607631683 0 0 0 0 6970989.4452075958 45888721.559765488 0 45888721.559765488 -17931313.752495766 0 0 0 0 11976743.828390121 51294125.585489035 0 51294125.585489035 -73084128.510112762 0 0 0 0 15393282.11730957 23420705.841743469 0 23420705.841743469 -85703900.104258537 0 0 0 0 13608801.29822953 1753619.5824313341 0 1753619.5824313341 -671398.4106960292 0 0 0 0 25943171.656295776 45549420.924141407 0 45549420.924141407 -158955545.99947929 0 0 0 0 2483304.299571991 49301558.312897265 0 49301558.312897265 -108474614.64649391 0 0 0 0 65679997.237136841 -1723927.3677859306 0 -1723927.3677859306 -182149253.01734447 0 0 0 0 2439502.9761146307 3619664.8613696648 0 3619664.8613696648 -301113.7966343509 0 0 0 0 11183577.631835938 34409105.258449554 0 34409105.258449554 -18543447.215999126 0 0 0 0 10404502.941955566 -7109412.628695488 0 -7109412.628695488 -120331585.22708797 0 0 0 0 -50287655.023719788 -30743236.091533661 0 -30743236.091533661 10408108.261115074 0 0 0 0 21546340.621887207 9187079.0199403763 0 9187079.0199403763 -117015613.15538597 0 0 0 0 14372085.510223389 -51657236.007021904 0 -51657236.007021904 -44231163.765018463 0 0 0 0 62153408.236877441 -324940074.4252739 0 -324940074.4252739 52568128.501804352 0 0 0 0 405306730.58474731 -212247548.89556599 0 -212247548.89556599 69727381.914146662 0 0 0 0 -2683069.4618835449 -158309259.81829834 0 -158309259.81829834 165241202.97076225 0 0 0 0 661454.66549764574 347536.53528980725 0 347536.53528980725 45016.749435918755 0 0 0 0 168491697.71933746 -383026858.02706659 0 -383026858.02706659 -124411342.83547783 0 0 0 0 24923152.663742065 70455908.797144175 0 70455908.797144175 -39771120.97955513 0 0 0 0 219857282.80044556 -249079373.52997541 0 -249079373.52997541 -368172113.96202946 0 0 0 0 152295420.94799805 58713237.318736553 0 58713237.318736553 -371610891.01852959 0 0 0 0 81663602.645492554 -61837057.101247787 0 -61837057.101247787 -157628060.73140717 0 0 0 0 107420606.6864624 -24598757.223950386 0 -24598757.223950386 -119783854.58167279 0 0 0 0 124566575.88931274 -114878331.54184246 0 -114878331.54184246 -100691017.98531485 0 0 0 0 121313632.92654419 -129998283.54204845 0 -129998283.54204845 -126602872.89466381 0 0 0 0 151003408.50765991 -9321902.8763022423 0 -9321902.8763022423 -122337909.46288967 0 0 0 0 142831525.59552002 -25395600.780984879 0 -25395600.780984879 -149659523.82058859 0 0 0 0 129506818.48207855 34170020.528794765 0 34170020.528794765 -58897857.642573357 0 0 0 0 287128366.40956116 48335674.838464737 0 48335674.838464737 -62881551.548820019 0 0 0 0 183513260.20529175 -3225063.74106884 0 -3225063.74106884 -125971369.35249043 0 0 0 0 92488896.190567017 -35180037.699154377 0 -35180037.699154377 -10989226.87271899 0 0 0 0 68233981.290267944 20041476.391633987 0 20041476.391633987 -17714409.078480244 0 0 0 0 1754495.8616327792 1627234.2795635127 0 1627234.2795635127 198720.10092430259 0 0 0 0 -62285419.432754517 36000293.790407896 0 36000293.790407896 42947135.947242141 0 0 0 0 116772113.15583801 -27640116.461761951 0 -27640116.461761951 26510990.946253777 0 0 0 0 468523758.29769897 -23799320.237436533 0 -23799320.237436533 26548465.789493471 0 0 0 0 725602.01761312783 534867.46076663956 0 534867.46076663956 18380.034167701844 0 0 0 0 227597101.65808105 224383643.76928222 0 224383643.76928222 218188672.06387162 0 0 0 0 104155977.58735657 126872421.61295223 0 126872421.61295223 63913120.271689415 0 0 0 0 4497008.9011688232 61256878.152221322 0 61256878.152221322 230383056.64151096 0 0 0 0 114390302.74179077 91711073.316438675 0 91711073.316438675 67733787.232836723 0 0 0 0 58366739.761413574 77610406.758459091 0 77610406.758459091 11366087.982061625 0 0 0 0 41728092.391571045 72125782.407164574 0 72125782.407164574 10623297.936958313 0 0 0 0 122453029.56443119 74892165.438001901 0 74892165.438001901 -47032259.883542061 0 0 0 0 119342610.90704346 13086874.746470928 0 13086874.746470928 -85627240.182672739 0 0 0 0 44832201.687652588 77572575.822479248 0 77572575.822479248 3538.2807908058167 0 0 0 0 32918617.829376221 110050901.95607662 0 110050901.95607662 65478692.844242573 0 0 0 0 -12982351.89440918 72911044.108936787 0 72911044.108936787 37428401.187558651 0 0 0 0 -45409374.607910156 63291763.937765598 0 63291763.937765598 102359502.46281517 0 0 0 0 5998543.2263774872 60460938.482498884 0 60460938.482498884 71009944.365810394 0 0 0 0 -79488474.012359619 22948945.967477798 0 22948945.967477798 115209208.85155845 0 0 0 0 27475772.147125244 -26617199.707278728 0 -26617199.707278728 45147980.084649086 0 0 0 0 65011644.171173096 45004797.134234726 0 45004797.134234726 96953128.039649963 0 0 0 0 64859868.000602722 -594720.610671103 0 -594720.610671103 454648269.55171824 0 0 0 0 22021462.813751221 -25363669.511985421 0 -25363669.511985421 178450411.66770697 0 0 0 0 185077658.59585571 -82535339.157051563 0 -82535339.157051563 15227624.19649148 0 0 0 0 60862664.928649902 15973877.438039064 0 15973877.438039064 -61999173.07856071 0 0 0 0 34111851.158935547 -64675462.331110716 0 -64675462.331110716 12129273.210113108 0 0 0 0 -93531316.574268341 -96097181.19682157 0 -96097181.19682157 6105915.8950755596 0 0 0 0 -82962132.626514435 13953518.973874502 0 13953518.973874502 -24652968.330537558 0 0 0 0 -33578772.718605042 -46505968.916749477 0 -46505968.916749477 -44925173.19170022 0 0 0 0 -61900699.521087646 -19006260.708368301 0 -19006260.708368301 59623000.881903172 0 0 0 0 -38390085.368888855 -38287566.283810228 0 -38287566.283810228 273592542.09726477 0 0 0 0 188639131.01750183 251329374.54433036 0 251329374.54433036 221616071.27378583 0 0 0 0 373886605.98461914 -127582565.05042428 0 -127582565.05042428 40460666.877489209 0 0 0 0 198498868.40907574 28069518.237352431 0 28069518.237352431 -86439830.341484308 0 0 0 0 154527006.97467041 25677712.494632125 0 25677712.494632125 -84254445.22508347 0 0 0 0 -78335071.749353409 -9663774.7354543358 0 -9663774.7354543358 -33174014.683186293 0 0 0 0 -58674095.952209473 124466120.92989831 0 124466120.92989831 -32138142.93720454 0 0 0 0 23002335.86100769 224584564.64322472 0 224584564.64322472 -99489667.198094085 0 0 0 0 650978.65960348397 526798.87654072046 0 526798.87654072046 41070.117846939829 0 0 0 0 117357478.09737396 -17867038.59466055 0 -17867038.59466055 -114333180.7811482 0 0 0 0 547754.84408336133 299815.65611493215 0 299815.65611493215 -278709.02572119824 0 0 0 0 -103974002.30857849 70364155.563538656 0 70364155.563538656 -48959.947924668719 0 0 0 0 268471580.1764679 -59242239.607047476 0 -59242239.607047476 -107414878.44485536 0 0 0 0 -21019331.058425903 12283146.942100372 0 12283146.942100372 -21671204.605270185 0 0 0 0 -141361771.31599426 -66478611.535816133 0 -66478611.535816133 -2547907.7834767103 0 0 0 0 -117281631.78884888 38306380.921120763 0 38306380.921120763 -86491587.293433651 0 0 0 0 -217201010.72076416 2744125.3009507954 0 2744125.3009507954 -29658180.498422101 0 0 0 0 -104349987.85238647 -30477086.142369449 0 -30477086.142369449 -89269477.455454588 0 0 0 0 -151432420.0329895 -102645868.52067244 0 -102645868.52067244 -101253462.63807309 0 0 0 0 -44883.062002688646 18660.677934876643 0 18660.677934876643 -4299.1269806983983 0 0 0 0 -49049314.277160645 -25804847.417469859 0 -25804847.417469859 -34175123.743766308 0 0 0 0 120452427.98208618 11271358.889098883 0 11271358.889098883 -83128704.511013687 0 0 0 0 143236322.96559143 50332968.913289636 0 50332968.913289636 -130820033.91724229 0 0 0 0 10365870.476119995 90900592.199736491 0 90900592.199736491 -74278117.687079668 0 0 0 0 -106197546.97201538 48889231.072571188 0 48889231.072571188 -71766821.038331702 0 0 0 0 -115336733.82141113 184511108.17559579 0 184511108.17559579 186130.71196914848 0 0 0 0 299578280.51208115 44022608.41716633 0 44022608.41716633 -158459173.24695539 0 0 0 0 173789518.22251892 171497920.87050423 0 171497920.87050423 -91466663.488063514 0 0 0 0 -312918514.037323 -16882695.159611389 0 -16882695.159611389 33898366.139178276 0 0 0 0 -385896.14797288179 261951.90900761634 0 261951.90900761634 33381.858831181205 0 0 0 0 -341525.60456466675 202153.35332345171 0 202153.35332345171 3.9765430656123897 0 0 0 0 -280413.82022094727 171875.00289971309 0 171875.00289971309 -124539.11419419423 0 0 0 0 -90107.282510131598 79835.786590813659 0 79835.786590813659 -166166.13449534265 0 0 0 0 1422428.3232421875 1568647.3353511954 0 1568647.3353511954 -2706533.4237818671 0 0 0 0 2193754.592590332 -1445859.852585729 0 -1445859.852585729 141933.97750852187 0 0 0 0 2930192.2585983276 328452.30750989425 0 328452.30750989425 -6585525.7081743497 0 0 0 0 -239101.17196655273 98399.688394100536 0 98399.688394100536 -171.89078789481363 0 0 0 0 -4059763.5803833008 -2049129.4993458646 0 -2049129.4993458646 1394194.7662766674 0 0 0 0 -60714.644166380167 26208.765553233214 0 26208.765553233214 -71299.913745515863 0 0 0 0 274148.43225097656 233198.35089473016 0 233198.35089473016 -113529.86470446961 0 0 0 0 930367.38397216797 -67126.53844951473 0 -67126.53844951473 527.68393391585766 0 0 0 0 -1492296.6790161133 6606813.2849871479 0 6606813.2849871479 -7013902.0623990186 0 0 0 0 1558638.7015075684 2791363.8435529554 0 2791363.8435529554 -11942284.405766545 0 0 0 0 -125778.30924805999 -387497.26059540827 0 -387497.26059540827 167511.92503883407 0 0 0 0 -3982117.0693664551 3690647.7899455912 0 3690647.7899455912 -8503260.8782431185 0 0 0 0 -12673203.278381348 4953020.1814349918 0 4953020.1814349918 -1766785.5686867395 0 0 0 0 -3958472.8978424072 5777934.9510056796 0 5777934.9510056796 -4085806.1217455007 0 0 0 0 -4368858.2001647949 -1877238.4462392249 0 -1877238.4462392249 824112.86489903147 0 0 0 0 -2028546.8526780903 -46990.470119412988 0 -46990.470119412988 355752.09289768699 0 0 0 0 -8877396.7065429688 -2709137.6605362594 0 -2709137.6605362594 8087955.707695961 0 0 0 0 -6386016.9761505127 4459455.7418131828 0 4459455.7418131828 -1948891.6818568707 0 0 0 0 -102925.06755065918 1963787.6411326495 0 1963787.6411326495 -389101.47904716514 0 0 0 0 -914088.93693591654 270163.33894497901 0 270163.33894497901 594419.2355636626 0 0 0 0 -804769.33094787598 2668153.6660554521 0 2668153.6660554521 -620894.78639537236 0 0 0 0 -741385.80244171247 1347702.798810482 0 1347702.798810482 -1038159.8577987058 0 0 0 0 -75380856.902877808 41005143.750848472 0 41005143.750848472 21719530.128598452 0 0 0 0 -116427163.5342865 -7217940.4069662094 0 -7217940.4069662094 54644733.243710041 0 0 0 0 -615556.61041006073 737952.41815055907 0 737952.41815055907 -292786.56100843434 0 0 0 0 50777933.610076904 -28949992.249221291 0 -28949992.249221291 -32138148.120965682 0 0 0 0 118508466.39997864 25183330.645134293 0 25183330.645134293 -12344749.840482282 0 0 0 0 47632663.028366089 8635134.2600339353 0 8635134.2600339353 -15880466.899963811 0 0 0 0 43994688.579483032 5726345.0944405431 0 5726345.0944405431 -24233.432519471025 0 0 0 0 49098608.803489685 2845793.4936973169 0 2845793.4936973169 -4808507.6860487191 0 0 0 0 41891397.081954956 12072037.304761181 0 12072037.304761181 -5772836.5549963675 0 0 0 0 53050364.406921387 16203521.598710485 0 16203521.598710485 -5321762.7439690018 0 0 0 0 27533183.327926636 9790407.4599130768 0 9790407.4599130768 -12727.636797024767 0 0 0 0 5788049.7012557983 6247314.2993758563 0 6247314.2993758563 3362970.3526840555 0 0 0 0 26420444.34173584 24594117.519577093 0 24594117.519577093 8924699.8897438999 0 0 0 0 22966496.274398804 35657122.702905007 0 35657122.702905007 37051106.981544085 0 0 0 0 10101954.70993042 3747921.7361228364 0 3747921.7361228364 4019072.8765515941 0 0 0 0 5711674.6723098755 2176225.7393826623 0 2176225.7393826623 -1072566.1409939807 0 0 0 0 -1207773.8556518555 1574231.2176925428 0 1574231.2176925428 1627995.9230616689 0 0 0 0 72035.188962221146 156334.45091416687 0 156334.45091416687 -189185.10500882732 0 0 0 0 -16123818.584716797 6600780.6223193863 0 6600780.6223193863 8829.3919678226903 0 0 0 0 24639611.021621704 11896661.524911607 0 11896661.524911607 1284395.0525247268 0 0 0 0 -441261.87587249279 356350.20721251145 0 356350.20721251145 -241000.27989464888 0 0 0 0 -13294124.977081299 -6144900.8800931163 0 -6144900.8800931163 -3865376.3843739787 0 0 0 0 -24520.511454284191 10542.582595149986 0 10542.582595149986 -18712.808293303235 0 0 0 0 -4130208.9454650879 11715387.546161508 0 11715387.546161508 -3405247.6190288095 0 0 0 0 -2461859.1965942383 8654726.2801025938 0 8654726.2801025938 -9828718.3551102392 0 0 0 0 -2511685.6356201172 391269.3368821062 0 391269.3368821062 1422386.7218636388 0 0 0 0 -768127.79583010823 506803.72050164267 0 506803.72050164267 -156135.52415018194 0 0 0 0 -901201.83894348145 1795494.0955048553 0 1795494.0955048553 11903.696374637075 0 0 0 0 -3962298.8714447021 3992548.8661697009 0 3992548.8661697009 -4927386.857905292 0 0 0 0 -3273996.3481192291 1299275.2946453001 0 1299275.2946453001 714440.47552448278 0 0 0 0 -9896271.7219696045 5648713.0844480991 0 5648713.0844480991 1675094.0008244514 0 0 0 0 -6490360.9775695801 3372847.7626482546 0 3372847.7626482546 -3466623.6084871292 0 0 0 0 -11678320.465858459 20169025.106799513 0 20169025.106799513 27243124.429664612 0 0 0 0 7016820.5343475342 -13041374.179548502 0 -13041374.179548502 3487634.0138090253 0 0 0 0 3215482.741013281 1938766.7782128602 0 1938766.7782128602 -1227753.4997510135 0 0 0 0 13688333.263168335 4469811.1712991595 0 4469811.1712991595 -41756005.636669748 0 0 0 0 1176490.8683754951 410390.43685869873 0 410390.43685869873 -599252.91352857405 0 0 0 0 30457936.279205322 42594317.659022182 0 42594317.659022182 38298048.771814585 0 0 0 0 15501154.132843018 -41216143.699548841 0 -41216143.699548841 92787359.525638163 0 0 0 0 18784592.335510254 -19403372.026618958 0 -19403372.026618958 42496274.714323759 0 0 0 0 21143111.123550415 51860314.894682586 0 51860314.894682586 66861890.141423702 0 0 0 0 5190141.3884277344 110337.21289026737 0 110337.21289026737 69359281.907911301 0 0 0 0 261346940.77822876 64253916.698611714 0 64253916.698611714 8197050.29801175 0 0 0 0 399535.77175232768 18742.964983237907 0 18742.964983237907 -154741.92973638198 0 0 0 0 120045705.4493866 -77771271.19992207 0 -77771271.19992207 -28329945.618312076 0 0 0 0 319171.56647893041 175274.56700113416 0 175274.56700113416 -25312.540532229468 0 0 0 0 136398350.83895874 101971886.69325677 0 101971886.69325677 75768015.450804934 0 0 0 0 146546981.67411804 -309636640.46407378 0 -309636640.46407378 -34234265.18666026 0 0 0 0 284671899.16311646 10409995.200399317 0 10409995.200399317 -34322509.989675499 0 0 0 0 135257205.14269257 -1395923.4715096354 0 -1395923.4715096354 -23041329.140217304 0 0 0 0 17077878.58516407 -10253537.524699666 0 -10253537.524699666 -23550552.446029186 0 0 0 0 17992593.127365477 2354674.6052120747 0 2354674.6052120747 -1205413.1651618415 0 0 0 0 37481090.950134277 15457674.145866156 0 15457674.145866156 -81156809.892830133 0 0 0 0 23215393.291488647 -27082658.516738296 0 -27082658.516738296 -10714066.302229166 0 0 0 0 17093228.696273804 -2672078.4010744095 0 -2672078.4010744095 -48546766.276826382 0 0 0 0 2905319.7106323242 -14932887.278600574 0 -14932887.278600574 6904365.4705195427 0 0 0 0 4985799.3857191056 1665300.1331929341 0 1665300.1331929341 -1657956.7289912738 0 0 0 0 -25496783.599624634 15337659.019965649 0 15337659.019965649 639853.64065033197 0 0 0 0 3385097.3014373779 -14672534.631058156 0 -14672534.631058156 -1239905.9462695122 0 0 0 0 9710156.4864425659 -860430.59652549028 0 -860430.59652549028 -240665.8833835125 0 0 0 0 -121636474.74313354 317828011.92524171 0 317828011.92524171 -403286690.15462446 0 0 0 0 -163256487.60293579 196724302.7038064 0 196724302.7038064 -113696892.56843853 0 0 0 0 -162732861.86048126 454413131.84951854 0 454413131.84951854 -777163264.80483294 0 0 0 0 16483686.312898211 3967510.3974754689 0 3967510.3974754689 -377492.34285779367 0 0 0 0 193666615.64468384 67692184.799248219 0 67692184.799248219 -886276408.74971104 0 0 0 0 -359881689.63396835 124574001.19906807 0 124574001.19906807 -8123284.246591568 0 0 0 0 -37455457.702224731 239664523.83971643 0 239664523.83971643 6557085.2882003784 0 0 0 0 -104243353.5738163 18973638.567428112 0 18973638.567428112 471953407.67726231 0 0 0 0 1089856651.318634 -563424556.94516373 0 -563424556.94516373 645166918.39292336 0 0 0 0 -339939209.01673889 699437567.8561554 0 699437567.8561554 601086739.16083241 0 0 0 0 -228269695.7851162 -377815936.10451484 0 -377815936.10451484 -915595045.28491068 0 0 0 0 194599858.79103088 1202918956.1463299 0 1202918956.1463299 -1648859396.0067313 0 0 0 0 77436002.510925293 30702145.739405155 0 30702145.739405155 22542019.219163895 0 0 0 0 11589522.178985596 -9152586.3260741234 0 -9152586.3260741234 127878830.07521629 0 0 0 0 -23500708.834716797 58459553.530521393 0 58459553.530521393 146564523.30885005 0 0 0 0 -4020233.3806152344 16615978.655991554 0 16615978.655991554 114569003.87232161 0 0 0 0 11517503.735137939 25130342.133398533 0 25130342.133398533 -17875342.577719688 0 0 0 0 14594333.10269165 47320555.569393158 0 47320555.569393158 24658323.810072184 0 0 0 0 27048494.089660645 17031873.432180882 0 17031873.432180882 -980426.31627559662 0 0 0 0 -8691424.2971801758 24982138.016345024 0 24982138.016345024 43288361.351968765 0 0 0 0 -9213747.6890258789 27774767.101089478 0 27774767.101089478 49486885.834524155 0 0 0 0 -13795711.393798828 40319199.38552475 0 40319199.38552475 21760748.072237492 0 0 0 0 -13028476.441253662 49075371.535163879 0 49075371.535163879 8791065.5060138702 0 0 0 0 -15724348.731903076 65132460.907916069 0 65132460.907916069 36593292.752288818 0 0 0 0 -32272065.631072998 60402842.28025341 0 60402842.28025341 75093771.242968559 0 0 0 0 -2238473.0412597656 23821399.885245323 0 23821399.885245323 50986811.233342171 0 0 0 0 -36712237.253845215 50949328.304451942 0 50949328.304451942 56366276.95453167 0 0 0 0 -26036887.684448242 29247776.199333668 0 29247776.199333668 99331879.143074036 0 0 0 0 -30276564.230773926 97951567.014547348 0 97951567.014547348 1732426.944519043 0 0 0 0 -28023376.193725586 27398858.932646275 0 27398858.932646275 -9978392.7048149109 0 0 0 0 -24064984.331787109 65811040.733154297 0 65811040.733154297 79733059.580423832 0 0 0 0 -55166214.077651978 32380630.3738693 0 32380630.3738693 43855716.399260521 0 0 0 0 -41906758.008666992 39487207.631919861 0 39487207.631919861 51949449.307310104 0 0 0 0 -45747576.846313477 60835147.589958191 0 60835147.589958191 75208135.58290267 0 0 0 0 5232598.6043395996 -2487353.5622968674 0 -2487353.5622968674 8435460.9632177353 0 0 0 0 22132982.571685791 -28743160.081662416 0 -28743160.081662416 15420303.500202179 0 0 0 0 48084594.795776367 69926917.358462334 0 69926917.358462334 91445942.434696198 0 0 0 0 -421375.31910061464 306405.62531083822 0 306405.62531083822 409962.9375030729 0 0 0 0 -50884.520116940141 62745.748817697167 0 62745.748817697167 -76395.196731429081 0 0 0 0 -3227473.5644302368 -9438070.3070157766 0 -9438070.3070157766 23799454.180118561 0 0 0 0 -3424191.8363952637 12912278.268738985 0 12912278.268738985 12346972.248558998 0 0 0 0 -17927104.816848755 1046676.511269331 0 1046676.511269331 6845833.2564716339 0 0 0 0 -21495611.248931885 33935496.141499519 0 33935496.141499519 -6295553.4509606361 0 0 0 0 -15101207.317779541 29920552.23760128 0 29920552.23760128 -12089730.991805553 0 0 0 0 -16045028.448242188 26834592.546463013 0 26834592.546463013 38802458.422769547 0 0 0 0 -12420820.896347046 25320048.427173853 0 25320048.427173853 -6550349.3819093704 0 0 0 0 8647495.5024108887 55092139.934615135 0 55092139.934615135 -7841260.840695858 0 0 0 0 -21057942.86265564 30638802.900370598 0 30638802.900370598 -2728818.0967581272 0 0 0 0 2636262.7460327148 32014114.600766182 0 32014114.600766182 -44899865.668038368 0 0 0 0 17932305.571703963 2441597.8010107847 0 2441597.8010107847 -1388944.944625352 0 0 0 0 4906049.5514831543 48943143.098697186 0 48943143.098697186 -56597835.604704857 0 0 0 0 -59180452.399597168 267216653.8285284 0 267216653.8285284 -537680326.92470837 0 0 0 0 9003605.9211969674 1519425.5618126839 0 1519425.5618126839 -2883479.624170417 0 0 0 0 13452530.485974662 6052264.597342995 0 6052264.597342995 719408.48220772191 0 0 0 0 16747629.737854004 -2735401.0029277802 0 -2735401.0029277802 -14058091.648638487 0 0 0 0 1811228.1773365326 399709.77309241891 0 399709.77309241891 -932136.48736670427 0 0 0 0 -154006710.43854523 273619166.79080963 0 273619166.79080963 -233952000.9618063 0 0 0 0 -96487121.691848755 242419210.44657898 0 242419210.44657898 -399689992.82282257 0 0 0 0 -141406094.49261475 209334983.07799339 0 209334983.07799339 -384223886.0762825 0 0 0 0 26775009.032341003 9339365.8067686558 0 9339365.8067686558 -184038804.93323803 0 0 0 0 -84935574.28793335 164915211.47876453 0 164915211.47876453 -179135826.53140354 0 0 0 0 -65698273.232025146 161930850.16363144 0 161930850.16363144 -190174068.11620998 0 0 0 0 -156864853.81478882 283993207.86250401 0 283993207.86250401 -270391297.58413696 0 0 0 0 15711278.200838163 2404983.5573072843 0 2404983.5573072843 -735056.46243121685 0 0 0 0 -112900922.34494019 156435304.79215717 0 156435304.79215717 99702697.166810989 0 0 0 0 -4271515.0499420166 -2509391.3938860893 0 -2509391.3938860893 -13126212.902930737 0 0 0 0 100983603.46824646 4697976.1188497543 0 4697976.1188497543 -83703726.253312111 0 0 0 0 20750296.829803467 55152126.808198929 0 55152126.808198929 -122271524.49303246 0 0 0 0 437670.25491142273 14488620.697020948 0 14488620.697020948 -69304534.063077927 0 0 0 0 25516106.904998779 53000213.52812767 0 53000213.52812767 -50702614.94707346 0 0 0 0 -2201953.6325378418 42138562.170299053 0 42138562.170299053 -15968620.400270462 0 0 0 0 1160824.4649047852 28082800.089460373 0 28082800.089460373 -40091524.772101402 0 0 0 0 4396809.1712646484 22664289.831417084 0 22664289.831417084 -18938164.980679035 0 0 0 0 5002113.8197937012 49063165.428415298 0 49063165.428415298 -64801357.053738594 0 0 0 0 -13632055.08026123 35011692.77435112 0 35011692.77435112 -67996568.692453384 0 0 0 0 2988853.5057067871 15176139.140020847 0 15176139.140020847 -115733431.0770216 0 0 0 0 -33204.727880120277 6177569.3048655279 0 6177569.3048655279 -464795.40356819367 0 0 0 0 -29149978.407867432 42113640.851754189 0 42113640.851754189 16885494.94327116 0 0 0 0 -32182787.328125 43144646.714153767 0 43144646.714153767 -249673698.49369907 0 0 0 0 7597414.3149719238 7189489.0435733795 0 7189489.0435733795 -328116455.23073733 0 0 0 0 -34171309.414943695 37157790.650026619 0 37157790.650026619 -240682161.80621624 0 0 0 0 -110133.74062809348 1706429.9076253274 0 1706429.9076253274 -180049.47392911807 0 0 0 0 -32710315.936325073 7772811.5119385719 0 7772811.5119385719 -379641067.06333637 0 0 0 0 4875479.250213623 128074644.72066736 0 128074644.72066736 -641360027.99392319 0 0 0 0 -73813426.672195435 72687584.672887325 0 72687584.672887325 -100783766.36858797 0 0 0 0 -106278162.03359032 164446661.10255745 0 164446661.10255745 -229536392.41169071 0 0 0 0 -99136481.132411003 77099325.119458646 0 77099325.119458646 -237652216.58035374 0 0 0 0 -58812867.414886475 79397261.427671075 0 79397261.427671075 -37328670.035936356 0 0 0 0 -53818956.327011108 127849560.42166877 0 127849560.42166877 -184330043.72369742 0 0 0 0 -74079817.548828125 165969983.32185328 0 165969983.32185328 41785928.105633557 0 0 0 0 -11637870.10464509 126197221.67462431 0 126197221.67462431 66255806.338989735 0 0 0 0 -26615589.800018311 133916091.37339115 0 133916091.37339115 -74220200.222026229 0 0 0 0 -106245361.3859787 35260809.442821503 0 35260809.442821503 26533265.377573013 0 0 0 0 -276568340.41879272 52569187.704285622 0 52569187.704285622 234709448.58230519 0 0 0 0 -444381.47485873848 1889434.868906226 0 1889434.868906226 3398149.2662480064 0 0 0 0 -59293700.669303536 -24852839.308440469 0 -24852839.308440469 77983177.858761311 0 0 0 0 -57790751.689254761 56411498.447346091 0 56411498.447346091 35716686.512396693 0 0 0 0 -131934931.88606262 3500668.3915700912 0 3500668.3915700912 39378664.967095375 0 0 0 0 -15754382.87097168 35206672.147238731 0 35206672.147238731 42207180.956179142 0 0 0 0 -128904945.06952667 64734655.492191553 0 64734655.492191553 -31250176.304837227 0 0 0 0 -8230244.5637969971 50872433.15846014 0 50872433.15846014 -54673287.704793453 0 0 0 0 -79996776.723419189 109446469.51004839 0 109446469.51004839 -207942342.01519203 0 0 0 0 -75848195.394271851 82535272.166096926 0 82535272.166096926 -65507271.661058903 0 0 0 0 -206874806.89584351 106498499.3766861 0 106498499.3766861 -56895877.097480297 0 0 0 0 -201729596.63589478 274033051.19298553 0 274033051.19298553 -349427692.79333353 0 0 0 0 -236045071.65399933 114046624.38963675 0 114046624.38963675 -184223958.2625103 0 0 0 0 -98468353.259613037 148832545.81943703 0 148832545.81943703 -155976376.92787266 0 0 0 0 -114388416.39361572 206739321.05336094 0 206739321.05336094 -356424243.59436989 0 0 0 0 -67188714.660873413 142181946.74115896 0 142181946.74115896 -169812358.04139709 0 0 0 0 -93992529.761581421 45183370.005727768 0 45183370.005727768 18338462.086644173 0 0 0 0 -3038177.1189727783 135549632.84474611 0 135549632.84474611 -155793641.68218517 0 0 0 0 -156169735.15153503 48799913.336437345 0 48799913.336437345 164125259.3300128 0 0 0 0 1322715.2826077491 1249249.9445424341 0 1249249.9445424341 1450920.9956051803 0 0 0 0 61288722.791372299 -180494907.27852005 0 -180494907.27852005 193070674.64873362 0 0 0 0 -79854326.176620483 -5913125.7939329147 0 -5913125.7939329147 125273731.08431017 0 0 0 0 27410780.939622879 52297542.245140225 0 52297542.245140225 4817221.0820560455 0 0 0 0 1240458026.6920509 -585436241.32595086 0 -585436241.32595086 74842970.18490696 0 0 0 0 71730209.77243042 -298161369.06709433 0 -298161369.06709433 443600873.34278786 0 0 0 0 620382.28158049285 274001.51143627614 0 274001.51143627614 360453.32842223207 0 0 0 0 151711247.24984741 -90285476.65717268 0 -90285476.65717268 59898213.900260687 0 0 0 0 348092413.79473877 -79648291.002274036 0 -79648291.002274036 -272175262.78687763 0 0 0 0 324014200.94538879 -160899908.50003195 0 -160899908.50003195 93805659.986530304 0 0 0 0 742357.45882527437 493455.34200866148 0 493455.34200866148 5585787.3728399929 0 0 0 0 554285461.73777008 -216899045.26621437 0 -216899045.26621437 19824259.287350655 0 0 0 0 430657872.80755615 -237719362.85335445 0 -237719362.85335445 119952026.43907213 0 0 0 0 469299413.55198669 -152204638.46907592 0 -152204638.46907592 6718572.5279979706 0 0 0 0 211705232.14376831 -189501030.10810995 0 -189501030.10810995 25131091.554065228 0 0 0 0 207872447.15371561 -145311126.66555446 0 -145311126.66555446 660360978.02605057 0 0 0 0 173285158.87677765 -85039316.854715347 0 -85039316.854715347 212731040.31947327 0 0 0 0 584126.61107137986 113846.94384299219 0 113846.94384299219 3763856.6577519523 0 0 0 0 536097412.27760315 896177349.28384829 0 896177349.28384829 -129658626.59963608 0 0 0 0 885144.32304151356 2131094.3545695543 0 2131094.3545695543 2891083.731769166 0 0 0 0 36484693.668960571 -120476895.24996901 0 -120476895.24996901 102583759.70730758 0 0 0 0 189827138.97613525 -551334959.34755993 0 -551334959.34755993 69533579.955245256 0 0 0 0 407054156.10832214 289350742.60698223 0 289350742.60698223 420100278.58427715 0 0 0 0 73830.323460839689 229825.04025702924 0 229825.04025702924 2481796.7313965019 0 0 0 0 587797385.66656113 199197777.24713635 0 199197777.24713635 136165933.88747787 0 0 0 0 -425950233.38406372 -414750139.00838232 0 -414750139.00838232 612513765.45242453 0 0 0 0 356229279.13898849 -386010353.99773234 0 -386010353.99773234 248318723.73113728 0 0 0 0 -139214099.53079224 -112798049.52913076 0 -112798049.52913076 97795422.16430378 0 0 0 0 405537705.73511124 191924166.12426823 0 191924166.12426823 123588472.65121078 0 0 0 0 436020677.92642212 17991563.6942029 0 17991563.6942029 -48506701.799955368 0 0 0 0 208873186.39938354 -102436376.74286842 0 -102436376.74286842 50634887.248957634 0 0 0 0 136124704.01647949 -68136252.601736069 0 -68136252.601736069 136079796.84271336 0 0 0 0 -110608036.42683411 -49319163.824464202 0 -49319163.824464202 168656582.93929338 0 0 0 0 545964.10060033761 1761845.6983549148 0 1761845.6983549148 6510798.7022830388 0 0 0 0 101078263.52421188 26116501.25250721 0 26116501.25250721 15714138.299942017 0 0 0 0 267518862.15570068 -142638972.17462158 0 -142638972.17462158 61158704.317609787 0 0 0 0 -654981.02434614301 -69861.165712174028 0 -69861.165712174028 1013767.0419655414 0 0 0 0 -89386824.231903076 16343636.465957761 0 16343636.465957761 -40042758.919577643 0 0 0 0 337480221.31048584 52455713.924511909 0 52455713.924511909 9856342.5120000839 0 0 0 0 385384312.59080505 168722269.71265984 0 168722269.71265984 80738919.67591238 0 0 0 0 340742203.39172363 123975517.6644249 0 123975517.6644249 237241988.82744884 0 0 0 0 143021090.46250916 -77550038.953007698 0 -77550038.953007698 758006681.30784225 0 0 0 0 209161670.93214417 -8480932.3114690781 0 -8480932.3114690781 325018902.13468885 0 0 0 0 373888588.7490387 190705770.03137589 0 190705770.03137589 140389540.90540981 0 0 0 0 255796.35275705159 65501.355862069875 0 65501.355862069875 1499235.9412627425 0 0 0 0 488264460.27068329 323651870.66186428 0 323651870.66186428 309028745.95833015 0 0 0 0 343875950.50655746 204803236.53058696 0 204803236.53058696 719990038.28266525 0 0 0 0 -286319945.33513641 276613168.46331167 0 276613168.46331167 851310577.90368271 0 0 0 0 369700640.60915756 -534733774.50544453 0 -534733774.50544453 -114486314.55738831 0 0 0 0 172770590.52081299 82746760.462896347 0 82746760.462896347 -447576521.0269146 0 0 0 0 155876926.92107964 -165207746.30354893 0 -165207746.30354893 106810053.52233124 0 0 0 0 345417802.49320984 -148931539.68488979 0 -148931539.68488979 78839700.430223465 0 0 0 0 -74148404.445571899 62718469.500432014 0 62718469.500432014 -65868162.233743191 0 0 0 0 299563308.66920471 -213064657.40046597 0 -213064657.40046597 4077833.6788368225 0 0 0 0 123208457.60487366 -34994879.84244442 0 -34994879.84244442 24676493.385655403 0 0 0 0 332817401.68435669 -127838606.32551956 0 -127838606.32551956 -131030968.77323151 0 0 0 0 358292082.03512573 -166673239.91328144 0 -166673239.91328144 -204775933.28371048 0 0 0 0 -65867052.567970276 -161618947.49800992 0 -161618947.49800992 -361555448.54498959 0 0 0 0 1553400.6431664731 448636.71176607534 0 448636.71176607534 -2320870.1697174329 0 0 0 0 -166854890.59416199 211574946.48442936 0 211574946.48442936 -145595841.78048134 0 0 0 0 9341296.2468719482 13138824.645307541 0 13138824.645307541 -10894722.240797043 0 0 0 0 2088894.234825369 2437086.209456414 0 2437086.209456414 -676367.31302135997 0 0 0 0 225247278.68289948 -76495591.872829437 0 -76495591.872829437 16693304.397888184 0 0 0 0 219682231.92308044 -80047954.776812553 0 -80047954.776812553 44356797.167785645 0 0 0 0 240164900.84909439 -42948229.381067038 0 -42948229.381067038 -16632570.575044632 0 0 0 0 179779788.53036499 -35979892.156546593 0 -35979892.156546593 19897952.202263832 0 0 0 0 267263132.92401516 -95945697.955525562 0 -95945697.955525562 -9199025.4213867188 0 0 0 0 387403234.14850998 -246771202.0354892 0 -246771202.0354892 2073747.0706233978 0 0 0 0 545190.63160729408 266584.76429190859 0 266584.76429190859 -503792.25290374272 0 0 0 0 287239423.42339325 -215950102.326123 0 -215950102.326123 102141862.45134354 0 0 0 0 240621677.12475586 -66170581.84333992 0 -66170581.84333992 127357441.88147879 0 0 0 0 187286949.79219437 -83923603.03070426 0 -83923603.03070426 38616935.709444046 0 0 0 0 -3160581.3748168945 -1268197.6549072266 0 -1268197.6549072266 2932237.9205589294 0 0 0 0 -575217.82436037064 34382337.742969662 0 34382337.742969662 -18418165.276649475 0 0 0 0 -117476511.29522705 183827253.80777407 0 183827253.80777407 -26710409.373713493 0 0 0 0 1805102.5527777076 4819528.8481288441 0 4819528.8481288441 8513593.7526128013 0 0 0 0 -154505014.98418427 74352229.620101571 0 74352229.620101571 40267123.297170639 0 0 0 0 -14342535.456970215 69706340.864804268 0 69706340.864804268 7897643.6352689266 0 0 0 0 44999578.323516846 53675841.49601841 0 53675841.49601841 -146124852.58237076 0 0 0 0 176242373.11764526 67194393.642108917 0 67194393.642108917 -5511255.8032745719 0 0 0 0 5137914.0571899414 76834165.821308851 0 76834165.821308851 -3147436.9623651505 0 0 0 0 -42183581.412231445 101398570.76029694 0 101398570.76029694 236237521.13407469 0 0 0 0 -15691842.550445557 57932885.109199524 0 57932885.109199524 -89413936.975542068 0 0 0 0 4613661.1462414563 7347741.6613293365 0 7347741.6613293365 8477852.8649512436 0 0 0 0 -5896918.2816009521 159366070.52065372 0 159366070.52065372 -143814812.66266936 0 0 0 0 44792931.237365723 32630691.537564278 0 32630691.537564278 -92056330.696409225 0 0 0 0 41393306.679718018 -735140.52872371674 0 -735140.52872371674 -131875518.62482834 0 0 0 0 118303242.04180908 63883707.945627689 0 63883707.945627689 -95182706.093562841 0 0 0 0 51885602.575500488 108157163.97704792 0 108157163.97704792 -117982049.54501414 0 0 0 0 111808531.83874512 -75516485.971377373 0 -75516485.971377373 -172526711.83722639 0 0 0 0 124584701.42675781 -123022416.47422028 0 -123022416.47422028 3876652.9036698341 0 0 0 0 -14111426.469421387 40633831.149758339 0 40633831.149758339 -95525123.785336971 0 0 0 0 97348187.623901367 4615206.9746370316 0 4615206.9746370316 -85453538.19901371 0 0 0 0 -18508199.494844913 -96359975.614552096 0 -96359975.614552096 -87291381.347091675 0 0 0 0 22706131.598526001 -34826952.978913307 0 -34826952.978913307 -34687202.952147007 0 0 0 0 -378470.79393768311 -40785704.439784765 0 -40785704.439784765 43709362.90215683 0 0 0 0 121583979.76344299 -96717571.89713192 0 -96717571.89713192 69359096.358062506 0 0 0 0 71472021.167358398 11027625.874999285 0 11027625.874999285 161430839.89221954 0 0 0 0 52003056.748168945 9720971.4348151684 0 9720971.4348151684 5247838.8572587967 0 0 0 0 147907354.77801514 48454270.221982241 0 48454270.221982241 8012616.9899565876 0 0 0 0 365408745.53631592 101743086.42457879 0 101743086.42457879 163774251.23208141 0 0 0 0 32704951.119430542 -68728859.071267605 0 -68728859.071267605 391113985.50166869 0 0 0 0 -8886518.9490242004 21917042.57340914 0 21917042.57340914 254222157.79625463 0 0 0 0 -1081899.767616272 236171785.77764183 0 236171785.77764183 256050652.13165641 0 0 0 0 55706999.377243042 79580781.369091511 0 79580781.369091511 -11482320.212654114 0 0 0 0 43537584.803405762 -301021436.74954593 0 -301021436.74954593 626608334.95322585 0 0 0 0 -737609.72783708572 734591.61649968475 0 734591.61649968475 1765024.648366943 0 0 0 0 -4562333.6644001007 -92770417.868039429 0 -92770417.868039429 278972287.36909103 0 0 0 0 -139118843.98980713 -117886998.86081547 0 -117886998.86081547 341362960.60653365 0 0 0 0 -57528591.228851318 60193362.914361477 0 60193362.914361477 223281928.46873188 0 0 0 0 -110931916.06671143 35382036.603693962 0 35382036.603693962 213471856.25967312 0 0 0 0 15066187.119041443 -40175721.924275517 0 -40175721.924275517 230577779.55815697 0 0 0 0 -10636785.007064819 127001783.32992721 0 127001783.32992721 611867316.19039738 0 0 0 0 22542794.836341858 8951956.1802105904 0 8951956.1802105904 -23314032.130191326 0 0 0 0 -14982619.455459595 4296422.7316493988 0 4296422.7316493988 6760171.4107513428 0 0 0 0 -8188748.0528736115 -18348921.870536208 0 -18348921.870536208 -148312535.21529388 0 0 0 0 -25499215.20810318 -15342953.007455826 0 -15342953.007455826 73032342.443429947 0 0 0 0 5431216.2155784443 1722712.990068269 0 1722712.990068269 424196.36258728569 0 0 0 0 9611191.8223419189 -13857458.162542343 0 -13857458.162542343 37082384.810413837 0 0 0 0 10478165.993789673 3874129.8382167816 0 3874129.8382167816 28896661.294845581 0 0 0 0 -19454433.966308594 88176175.386415482 0 88176175.386415482 -33892500.976234436 0 0 0 0 20381046.86856842 -4091303.5302853584 0 -4091303.5302853584 -19608097.546452522 0 0 0 0 5620066.5566918477 960126.06273197755 0 960126.06273197755 -179578.6010372038 0 0 0 0 4709756.0358380303 98882.854852270335 0 98882.854852270335 -288362.64578091167 0 0 0 0 94094262.711303711 75398268.880037308 0 75398268.880037308 -45132088.531451702 0 0 0 0 -49694066.185932159 -2230574.2990169525 0 -2230574.2990169525 94531396.019838333 0 0 0 0 10517618.385986328 -21827868.880498886 0 -21827868.880498886 14047692.635266304 0 0 0 0 -68673438.807764053 57061682.030233026 0 57061682.030233026 33659985.690322876 0 0 0 0 1245663.3392092362 246099.77922969311 0 246099.77922969311 1672993.1216564532 0 0 0 0 -19552373.536453247 -6036474.387016058 0 -6036474.387016058 29538403.12005806 0 0 0 0 -38826019.633766174 -9935902.2098999023 0 -9935902.2098999023 44895742.013379097 0 0 0 0 76039679.03717041 -41930432.515347481 0 -41930432.515347481 50766128.909734726 0 0 0 0 -16462433.663993835 1496433.9523661137 0 1496433.9523661137 42346648.019788742 0 0 0 0 -18634243.259002686 1329156.5357093811 0 1329156.5357093811 42339497.884088516 0 0 0 0 -58882039.272796631 21576950.589025497 0 21576950.589025497 50340045.527871132 0 0 0 0 -24865519.445793152 4000628.8203997612 0 4000628.8203997612 58111762.308998108 0 0 0 0 -27568844.705558777 -39790369.452855587 0 -39790369.452855587 83382164.208522797 0 0 0 0 -70015951.352676392 -10256701.145459175 0 -10256701.145459175 78404930.273107767 0 0 0 0 219452.08725156635 315265.88541803136 0 315265.88541803136 1808233.0280514378 0 0 0 0 -69491218.597564697 -82847878.039857864 0 -82847878.039857864 -3342058.0772614479 0 0 0 0 -100433265.99560928 -42927617.007315397 0 -42927617.007315397 164152724.79119492 0 0 0 0 -78837612.837409973 128233281.96179676 0 128233281.96179676 43376164.907018185 0 0 0 0 -79773341.742767334 121417589.11461449 0 121417589.11461449 205276817.99585772 0 0 0 0 354889703.39019775 299120762.42203522 0 299120762.42203522 259248374.87093353 0 0 0 0 385298329.29285336 521079726.33344883 0 521079726.33344883 160197368.52874184 0 0 0 0 -882645589.66349792 -532722361.64252853 0 -532722361.64252853 38407238.024524689 0 0 0 0 -450860159.05305481 1457245496.9193363 0 1457245496.9193363 914774754.77929974 0 0 0 0 -275353570.77215576 40210387.576104164 0 40210387.576104164 474044447.46430779 0 0 0 0 -282134289.94335938 -256907375.64305687 0 -256907375.64305687 -48670485.222686768 0 0 0 0 350127866.5083313 -23262884.624003887 0 -23262884.624003887 9198089.5642118454 0 0 0 0 3801647.9853439108 4233747.0835685227 0 4233747.0835685227 2040955.3280977784 0 0 0 0 1630250352.1847229 259785981.27227688 0 259785981.27227688 -150174635.92698765 0 0 0 0 824758299.59895325 -383224500.34795761 0 -383224500.34795761 173985290.38812327 0 0 0 0 2545101464.3008423 1010357480.9584713 0 1010357480.9584713 48085308.757580757 0 0 0 0 2455431.6880762428 1522277.4222528897 0 1522277.4222528897 734940.87631762587 0 0 0 0 447228266.6892395 1118733805.5731525 0 1118733805.5731525 -44969000.343845367 0 0 0 0 2785973488.9849854 674216388.46970367 0 674216388.46970367 -441937877.11015701 0 0 0 0 2472054466.3215332 -692942406.80681133 0 -692942406.80681133 89210031.783180714 0 0 0 0 1234735.8768975735 1513511.9536929205 0 1513511.9536929205 1229034.572432166 0 0 0 0 348515543.35327148 1066726173.9349489 0 1066726173.9349489 972755656.51422405 0 0 0 0 -251564126.46620178 -257271264.9181509 0 -257271264.9181509 -210780941.93541813 0 0 0 0 1718312718.144783 259089221.18791199 0 259089221.18791199 189562246.73319054 0 0 0 0 688175777.66983032 -19552467.645517349 0 -19552467.645517349 141717348.16316342 0 0 0 0 1032107595.161377 -197480263.96644497 0 -197480263.96644497 -3583734.4940090179 0 0 0 0 905441597.63027191 -362127658.00034237 0 -362127658.00034237 257225269.97218704 0 0 0 0 509454835.17712402 -173298423.73156738 0 -173298423.73156738 -4516063.8830108643 0 0 0 0 317020613.02633667 -79938664.038199425 0 -79938664.038199425 43589057.764530182 0 0 0 0 800185917.19286346 -61164754.918491364 0 -61164754.918491364 -93882913.707290649 0 0 0 0 746539732.69874573 -36436551.828649044 0 -36436551.828649044 -30231725.906105042 0 0 0 0 755950751.84040833 41678412.627958298 0 41678412.627958298 -116103065.51572704 0 0 0 0 -39649627.066932678 -153255779.05783415 0 -153255779.05783415 -437210189.26366043 0 0 0 0 5458591.9258398116 2154648.5654495363 0 2154648.5654495363 718334.40152903739 0 0 0 0 -8246880.3869018555 66560083.051467896 0 66560083.051467896 2220224.9204015732 0 0 0 0 200092088.67834473 -312684234.28440666 0 -312684234.28440666 259692137.46140146 0 0 0 0 -138976080.1932373 -8596597.5352306366 0 -8596597.5352306366 187194242.36479187 0 0 0 0 309578344.86514282 -101990918.28041553 0 -101990918.28041553 50333689.455173492 0 0 0 0 -29615188.978942871 -112323579.45572853 0 -112323579.45572853 187998241.85044861 0 0 0 0 -271640.29736424983 82212.641948133707 0 82212.641948133707 323789.9351593703 0 0 0 0 67433721.125549316 -25749227.591486931 0 -25749227.591486931 18853248.997671127 0 0 0 0 50851884.598575592 -4554987.4973707199 0 -4554987.4973707199 80265335.019090652 0 0 0 0 -618311.99724470079 162767.24021190405 0 162767.24021190405 643800.68095737416 0 0 0 0 267304731.93114471 6407591.3853759766 0 6407591.3853759766 3575228.5328865051 0 0 0 0 179441664.83984375 -123678228.17193317 0 -123678228.17193317 62244260.719501495 0 0 0 0 178582212.32350159 91072117.896061897 0 91072117.896061897 13760622.718737602 0 0 0 0 50851710.586284637 -82612488.540745735 0 -82612488.540745735 21290882.617082596 0 0 0 0 782075709.78393745 37172175.226603031 0 37172175.226603031 -137227654.26667786 0 0 0 0 531219419.94525146 -3500896.8061265945 0 -3500896.8061265945 -47037220.06146431 0 0 0 0 476685321.58053589 -105277048.76475525 0 -105277048.76475525 16014014.926405907 0 0 0 0 480910819.60803223 27798801.295499802 0 27798801.295499802 -36891372.127140045 0 0 0 0 497277081.42404175 -28228027.10403347 0 -28228027.10403347 -54738358.682058573 0 0 0 0 644908213.00364685 93469669.306446552 0 93469669.306446552 -34176768.412143707 0 0 0 0 518674938.85377693 -571618684.15452635 0 -571618684.15452635 -659470505.07440948 0 0 0 0 1009915202.0987091 -33860450.386899948 0 -33860450.386899948 -130383107.21940899 0 0 0 0 299322641.26810455 296507518.1646452 0 296507518.1646452 -114323218.80827808 0 0 0 0 1203016609.4494858 935241661.32520533 0 935241661.32520533 328679518.28634834 0 0 0 0 5986645.5928294808 -838432.96331851697 0 -838432.96331851697 -417462.05889463704 0 0 0 0 517758712.81674194 -754288796.91205502 0 -754288796.91205502 351883858.60420513 0 0 0 0 1413261314.4546509 -306803569.56823671 0 -306803569.56823671 403167337.86326218 0 0 0 0 2000947139.522522 2157103135.0222683 0 2157103135.0222683 2798753926.8021793 0 0 0 0 3450916119.67099 -162916319.1388092 0 -162916319.1388092 -2323369961.0483627 0 0 0 0 -27975071.068847656 -44943824.946647167 0 -44943824.946647167 -87235007.483961105 0 0 0 0 47977470.816329956 -18029969.997616768 0 -18029969.997616768 -79932850.914215565 0 0 0 0 61500065.382949829 -61435790.75001812 0 -61435790.75001812 -74386486.969835281 0 0 0 0 15685970.217604138 -501695.90558499424 0 -501695.90558499424 -1198708.3621876596 0 0 0 0 121380440.11978149 23999973.634170532 0 23999973.634170532 -306819939.12183571 0 0 0 0 558139612.01635742 -467564254.62469959 0 -467564254.62469959 -1104128140.8751533 0 0 0 0 205220656.23632812 100709149.01124191 0 100709149.01124191 -1195850772.0021996 0 0 0 0 21469702.800485268 1017924.0228927184 0 1017924.0228927184 -1795956.8484847255 0 0 0 0 55053279.69694519 -35993489.489678383 0 -35993489.489678383 -214650748.49239802 0 0 0 0 3385654.6836509705 -7922872.8936910629 0 -7922872.8936910629 -84621423.127246857 0 0 0 0 41716664.679077148 -21771103.488148689 0 -21771103.488148689 -84867258.931170359 0 0 0 0 -10345510.267398834 -40447710.849246025 0 -40447710.849246025 29944946.89665699 0 0 0 0 33614920.107925415 -52881151.389258385 0 -52881151.389258385 32582383.04121089 0 0 0 0 -688565.82297608256 147347.79127059691 0 147347.79127059691 625441.93772257119 0 0 0 0 10866373.637200356 -29475960.405056238 0 -29475960.405056238 54666325.705869675 0 0 0 0 -2801291.7944030762 -12503252.337286949 0 -12503252.337286949 49099418.24744606 0 0 0 0 19672036.575714111 -45429214.563357353 0 -45429214.563357353 70520311.542093277 0 0 0 0 22833411.897323608 -44829813.171990395 0 -44829813.171990395 73293529.989766583 0 0 0 0 11563492.249023438 -15144147.915635109 0 -15144147.915635109 32307746.236850739 0 0 0 0 673988.8800163269 -15049337.658084869 0 -15049337.658084869 34871530.646429062 0 0 0 0 4614863.2847137451 -10064117.387634754 0 -10064117.387634754 37852789.572822571 0 0 0 0 13293784.728164673 -18630824.722122788 0 -18630824.722122788 32012045.087787628 0 0 0 0 -8817821.9226379395 -17263496.380234718 0 -17263496.380234718 39359913.083913803 0 0 0 0 -365913.28054757416 80322.485666297376 0 80322.485666297376 318282.15901182964 0 0 0 0 -13999525.765266418 -42129603.927471161 0 -42129603.927471161 8907587.8833322525 0 0 0 0 21636239.492240906 -33598403.006461143 0 -33598403.006461143 -44550292.721502304 0 0 0 0 14419745.698997498 -13269924.77822113 0 -13269924.77822113 -37790634.397888184 0 0 0 0 -2170450.0383911133 -31396704.562297821 0 -31396704.562297821 -55652219.484565735 0 0 0 0 2441508.6936798096 -35034620.615169525 0 -35034620.615169525 -71545107.516355515 0 0 0 0 35277281.71027565 -59884917.421100616 0 -59884917.421100616 -56188485.256567001 0 0 0 0 16359258.680988312 -36745336.247859955 0 -36745336.247859955 -78000462.854652405 0 0 0 0 400689342.64038086 332555385.43320465 0 332555385.43320465 -273008218.2268095 0 0 0 0 24482260.824851468 2130408.1441250951 0 2130408.1441250951 -2849947.1840040525 0 0 0 0 20004008.808441162 -20342449.303997993 0 -20342449.303997993 -99533614.759091377 0 0 0 0 21824771.873426437 2515414.8267729282 0 2515414.8267729282 -36050822.860485077 0 0 0 0 23239857.12562561 -1738109.8856143951 0 -1738109.8856143951 -65725704.626097202 0 0 0 0 -83202130.818534851 60894203.444533587 0 60894203.444533587 309203.32387733459 0 0 0 0 -365562271.36289978 375805341.15242243 0 375805341.15242243 -90234717.23206234 0 0 0 0 290259.02253645658 1695240.8388782777 0 1695240.8388782777 -206708.93500347249 0 0 0 0 -37751860.81237793 9476758.1546068192 0 9476758.1546068192 32852356.24755764 0 0 0 0 -11431074.656494141 -8833777.1461315155 0 -8833777.1461315155 24108608.134321213 0 0 0 0 -137721034.05051804 266859986.7331776 0 266859986.7331776 60952259.327480316 0 0 0 0 -129724425.72396469 308130660.85717434 0 308130660.85717434 -54425094.632957458 0 0 0 0 -308528632.99514771 140682432.76749706 0 140682432.76749706 -202707830.66040081 0 0 0 0 5860429.4817085266 -80551829.381664753 0 -80551829.381664753 -236771680.6200428 0 0 0 0 47194929.897314072 447471886.27001041 0 447471886.27001041 -288326553.53702164 0 0 0 0 440695.00281332433 663751.86864638701 0 663751.86864638701 -337633.77579364553 0 0 0 0 43886510.160842896 316906756.44211435 0 316906756.44211435 -232498150.75337899 0 0 0 0 -276648553.46954346 515649707.41826248 0 515649707.41826248 -109565151.93871021 0 0 0 0 -460526327.25897217 55521528.68774128 0 55521528.68774128 -388168351.61702156 0 0 0 0 -205795857.38763428 334721720.31350183 0 334721720.31350183 -19491069.941370964 0 0 0 0 -37858690.411193848 314548898.88509274 0 314548898.88509274 -319237640.17359304 0 0 0 0 -116340558.00292969 399212635.84426498 0 399212635.84426498 -89555496.655792236 0 0 0 0 241701654.35943604 422773099.28876686 0 422773099.28876686 -851524370.40941143 0 0 0 0 444737887.62478638 -243363035.70538282 0 -243363035.70538282 153721560.07012558 0 0 0 0 195707229.1441803 207988650.5150733 0 207988650.5150733 -11361210.310277939 0 0 0 0 122884683.14994812 134987571.52235198 0 134987571.52235198 237329976.04195213 0 0 0 0 94076953.032958984 160711986.37459564 0 160711986.37459564 -27107769.446872532 0 0 0 0 -101614376.29760742 196988521.54900789 0 196988521.54900789 105341203.79453087 0 0 0 0 -58399025.433837891 304507326.3111062 0 304507326.3111062 -151140988.8479166 0 0 0 0 18658188.73449707 262262949.8584938 0 262262949.8584938 133618762.211236 0 0 0 0 -19181884.238960266 205981659.39848232 0 205981659.39848232 135884078.51683331 0 0 0 0 130504852.28759766 43879229.550019741 0 43879229.550019741 131141119.26248375 0 0 0 0 44427177.222564697 1746813.3050489426 0 1746813.3050489426 163275837.30476189 0 0 0 0 589428348.24188232 26941916.878454208 0 26941916.878454208 296830338.17286682 0 0 0 0 210406555.23783875 153425400.36719275 0 153425400.36719275 276247912.33128071 0 0 0 0 367813632.84475708 -140745751.49872255 0 -140745751.49872255 263487091.03385687 0 0 0 0 427197543.24575806 -38874732.727416277 0 -38874732.727416277 186157104.80992281 0 0 0 0 433294618.05755615 -94119093.721866131 0 -94119093.721866131 366051883.37276363 0 0 0 0 912940756.22250366 -72207913.533558846 0 -72207913.533558846 203577052.31643105 0 0 0 0 667498411.52664185 -166290967.14812279 0 -166290967.14812279 289220480.91477299 0 0 0 0 533419144.61251831 -23849509.336632252 0 -23849509.336632252 178680131.47072649 0 0 0 0 652352557.82434082 6074512.1325562 0 6074512.1325562 271831125.04261875 0 0 0 0 839448925.41674805 -204381218.66766453 0 -204381218.66766453 212900645.21693593 0 0 0 0 410828374.20170593 -155863790.73742449 0 -155863790.73742449 187095987.39066863 0 0 0 0 188526570.13552856 20384996.101545334 0 20384996.101545334 112935876.58631706 0 0 0 0 47364890.401123047 92328184.1299541 0 92328184.1299541 146921284.27855873 0 0 0 0 179730861.88905334 17816955.825906038 0 17816955.825906038 271600228.78233671 0 0 0 0 106327928.71142578 -54951930.785907984 0 -54951930.785907984 151088906.9314518 0 0 0 0 -93773362.128234863 62013896.046861649 0 62013896.046861649 201351816.32315063 0 0 0 0 -253146949.66046143 98672768.577715874 0 98672768.577715874 134735799.41989279 0 0 0 0 -83667118.629241943 115999865.2381649 0 115999865.2381649 20922328.339168549 0 0 0 0 -77110337.150939941 22722981.219833612 0 22722981.219833612 68403105.719324231 0 0 0 0 -322607488.27584839 108964009.99301457 0 108964009.99301457 80007763.633047104 0 0 0 0 -237287681.76597595 112676574.63750887 0 112676574.63750887 -957088.43230628967 0 0 0 0 -341491347.2596283 119423649.41420412 0 119423649.41420412 22844906.995587587 0 0 0 0 -240760266.11677551 200720788.49581289 0 200720788.49581289 -177862681.67695618 0 0 0 0 -64294813.162353516 184772489.50539923 0 184772489.50539923 -101064576.51593041 0 0 0 0 -62059775.003234863 135993115.47206497 0 135993115.47206497 25926183.773195982 0 0 0 0 -258916462.60206985 150684892.65415961 0 150684892.65415961 84157441.497339249 0 0 0 0 2031114396.1700897 309113707.90061474 0 309113707.90061474 -710057970.88988113 0 0 0 0 451514151.14797974 -978938580.51548195 0 -978938580.51548195 607246288.60058594 0 0 0 0 1088969875.5442505 -14463815.891433954 0 -14463815.891433954 759426982.81216812 0 0 0 0 1196896197.374939 -432424855.50628781 0 -432424855.50628781 542049753.93333054 0 0 0 0 846775042.07344055 326792453.25237751 0 326792453.25237751 1001438199.9996109 0 0 0 0 565998.82888409402 981372.7257931754 0 981372.7257931754 3218240.0904959571 0 0 0 0 400417597.49639893 -637724214.58048725 0 -637724214.58048725 366208502.73680115 0 0 0 0 -190702637.2230835 -687018185.63146782 0 -687018185.63146782 597091595.74952507 0 0 0 0 379759567.89316559 -610848783.81987548 0 -610848783.81987548 459287013.34911728 0 0 0 0 -201696145.51631165 -245571510.7134068 0 -245571510.7134068 -492420844.18493408 0 0 0 0 476475368.07305145 -817060710.99421048 0 -817060710.99421048 -233641266.47036266 0 0 0 0 -248177160.93035889 -592191323.38490677 0 -592191323.38490677 529244264.33337927 0 0 0 0 -881545134.16795349 -409150171.6795094 0 -409150171.6795094 133559095.55368364 0 0 0 0 449732.31236503273 712784.57526620477 0 712784.57526620477 1408535.557236047 0 0 0 0 -148001718.32113647 -817272836.19239736 0 -817272836.19239736 340000237.1016531 0 0 0 0 2775600569.434845 -321716476.99643445 0 -321716476.99643445 -100495597.93083286 0 0 0 0 -213421982.61223984 -630053263.46072626 0 -630053263.46072626 484390861.62066269 0 0 0 0 711219629.41949463 66578315.22150898 0 66578315.22150898 -456531953.29294586 0 0 0 0 34393402.352020264 -523792330.27447081 0 -523792330.27447081 676392829.35055351 0 0 0 0 694491763.14907837 186058391.15466976 0 186058391.15466976 -164613864.48377705 0 0 0 0 -277671904.86262512 225946634.47607899 0 225946634.47607899 44958841.794845581 0 0 0 0 1555265953.4470215 -928099318.61630964 0 -928099318.61630964 361888760.02054453 0 0 0 0 661016742.66294861 -47968885.222201824 0 -47968885.222201824 285284397.56772327 0 0 0 0 917817260.49868774 -365758248.1197834 0 -365758248.1197834 277516083.71563739 0 0 0 0 1379906930.7467041 -147457034.88700962 0 -147457034.88700962 89351918.113969803 0 0 0 0 1506265621.4411926 -361766212.78794301 0 -361766212.78794301 -22231847.927361488 0 0 0 0 2011170371.2766037 -635811780.21728063 0 -635811780.21728063 143706337.33236313 0 0 0 0 1778402175.9286499 153094715.71661854 0 153094715.71661854 139867376.82306004 0 0 0 0 1376732403.6308594 -133296597.55827951 0 -133296597.55827951 88686595.714609146 0 0 0 0 913131925.47793579 -79244911.588251114 0 -79244911.588251114 452247859.88230515 0 0 0 0 1448184387.4519577 -118144731.39289105 0 -118144731.39289105 25921348.356086493 0 0 0 0 1167663612.9534912 -153068471.78546834 0 -153068471.78546834 185477520.83989191 0 0 0 0 842892142.14926147 -81349616.052757263 0 -81349616.052757263 349249604.19578695 0 0 0 0 1154292609.1708412 -7044972.6462410986 0 -7044972.6462410986 683897815.16074753 0 0 0 0 973675822.95762634 409986628.01398736 0 409986628.01398736 175859151.59304735 0 0 0 0 -12507662.061401367 13495120.754099667 0 13495120.754099667 -4934380.6220931411 0 0 0 0 4243050.3578317193 1328545.1786490157 0 1328545.1786490157 525697.27798667923 0 0 0 0 739583.45949070156 -184411.95021163672 0 -184411.95021163672 116918.22377549572 0 0 0 0 -78176113.136073112 -212456710.26268929 0 -212456710.26268929 -493422642.01072764 0 0 0 0 1416071565.66922 -345448583.33846903 0 -345448583.33846903 78219220.728215218 0 0 0 0 1428277.1663782252 644245.53605822474 0 644245.53605822474 4016776.3378798636 0 0 0 0 11936877.413098663 -1960727.0359276477 0 -1960727.0359276477 -1411568.5519150067 0 0 0 0 -14606756.391143799 -541290909.56442499 0 -541290909.56442499 -231899102.22199976 0 0 0 0 -8123692.9935913086 26787746.760025024 0 26787746.760025024 -1380790.9685692787 0 0 0 0 -6134375.935333252 23410953.214362741 0 23410953.214362741 -21216698.38380605 0 0 0 0 1410087.305480957 15414952.93865633 0 15414952.93865633 -15335778.668480515 0 0 0 0 17048429.686775208 34699530.584343851 0 34699530.584343851 1219168.6490550041 0 0 0 0 26437240.647006989 57397783.685360812 0 57397783.685360812 -66967423.984364748 0 0 0 0 893458970.25457764 198226861.59190333 0 198226861.59190333 -2026676376.5305266 0 0 0 0 16638388.563488357 -27829.362271266058 0 -27829.362271266058 -1816131.0284688747 0 0 0 0 14361830.905578613 -6880246.8593604565 0 -6880246.8593604565 2431792.7890268564 0 0 0 0 5558478.5883178711 -6227721.432243824 0 -6227721.432243824 11644136.201792717 0 0 0 0 8275906.1356315613 984988.76924608648 0 984988.76924608648 -6054891.1264538765 0 0 0 0 18615824.665496826 -12522795.165516615 0 -12522795.165516615 8371268.1719975471 0 0 0 0 9136622.4155578613 -12181718.713555574 0 -12181718.713555574 21499363.364035845 0 0 0 0 5212386.1654759645 5138085.4249572204 0 5138085.4249572204 22837256.571517229 0 0 0 0 -4983897.3465576172 7787823.9768553376 0 7787823.9768553376 38450293.438390136 0 0 0 0 -6062598.4082069397 15654048.549621835 0 15654048.549621835 6894885.4196231365 0 0 0 0 -14181574.954933167 15925687.986533612 0 15925687.986533612 2951237.5478221178 0 0 0 0 -14373940.302625656 6197833.9651300954 0 6197833.9651300954 773158.46317470074 0 0 0 0 -12469111.549499512 12819725.892295599 0 12819725.892295599 6678522.884568274 0 0 0 0 -14312841.709533691 8597522.7427540421 0 8597522.7427540421 15884241.047517121 0 0 0 0 -43520606.852432251 11387044.023180366 0 11387044.023180366 7974375.5664076805 0 0 0 0 1165186825.905014 122000850.38969111 0 122000850.38969111 -51261106.002924204 0 0 0 0 2619463.0634060483 1401509.2113361657 0 1401509.2113361657 237734.39993047703 0 0 0 0 1322200035.6095581 -27086829.097433329 0 -27086829.097433329 -22789449.268620491 0 0 0 0 962053269.66731262 54354984.915881336 0 54354984.915881336 -20404259.815778255 0 0 0 0 966657885.03421783 -12388563.691829324 0 -12388563.691829324 -52020323.1851331 0 0 0 0 887920974.49792099 38876657.64248164 0 38876657.64248164 49847107.689602196 0 0 0 0 888346670.98477173 36803090.52801495 0 36803090.52801495 -63772379.904719651 0 0 0 0 902805310.93399048 100198983.34001239 0 100198983.34001239 34398.154037036671 0 0 0 0 -100186534.64057541 131797053.83773641 0 131797053.83773641 821946.96649318782 0 0 0 0 1144221924.1186523 26409167.967999667 0 26409167.967999667 -69118102.12079528 0 0 0 0 2044283.8374873111 963206.89710220695 0 963206.89710220695 78796.308338966774 0 0 0 0 2597293.552734375 13476888.611794084 0 13476888.611794084 -18693635.777575284 0 0 0 0 16004238.982513428 -8945829.0328595787 0 -8945829.0328595787 -1873808.4281554818 0 0 0 0 239625.43518710136 95683.051498323679 0 95683.051498323679 -86081.037211445582 0 0 0 0 7673716.7623901367 936858.76660588663 0 936858.76660588663 20804.533361368212 0 0 0 0 -1926649.615776062 -21668248.567492776 0 -21668248.567492776 2800654.5420982242 0 0 0 0 21996357.998550415 -18857100.427281581 0 -18857100.427281581 -4056858.0752479509 0 0 0 0 402798.0447955057 244042.80111364648 0 244042.80111364648 27675.437962313194 0 0 0 0 14519449.157501221 -12134704.317290187 0 -12134704.317290187 1248039.5796473809 0 0 0 0 48230129.042060852 -11233971.21703453 0 -11233971.21703453 -3726042.950964448 0 0 0 0 -63756062.342666626 -10813552.337910064 0 -10813552.337910064 32469742.367734324 0 0 0 0 129557796.44589233 43974851.989416063 0 43974851.989416063 74911639.008672237 0 0 0 0 -24283704.791702271 -74085058.724221393 0 -74085058.724221393 86457847.465231031 0 0 0 0 -374315609.42097473 67096962.394236788 0 67096962.394236788 103607675.20376328 0 0 0 0 -98084829.424224854 -22646300.219871402 0 -22646300.219871402 30740759.731617212 0 0 0 0 -282732101.38891602 35814613.564716101 0 35814613.564716101 46052020.547595024 0 0 0 0 -258226227.0749054 86725775.960017681 0 86725775.960017681 114614756.2115016 0 0 0 0 -94663329.50938797 1199041.4892385304 0 1199041.4892385304 150357103.30779219 0 0 0 0 132251388.6451416 -13160618.191394567 0 -13160618.191394567 75221791.821198702 0 0 0 0 -59231816.094963074 62342019.225224257 0 62342019.225224257 147099986.82360697 0 0 0 0 350834638.465271 -88725175.803441465 0 -88725175.803441465 68341939.11494571 0 0 0 0 226046528.08746338 42451745.902546883 0 42451745.902546883 130725358.98872638 0 0 0 0 121900435.26172256 -34350788.201331407 0 -34350788.201331407 180906440.54189396 0 0 0 0 831894106.00805664 -172674389.884763 0 -172674389.884763 71469384.573797405 0 0 0 0 715011035.51634979 84491105.622075349 0 84491105.622075349 33031329.107391387 0 0 0 0 414212913.04112244 6707081.815487206 0 6707081.815487206 65835161.534156084 0 0 0 0 617620499.94171143 -90622640.19847475 0 -90622640.19847475 -16220041.736524984 0 0 0 0 304294367.02022552 99111045.644251466 0 99111045.644251466 30740832.615154922 0 0 0 0 653773609.84829712 -56189028.505624063 0 -56189028.505624063 13992766.578390403 0 0 0 0 541765277.20407867 108076512.33581281 0 108076512.33581281 -3847.6802857561343 0 0 0 0 128387573.14102173 -90694278.728803724 0 -90694278.728803724 15627194.728809923 0 0 0 0 4888893.3336486816 117774667.56176084 0 117774667.56176084 -209877.61928021078 0 0 0 0 -80314255.884944916 42330243.025963463 0 42330243.025963463 -21746322.649026155 0 0 0 0 -559941911.99602509 -105104744.48913065 0 -105104744.48913065 51649110.309939414 0 0 0 0 9622616.1602630615 14647304.089739583 0 14647304.089739583 31105.204557568315 0 0 0 0 16290088.246780396 17774212.864399903 0 17774212.864399903 -17373892.702887826 0 0 0 0 99484.043620340526 670465.19915989786 0 670465.19915989786 68006.411635452823 0 0 0 0 21206423.491851807 5398353.6793530919 0 5398353.6793530919 -4886060.7360189874 0 0 0 0 18869050.901245117 9240825.2594979201 0 9240825.2594979201 -8550235.0039444268 0 0 0 0 18732087.127022266 6473481.9162497483 0 6473481.9162497483 -2591879.872632388 0 0 0 0 18846514.78704834 5566195.5298180189 0 5566195.5298180189 -3537064.7701984663 0 0 0 0 19147774.670196533 6107521.4697279017 0 6107521.4697279017 -4009183.1977992803 0 0 0 0 18809700.226303101 6627771.1596479323 0 6627771.1596479323 -1319931.6043268889 0 0 0 0 16161551.518737793 6837178.5277312696 0 6837178.5277312696 -998862.22194252908 0 0 0 0 19675275.369262695 5229306.9471542761 0 5229306.9471542761 -3414950.1824442744 0 0 0 0 106519.81659811735 196177.31755184382 0 196177.31755184382 20916.795752152015 0 0 0 0 13075222.923126221 -5419877.4370181561 0 -5419877.4370181561 22283684.245370865 0 0 0 0 21694852.390975952 4770991.8701654747 0 4770991.8701654747 -4187398.4426764995 0 0 0 0 20579707.528274536 4160928.4509813897 0 4160928.4509813897 -1557294.5909026861 0 0 0 0 17188994.346008301 4237160.4716924615 0 4237160.4716924615 -295114.58614518493 0 0 0 0 7536690.1976165771 5058373.1354030715 0 5058373.1354030715 2752803.1925125457 0 0 0 0 -506593608.66149139 -94485260.727661312 0 -94485260.727661312 56698661.139949322 0 0 0 0 461350.26224438846 1299679.7101270631 0 1299679.7101270631 -422099.32994221913 0 0 0 0 299917.78529269807 927233.92303202301 0 927233.92303202301 124206.95014282131 0 0 0 0 14494806.364761353 7723022.0283375084 0 7723022.0283375084 -11701391.424495459 0 0 0 0 26261463.321014404 6102226.8434730927 0 6102226.8434730927 -3639851.7397211567 0 0 0 0 22117161.986938477 10228470.433856726 0 10228470.433856726 -1410839.0299451537 0 0 0 0 13361050.718940735 10795722.573182575 0 10795722.573182575 1926670.1926310137 0 0 0 0 1055392.7969757318 468696.6167085059 0 468696.6167085059 -1253269.7410654922 0 0 0 0 31059082.849014282 -5444523.6971806027 0 -5444523.6971806027 -3272078.0989344865 0 0 0 0 1472741.0461273193 5208855.4647035822 0 5208855.4647035822 -316822.84689678997 0 0 0 0 568269.60750161484 2655970.4449744225 0 2655970.4449744225 232463.01124455966 0 0 0 0 -335931809.68917847 76867465.958209515 0 76867465.958209515 39774594.535727233 0 0 0 0 -377562885.92238235 51553434.966998756 0 51553434.966998756 37038445.626994133 0 0 0 0 1207887.5807097331 1135115.6501639411 0 1135115.6501639411 -1073575.1621442097 0 0 0 0 14754301.519058228 7830122.4406262115 0 7830122.4406262115 1163209.7649221309 0 0 0 0 16317227.255981445 3376183.000789348 0 3376183.000789348 699584.62025374174 0 0 0 0 30932455.80682373 3489789.9599415511 0 3489789.9599415511 -2365022.7027054876 0 0 0 0 22568320.303405762 7356824.2732581422 0 7356824.2732581422 2512108.3096804656 0 0 0 0 23812241.895874023 397998.92407467868 0 397998.92407467868 -1213426.5536187589 0 0 0 0 19707993.762268066 3164094.3917005882 0 3164094.3917005882 5042770.1714817751 0 0 0 0 16434.34997279942 10483.714998237789 0 10483.714998237789 -12982.200115054073 0 0 0 0 17196375.107769012 9978851.8469408974 0 9978851.8469408974 6180099.9037555456 0 0 0 0 10340421.522453308 -6530624.4346486293 0 -6530624.4346486293 -13537189.461836629 0 0 0 0 17343947.764343262 3565528.3454963602 0 3565528.3454963602 -2666553.3900869898 0 0 0 0 19414728.583099365 2998573.2974121957 0 2998573.2974121957 -3531166.1757502449 0 0 0 0 13871383.448822021 1876100.3431894905 0 1876100.3431894905 -2602323.7071517059 0 0 0 0 17878682.961730957 5242968.3376450334 0 5242968.3376450334 -21083.297431496008 0 0 0 0 10374541.693725586 3003138.8310282747 0 3003138.8310282747 15724.752528995487 0 0 0 0 9226374.5116424561 2132668.203691564 0 2132668.203691564 413505.26904497109 0 0 0 0 8405.5159479826689 6558.0913068335503 0 6558.0913068335503 -1163.0260725034077 0 0 0 0 2088097.3725738525 4977015.6083838977 0 4977015.6083838977 7287381.4200152364 0 0 0 0 -575044.97277832031 -835628.79928185965 0 -835628.79928185965 -3493.4924642601782 0 0 0 0 620706.96936035156 943112.51044497546 0 943112.51044497546 4584491.5532229245 0 0 0 0 2799576.6959228516 3559489.3340234635 0 3559489.3340234635 304221.86050674506 0 0 0 0 2068811.5730133057 216428.8780933111 0 216428.8780933111 -2507548.9487253064 0 0 0 0 3155228.8967895508 -1124767.1050901422 0 -1124767.1050901422 -436486.58583809226 0 0 0 0 -295137.1241607666 399263.67194355652 0 399263.67194355652 -1106719.5217388663 0 0 0 0 15183309.449893951 10206905.52789475 0 10206905.52789475 1573603.9774815813 0 0 0 0 189851.06912994385 -719734.57168185257 0 -719734.57168185257 -1938770.4571312 0 0 0 0 1722869.9772109985 2916344.7883067662 0 2916344.7883067662 916583.06584786624 0 0 0 0 1414925.578414917 -2283732.6498985589 0 -2283732.6498985589 6983.4771759651048 0 0 0 0 16879.958356559277 6258.3257447425276 0 6258.3257447425276 -4094.3456593582623 0 0 0 0 -167658.83279800415 2795837.1516000116 0 2795837.1516000116 909641.52442470565 0 0 0 0 666967.68434143066 439195.28009203263 0 439195.28009203263 -2545010.0488465168 0 0 0 0 12804.559740900993 4722.9209583438933 0 4722.9209583438933 -4137.1303722859784 0 0 0 0 3013180.4284362793 1801634.075776923 0 1801634.075776923 -5796536.2972273696 0 0 0 0 24669492.322387695 11070445.180519041 0 11070445.180519041 1572136.1185207956 0 0 0 0 922185.70252990723 1686745.7436720799 0 1686745.7436720799 -2761704.727156749 0 0 0 0 456749.97131347656 1211052.3746746778 0 1211052.3746746778 -4149169.6915792078 0 0 0 0 -1591214.776720047 428043.18267675582 0 428043.18267675582 -3342447.4494708013 0 0 0 0 1112281.1718139648 1684902.0650953287 0 1684902.0650953287 -3596671.7159593836 0 0 0 0 -9230.9175415039062 800205.3848897852 0 800205.3848897852 -838865.68250457197 0 0 0 0 173622.65701258183 234364.40989042819 0 234364.40989042819 -212306.34723011212 0 0 0 0 718783.00192642212 619628.89871183236 0 619628.89871183236 -4722219.8214593902 0 0 0 0 19713524.313369751 -44318459.618362911 0 -44318459.618362911 -13465200.736916482 0 0 0 0 20920455.627975464 -1380452.5787045136 0 -1380452.5787045136 97391.338244825602 0 0 0 0 -39730.056899145246 -85246.768405122682 0 -85246.768405122682 119246.2923044724 0 0 0 0 57524973.792419434 1180410.8005933166 0 1180410.8005933166 -505884.48233410716 0 0 0 0 260033.71994095296 -25193.974053498358 0 -25193.974053498358 89170.226909579433 0 0 0 0 1546275.6391601562 -1794603.9594393997 0 -1794603.9594393997 -10567299.109602731 0 0 0 0 54751.481959417462 60861.148155666888 0 60861.148155666888 -61623.475901150116 0 0 0 0 2442122.126953125 3270175.9601438413 0 3270175.9601438413 -5777560.2874071971 0 0 0 0 66898.398193359375 501715.13087487966 0 501715.13087487966 -12754.784562200308 0 0 0 0 1106911.8505554199 2315860.0036333352 0 2315860.0036333352 2029264.9421957135 0 0 0 0 3046144.5102539062 1439187.2316319644 0 1439187.2316319644 886895.02034083754 0 0 0 0 2986768.861114502 1308059.5391448978 0 1308059.5391448978 1859781.3123753816 0 0 0 0 6184198.1228027344 5260601.8209138364 0 5260601.8209138364 3340339.6508979835 0 0 0 0 5178380.9951782227 5388777.2043105662 0 5388777.2043105662 5150715.6653321981 0 0 0 0 8720305.6656494141 3485974.3431222774 0 3485974.3431222774 -240354.61143402755 0 0 0 0 7562451.4216003418 3034281.388638556 0 3034281.388638556 -1665088.0821847022 0 0 0 0 9979318.1970977783 5353076.507664945 0 5353076.507664945 -349763.48204508424 0 0 0 0 7525568.4521789551 3317436.1934929565 0 3317436.1934929565 -2603622.3966419697 0 0 0 0 4446559.8642425537 2035678.2822441105 0 2035678.2822441105 -802376.01824009418 0 0 0 0 3160821.7158966064 1434194.9276200272 0 1434194.9276200272 -3032548.8832411915 0 0 0 0 -414756.94610595703 1504503.5931756496 0 1504503.5931756496 687508.99119735509 0 0 0 0 4432711.8319091797 3789109.7838243395 0 3789109.7838243395 476093.09518708289 0 0 0 0 -40296447.75402832 22230042.576971695 0 22230042.576971695 11776112.674595773 0 0 0 0 4188105.9617705345 3693924.851917054 0 3693924.851917054 -1820359.1666458398 0 0 0 0 2449785.6945811808 -920097.1449043937 0 -920097.1449043937 18048.502080416336 0 0 0 0 3987319.8906822205 504893.14843684249 0 504893.14843684249 -5136855.8032387495 0 0 0 0 318699.13681340218 368309.89412561245 0 368309.89412561245 -269022.33785580704 0 0 0 0 5065504.1563720703 5835389.1667852998 0 5835389.1667852998 -2971890.088767916 0 0 0 0 6935093.4042053223 2327553.864125818 0 2327553.864125818 -3590608.7389011085 0 0 0 0 9569579.9600219727 3377269.2400058806 0 3377269.2400058806 -5836055.3930759728 0 0 0 0 10932414.193389893 3204514.0928332731 0 3204514.0928332731 -4130687.8668494821 0 0 0 0 9457444.9908981323 3587759.4841990545 0 3587759.4841990545 -3578897.9624790847 0 0 0 0 9006873.0380859375 4275678.5485883057 0 4275678.5485883057 -2285405.0029283762 0 0 0 0 6053790.8159637451 3711653.5666787326 0 3711653.5666787326 -2024730.8358139694 0 0 0 0 -10639486.685134888 -22660476.775967553 0 -22660476.775967553 11730238.929318786 0 0 0 0 52539950.023773193 -34734318.469254255 0 -34734318.469254255 -11161382.071239203 0 0 0 0 23344503.973342896 -4334653.9025257826 0 -4334653.9025257826 18021382.780553639 0 0 0 0 1178113.6267445832 -480207.42128165439 0 -480207.42128165439 350060.56174097792 0 0 0 0 -388740.49508666992 1516960.8325867578 0 1516960.8325867578 -377086.250232324 0 0 0 0 7371349.6150093079 46356662.6266945 0 46356662.6266945 -17456078.872891068 0 0 0 0 100874270.25619507 -11828429.385655612 0 -11828429.385655612 -37826120.483648673 0 0 0 0 -37906886.272140503 37657482.287661478 0 37657482.287661478 77632366.811886787 0 0 0 0 -40982969.744781494 -36644553.888614945 0 -36644553.888614945 75962571.856413066 0 0 0 0 72575520.206008911 -72081804.52176623 0 -72081804.52176623 44964325.892955601 0 0 0 0 -6753926.7945556641 -102901.9265877977 0 -102901.9265877977 36544637.717981279 0 0 0 0 43906.424184121192 153927.78716861457 0 153927.78716861457 188915.38530462008 0 0 0 0 9442808.6170349121 -12509272.190039754 0 -12509272.190039754 -10500476.014556587 0 0 0 0 12229904.866271973 47803081.985290021 0 47803081.985290021 12143056.229736388 0 0 0 0 14693330.045940399 16051957.923350073 0 16051957.923350073 -77588511.893104851 0 0 0 0 401845.96329495311 -1183112.7516937172 0 -1183112.7516937172 -117931.96560861629 0 0 0 0 3102162.3444519043 -364905.27842485905 0 -364905.27842485905 -6628150.0993564725 0 0 0 0 5093262.4451778233 -2487187.393719417 0 -2487187.393719417 -733705.75563161983 0 0 0 0 4365561.3191441149 267838.26100498065 0 267838.26100498065 -1016940.9958147807 0 0 0 0 88633898.047515869 -59335015.69286631 0 -59335015.69286631 -87999349.228624374 0 0 0 0 -2610082.6968078613 -36514589.008720875 0 -36514589.008720875 83914553.015664697 0 0 0 0 7073446.7074033469 -2413331.2476083972 0 -2413331.2476083972 -60869.658266410697 0 0 0 0 -16822411.748245239 -24552702.309084177 0 -24552702.309084177 172242052.13681126 0 0 0 0 10948369.255783081 -30712453.716462612 0 -30712453.716462612 66403482.530296326 0 0 0 0 8464467.9863891602 3835518.8723393679 0 3835518.8723393679 -3211126.0843662284 0 0 0 0 3514897.2083778381 -582849.31420226395 0 -582849.31420226395 -4154455.1544787884 0 0 0 0 6814926.3482556865 -409991.73027611524 0 -409991.73027611524 -696135.42855853238 0 0 0 0 9538318.7178955078 3997507.1663798094 0 3997507.1663798094 -3297724.9790073633 0 0 0 0 10400288.018188477 4289358.3863683045 0 4289358.3863683045 -4395229.3211027384 0 0 0 0 2135959.1909179688 737984.33119320869 0 737984.33119320869 -2798934.3046304584 0 0 0 0 3953760.0732011795 -827941.19252459705 0 -827941.19252459705 -274008.47111307952 0 0 0 0 -38115746.36227417 -42394603.801081136 0 -42394603.801081136 -25472949.058152981 0 0 0 0 19788519.366210938 -29080980.722371221 0 -29080980.722371221 29773847.698608875 0 0 0 0 20125803.319412231 -29614853.593171597 0 -29614853.593171597 25531124.50346601 0 0 0 0 4669869.1515403688 -552991.80065107998 0 -552991.80065107998 -1474994.614388946 0 0 0 0 7409258.9609985352 -2947597.1042546034 0 -2947597.1042546034 -7007112.1434936523 0 0 0 0 7635690.8578226119 912618.38793506566 0 912618.38793506566 -3184747.8510505869 0 0 0 0 7200352.7667511553 -2811138.7647189423 0 -2811138.7647189423 -3018371.1062562261 0 0 0 0 12616234.122619629 1809078.6255074143 0 1809078.6255074143 -4121911.6137489527 0 0 0 0 13306501.634918213 2011886.7159910202 0 2011886.7159910202 -3739410.6632759422 0 0 0 0 9307019.7744407654 2287826.8134192005 0 2287826.8134192005 -3596564.1488600075 0 0 0 0 10507321.568695068 3086489.9919521362 0 3086489.9919521362 -3834745.691948384 0 0 0 0 15608635.431488037 -260212.80612651259 0 -260212.80612651259 -4357474.4984873608 0 0 0 0 14407043.809677124 2321148.0936123058 0 2321148.0936123058 -4529247.7571989596 0 0 0 0 9424007.2448534966 -1080987.2094857804 0 -1080987.2094857804 -4246154.2177859508 0 0 0 0 12786128.969189167 -935190.21423446015 0 -935190.21423446015 -2978041.9132387042 0 0 0 0 9492475.6594848633 -1045866.3313626051 0 -1045866.3313626051 -13826333.157968163 0 0 0 0 3477475.3186035156 708026.70430451632 0 708026.70430451632 -3376292.8701167107 0 0 0 0 6238693.5369415283 2935559.3010718822 0 2935559.3010718822 -9342874.4213678837 0 0 0 0 -554605.54260253906 264475.40762853622 0 264475.40762853622 -13965378.699935675 0 0 0 0 3505553.1651611328 -3314046.1028137207 0 -3314046.1028137207 -2583084.0777800083 0 0 0 0 3497340.3895874023 -3287942.9674272537 0 -3287942.9674272537 -845979.10230195522 0 0 0 0 45001942.003723145 18339102.318417549 0 18339102.318417549 -30883734.58795166 0 0 0 0 7321497.2585026771 2755791.5236794576 0 2755791.5236794576 -4944307.886897251 0 0 0 0 -28771.676189959049 213421.88713326911 0 213421.88713326911 -211599.42144066066 0 0 0 0 16662832.122433601 754272.19219507277 0 754272.19219507277 -3452680.848373102 0 0 0 0 28631651.383102417 -11794076.735966682 0 -11794076.735966682 -7394877.6843719482 0 0 0 0 23081669.812333047 5570957.1411541849 0 5570957.1411541849 -7227696.5627433555 0 0 0 0 19753232.084960938 -7852694.8352279663 0 -7852694.8352279663 -5696847.6606831551 0 0 0 0 22096755.467285156 -12169426.933685303 0 -12169426.933685303 -6779458.5431365967 0 0 0 0 12596876.055396393 -7362492.5360465636 0 -7362492.5360465636 -4306746.8267639317 0 0 0 0 1022604.3702594265 -6096.3458026200533 0 -6096.3458026200533 -744000.58701324183 0 0 0 0 26517588.385681152 23849615.721445084 0 23849615.721445084 -25960884.42016983 0 0 0 0 19768055.864379883 33294623.261865616 0 33294623.261865616 -107648976.12430859 0 0 0 0 26403639.832681879 1641522.5799603274 0 1641522.5799603274 -5873962.9671313744 0 0 0 0 -14083971.875579834 64326394.165205002 0 64326394.165205002 -82403679.724918365 0 0 0 0 24204134.18762207 8348198.7595291138 0 8348198.7595291138 -76820527.926420212 0 0 0 0 9262630.5823974609 -24414632.340215683 0 -24414632.340215683 -53918579.94052887 0 0 0 0 9057408.8017578125 29848181.918822289 0 29848181.918822289 -61815507.278465271 0 0 0 0 18957964.247558594 11633279.076309204 0 11633279.076309204 -32741737.508956909 0 0 0 0 3838428.9162597656 20748702.348918915 0 20748702.348918915 -20257363.405097961 0 0 0 0 2156283.1788330078 24306395.521648407 0 24306395.521648407 -23384508.540115356 0 0 0 0 -104170.25506591797 21744719.995983124 0 21744719.995983124 -16825255.346920013 0 0 0 0 -3905356.755065918 29709715.260616302 0 29709715.260616302 -32605774.831700325 0 0 0 0 -146707.41986083984 28225501.430852413 0 28225501.430852413 -32365064.442661285 0 0 0 0 10627909.168548584 19137779.151842117 0 19137779.151842117 -2749774.1402206421 0 0 0 0 -1003269.060127452 830916.81189157069 0 830916.81189157069 156781.73432982992 0 0 0 0 -39919646.70016098 42798775.394176424 0 42798775.394176424 -7053648.4009094238 0 0 0 0 -18457916.529907227 22252853.00658989 0 22252853.00658989 11223035.708272219 0 0 0 0 -13633951.213790894 32619150.743102074 0 32619150.743102074 -3941905.4974708557 0 0 0 0 968672.86578369141 18587009.479766846 0 18587009.479766846 -14444001.686576843 0 0 0 0 -9846982.9832763672 27792017.617084503 0 27792017.617084503 1795620.6274261475 0 0 0 0 -2196359.282989502 27005942.519277096 0 27005942.519277096 1780399.8098526001 0 0 0 0 -4040134.2410888672 16713168.361333847 0 16713168.361333847 4620660.0162262917 0 0 0 0 -9194571.5659637451 15831858.435635567 0 15831858.435635567 4486390.7182617188 0 0 0 0 -11087079.99798584 15905995.529169083 0 15905995.529169083 10281838.100965261 0 0 0 0 -16924776.786727905 11668994.867977619 0 11668994.867977619 8129311.7105674744 0 0 0 0 45697418.601119995 2341472.1162146628 0 2341472.1162146628 1497916.9489250183 0 0 0 0 46920877.238769531 16595943.524545193 0 16595943.524545193 -135587.7798614502 0 0 0 0 -17311165.150939941 33781505.815090656 0 33781505.815090656 9931023.4089038372 0 0 0 0 7498264.4540174976 -233534.54302094877 0 -233534.54302094877 -2125678.868921754 0 0 0 0 4575763.8494044058 3363943.9783889726 0 3363943.9783889726 -2908844.3101940202 0 0 0 0 16612292.951812744 -43062.909900844097 0 -43062.909900844097 -4709709.1958304495 0 0 0 0 23449042.942749023 -5884056.19120121 0 -5884056.19120121 -4492657.2343559265 0 0 0 0 -38959934.047607422 -3380678.9769420624 0 -3380678.9769420624 24164836.624427795 0 0 0 0 33180747.424621582 11838528.111170292 0 11838528.111170292 -96943.229067802429 0 0 0 0 5612670.0723224469 -763753.27052735537 0 -763753.27052735537 -2978899.9063545861 0 0 0 0 18083747.627105713 -441243.83821948618 0 -441243.83821948618 -4762419.0571146607 0 0 0 0 13802243.603782654 -3541211.0936617497 0 -3541211.0936617497 -2783962.4875887334 0 0 0 0 -6049905.5629882812 8176925.7782449722 0 8176925.7782449722 -7728459.4875717163 0 0 0 0 -850069.34865797311 2575245.9769714363 0 2575245.9769714363 134615.02655721409 0 0 0 0 -7803493.5853271484 9454342.6610908508 0 9454342.6610908508 1966988.3654270172 0 0 0 0 -9823578.877746582 13309876.982203484 0 13309876.982203484 1261602.088316679 0 0 0 0 4896656.6211547852 7230597.862215519 0 7230597.862215519 372688.34398651123 0 0 0 0 -5542982.4846191406 13073900.553106308 0 13073900.553106308 -8494959.9312820435 0 0 0 0 -16988431.190704346 3107785.0852365494 0 3107785.0852365494 4253391.5698642731 0 0 0 0 1501978.87656473 5516626.5420314744 0 5516626.5420314744 -1311742.6319044745 0 0 0 0 554184.43913308904 -299571.66030657291 0 -299571.66030657291 -251138.6100541912 0 0 0 0 -350204863.34722519 179069699.21200958 0 179069699.21200958 -24410541.806182384 0 0 0 0 3123412.7697753906 1776590.9794006348 0 1776590.9794006348 189738.90101623535 0 0 0 0 33083039.792251587 5214289.2695994377 0 5214289.2695994377 799670.9320602417 0 0 0 0 555078.52027605474 4842328.336315833 0 4842328.336315833 -3055761.3165298328 0 0 0 0 -323768528.94033813 86486702.290819168 0 86486702.290819168 -50124652.483389974 0 0 0 0 20839395.901596069 -5756185.706617754 0 -5756185.706617754 -2652351.3457897902 0 0 0 0 23109624.027004242 1305946.1370693166 0 1305946.1370693166 -4561969.0798021704 0 0 0 0 19770376.59576416 1822556.3362910897 0 1822556.3362910897 -2438154.5533235669 0 0 0 0 19783652.650239289 4897030.3976546228 0 4897030.3976546228 -2514539.6258038133 0 0 0 0 14138533.831573486 3380711.1699648499 0 3380711.1699648499 -3330245.849155888 0 0 0 0 14101821.607421875 3373894.4625926837 0 3373894.4625926837 -2704540.8704720885 0 0 0 0 11113286.338806152 3705274.6218045056 0 3705274.6218045056 -3079242.6029752418 0 0 0 0 14313919.915115356 3044373.3161973385 0 3044373.3161973385 -4351868.9489659369 0 0 0 0 14150370.153375626 2069024.4945866764 0 2069024.4945866764 -4221798.8901345432 0 0 0 0 16884605.789398193 179732.99989131093 0 179732.99989131093 -4730992.1490727738 0 0 0 0 18216635.655563354 2611846.8524867892 0 2611846.8524867892 -4448499.2049589455 0 0 0 0 3294780959.7346039 266877201.35334498 0 266877201.35334498 -627807279.85840011 0 0 0 0 4089330780.4526753 1882759177.4023504 0 1882759177.4023504 -124746400.30609405 0 0 0 0 2730927319.2875862 1426810231.34777 0 1426810231.34777 -439253951.85940319 0 0 0 0 5593265.3196640164 824262.31978899613 0 824262.31978899613 -2088512.52930377 0 0 0 0 2552899361.7687988 283526001.05327576 0 283526001.05327576 2560258.8724120273 0 0 0 0 2502186370.8900757 474413111.21227574 0 474413111.21227574 -400470685.34596974 0 0 0 0 3242772096.5399475 119702438.88006938 0 119702438.88006938 -302264016.42442715 0 0 0 0 3924012.3120093122 934128.08311553672 0 934128.08311553672 -787377.79172463634 0 0 0 0 3557625266.5398998 -933403760.08697426 0 -933403760.08697426 -23715177.258919835 0 0 0 0 2317773471.9691315 -627098642.73212934 0 -627098642.73212934 1972308.653203845 0 0 0 0 2301578564.1421661 -357353869.17154467 0 -357353869.17154467 -303443987.90359163 0 0 0 0 2526215.5081379861 326748.19217914343 0 326748.19217914343 -952835.90424659953 0 0 0 0 1714093994.1047974 -671902270.37208438 0 -671902270.37208438 -1363644731.6048398 0 0 0 0 1471198402.4726105 682087789.12299061 0 682087789.12299061 344012693.33520782 0 0 0 0 2932043313.332428 2127598578.1240535 0 2127598578.1240535 796071228.53333664 0 0 0 0 1393320496.624054 76573040.941422462 0 76573040.941422462 -280193668.57324314 0 0 0 0 447287574.84411621 -969565488.00927448 0 -969565488.00927448 -379816431.85517538 0 0 0 0 574856475.80641937 -376896590.9223305 0 -376896590.9223305 -148109380.65636492 0 0 0 0 3029742.6729937196 3305859.4752958342 0 3305859.4752958342 2101573.5829120162 0 0 0 0 -92226380.45085144 328778130.31890732 0 328778130.31890732 319039540.93412352 0 0 0 0 -15185523.253807068 13762295.459840225 0 13762295.459840225 16248982.520112138 0 0 0 0 26145008.137138367 -11299745.026341118 0 -11299745.026341118 -12926655.576970413 0 0 0 0 1209252999.6463928 -131592308.3571865 0 -131592308.3571865 14561981.42615658 0 0 0 0 1186064115.8690491 21002935.985846758 0 21002935.985846758 -135214156.95433804 0 0 0 0 4269659.0661994666 2622074.2713905312 0 2622074.2713905312 802581.34512940771 0 0 0 0 -5598060.2534637451 7137557.0019849809 0 7137557.0019849809 -5106.0036127405065 0 0 0 0 11566613.160102844 8051222.1233524429 0 8051222.1233524429 3190.4895512836561 0 0 0 0 1503464.7775802612 -685165.06936625205 0 -685165.06936625205 -1780851.8662018534 0 0 0 0 10963165.27406311 6385930.170512151 0 6385930.170512151 -6591472.3791840058 0 0 0 0 10920074.987167358 6000655.9444694836 0 6000655.9444694836 808757.56415890902 0 0 0 0 36153623.603240967 724511.49298524624 0 724511.49298524624 -11004397.277004022 0 0 0 0 21359372.719848633 -6585315.6794571038 0 -6585315.6794571038 -2891417.2637341125 0 0 0 0 23723206.118392944 3839603.7322020936 0 3839603.7322020936 -5246098.443377859 0 0 0 0 756162.88858986832 99219.41568210721 0 99219.41568210721 22064.417678384205 0 0 0 0 24868404.32824707 -3233301.2942736754 0 -3233301.2942736754 -11983.076944986484 0 0 0 0 19912421.306404114 425655.4495566223 0 425655.4495566223 -2710113.1666798317 0 0 0 0 40004076.119384766 2795463.3049722761 0 2795463.3049722761 -6072231.6043438492 0 0 0 0 33555087.291381836 846010.82129400037 0 846010.82129400037 -3236120.2890777555 0 0 0 0 28734862.314727783 -8820030.2038964592 0 -8820030.2038964592 -6018205.2925597057 0 0 0 0 34052380.582275391 1027914.68404764 0 1027914.68404764 7826938.8469367158 0 0 0 0 75219810.077331543 -25871500.169955358 0 -25871500.169955358 25282629.421827111 0 0 0 0 42153879.338012695 18458383.916576851 0 18458383.916576851 -1780939.6841464946 0 0 0 0 -638002.83896255493 9224641.1421925202 0 9224641.1421925202 -3761065.1349581629 0 0 0 0 90798.39936517179 -4958.212994620204 0 -4958.212994620204 25120.284433711269 0 0 0 0 39272760.323303223 -12602500.298804924 0 -12602500.298804924 1210220.3778876057 0 0 0 0 64108324.016235352 -27498332.737283859 0 -27498332.737283859 2207775.2638397738 0 0 0 0 47283575.286300659 18936496.514236566 0 18936496.514236566 9021292.6359996125 0 0 0 0 7904797.4917297363 5394166.6961642019 0 5394166.6961642019 4642044.1412195861 0 0 0 0 1085947.0555664273 237052.77288558334 0 237052.77288558334 38061.199905804453 0 0 0 0 -1023630.6063537598 1435819.6682757512 0 1435819.6682757512 21557426.030165866 0 0 0 0 458692.81609764695 -57354.548325058073 0 -57354.548325058073 -301368.60527746449 0 0 0 0 31097418.99962616 -13453931.715560243 0 -13453931.715560243 -454379.10678072274 0 0 0 0 3222026.9859313965 6589256.7274309695 0 6589256.7274309695 -3749960.3092343882 0 0 0 0 2659568.1753144739 454072.73479581624 0 454072.73479581624 -683597.67467537848 0 0 0 0 843874.60275268555 2546639.5352900028 0 2546639.5352900028 -1359458.6933138371 0 0 0 0 479417.02402199805 872869.05656200647 0 872869.05656200647 594108.11807530501 0 0 0 0 20163459.787891388 -24173838.373312846 0 -24173838.373312846 6029601.9560843706 0 0 0 0 23130292.559295654 5050179.2700131387 0 5050179.2700131387 -7639090.1287017055 0 0 0 0 35508616.743927002 -38654381.158169962 0 -38654381.158169962 10240121.541482259 0 0 0 0 4833168.9404602051 -650438.13017019629 0 -650438.13017019629 96064.772998601198 0 0 0 0 -812315.48037719727 5947824.9661271572 0 5947824.9661271572 487373.37003159523 0 0 0 0 58244578.75 -22692238.040982097 0 -22692238.040982097 14075214.624062479 0 0 0 0 242382.89263924956 495794.62831082568 0 495794.62831082568 446653.07062206301 0 0 0 0 -928888.75384306908 -1472218.0226227408 0 -1472218.0226227408 670243.96376919746 0 0 0 0 -577345.81522971392 -122132.93996991962 0 -122132.93996991962 503533.32121610478 0 0 0 0 2312554.7484224206 1801005.1420372501 0 1801005.1420372501 1085645.9622919664 0 0 0 0 -1693875.6445636749 665636.40034416318 0 665636.40034416318 5302557.4994750321 0 0 0 0 5834100.9107208252 6042113.1885557473 0 6042113.1885557473 251597.26917898655 0 0 0 0 -7012182.4516963959 5765267.5010888409 0 5765267.5010888409 13267163.621781647 0 0 0 0 13600913.622447968 19776011.407049786 0 19776011.407049786 -11410966.243584692 0 0 0 0 5658584.8183288574 8526380.8624819368 0 8526380.8624819368 217336.30761836469 0 0 0 0 6190609.0317382812 4100713.8394050449 0 4100713.8394050449 10149199.834435731 0 0 0 0 7425338.4150085449 -5016678.5510325432 0 -5016678.5510325432 -22835876.709515333 0 0 0 0 9277492.7764549255 1549559.510082297 0 1549559.510082297 -7988817.7435860634 0 0 0 0 5982476.1669247299 -2284194.0205044858 0 -2284194.0205044858 122722.17857841088 0 0 0 0 -29745290.194122314 -47358269.642452717 0 -47358269.642452717 469320628.27456832 0 0 0 0 637659.83779974282 306811.8560229037 0 306811.8560229037 -237765.45614394615 0 0 0 0 159690787.49282074 -482075243.54528368 0 -482075243.54528368 1535517003.473526 0 0 0 0 190630.73654799815 -76279.717864148319 0 -76279.717864148319 73948.157746108249 0 0 0 0 5911925.450050354 2282391.7640886307 0 2282391.7640886307 -5476522.4355778694 0 0 0 0 1496124.1340254243 981813.77338665724 0 981813.77338665724 -447536.18468158954 0 0 0 0 347360067.41603088 -162556742.73262346 0 -162556742.73262346 -13005100.752428293 0 0 0 0 295249655.354146 -169177154.68798622 0 -169177154.68798622 91271004.12663126 0 0 0 0 196933885.81607056 -208680045.4800663 0 -208680045.4800663 153277036.96319103 0 0 0 0 198962059.27346802 -178490656.85093832 0 -178490656.85093832 591497024.73825026 0 0 0 0 1036555778.1534424 -270043184.27722645 0 -270043184.27722645 -201485810.70056057 0 0 0 0 -34671016.529312134 -38041134.437829494 0 -38041134.437829494 173804570.35790467 0 0 0 0 392136611.48448944 -74564071.182352483 0 -74564071.182352483 158190792.1338793 0 0 0 0 420712038.83733368 185422951.21260321 0 185422951.21260321 307147815.12745404 0 0 0 0 -117345529.17735481 -130594317.86525032 0 -130594317.86525032 226325120.01422405 0 0 0 0 594571796.37814331 93209121.637828827 0 93209121.637828827 -33726516.781913459 0 0 0 0 909501185.0259552 -149767257.70141912 0 -149767257.70141912 -178875032.50615501 0 0 0 0 2010685.9264204279 143570.32988063991 0 143570.32988063991 -884492.84717194038 0 0 0 0 1149373177.8359966 800895127.62351418 0 800895127.62351418 451426236.69679904 0 0 0 0 1131762144.4684258 1067000304.4762168 0 1067000304.4762168 -65272672.357443094 0 0 0 0 1690533917.2400513 791627971.64856195 0 791627971.64856195 -204803614.70030648 0 0 0 0 3839797.2829687297 832764.22264837101 0 832764.22264837101 -2199023.9068130599 0 0 0 0 389565012.9228363 466729554.40853763 0 466729554.40853763 544529100.36318922 0 0 0 0 486079887.81636047 209996841.93089223 0 209996841.93089223 249915405.55846477 0 0 0 0 156234762.85902405 71637520.241567612 0 71637520.241567612 283459627.61638832 0 0 0 0 312634077.77749634 205286180.66260141 0 205286180.66260141 196058291.2129271 0 0 0 0 175258851.93200684 102438142.08738804 0 102438142.08738804 -80759931.39885664 0 0 0 0 -75707288.244308472 158108212.58899236 0 158108212.58899236 196072206.69099313 0 0 0 0 247539997.64763641 260941390.59721947 0 260941390.59721947 -212864126.35696173 0 0 0 0 187752802.7722168 199123157.28299606 0 199123157.28299606 379228653.43884134 0 0 0 0 2041789.7555420995 777249.2726341933 0 777249.2726341933 -1434709.5018042447 0 0 0 0 294874909.30887985 488724296.66733754 0 488724296.66733754 323126446.55619001 0 0 0 0 108348233.51290131 228087354.63032675 0 228087354.63032675 226327667.6573844 0 0 0 0 1545022982.7942886 2388115530.6276522 0 2388115530.6276522 2120330871.4674854 0 0 0 0 4088312504.146286 1975368693.369894 0 1975368693.369894 -355527162.07470989 0 0 0 0 4083780944.0085144 1979548198.4299066 0 1979548198.4299066 -353171308.3305732 0 0 0 0 739303506.12341309 -22810743.785940051 0 -22810743.785940051 -229881049.61452815 0 0 0 0 3297589163.5647964 1528988479.4222496 0 1528988479.4222496 315650418.52460885 0 0 0 0 1720239606.981987 627331462.48388994 0 627331462.48388994 -103514888.83253741 0 0 0 0 1483537476.7970486 670526678.49482965 0 670526678.49482965 -92474835.53551054 0 0 0 0 5754384.6412040368 1458970.5503475703 0 1458970.5503475703 -2415736.8923814837 0 0 0 0 2616517651.8104095 -924910869.95256782 0 -924910869.95256782 -540744033.70703351 0 0 0 0 2422542085.6103096 -560303631.97538805 0 -560303631.97538805 -351435154.56159139 0 0 0 0 4095996695.7777786 -1605550998.4018548 0 -1605550998.4018548 -255917327.16378784 0 0 0 0 4086496545.8674421 -2988995033.8538265 0 -2988995033.8538265 1826750005.2150605 0 0 0 0 7188065.5480173603 592669.20179380476 0 592669.20179380476 1837245.5532633483 0 0 0 0 1568570607.4581833 -1219275562.2788043 0 -1219275562.2788043 588456837.83866215 0 0 0 0 1572863010.1087213 -797506294.77675354 0 -797506294.77675354 222371208.1040442 0 0 0 0 16943479.786368929 3801772.7503960114 0 3801772.7503960114 1499264.0173801146 0 0 0 0 -71841593.338775635 498936787.96644831 0 498936787.96644831 -329575851.06339622 0 0 0 0 -159509154.11842728 22464617.71503675 0 22464617.71503675 -99511001.562878132 0 0 0 0 486735753.77599895 95460802.635992765 0 95460802.635992765 -250222809.00755751 0 0 0 0 508940880.3690033 -465410463.52884853 0 -465410463.52884853 290581283.51502806 0 0 0 0 1669882920.3370056 -906444932.58129513 0 -906444932.58129513 204380798.14883527 0 0 0 0 686835265.40643311 -167091724.02731165 0 -167091724.02731165 9535892.0926297903 0 0 0 0 1111391419.1192474 -386881393.81963611 0 -386881393.81963611 44270530.025429487 0 0 0 0 249836512.79512024 -105863627.46172106 0 -105863627.46172106 61667002.222201839 0 0 0 0 44926319.485485077 147968044.02824751 0 147968044.02824751 -176797430.0183402 0 0 0 0 24780888.689051941 6244426.5758502707 0 6244426.5758502707 444313.83938477188 0 0 0 0 387630910.85176086 -281906361.18453389 0 -281906361.18453389 64320219.014584601 0 0 0 0 -23612068.673080444 153125198.20611414 0 153125198.20611414 103839165.22909415 0 0 0 0 33162111.585403442 413386086.80587769 0 413386086.80587769 -718745110.18881202 0 0 0 0 22267521.899623632 5601928.914531799 0 5601928.914531799 889670.98489550129 0 0 0 0 329486605.87591553 192041718.56782913 0 192041718.56782913 -85599702.32367754 0 0 0 0 130465369.01800537 180139051.83269644 0 180139051.83269644 362419834.70266294 0 0 0 0 712122717.34405518 99571888.334460765 0 99571888.334460765 273002341.29238033 0 0 0 0 821267378.23376465 -705216425.61702347 0 -705216425.61702347 1331217173.146142 0 0 0 0 443104129.18450928 -333104641.42000294 0 -333104641.42000294 259470155.19937897 0 0 0 0 392041047.66752625 -93926103.86831665 0 -93926103.86831665 -566769038.32219553 0 0 0 0 -179477266.23773575 98716217.312986016 0 98716217.312986016 -82327329.428866386 0 0 0 0 97840022.668167114 322945283.00271368 0 322945283.00271368 -776723439.33352005 0 0 0 0 -39095304.928909302 -23301850.956909418 0 -23301850.956909418 -233249891.33142418 0 0 0 0 172270444.65803528 -172914553.10145485 0 -172914553.10145485 -201446610.06912136 0 0 0 0 526860620.00646973 -318302224.79564857 0 -318302224.79564857 123186383.15911007 0 0 0 0 51923758.186477661 12921014.13322258 0 12921014.13322258 -68149994.574218273 0 0 0 0 532729494.5848999 -152778067.69504166 0 -152778067.69504166 145188190.4074049 0 0 0 0 -157818166.40207291 144536640.83882326 0 144536640.83882326 1126054249.1259851 0 0 0 0 517321544.67651367 -111434461.2317152 0 -111434461.2317152 385895540.60870171 0 0 0 0 27512094.678359985 17829525.451546192 0 17829525.451546192 182475423.04559088 0 0 0 0 26374724.388946533 -211794565.27225018 0 -211794565.27225018 197680009.32022333 0 0 0 0 91214398.851478577 -144571867.57152605 0 -144571867.57152605 -244953782.16132402 0 0 0 0 12719498.522827148 -52617178.742462158 0 -52617178.742462158 -113200821.5849371 0 0 0 0 25631505.694091827 6098289.4595451262 0 6098289.4595451262 -10066.213409913951 0 0 0 0 33919329.507385254 81630948.239750385 0 81630948.239750385 -402484136.74639142 0 0 0 0 -100796755.97351074 162630926.94840205 0 162630926.94840205 47779558.868366361 0 0 0 0 -184078301.59092712 5176561.3672666624 0 5176561.3672666624 52430562.228508294 0 0 0 0 37100204.899703979 -48483841.693858624 0 -48483841.693858624 -112947299.88723087 0 0 0 0 9594072.9187316895 49727649.772905707 0 49727649.772905707 -111891989.43897486 0 0 0 0 64018373.253189087 134654542.2808041 0 134654542.2808041 -70635380.413128018 0 0 0 0 -137347699.37055206 -134374051.30053532 0 -134374051.30053532 49347523.22423625 0 0 0 0 -125855970.42884254 -135321306.31777155 0 -135321306.31777155 99516980.796830893 0 0 0 0 -119851004.25569153 -22321264.239788055 0 -22321264.239788055 10933375.06011191 0 0 0 0 -352391097.98645401 114958581.49404711 0 114958581.49404711 31060537.95598197 0 0 0 0 4211418.51783574 -770644.2878739275 0 -770644.2878739275 -2060186.0074046487 0 0 0 0 -132523762.773489 -26861293.297480464 0 -26861293.297480464 26014087.141880274 0 0 0 0 -114348392.41435242 -37934521.926517487 0 -37934521.926517487 9392622.1284251213 0 0 0 0 -98765356.288101196 -62190901.634868383 0 -62190901.634868383 30399375.219676256 0 0 0 0 -74747399.32711792 -79016161.305219352 0 -79016161.305219352 231673.81216466427 0 0 0 0 -77417010.245407104 -67838775.22038126 0 -67838775.22038126 -14587277.428377271 0 0 0 0 -18687952.939368248 -134376606.31589752 0 -134376606.31589752 25625967.4199754 0 0 0 0 2060235.4110412598 -115918066.79940353 0 -115918066.79940353 -61357237.768030837 0 0 0 0 -17432160.417602539 -144035734.70704371 0 -144035734.70704371 -26274537.933355331 0 0 0 0 -68262118.0965271 -109557057.25438084 0 -109557057.25438084 44722391.779644251 0 0 0 0 -65070390.364421844 -136081588.61332074 0 -136081588.61332074 99475108.328086376 0 0 0 0 -72319591.076858521 -101620992.7658 0 -101620992.7658 37963463.713878632 0 0 0 0 -150725254.34526062 -23221912.032030344 0 -23221912.032030344 46335549.059240341 0 0 0 0 -112599217.8360858 -72998995.098507583 0 -72998995.098507583 79273386.856898785 0 0 0 0 55154564.784088135 -103049375.08944619 0 -103049375.08944619 61846410.643817425 0 0 0 0 54233929.282333374 -167520091.60865223 0 -167520091.60865223 140803389.48638511 0 0 0 0 55438644.709411621 -39264724.187251568 0 -39264724.187251568 198273564.43337983 0 0 0 0 56217634.104011536 -153792782.54797447 0 -153792782.54797447 25878247.347776055 0 0 0 0 -35568725.106506348 -231470257.225795 0 -231470257.225795 -40225150.824816138 0 0 0 0 -30301814.718734741 -132304916.97713551 0 -132304916.97713551 77879402.705754325 0 0 0 0 300088244.37976074 11238300.460952044 0 11238300.460952044 61289613.401504628 0 0 0 0 255081221.85745239 39571028.713281453 0 39571028.713281453 216977752.99041247 0 0 0 0 298475028.48230553 -29805012.828903109 0 -29805012.828903109 132418762.77343273 0 0 0 0 982253583.90029144 -136213132.9227525 0 -136213132.9227525 30113326.987324178 0 0 0 0 150185729.6242218 -101738839.9997797 0 -101738839.9997797 17363072.742420197 0 0 0 0 271769920.88970184 28083344.257448673 0 28083344.257448673 48568592.209597349 0 0 0 0 437770074.29303741 42884890.056846321 0 42884890.056846321 119167042.83338296 0 0 0 0 1957375654.4283333 -119623969.06946892 0 -119623969.06946892 -220312956.10744667 0 0 0 0 1086007231.5402298 113440648.8286494 0 113440648.8286494 -13809595.865531087 0 0 0 0 1053234646.8224564 166845966.41905582 0 166845966.41905582 65544802.158007622 0 0 0 0 1164162441.7401657 316455.39440274239 0 316455.39440274239 -47748504.054876596 0 0 0 0 877806340.25473022 154959593.54313764 0 154959593.54313764 -18279370.01616732 0 0 0 0 806265719.59501648 420827802.42308575 0 420827802.42308575 189743763.19924244 0 0 0 0 2092318861.4963989 505717075.46121573 0 505717075.46121573 -152826872.89699292 0 0 0 0 2103589757.3505316 361505622.24266148 0 361505622.24266148 -278238994.21753597 0 0 0 0 3301072918.9424438 884998543.72868216 0 884998543.72868216 -397962259.81499714 0 0 0 0 2837778825.647171 690638412.13668048 0 690638412.13668048 -206389300.97262135 0 0 0 0 4095410404.2576675 646637118.55546367 0 646637118.55546367 -515719433.52283293 0 0 0 0 3577950563.9169102 222061036.45001966 0 222061036.45001966 -845423636.19460237 0 0 0 0 4093892427.4021301 331963668.11812145 0 331963668.11812145 -913613081.8700366 0 0 0 0 3287748679.4929352 -81087866.912954167 0 -81087866.912954167 -752315347.68108201 0 0 0 0 2822920959.3888397 -225970413.57086331 0 -225970413.57086331 -790307247.21949542 0 0 0 0 2094642445.7374992 -555706537.79905605 0 -555706537.79905605 -290033486.63545442 0 0 0 0 4094373413.5312028 -690012470.3450247 0 -690012470.3450247 -843843216.99075305 0 0 0 0 3326323.7957458496 -23050420.500777245 0 -23050420.500777245 -44604653.818589851 0 0 0 0 30245824.36101532 -20856902.725330353 0 -20856902.725330353 -70794803.576044083 0 0 0 0 14570703.266674686 -700840.52890407667 0 -700840.52890407667 -6381076.2992003905 0 0 0 0 2584357.245225206 -3012447.6118640788 0 -3012447.6118640788 -2890731.0567182153 0 0 0 0 -55884573.866226196 -102124263.91941953 0 -102124263.91941953 13689044.706987381 0 0 0 0 13843557.528045654 -34047289.296240807 0 -34047289.296240807 5804523.9513947964 0 0 0 0 45439958.2159729 -8718993.9368848205 0 -8718993.9368848205 -6910464.8213510513 0 0 0 0 -80494713.504516602 18728069.010299683 0 18728069.010299683 -584028.26942563057 0 0 0 0 117522725.20336914 -18383661.129428864 0 -18383661.129428864 -44489146.697156847 0 0 0 0 -56104994.086700439 -29893074.02947998 0 -29893074.02947998 -3241209.8138418198 0 0 0 0 -49529087.427455902 -56378955.789995939 0 -56378955.789995939 2798276.931388855 0 0 0 0 -72478716.953818321 -56327230.770964973 0 -56327230.770964973 11772109.276696205 0 0 0 0 13853715.82056281 -29023720.828254234 0 -29023720.828254234 -4990223.6575784683 0 0 0 0 -9141272.8284912109 -37343162.784686327 0 -37343162.784686327 -16103428.624245405 0 0 0 0 15716414.296829224 -40825455.163286567 0 -40825455.163286567 -21249425.019778967 0 0 0 0 26923030.149398804 907670.56567955017 0 907670.56567955017 -20051635.058326721 0 0 0 0 37148756.566589355 -21264808.820587158 0 -21264808.820587158 -17201496.734080076 0 0 0 0 16021164.090048535 -4859406.36704107 0 -4859406.36704107 -10671703.460520325 0 0 0 0 15924386.922907226 -68344.226911975071 0 -68344.226911975071 -7164042.1945194043 0 0 0 0 26498397.308624268 -2923186.1776790619 0 -2923186.1776790619 -32611134.349235535 0 0 0 0 22840501.274612427 -10921155.331222534 0 -10921155.331222534 -22287351.69408989 0 0 0 0 15433055.59954071 4911859.1753702164 0 4911859.1753702164 -43038807.903598785 0 0 0 0 10266632.908515424 1728918.3610647516 0 1728918.3610647516 -3525649.2318371898 0 0 0 0 33429929.303619385 13312945.058885574 0 13312945.058885574 -79181041.733507156 0 0 0 0 14349399.279434204 -6941632.1228466034 0 -6941632.1228466034 -8243060.4897241592 0 0 0 0 6073481.5506356061 -3740524.8546668552 0 -3740524.8546668552 -3929554.8740726747 0 0 0 0 21902576.577941895 -23242623.723241806 0 -23242623.723241806 4295001.9366629124 0 0 0 0 20483340.009450912 -38244732.47533977 0 -38244732.47533977 6213368.5822486877 0 0 0 0 10460215.520202637 1788141.4748420715 0 1788141.4748420715 -7825365.924683094 0 0 0 0 8638188.7506968901 -5881059.7678079084 0 -5881059.7678079084 -10266124.783894107 0 0 0 0 14568267.094604492 -5185938.3962454796 0 -5185938.3962454796 -4682213.7488646507 0 0 0 0 32808582.695430756 -27653847.596981525 0 -27653847.596981525 -13225156.227344513 0 0 0 0 21783970.426132202 -15010305.007204056 0 -15010305.007204056 -12506845.232837677 0 0 0 0 13307294.916730013 -3554187.1533297151 0 -3554187.1533297151 -8097854.7510840632 0 0 0 0 34498923.218324661 -22766128.421865225 0 -22766128.421865225 -24533810.213594437 0 0 0 0 29414226.362808228 -11611678.948402405 0 -11611678.948402405 -24924901.437127411 0 0 0 0 26271431.728088379 -2254033.9173793793 0 -2254033.9173793793 -31662926.655284405 0 0 0 0 30553151.120254517 -11920117.247451782 0 -11920117.247451782 -49218704.35635376 0 0 0 0 30471152.81334734 -13328690.325043768 0 -13328690.325043768 -29540004.545379639 0 0 0 0 30356428.036895752 -988410.92802047729 0 -988410.92802047729 -32208836.597724915 0 0 0 0 15077982.68182373 2588253.5354779363 0 2588253.5354779363 19995.269592165947 0 0 0 0 9391717.2119140625 1019998.5323882103 0 1019998.5323882103 -304889.90957069397 0 0 0 0 1778119.685018301 -2341876.1636389159 0 -2341876.1636389159 -4212374.9434973132 0 0 0 0 29745902.468322754 -12927550.18180275 0 -12927550.18180275 -20136213.117492676 0 0 0 0 29841438.836715698 -1224178.2701749802 0 -1224178.2701749802 -19693876.460929871 0 0 0 0 9131895.0576568618 570728.44874447584 0 570728.44874447584 -1044132.5265985313 0 0 0 0 2309798.8496704102 -2584672.053902626 0 -2584672.053902626 -3007154.7810344696 0 0 0 0 12476214.961721517 -3545129.9019836299 0 -3545129.9019836299 -7146687.0916217193 0 0 0 0 7752813.578146264 -65466.448305211961 0 -65466.448305211961 -1095193.5713017744 0 0 0 0 9683136.7524719238 -2471244.8872582912 0 -2471244.8872582912 -3476822.8483097553 0 0 0 0 14004747.896362305 6031452.689385891 0 6031452.689385891 -5820755.4212609679 0 0 0 0 7618287.1913909912 -2317094.8189379573 0 -2317094.8189379573 -3295877.4277610779 0 0 0 0 9112070.380279541 -997690.58452582359 0 -997690.58452582359 -6557718.3788506985 0 0 0 0 4543120.4198760986 -1999779.2724996805 0 -1999779.2724996805 -826220.67765808105 0 0 0 0 8856702.4830136299 -3717368.9703828283 0 -3717368.9703828283 -1365636.0213828087 0 0 0 0 7233962.0078372359 -2721880.9911836721 0 -2721880.9911836721 -4438291.7963729007 0 0 0 0 8975506.8111572266 -831559.53610801697 0 -831559.53610801697 -1670035.9580111504 0 0 0 0 3598800.1860828176 -3310481.8904834166 0 -3310481.8904834166 -3190877.6215853072 0 0 0 0 7136331.1941928267 64644.672624241561 0 64644.672624241561 -1096203.4301799345 0 0 0 0 233775.36186631769 -1843771.0864045247 0 -1843771.0864045247 -1319195.3521466069 0 0 0 0 -576475.04730224609 -2858635.1015853882 0 -2858635.1015853882 8565208.9840698242 0 0 0 0 15183777.508087158 2261171.1389192343 0 2261171.1389192343 -845541.10956954956 0 0 0 0 -73027.103153601289 -2207090.6592517868 0 -2207090.6592517868 -1307734.6535475624 0 0 0 0 6686366.7142028809 290551.13615119457 0 290551.13615119457 -2198951.345887661 0 0 0 0 -4306133.3246459961 -2354853.3305258751 0 -2354853.3305258751 -9692181.4896850586 0 0 0 0 10572051.05957865 -3788753.1552357823 0 -3788753.1552357823 -7776260.2564660395 0 0 0 0 20758420.710997067 -3395398.87382254 0 -3395398.87382254 -15961985.807454921 0 0 0 0 51800688.976348877 -12919673.885176659 0 -12919673.885176659 -10500882.879722595 0 0 0 0 39679628.458343506 -1185314.1617980003 0 -1185314.1617980003 -5531588.1066536903 0 0 0 0 43311680.677154541 -1233162.0580663681 0 -1233162.0580663681 -6406242.4084844589 0 0 0 0 37439929.791248322 -8829172.139976263 0 -8829172.139976263 -6489708.2356448174 0 0 0 0 24421099.105072021 -11431805.382768869 0 -11431805.382768869 -7786379.4718532562 0 0 0 0 29819721.463752747 -16918467.943761587 0 -16918467.943761587 -3780909.3975839615 0 0 0 0 27102244.374973297 -23454902.934995174 0 -23454902.934995174 6782227.8835659027 0 0 0 0 42614531.02734375 -36474285.269310474 0 -36474285.269310474 -6571997.2642605305 0 0 0 0 39463479.941741943 -47957373.59832859 0 -47957373.59832859 -20682965.621555328 0 0 0 0 18809050.132675171 -57766920.55677557 0 -57766920.55677557 18567453.707084656 0 0 0 0 38757741.384269714 -69068860.160807133 0 -69068860.160807133 -64565706.386934757 0 0 0 0 53481733.695220947 -43520600.994101048 0 -43520600.994101048 -20242032.456992209 0 0 0 0 51704636.177902222 -39611868.394570589 0 -39611868.394570589 -28836705.711043358 0 0 0 0 56933478.751720428 -32616544.207335055 0 -32616544.207335055 -19827392.76858902 0 0 0 0 -14836370.953781128 -64501229.734225273 0 -64501229.734225273 80948298.217848182 0 0 0 0 17112263.937088013 -67864966.666049719 0 -67864966.666049719 -17203652.035523891 0 0 0 0 16418685.977325439 -61659378.157119274 0 -61659378.157119274 -16317183.161129117 0 0 0 0 37061024.702148438 -55233594.569445252 0 -55233594.569445252 -137425366.42459249 0 0 0 0 11004689.997283936 -116388644.54260874 0 -116388644.54260874 -13179995.208246231 0 0 0 0 23310938.64515686 -22246203.808289528 0 -22246203.808289528 -116272727.2791599 0 0 0 0 84760638.282913208 -52024648.816201925 0 -52024648.816201925 -112908751.25450611 0 0 0 0 26068287.389352411 5962986.3542851768 0 5962986.3542851768 -584395.97537801682 0 0 0 0 12092097.553312302 41523836.067352057 0 41523836.067352057 -188937896.47140694 0 0 0 0 37116495.610735327 -53453933.885616764 0 -53453933.885616764 -38986188.72235322 0 0 0 0 107645436.17512512 -16655378.487600923 0 -16655378.487600923 -47386007.196293831 0 0 0 0 68150638.673156738 16435258.454355955 0 16435258.454355955 20032645.507205009 0 0 0 0 55947565.666656494 -17548408.932968378 0 -17548408.932968378 -78719953.739153028 0 0 0 0 61585985.017730713 -35350777.457548857 0 -35350777.457548857 -41937764.041406631 0 0 0 0 92060949.266403198 -46763143.540918589 0 -46763143.540918589 -110772065.27606058 0 0 0 0 -20991292.955425262 -21699711.504306793 0 -21699711.504306793 -47133151.241515636 0 0 0 0 176412579.31692505 11779633.966970921 0 11779633.966970921 -89143294.397103906 0 0 0 0 -444136.89969658107 -570281.96789626777 0 -570281.96789626777 206501.7898282446 0 0 0 0 -71021201.711181641 -74464496.128298759 0 -74464496.128298759 12549894.788914204 0 0 0 0 167860751.300354 88495769.517107487 0 88495769.517107487 -13514201.936227858 0 0 0 0 -92379639.975540161 -127384951.10810542 0 -127384951.10810542 -10694926.121350765 0 0 0 0 -34101392.394866943 -108997242.28143835 0 -108997242.28143835 -82494974.425448418 0 0 0 0 69643734.926422119 198873919.4689374 0 198873919.4689374 -57255358.302953005 0 0 0 0 -11759897.931827068 -48747203.533856973 0 -48747203.533856973 -15136049.270681739 0 0 0 0 130922507.12536621 200040177.50816917 0 200040177.50816917 -62083182.243429184 0 0 0 0 1654973.4373265505 726732.77513671154 0 726732.77513671154 -1371597.3852442927 0 0 0 0 26242993.255911753 5560591.2715646578 0 5560591.2715646578 -1949082.9083207948 0 0 0 0 34262173.150436401 -141712837.42166352 0 -141712837.42166352 113891000.97726452 0 0 0 0 161534866.89337158 -282078720.25395322 0 -282078720.25395322 -144961147.98204613 0 0 0 0 58588561.209350586 37379827.612240791 0 37379827.612240791 -45880501.275094509 0 0 0 0 46739021.457733154 93891225.071007311 0 93891225.071007311 -191834305.57332611 0 0 0 0 49609827.100219727 35032163.083450317 0 35032163.083450317 -38958294.868548393 0 0 0 0 61866991.790145874 1129939.9374637604 0 1129939.9374637604 -1116528.9348487854 0 0 0 0 29326265.121307373 10808711.357236862 0 10808711.357236862 365125.90320444107 0 0 0 0 30009617.219741821 22790705.666841507 0 22790705.666841507 7378449.0001564026 0 0 0 0 38481108.282989502 5999590.8665313721 0 5999590.8665313721 19755131.008451462 0 0 0 0 32599501.436462402 15946352.961108208 0 15946352.961108208 23540663.363584995 0 0 0 0 37450417.6925354 10678171.300544739 0 10678171.300544739 -393242.90227746964 0 0 0 0 27768129.378387451 -2943123.129496336 0 -2943123.129496336 -67388473.293518066 0 0 0 0 41439626.50743103 39832067.455032825 0 39832067.455032825 -31166270.939745903 0 0 0 0 -65304828.823974609 88194864.692869067 0 88194864.692869067 443262580.00164127 0 0 0 0 194309366.06622314 102469514.50635195 0 102469514.50635195 -384983349.01935863 0 0 0 0 5923158.9424438477 27885877.358090162 0 27885877.358090162 34952569.209156454 0 0 0 0 103589439.796875 142242700.89179611 0 142242700.89179611 18461347.744620919 0 0 0 0 104565237.33113098 -248998592.32006776 0 -248998592.32006776 81169288.939332128 0 0 0 0 251885345.10494995 683105033.44077158 0 683105033.44077158 35820806.365561008 0 0 0 0 291098685.96438599 -365602894.79633188 0 -365602894.79633188 -794924110.27992821 0 0 0 0 27309633.797027588 -78423023.639590979 0 -78423023.639590979 -183713273.89873672 0 0 0 0 -3726983.3534088135 59767326.626736403 0 59767326.626736403 -23519299.976057053 0 0 0 0 13243572.078109741 25079198.760661125 0 25079198.760661125 6873097.2308778763 0 0 0 0 6544619.3949261978 1869802.4420087263 0 1869802.4420087263 -1660486.459994165 0 0 0 0 23348358.099639893 22721475.372146845 0 22721475.372146845 2527705.8050928116 0 0 0 0 4441982.5474251285 333466.84578972682 0 333466.84578972682 -2923190.5194308064 0 0 0 0 22703245.569824219 15460599.975933909 0 15460599.975933909 -35861054.58835125 0 0 0 0 49506004.98286438 14573664.169689417 0 14573664.169689417 -20023840.694983482 0 0 0 0 93180340.993387222 -4013901.7014111876 0 -4013901.7014111876 -87692025.106062889 0 0 0 0 68128453.590679169 49014890.183904231 0 49014890.183904231 -64439618.250354767 0 0 0 0 65075462.48425293 68158944.886052132 0 68158944.886052132 -120920261.97302628 0 0 0 0 95013349.522888184 9115051.9376659393 0 9115051.9376659393 -123842541.47162864 0 0 0 0 51234247.088348389 -4143124.1241078377 0 -4143124.1241078377 -22639672.835888088 0 0 0 0 18358345.292339206 -1351984.6052020006 0 -1351984.6052020006 -10756753.189501772 0 0 0 0 -140146468.72421074 3915005.9918304682 0 3915005.9918304682 -4228870.3985435963 0 0 0 0 58254785.615898132 -14388449.101109505 0 -14388449.101109505 -9101767.5900726318 0 0 0 0 -103271492.59126186 -27053767.390636139 0 -27053767.390636139 -24701594.619601011 0 0 0 0 20761405.606033169 -8016702.4108391423 0 -8016702.4108391423 -8478161.8037630692 0 0 0 0 22854297.537103985 19220247.676774807 0 19220247.676774807 4028953.8919374403 0 0 0 0 30347341.824471474 34449496.468207359 0 34449496.468207359 -18526465.906166077 0 0 0 0 27649525.522377014 17097854.309990883 0 17097854.309990883 5459914.4750477076 0 0 0 0 20457279.805972863 2687050.0462875846 0 2687050.0462875846 -8145625.9448630363 0 0 0 0 188201443.68297768 -14324503.128072739 0 -14324503.128072739 -90580155.364509583 0 0 0 0 56719488.325007439 27239392.087036133 0 27239392.087036133 -42867171.934459686 0 0 0 0 -70363673.81880188 -49309089.626214027 0 -49309089.626214027 -12204987.7683523 0 0 0 0 55883945.975233138 16969023.592795372 0 16969023.592795372 -51913971.149360657 0 0 0 0 22658330.697680749 -11838792.582248941 0 -11838792.582248941 -15586287.881549494 0 0 0 0 40238919.25245285 15112315.314074278 0 15112315.314074278 -10150591.519848824 0 0 0 0 36759247.270545959 5351671.6469897032 0 5351671.6469897032 -6666854.3758068085 0 0 0 0 28928089.134185791 15543100.672313213 0 15543100.672313213 -869668.32482433319 0 0 0 0 19870082.389873974 16395710.173080489 0 16395710.173080489 4705746.8887820318 0 0 0 0 28419178.12461853 9630251.3494224548 0 9630251.3494224548 2126601.8767538071 0 0 0 0 -108100191.8125124 125057509.96312046 0 125057509.96312046 35372980.592018127 0 0 0 0 29243034.299713135 7537794.9704694748 0 7537794.9704694748 3446233.4042739868 0 0 0 0 9915808.3274639081 7313734.0696015917 0 7313734.0696015917 -684191.35700840969 0 0 0 0 34037223.397033691 25272238.033657074 0 25272238.033657074 5427530.2905235291 0 0 0 0 33154718.024482727 8031957.5391941071 0 8031957.5391941071 -3188997.9857525826 0 0 0 0 33335215.150226593 25480022.690912724 0 25480022.690912724 7317262.9521484375 0 0 0 0 32516511.617919922 26834860.458076954 0 26834860.458076954 5187641.0211277008 0 0 0 0 17787381.051567078 10918696.532716274 0 10918696.532716274 2080200.2944412231 0 0 0 0 12728230.548789978 8970882.7035150528 0 8970882.7035150528 6790827.3933563232 0 0 0 0 24404282.118206024 30206384.714351654 0 30206384.714351654 25193575.846637726 0 0 0 0 28588130.84262085 10765040.320978165 0 10765040.320978165 -3782491.6004763842 0 0 0 0 18869700.60641861 4528482.4578946829 0 4528482.4578946829 -5276432.4992742538 0 0 0 0 10913326.236013005 7825933.9725813903 0 7825933.9725813903 -5087455.6367767714 0 0 0 0 3384651.7055789605 6357410.5076902285 0 6357410.5076902285 -3356751.7090406045 0 0 0 0 28401802.297023773 6432891.1795665026 0 6432891.1795665026 -12991524.633825302 0 0 0 0 31582877.802433014 17317430.919307351 0 17317430.919307351 -15621582.641561031 0 0 0 0 -8847303.399597168 15749609.498620033 0 15749609.498620033 -55899630.026793242 0 0 0 0 13852302.261390686 4741130.5683298111 0 4741130.5683298111 -9345821.5662078857 0 0 0 0 7942759.4629402161 16939121.839388847 0 16939121.839388847 3702836.5407218933 0 0 0 0 288028.72492929548 -4164439.0741229365 0 -4164439.0741229365 -2924812.8874293799 0 0 0 0 6706146.6934356689 -9069731.1139793396 0 -9069731.1139793396 -5711944.2457408905 0 0 0 0 2317950.1524047852 -996311.27604675293 0 -996311.27604675293 -3734083.3546104431 0 0 0 0 3620975.6968296766 1457632.6603918248 0 1457632.6603918248 -2799733.8630339988 0 0 0 0 26607749.293536775 4879556.2220162936 0 4879556.2220162936 -7456290.4341197889 0 0 0 0 18113069.84331423 -5142193.7041710317 0 -5142193.7041710317 -9565749.5382084511 0 0 0 0 12697859.418777466 -10098377.114303589 0 -10098377.114303589 -7185725.9794063568 0 0 0 0 57271120.492607117 16809902.499355078 0 16809902.499355078 -49369852.674033165 0 0 0 0 16881932.591186523 -9340670.5570526123 0 -9340670.5570526123 -10990957.082733154 0 0 0 0 26569443.650634766 -29154915.746171236 0 -29154915.746171236 -116346644.94796109 0 0 0 0 -30146608.207674503 82792962.948263168 0 82792962.948263168 -41932284.826152205 0 0 0 0 27967258.645115636 2216293.7211306095 0 2216293.7211306095 -7166240.1112665804 0 0 0 0 -12797127.359680176 -57807706.00204277 0 -57807706.00204277 -52518471.921285152 0 0 0 0 32444626.397644043 4873442.8371334076 0 4873442.8371334076 -36803985.934472084 0 0 0 0 17973478.673408508 -9422678.3834209442 0 -9422678.3834209442 -50925686.00680542 0 0 0 0 48404058.936508179 -29127032.337827206 0 -29127032.337827206 -27969440.288936615 0 0 0 0 18768237.039615631 -12395196.163712978 0 -12395196.163712978 -18798500.883453369 0 0 0 0 6782742.3378064632 -16442973.154697105 0 -16442973.154697105 3550218.0385818481 0 0 0 0 16957929.964080811 -21644280.390695572 0 -21644280.390695572 -11184332.29441452 0 0 0 0 19643259.866424561 -29084823.937583923 0 -29084823.937583923 7492040.1383934021 0 0 0 0 12913185.767425537 -17411459.888614655 0 -17411459.888614655 6262581.3004593849 0 0 0 0 1389325.6792592183 -1364843.8452811944 0 -1364843.8452811944 -2645859.4695643503 0 0 0 0 12474576.600387573 -19759286.768064499 0 -19759286.768064499 4418246.6028289795 0 0 0 0 486674.65536300093 -341987.92952263192 0 -341987.92952263192 -958458.61544975964 0 0 0 0 39692953.569450378 -60816832.847145081 0 -60816832.847145081 65123346.11013031 0 0 0 0 116003027.03948975 -41249122.511073112 0 -41249122.511073112 -18684578.117200375 0 0 0 0 50393523.561721802 68230068.054974556 0 68230068.054974556 80915226.565474987 0 0 0 0 107766160.88809967 43256363.697916031 0 43256363.697916031 7338901.298992157 0 0 0 0 76863492.764419556 36165087.019079208 0 36165087.019079208 8955613.4717330933 0 0 0 0 24815270.296401978 36164588.170474052 0 36164588.170474052 12721890.697237015 0 0 0 0 11959700.106491089 25698087.396453857 0 25698087.396453857 35459962.260704041 0 0 0 0 11639822.196884155 11245120.735987663 0 11245120.735987663 11352280.809089661 0 0 0 0 44094701.886444092 60000795.916532516 0 60000795.916532516 41764736.937531948 0 0 0 0 46427886.941146851 44758229.66432476 0 44758229.66432476 14604221.798600435 0 0 0 0 50856033.542671204 48811343.906871796 0 48811343.906871796 -2735922.7267799377 0 0 0 0 39913834.320999146 36706813.621115685 0 36706813.621115685 12062740.601528168 0 0 0 0 38966586.62878418 38309098.551683426 0 38309098.551683426 9828722.6345362663 0 0 0 0 14141983.97013855 34608605.622497559 0 34608605.622497559 13970541.486886501 0 0 0 0 28051372.223690033 20030605.092146397 0 20030605.092146397 -39426352.30688858 0 0 0 0 19433407.18371582 39424747.711497307 0 39424747.711497307 52034032.947607994 0 0 0 0 76796549.87171936 57064371.89398098 0 57064371.89398098 -261190.02435207367 0 0 0 0 67450414.127996445 22837585.604949713 0 22837585.604949713 -22313993.878101349 0 0 0 0 93704903.292633057 33178117.434884071 0 33178117.434884071 -129710241.08011436 0 0 0 0 91961885.552066803 11948914.893716335 0 11948914.893716335 -34429100.574531555 0 0 0 0 -32943698.86819458 40681010.452758789 0 40681010.452758789 -40748740.535809994 0 0 0 0 57667200.149536133 -2336129.4791107178 0 -2336129.4791107178 -24664691.590047836 0 0 0 0 -8490975.7820129395 -44600531.543096542 0 -44600531.543096542 -46858031.354130745 0 0 0 0 35876041.232894897 -57208961.650088787 0 -57208961.650088787 128815976.78682184 0 0 0 0 2271688.9538284093 2270913.6769134523 0 2270913.6769134523 326390.20252132404 0 0 0 0 86163509.349899292 -44378009.660117149 0 -44378009.660117149 -86143746.187404633 0 0 0 0 -1954435.9510192871 -9097364.4147644043 0 -9097364.4147644043 218404145.3673439 0 0 0 0 -584381985.12194824 313664321.93035889 0 313664321.93035889 305468965.26394463 0 0 0 0 62147855.868896484 -32691179.386263847 0 -32691179.386263847 31614752.724292755 0 0 0 0 9862977.061974898 11714143.721861294 0 11714143.721861294 -5520736.7611661926 0 0 0 0 6890932.3781238645 6001176.9271831289 0 6001176.9271831289 926558.27456131403 0 0 0 0 18754689.86579895 45108080.584640503 0 45108080.584640503 58243537.606066704 0 0 0 0 31222590.834457397 60363626.761751175 0 60363626.761751175 42658992.252221107 0 0 0 0 55237935.130813599 59791307.507150173 0 59791307.507150173 13343970.352859497 0 0 0 0 12047820.330578435 18117284.628193706 0 18117284.628193706 -10662350.681531295 0 0 0 0 7470666.6097259521 19886417.477046967 0 19886417.477046967 -24509535.553348541 0 0 0 0 33117057.464447021 22868140.193792701 0 22868140.193792701 -603708.59590375423 0 0 0 0 -358454.30194091797 22969768.273254395 0 22969768.273254395 -4249706.8607368469 0 0 0 0 8210548.5127792358 17434028.459804535 0 17434028.459804535 -18024526.698562622 0 0 0 0 5426038.1735076904 16878746.920085907 0 16878746.920085907 -10269389.988761902 0 0 0 0 3551035.5349121094 22076009.935440063 0 22076009.935440063 -16543884.052017212 0 0 0 0 35477106.746391296 -12925259.078573227 0 -12925259.078573227 -6847868.7524337769 0 0 0 0 23646296.560806274 375797.54383945465 0 375797.54383945465 -7090234.5483856201 0 0 0 0 31973844.820091248 -12760470.845043182 0 -12760470.845043182 -6158644.9990205765 0 0 0 0 32249179.201093197 -6193358.3465350568 0 -6193358.3465350568 4537537.9571533203 0 0 0 0 27534267.942140579 -22909129.086084127 0 -22909129.086084127 -10285595.997804642 0 0 0 0 31625887.757143021 -12364017.521939754 0 -12364017.521939754 -5427964.5873413086 0 0 0 0 49018813.670074463 -21996223.000549316 0 -21996223.000549316 -2797233.0737876892 0 0 0 0 64252455.725418091 3110736.2844085693 0 3110736.2844085693 -7014783.2103805542 0 0 0 0 58622228.589645386 963589.16477966309 0 963589.16477966309 -8544281.1182327271 0 0 0 0 59057966.910394669 538267.76285505295 0 538267.76285505295 -8146217.9557495117 0 0 0 0 16166932.488201089 11191048.776191549 0 11191048.776191549 1451261.2359453049 0 0 0 0 39666689.383611679 29323390.171107292 0 29323390.171107292 -6492244.6071968079 0 0 0 0 52005946.519191742 33989092.024131298 0 33989092.024131298 -6259822.893245697 0 0 0 0 82507019.051925659 39686361.057666779 0 39686361.057666779 -6409270.5787620544 0 0 0 0 5013160.1790828258 1065906.4313562792 0 1065906.4313562792 -4359527.0480459044 0 0 0 0 13447951.021115303 32965330.092494354 0 32965330.092494354 69844543.520252228 0 0 0 0 -12084259.115264893 -14040389.371997833 0 -14040389.371997833 -21675231.799310207 0 0 0 0 35671723.031332269 6775012.8881108109 0 6775012.8881108109 -16407569.95915772 0 0 0 0 13250007.513977051 27183262.782016754 0 27183262.782016754 48618428.7403965 0 0 0 0 56923332.048782349 79298157.699604034 0 79298157.699604034 37947498.703605652 0 0 0 0 25717400.624694824 58137222.858777225 0 58137222.858777225 73836791.991456985 0 0 0 0 24120243.236877441 46939144.506084442 0 46939144.506084442 24331215.645626068 0 0 0 0 47959482.257781982 66953690.303515673 0 66953690.303515673 47457161.16956687 0 0 0 0 91186051.964309692 15597202.255990028 0 15597202.255990028 -49143784.699172974 0 0 0 0 -9717217.5105285645 -11844350.258749008 0 -11844350.258749008 -7172363.6200466156 0 0 0 0 27148603.922576904 -5550208.7349529266 0 -5550208.7349529266 -16577911.083173752 0 0 0 0 -24087113.704574585 -2359692.7912902832 0 -2359692.7912902832 -483800.78117752075 0 0 0 0 8450488.3702087402 25433658.521457672 0 25433658.521457672 24731058.369272232 0 0 0 0 40784179.487762451 54416633.554123878 0 54416633.554123878 5468558.8301467896 0 0 0 0 30792931.692169189 56169491.312182426 0 56169491.312182426 25716285.56760025 0 0 0 0 7031649.6585235596 2948251.4842758179 0 2948251.4842758179 -11474108.122203827 0 0 0 0 11048602.197320908 13115027.604881631 0 13115027.604881631 2012234.6505955877 0 0 0 0 -8512812.7942199707 6060581.3820838928 0 6060581.3820838928 -11625408.42999649 0 0 0 0 -23746020.973885298 9237677.4981752932 0 9237677.4981752932 -5351237.8351173401 0 0 0 0 14795526.730949715 5432739.0748660974 0 5432739.0748660974 -474779.90675333422 0 0 0 0 37604078.974477768 -4762720.2200779915 0 -4762720.2200779915 -376813.28160858154 0 0 0 0 35495598.953163147 -7009557.372294426 0 -7009557.372294426 -1047404.3227214813 0 0 0 0 35744575.860671997 -5268961.7107856274 0 -5268961.7107856274 10669982.84828949 0 0 0 0 12947841.402620722 12866176.724570483 0 12866176.724570483 -584645.43338442431 0 0 0 0 -1393583.2657470703 4101492.6875076294 0 4101492.6875076294 173394.92846393585 0 0 0 0 16394375.063333068 5830406.2425243333 0 5830406.2425243333 2924572.5460806265 0 0 0 0 -5080395.627571106 34500366.542430401 0 34500366.542430401 29309976.216439247 0 0 0 0 12149721.080264162 11994260.655847853 0 11994260.655847853 -4039172.314592516 0 0 0 0 47590696.904182434 23053910.411345482 0 23053910.411345482 -5839808.9002876282 0 0 0 0 30887658.449496843 3202296.9299874436 0 3202296.9299874436 -5308957.6204002928 0 0 0 0 8774437.2341189906 5999001.4671582654 0 5999001.4671582654 7741381.5399482837 0 0 0 0 2986705.5388934314 3014130.001531234 0 3014130.001531234 -550285.93389403354 0 0 0 0 -46964030.487014771 -15535968.486232758 0 -15535968.486232758 33413333.791004181 0 0 0 0 54884274.45945549 129451742.05162466 0 129451742.05162466 89015364.389909744 0 0 0 0 53185268.951828003 64242591.892074585 0 64242591.892074585 -34465422.605446339 0 0 0 0 43688740.692932129 364858.47483825684 0 364858.47483825684 -34847362.799728394 0 0 0 0 34263482.968862534 25461025.289440989 0 25461025.289440989 5165377.8953437805 0 0 0 0 25408919.902118683 11303497.568049431 0 11303497.568049431 -219163.79926490784 0 0 0 0 34451853.94102478 26022865.608516693 0 26022865.608516693 4812531.1862630844 0 0 0 0 30330161.788169861 2061139.3004722595 0 2061139.3004722595 5443556.0730419159 0 0 0 0 4005772.6462981403 239134.88993072789 0 239134.88993072789 -280500.56231551617 0 0 0 0 549326509.16191101 -32979188.53578186 0 -32979188.53578186 -250432418.84537697 0 0 0 0 -381289177.79491043 -11112716.566904068 0 -11112716.566904068 642269384.42498779 0 0 0 0 87894865.300979614 237898291.66924858 0 237898291.66924858 215445815.15044403 0 0 0 0 370872627.30986786 171269591.78840256 0 171269591.78840256 -36107609.922538757 0 0 0 0 49924779.684085846 10548133.283184052 0 10548133.283184052 -89193633.70394516 0 0 0 0 -122066333.81214905 2112648.768157959 0 2112648.768157959 -99768628.702465057 0 0 0 0 415476065.32594657 -223595919.93495047 0 -223595919.93495047 -5543812.3710098267 0 0 0 0 -345248522.58623886 148512780.45399094 0 148512780.45399094 86508272.579566956 0 0 0 0 14787895.750471476 12964878.537885811 0 12964878.537885811 5758717.9769423008 0 0 0 0 -122623833.69236755 -155439196.38721466 0 -155439196.38721466 -209870758.97984314 0 0 0 0 -76079643.084472656 -62915058.185783386 0 -62915058.185783386 -93577062.414825439 0 0 0 0 1312010.3363645561 17312177.759247787 0 17312177.759247787 827783.03542939574 0 0 0 0 40845674.488595963 69826796.794910431 0 69826796.794910431 -15011508.799137115 0 0 0 0 22970334.983337402 44618470.225395203 0 44618470.225395203 50740618.744827271 0 0 0 0 5194575.9842510223 18933648.264299393 0 18933648.264299393 189097330.42411041 0 0 0 0 30714498.126661301 68453154.094507217 0 68453154.094507217 105524590.93014908 0 0 0 0 15316644.894855499 -15217579.909097672 0 -15217579.909097672 1211754.1088123322 0 0 0 0 1245710.5893287659 128094744.66553497 0 128094744.66553497 272100055.26616287 0 0 0 0 -45110075.251174927 169812177.69194031 0 169812177.69194031 42405681.664561272 0 0 0 0 40263216.725566864 144537567.82924271 0 144537567.82924271 47725525.526351929 0 0 0 0 89977113.205097198 100355243.16265488 0 100355243.16265488 43689321.535421371 0 0 0 0 32760083.620513916 130877885.85616302 0 130877885.85616302 62263905.235557556 0 0 0 0 11153757.044765472 139618184.36763382 0 139618184.36763382 140992126.87991333 0 0 0 0 -14203758.584665298 78567121.214841843 0 78567121.214841843 114545171.81334686 0 0 0 0 72491733.781363487 87114818.077188492 0 87114818.077188492 74936449.505874634 0 0 0 0 168868706.45782661 79002500.337320328 0 79002500.337320328 46250963.47287941 0 0 0 0 169624084.54717314 71244600.748179317 0 71244600.748179317 34223749.512237549 0 0 0 0 72574365.771077037 21103953.610917807 0 21103953.610917807 76984574.998535156 0 0 0 0 76613852.763067245 84612908.770927429 0 84612908.770927429 76235713.773426056 0 0 0 0 171657184.12535095 113258671.03610039 0 113258671.03610039 53668421.43768692 0 0 0 0 94027777.200401306 107472871.11858368 0 107472871.11858368 50655677.670085907 0 0 0 0 105594914.11351395 97674668.335152626 0 97674668.335152626 3573687.8099060059 0 0 0 0 122241053.0224762 70337180.873085022 0 70337180.873085022 46750170.610252857 0 0 0 0 12712650.661847794 1043257.4822020698 0 1043257.4822020698 976926.87485708576 0 0 0 0 28569155.922153473 17244064.523998737 0 17244064.523998737 3129965.6473236084 0 0 0 0 13856510.960670471 31905021.366304398 0 31905021.366304398 56796311.236646652 0 0 0 0 61709499.715408325 110487505.62260818 0 110487505.62260818 41331884.746559143 0 0 0 0 14637825.889118195 -14599669.213190079 0 -14599669.213190079 -9582120.1607551575 0 0 0 0 62307880.846431971 110187154.21016312 0 110187154.21016312 -130102465.36361694 0 0 0 0 2465625.2195792198 78682282.586578369 0 78682282.586578369 -101836221.10151243 0 0 0 0 51459240.079054594 66474101.563445091 0 66474101.563445091 -256063300.21766663 0 0 0 0 78041713.284224004 3091963.6067743301 0 3091963.6067743301 -132970818.13718796 0 0 0 0 162783150.35137558 68520601.065483093 0 68520601.065483093 63043127.15278244 0 0 0 0 45916970.513145804 -75929848.365602016 0 -75929848.365602016 -326142896.4294529 0 0 0 0 7092025.0751824751 -194110.13212144934 0 -194110.13212144934 920149.9321660744 0 0 0 0 118933787.91037846 95498391.09113884 0 95498391.09113884 88768673.779493332 0 0 0 0 6777453.3716461323 12408400.882082166 0 12408400.882082166 3806960.5359786628 0 0 0 0 16716928.059703827 8753475.916012764 0 8753475.916012764 -1096900.9003982544 0 0 0 0 -86803989.974689484 -70402732.475126266 0 -70402732.475126266 -105760200.08926988 0 0 0 0 26398966.986917756 447967.36609207466 0 447967.36609207466 2407780.6732810074 0 0 0 0 16746797.028327942 8931225.6378030777 0 8931225.6378030777 -2743514.3966882229 0 0 0 0 10769670.268178552 13561902.180353578 0 13561902.180353578 2834779.7419471913 0 0 0 0 9427274.1531143188 12067003.480969429 0 12067003.480969429 -6844457.7284317017 0 0 0 0 -492457.7971337419 4449646.7696085041 0 4449646.7696085041 1211063.2901326087 0 0 0 0 130054486.24360275 -117707841.18252373 0 -117707841.18252373 -163418101.69835758 0 0 0 0 37968405.602481842 121497066.49048805 0 121497066.49048805 -227729167.06585693 0 0 0 0 -905916.96944505349 -297714.11861964874 0 -297714.11861964874 1253590.9952226728 0 0 0 0 3777261.1585855484 91007011.91042614 0 91007011.91042614 -144543996.45016861 0 0 0 0 10944772.639128618 8832643.6000796314 0 8832643.6000796314 2455435.0541603733 0 0 0 0 -6640725.7394982278 4155993.3761864305 0 4155993.3761864305 -33300670.119373322 0 0 0 0 10131277.12538147 8675631.2186775208 0 8675631.2186775208 -831662.43202400208 0 0 0 0 23248662.328045338 3444222.0244729202 0 3444222.0244729202 2698780.6060351487 0 0 0 0 7543363.1908531189 -18798523.877405167 0 -18798523.877405167 -702785.29592323303 0 0 0 0 -357375195.91457462 315442917.89396286 0 315442917.89396286 -196608463.92351723 0 0 0 0 46907486.374793768 -51883294.941827774 0 -51883294.941827774 -626349260.51971817 0 0 0 0 5073780.113437403 1569657.4024633956 0 1569657.4024633956 -916979.69145783223 0 0 0 0 -233689310.21317291 155338148.95551682 0 155338148.95551682 -23197575.137628794 0 0 0 0 -75905314.628183842 417400434.76835442 0 417400434.76835442 -586986472.34469604 0 0 0 0 146294367.08918881 106024827.40859604 0 106024827.40859604 -260502048.05664492 0 0 0 0 101136015.22668421 221307117.16961622 0 221307117.16961622 -408973578.94104004 0 0 0 0 264746108.80223066 55674468.580792189 0 55674468.580792189 -424604036.78541183 0 0 0 0 232678842.40075397 -137290718.62556267 0 -137290718.62556267 -852684744.97118664 0 0 0 0 -372256232.11678028 494063426.79608631 0 494063426.79608631 -410902498.42224121 0 0 0 0 62273647.336319923 302742391.62263489 0 302742391.62263489 -896770744.63518524 0 0 0 0 138039240.56302559 3239667.2485332489 0 3239667.2485332489 -306586096.18084335 0 0 0 0 52219922.800212622 -24241381.308245659 0 -24241381.308245659 -293671836.91431522 0 0 0 0 -38071969.720119238 -144270444.89127636 0 -144270444.89127636 -174161073.817173 0 0 0 0 113963950.8816852 43674074.666962624 0 43674074.666962624 -373974489.05113983 0 0 0 0 237315355.03642553 -47793732.946962357 0 -47793732.946962357 -432783196.17913437 0 0 0 0 345565712.36687803 -208730907.12058258 0 -208730907.12058258 -267900771.12778091 0 0 0 0 192939811.39596736 -140749689.38511086 0 -140749689.38511086 -205868323.4921608 0 0 0 0 139674771.94970751 -134358469.01594925 0 -134358469.01594925 -181316880.68867683 0 0 0 0 135624012.95720229 -193256915.77136171 0 -193256915.77136171 -111083471.57769775 0 0 0 0 44748175.790956497 -189692276.39076805 0 -189692276.39076805 150135627.96648502 0 0 0 0 222079762.84338933 -257829696.14961433 0 -257829696.14961433 -89246831.310714722 0 0 0 0 20808583.891029358 -148058313.86645603 0 -148058313.86645603 79702844.314292908 0 0 0 0 89485339.835018024 -223154567.99664313 0 -223154567.99664313 20592820.788223267 0 0 0 0 88428366.084493741 -253181598.59899795 0 -253181598.59899795 118205106.12631989 0 0 0 0 347942566.89183998 -382351267.62485886 0 -382351267.62485886 70126499.98468399 0 0 0 0 213728523.99815208 -188851239.84366989 0 -188851239.84366989 -175436497.20036316 0 0 0 0 -16624418.436467886 -53610770.88061142 0 -53610770.88061142 242778439.76058197 0 0 0 0 395075443.07513046 -332465031.36375809 0 -332465031.36375809 71329293.453830719 0 0 0 0 45363049.374089301 -289007167.06798363 0 -289007167.06798363 431665785.70393562 0 0 0 0 128765591.63884091 -357201458.41512299 0 -357201458.41512299 816719369.97067642 0 0 0 0 -29331886.003206253 -134741246.03297901 0 -134741246.03297901 115820278.20023727 0 0 0 0 19777221.786378384 -117649905.13638306 0 -117649905.13638306 114285201.29405403 0 0 0 0 83484945.118215084 232980003.20298195 0 232980003.20298195 -300193330.61392212 0 0 0 0 137603452.07713652 224396981.31970215 0 224396981.31970215 -49985098.174224854 0 0 0 0 385548190.57454491 373988578.4640274 0 373988578.4640274 -235786183.62143135 0 0 0 0 691789782.23548365 -152134316.18489647 0 -152134316.18489647 -397625691.90693307 0 0 0 0 111015664.96802509 82012475.56470108 0 82012475.56470108 26311512.027118683 0 0 0 0 655734575.27378273 -139944980.12771606 0 -139944980.12771606 78865200.701862335 0 0 0 0 1019709728.5348122 306658622.90446067 0 306658622.90446067 561116710.29551697 0 0 0 0 881345031.40285587 -741826914.74665642 0 -741826914.74665642 415718894.01644135 0 0 0 0 1324348042.5449114 -759520924.15772247 0 -759520924.15772247 854091056.4557972 0 0 0 0 512580520.88429487 409954061.30267501 0 409954061.30267501 39391776.902591705 0 0 0 0 663458714.06701851 -87359383.624782562 0 -87359383.624782562 166505842.88940811 0 0 0 0 173898705.21477604 127373373.0065403 0 127373373.0065403 460712661.81719398 0 0 0 0 -33525266.600734472 116246019.58972359 0 116246019.58972359 152488990.54697227 0 0 0 0 -48152627.994795561 294736157.23215866 0 294736157.23215866 -264060842.71977234 0 0 0 0 198885538.22886232 277937327.97041869 0 277937327.97041869 -99079219.170352936 0 0 0 0 -88361848.62732029 385613695.98849487 0 385613695.98849487 41703986.217208862 0 0 0 0 178560943.25704944 399877433.28361368 0 399877433.28361368 -230567709.28264618 0 0 0 0 -212470146.79195166 513021736.61406708 0 513021736.61406708 -150643413.95769501 0 0 0 0 -79078069.387967825 351762357.33985519 0 351762357.33985519 -296943514.08559418 0 0 0 0 -24393193.367367029 496382957.85863972 0 496382957.85863972 -377309033.05399323 0 0 0 0 -48118875.168910503 528972785.14665031 0 528972785.14665031 -192868974.34233618 0 0 0 0 -273248481.8494451 383768524.59876442 0 383768524.59876442 -410474932.36874866 0 0 0 0 -621639632.34688616 347112474.34573174 0 347112474.34573174 -203343844.48394012 0 0 0 0 -261785257.14401186 478248340.54770279 0 478248340.54770279 -216259950.1007309 0 0 0 0 -295535221.468099 245543471.02083778 0 245543471.02083778 -114256734.82741642 0 0 0 0 -492600149.8445099 497787324.57478333 0 497787324.57478333 -307813816.19252777 0 0 0 0 -715572238.48403311 536125314.88165236 0 536125314.88165236 -211093008.40219498 0 0 0 0 105357415.90843248 23205900.073390961 0 23205900.073390961 -80210150.906158447 0 0 0 0 -585589959.28192461 350725772.93642807 0 350725772.93642807 -371179585.18972588 0 0 0 0 -92505255.028455257 73828846.287493706 0 73828846.287493706 23627134.107175827 0 0 0 0 71120340.584461212 -331138074.8035965 0 -331138074.8035965 133518423.47703552 0 0 0 0 3388380.3262876738 3589829.5582245598 0 3589829.5582245598 3169064.6575495377 0 0 0 0 114926153.797966 -128863273.37855148 0 -128863273.37855148 278149893.50246239 0 0 0 0 162138754.17566681 -167686850.42048454 0 -167686850.42048454 -117889759.23025894 0 0 0 0 20046419.544446915 10770645.603518806 0 10770645.603518806 -4984060.3916283045 0 0 0 0 55009027.751693726 98332623.356647491 0 98332623.356647491 -22589364.046798706 0 0 0 0 14924517.998786926 16084647.939334869 0 16084647.939334869 -20257665.457305908 0 0 0 0 201722918.65180206 66050100.305459976 0 66050100.305459976 -128277860.69803381 0 0 0 0 147634224.68081665 19981483.398509979 0 19981483.398509979 -27958013.913261414 0 0 0 0 203915107.58066559 -115751735.39264011 0 -115751735.39264011 45027853.084892273 0 0 0 0 15812274.080085754 -39362627.287361145 0 -39362627.287361145 49048679.313117981 0 0 0 0 5024334.5347661516 -574400.08000481967 0 -574400.08000481967 -5911999.3824583255 0 0 0 0 7716130.2706731232 6564674.4509580163 0 6564674.4509580163 3859354.849071255 0 0 0 0 165238972.36238861 -30194955.760065079 0 -30194955.760065079 -33724790.829555511 0 0 0 0 146063820.18714523 -30690278.916152954 0 -30690278.916152954 8181388.842048645 0 0 0 0 -25366533.503246307 -133611855.47339058 0 -133611855.47339058 -40985557.043445587 0 0 0 0 -61895551.064086914 -76517119.298250198 0 -76517119.298250198 50581269.350708008 0 0 0 0 232394751.98434448 -95355598.826633453 0 -95355598.826633453 -149186403.58771515 0 0 0 0 186363399.10108471 22928570.626270294 0 22928570.626270294 10968156.787029266 0 0 0 0 117814245.50857544 11503254.08045578 0 11503254.08045578 26730575.608913422 0 0 0 0 7392168.6337280273 18541845.54442215 0 18541845.54442215 -17553485.222629547 0 0 0 0 3966477.7228088379 21122802.895355225 0 21122802.895355225 -19254578.534572601 0 0 0 0 10945683.242080688 19248992.707172394 0 19248992.707172394 -21734448.144821167 0 0 0 0 5346865.9885864258 23696943.462654114 0 23696943.462654114 -21722251.74301815 0 0 0 0 8348378.5392150879 21960904.715103149 0 21960904.715103149 -21897385.456756592 0 0 0 0 7617952.3672485352 21659924.575004578 0 21659924.575004578 -21673788.367568851 0 0 0 0 7608531.5374450684 21586715.490037918 0 21586715.490037918 -20900614.626579285 0 0 0 0 6007039.8161621094 21398808.302715302 0 21398808.302715302 -20878749.276442528 0 0 0 0 7441810.2043943405 22143739.440080762 0 22143739.440080762 -20654681.049095154 0 0 0 0 7374103.021463871 20851959.511259675 0 20851959.511259675 -18112950.282188416 0 0 0 0 5788105.8681945801 23547853.81967926 0 23547853.81967926 -22831157.937400818 0 0 0 0 21055291.568548188 8793047.6625332274 0 8793047.6625332274 -11361047.922286734 0 0 0 0 3625506.008972168 24050852.78653717 0 24050852.78653717 -21122160.679237366 0 0 0 0 31331076.658981323 23733679.14591217 0 23733679.14591217 61139958.865150452 0 0 0 0 148659757.4693985 32402706.396202087 0 32402706.396202087 31925682.024536133 0 0 0 0 8453677.6173599735 -1022585.9680465059 0 -1022585.9680465059 -2909137.8821954299 0 0 0 0 95515588.068069458 26788846.615787506 0 26788846.615787506 34892396.551376343 0 0 0 0 -9511242.0076370239 -37138558.288246155 0 -37138558.288246155 72829165.279441833 0 0 0 0 52857608.947792053 -51573851.961109161 0 -51573851.961109161 23072830.376609802 0 0 0 0 14435455.672454834 -87033661.06315136 0 -87033661.06315136 -4643861.7644500732 0 0 0 0 95748429.853103638 -65968550.947147369 0 -65968550.947147369 87856118.958713531 0 0 0 0 25734133.7940979 -13396874.005661011 0 -13396874.005661011 86866061.16318512 0 0 0 0 89272126.209396362 -36514891.68270874 0 -36514891.68270874 79482234.026341438 0 0 0 0 59760229.76240921 -12712559.72841835 0 -12712559.72841835 66808264.959846497 0 0 0 0 40940331.415115356 -54047886.471641541 0 -54047886.471641541 123414526.51251221 0 0 0 0 42436432.107772827 -26056650.575641632 0 -26056650.575641632 139705099.72756958 0 0 0 0 27187236.625059128 -49808352.202594757 0 -49808352.202594757 108252279.16244507 0 0 0 0 85157335.180389404 17451690.223304749 0 17451690.223304749 129775360.6128006 0 0 0 0 90959720.474868774 37592518.781986237 0 37592518.781986237 -6346671.2503467798 0 0 0 0 117956261.21285248 -100638065.68973923 0 -100638065.68973923 -91300333.913528442 0 0 0 0 175503060.40193939 -60377010.983272552 0 -60377010.983272552 -94916055.335441589 0 0 0 0 267823322.71778107 29977616.430633545 0 29977616.430633545 -45488442.335865021 0 0 0 0 4299239.7270318158 3909191.0891020261 0 3909191.0891020261 -3404407.4628611477 0 0 0 0 80511303.271850586 -21194657.027374268 0 -21194657.027374268 59012160.022445679 0 0 0 0 63736838.110946655 -22034018.848506927 0 -22034018.848506927 59044566.453231812 0 0 0 0 157006.1784362793 36998099.407445908 0 36998099.407445908 28532694.158590317 0 0 0 0 120241255.23440552 4133797.2417984009 0 4133797.2417984009 -8868111.0743026733 0 0 0 0 33597598.99924469 -5336201.4350776672 0 -5336201.4350776672 9804166.4924468994 0 0 0 0 26011292.426237106 -56593853.405220509 0 -56593853.405220509 -436113379.66085434 0 0 0 0 62463944.857284546 -33196663.606733322 0 -33196663.606733322 32667841.360881805 0 0 0 0 17550613.199197263 6430458.1850202428 0 6430458.1850202428 318651.96955385245 0 0 0 0 75728702.472457886 -95967268.686637878 0 -95967268.686637878 164355854.93320465 0 0 0 0 35375531.849777222 -21620387.41714859 0 -21620387.41714859 31127334.394898891 0 0 0 0 33686287.864807129 -8104125.0433216095 0 -8104125.0433216095 -15621124.948041439 0 0 0 0 -24084228.803825378 22137118.500612259 0 22137118.500612259 122667405.60970306 0 0 0 0 -20350282.527267456 1488004.1000080109 0 1488004.1000080109 152185321.11485219 0 0 0 0 55292528.268079281 306216073.86989975 0 306216073.86989975 -347670020.80799723 0 0 0 0 -197083392.45502323 437851020.97640085 0 437851020.97640085 -395396949.07207108 0 0 0 0 51470575.60874176 -7091742.2250938416 0 -7091742.2250938416 -35060138.957996368 0 0 0 0 11659580.548761699 5515360.6752698561 0 5515360.6752698561 624697.45881590247 0 0 0 0 -181988532.22072029 516063500.35868454 0 516063500.35868454 -372185119.56141567 0 0 0 0 4486072.5557406293 1764891.8958814046 0 1764891.8958814046 -2231441.7705739029 0 0 0 0 159555786.06726837 -61184781.019168854 0 -61184781.019168854 27644807.095970154 0 0 0 0 137670508.54325104 -22754457.326728821 0 -22754457.326728821 43832474.220935822 0 0 0 0 4095983656.3791389 159380817.36210221 0 159380817.36210221 -392251388.01756841 0 0 0 0 2931578612.5597558 996482001.8257215 0 996482001.8257215 -786600555.96214628 0 0 0 0 2200221416.2616043 -595166935.28001773 0 -595166935.28001773 -925822575.21560133 0 0 0 0 2912160285.831398 -1382666215.2335072 0 -1382666215.2335072 -84867712.103149354 0 0 0 0 4798210665.6167908 -1950057226.5672765 0 -1950057226.5672765 -186799117.21493244 0 0 0 0 1672073925.8540897 -560829301.28562927 0 -560829301.28562927 69623558.630597472 0 0 0 0 4523679041.0357971 1450208005.6828346 0 1450208005.6828346 1048999366.6796533 0 0 0 0 4094455229.1192093 551013865.18078673 0 551013865.18078673 852197562.36726522 0 0 0 0 4346872535.3021851 -273400606.55693316 0 -273400606.55693316 2929343864.6671629 0 0 0 0 4264144565.5905056 -22760871.47122205 0 -22760871.47122205 381646515.48242098 0 0 0 0 3877887444.0419693 1288988920.4536579 0 1288988920.4536579 -376693400.72209114 0 0 0 0 2808734442.2428284 2238975228.9274998 0 2238975228.9274998 1016272880.1050274 0 0 0 0 1323404398.3173294 -1090948166.066659 0 -1090948166.066659 1145130991.6799417 0 0 0 0 4981061904.387558 732536313.87458372 0 732536313.87458372 -169722335.16835475 0 0 0 0 6975491.7908297665 -1096196.5149477241 0 -1096196.5149477241 -381773.15614753653 0 0 0 0 -482389975.77040863 225683642.28064954 0 225683642.28064954 187953193.55503201 0 0 0 0 2047972636.9819412 1619256050.2435915 0 1619256050.2435915 452484201.88921297 0 0 0 0 126666169.16838646 19132022.390380599 0 19132022.390380599 481942147.03521824 0 0 0 0 1585992329.9786339 615067686.94705522 0 615067686.94705522 -58016063.652919278 0 0 0 0 370992993.7069397 845101394.00017977 0 845101394.00017977 675977344.2629962 0 0 0 0 -119475745.00550079 -65985370.280850202 0 -65985370.280850202 16393573.699064314 0 0 0 0 181928208.8821106 243678737.30772927 0 243678737.30772927 111187695.57517913 0 0 0 0 17941664.289158031 -2984121.1258614818 0 -2984121.1258614818 -1970460.2662534956 0 0 0 0 -27595904.539863586 -7426242.0516209602 0 -7426242.0516209602 -81640233.231131077 0 0 0 0 152076285.55738831 2800493.1635680199 0 2800493.1635680199 -229400541.52004385 0 0 0 0 457285879.83905792 -28561108.739664972 0 -28561108.739664972 -698517650.6761806 0 0 0 0 26865640.70750618 99953850.784659535 0 99953850.784659535 -5973052.2772596478 0 0 0 0 350870.17346718162 -1859127.7119329814 0 -1859127.7119329814 -2044208.2872142883 0 0 0 0 -55639379.481323242 -147618248.80739331 0 -147618248.80739331 218422869.08471882 0 0 0 0 1680065890.1973681 -483635690.66185468 0 -483635690.66185468 -10322936.689125389 0 0 0 0 1741924036.8973846 -537524736.93055153 0 -537524736.93055153 -7141702.8166359812 0 0 0 0 -39608521.161834717 292742099.39929092 0 292742099.39929092 169165084.02064943 0 0 0 0 -170601960.31965256 48382658.270567596 0 48382658.270567596 574126058.52338076 0 0 0 0 235189570.51091766 -512983871.66503525 0 -512983871.66503525 483791393.48749232 0 0 0 0 -28005904.990104675 -89092.103831768036 0 -89092.103831768036 89613228.356199265 0 0 0 0 -4481500.6596404463 -2871610.9504728583 0 -2871610.9504728583 -2506059.8560113758 0 0 0 0 -33307818.676528931 165000974.63576233 0 165000974.63576233 -174959375.73650587 0 0 0 0 53305.787704467773 4292738.0181776285 0 4292738.0181776285 38117789.295966148 0 0 0 0 23640841.129166164 -16257552.399180954 0 -16257552.399180954 -13384571.227252629 0 0 0 0 5959568.1622235281 14743393.787750518 0 14743393.787750518 4033747.4295137282 0 0 0 0 73098034.418586731 19969217.382811904 0 19969217.382811904 1388081.7422350049 0 0 0 0 70100117.751338959 3793256.6663639992 0 3793256.6663639992 -10484443.273666143 0 0 0 0 24784794.296902806 4918994.2869575247 0 4918994.2869575247 -15048898.450418919 0 0 0 0 86082787.665084839 38662365.368098438 0 38662365.368098438 -1662178.5274448395 0 0 0 0 -9483410.8769378662 40910197.145753771 0 40910197.145753771 3211028.7552777529 0 0 0 0 4327301.6084213257 29601556.996545315 0 29601556.996545315 795738.71995675564 0 0 0 0 -31931542.136077881 37307373.40653342 0 37307373.40653342 88252816.183913529 0 0 0 0 5108779.3870429993 51097975.696254253 0 51097975.696254253 -40261792.834085941 0 0 0 0 121643166.25975037 -247795964.43745023 0 -247795964.43745023 -632147532.29549885 0 0 0 0 25521165.356184855 -2699231.8365726955 0 -2699231.8365726955 -5012022.4376901025 0 0 0 0 29616057.838554382 33736021.068522453 0 33736021.068522453 -74864538.322152138 0 0 0 0 37101861.238513947 -344405874.0811159 0 -344405874.0811159 -464910858.82665563 0 0 0 0 2576637.3867797852 -115269570.20757784 0 -115269570.20757784 -153620611.99087441 0 0 0 0 207484893.05997181 -154470843.38129887 0 -154470843.38129887 -148787361.03521284 0 0 0 0 72360362.397186279 -129263643.12150259 0 -129263643.12150259 -144939932.48995748 0 0 0 0 -152092995.16384888 -80639083.50951457 0 -80639083.50951457 -151143699.44753855 0 0 0 0 -236798660.14730835 -180951236.26145637 0 -180951236.26145637 -485919889.88905454 0 0 0 0 61832777.272216797 -178286028.80975425 0 -178286028.80975425 -486527609.74629104 0 0 0 0 -82723077.05450058 -275558443.60992944 0 -275558443.60992944 -193107684.28838146 0 0 0 0 5423340.7899147905 12889985.914551754 0 12889985.914551754 -1933837.0975792254 0 0 0 0 -1504442.3632698059 55964288.78896001 0 55964288.78896001 -73448763.611813545 0 0 0 0 114966385.62911987 90398388.002690032 0 90398388.002690032 60877322.414274096 0 0 0 0 959134.55738857388 3648489.9516656194 0 3648489.9516656194 -38477.13566824016 0 0 0 0 76191820.031070709 42218553.309596628 0 42218553.309596628 1098964.96745646 0 0 0 0 24081018.104492188 20010722.247104168 0 20010722.247104168 -42644330.275547028 0 0 0 0 1302380.4424603982 545732.99478466064 0 545732.99478466064 -37313.64686419256 0 0 0 0 39647182.167556763 -35221813.296737432 0 -35221813.296737432 -9844733.8033587933 0 0 0 0 149598156.47669792 -29444690.921896525 0 -29444690.921896525 -40020139.838741004 0 0 0 0 23699651.818946991 -15164712.437855396 0 -15164712.437855396 -14349458.432260092 0 0 0 0 192006320.80461121 -16309912.52344352 0 -16309912.52344352 -165646164.1169284 0 0 0 0 228030192.13775635 -166394062.80983531 0 -166394062.80983531 -445921778.51024675 0 0 0 0 22574349.188682556 3907309.3487074226 0 3907309.3487074226 -28092999.712694168 0 0 0 0 67660588.668914795 -168985189.85054147 0 -168985189.85054147 -121752941.28504986 0 0 0 0 46004294.296737671 -130397682.4457842 0 -130397682.4457842 -145345490.22948396 0 0 0 0 23530432.326827943 -13874937.762703877 0 -13874937.762703877 -15339886.031254517 0 0 0 0 -18979595.281433105 -71611791.770863757 0 -71611791.770863757 -59855694.482317686 0 0 0 0 124367283.72810745 -231041820.71687889 0 -231041820.71687889 -69112883.015930176 0 0 0 0 -15756807.307064056 -83985661.662723958 0 -83985661.662723958 -50275923.539714456 0 0 0 0 -34155825.533651352 -21603079.882967949 0 -21603079.882967949 44668006.129264832 0 0 0 0 335931192.84222794 -17791994.698791504 0 -17791994.698791504 -5849649.540184021 0 0 0 0 351158930.08472449 100078862.5397619 0 100078862.5397619 -14521137.93977356 0 0 0 0 -257886110.09664917 -71226546.468860626 0 -71226546.468860626 -99743948.155611038 0 0 0 0 189684528.92283249 -51290212.797775269 0 -51290212.797775269 47433328.139745712 0 0 0 0 -1865114.4625814818 -2358183.754079327 0 -2358183.754079327 -1560072.3327737227 0 0 0 0 254299469.77285385 45344461.757635117 0 45344461.757635117 37651006.988929749 0 0 0 0 284593007.28061867 92446597.780479431 0 92446597.780479431 19952832.654953003 0 0 0 0 189101057.8214798 93180468.600566864 0 93180468.600566864 47141092.875175476 0 0 0 0 276051078.95297527 143806952.12463951 0 143806952.12463951 63789314.139549255 0 0 0 0 328646760.45158005 102526354.41687393 0 102526354.41687393 26329841.009218216 0 0 0 0 280732561.17798841 112269776.02095604 0 112269776.02095604 24599944.74414444 0 0 0 0 -218099695.45636559 -159624405.28353882 0 -159624405.28353882 -32099863.238006592 0 0 0 0 -9866051.3375297915 -6393788.794013571 0 -6393788.794013571 -2959720.4047144912 0 0 0 0 119504450.22102976 8099691.6372289658 0 8099691.6372289658 42336462.924365997 0 0 0 0 -79518925.841385841 -51212108.079221725 0 -51212108.079221725 -30255600.149478912 0 0 0 0 370947740.24573708 -39161258.267917633 0 -39161258.267917633 -15650183.58141017 0 0 0 0 139027565.15189648 -2711876.3016300201 0 -2711876.3016300201 -41893216.242660522 0 0 0 0 -81298871.382751465 -39073104.189771652 0 -39073104.189771652 -53674661.218688965 0 0 0 0 820371763.35723114 187123519.82953262 0 187123519.82953262 -36553708.1354599 0 0 0 0 -222696564.18821049 89697655.912960052 0 89697655.912960052 106387459.36998367 0 0 0 0 833902454.87460327 351320538.20845413 0 351320538.20845413 -234553630.58314133 0 0 0 0 412645995.99866581 507191231.38123703 0 507191231.38123703 374012820.94380808 0 0 0 0 165313355.32636493 108042408.49122036 0 108042408.49122036 100748348.1835289 0 0 0 0 271176077.04943848 253289612.4540844 0 253289612.4540844 289233003.39899063 0 0 0 0 35397352.195362091 -272005857.97407532 0 -272005857.97407532 -262683747.60594177 0 0 0 0 2406750.5529240742 -140640.51555732917 0 -140640.51555732917 303989.77454337571 0 0 0 0 215581553.73963451 -351396808.01626587 0 -351396808.01626587 -314410435.263134 0 0 0 0 254189062.09349632 -101425610.01310158 0 -101425610.01310158 -400217258.00051594 0 0 0 0 267950676.06873226 -157786553.73715782 0 -157786553.73715782 -214237666.69763374 0 0 0 0 1079630256.245121 -178246951.45101166 0 -178246951.45101166 -424950737.28656006 0 0 0 0 203561431.77679396 72875636.418483734 0 72875636.418483734 20491490.593668938 0 0 0 0 934722053.88398063 -456617018.30425239 0 -456617018.30425239 92123909.684364319 0 0 0 0 114780855.1944809 1278744929.9568863 0 1278744929.9568863 -123016497.89697456 0 0 0 0 2472102.1877005743 -2167203.9590274557 0 -2167203.9590274557 -2665679.9376372937 0 0 0 0 -2181707.2930333838 -1619204.4139607227 0 -1619204.4139607227 -610168.6598869469 0 0 0 0 21885809.504052162 41970556.962467194 0 41970556.962467194 53736578.700965881 0 0 0 0 -11302510.228329953 -22401857.407305185 0 -22401857.407305185 -4304065.4736849684 0 0 0 0 295005586.08824158 5044894.3124322891 0 5044894.3124322891 -124925663.63117981 0 0 0 0 6354744.2051555542 -11037563.112574777 0 -11037563.112574777 -10729591.553926103 0 0 0 0 93617363.42603302 -70977694.058521271 0 -70977694.058521271 -25911357.136192322 0 0 0 0 124288794.72461462 -146842257.37802124 0 -146842257.37802124 -90981504.896778107 0 0 0 0 131226494.91197729 -144766900.17172432 0 -144766900.17172432 -189438564.69361687 0 0 0 0 101530670.48391342 -161746320.02403069 0 -161746320.02403069 -53448278.157052994 0 0 0 0 102745243.8879385 -158701025.77830887 0 -158701025.77830887 -93751856.597888947 0 0 0 0 121115441.61584854 -117659526.47271252 0 -117659526.47271252 -4974335.9791297913 0 0 0 0 36598759.191273212 -115730157.48197222 0 -115730157.48197222 -2492983.6088027954 0 0 0 0 43333878.98496294 -134884818.4144249 0 -134884818.4144249 51656613.991706848 0 0 0 0 4266771.4274287224 -86150352.585168839 0 -86150352.585168839 72360168.343531609 0 0 0 0 8567132.266705215 -61482139.597166538 0 -61482139.597166538 10022767.677757263 0 0 0 0 23655758.655299664 -26213235.375257254 0 -26213235.375257254 -43844404.071369171 0 0 0 0 -6288934.2468605042 -15840024.126708984 0 -15840024.126708984 -15688235.47454071 0 0 0 0 30193677.26755619 -52814526.796848297 0 -52814526.796848297 9903253.6134980917 0 0 0 0 54984043.478890419 -95127230.050237656 0 -95127230.050237656 20217681.284340858 0 0 0 0 44413743.791116714 -46893234.954774857 0 -46893234.954774857 12994059.527351379 0 0 0 0 -810941.37487211823 -2842472.7942513833 0 -2842472.7942513833 -1300415.4792050621 0 0 0 0 91391858.675444603 -61653391.147504807 0 -61653391.147504807 -2976359.9203414917 0 0 0 0 9378267.6611097045 -11406190.787946621 0 -11406190.787946621 -13009682.574615018 0 0 0 0 -10553900.3256073 -19953615.138771653 0 -19953615.138771653 -3296208.6629229784 0 0 0 0 21930002.928947449 -21412442.123985082 0 -21412442.123985082 -62357546.151675999 0 0 0 0 -13078857.154205322 -55306665.987794638 0 -55306665.987794638 -55702000.465378046 0 0 0 0 -122262937.21647644 99963970.341024637 0 99963970.341024637 179080696.80314827 0 0 0 0 -87529900.891479492 -88217938.768732548 0 -88217938.768732548 2900150.1534526348 0 0 0 0 -77572153.683303833 -103957846.21318215 0 -103957846.21318215 -89083370.393573761 0 0 0 0 -11818715.153205872 -31134177.811960042 0 -31134177.811960042 17798950.131771028 0 0 0 0 4222185.3738288879 -17447671.973678559 0 -17447671.973678559 -110342604.32262945 0 0 0 0 17059862.629604027 -7520817.5402175169 0 -7520817.5402175169 -11741408.451078082 0 0 0 0 -6526510.9584607482 29934212.555819035 0 29934212.555819035 -57968572.190064907 0 0 0 0 19846977.027453952 -8582118.2057103794 0 -8582118.2057103794 -10943442.091319276 0 0 0 0 6816292.6475334167 -7488511.7744169235 0 -7488511.7744169235 -7080473.5625858307 0 0 0 0 12686473.391900808 -3839487.8789651133 0 -3839487.8789651133 -11067455.844166486 0 0 0 0 84715261.644195557 32703823.039830402 0 32703823.039830402 -188137009.26654214 0 0 0 0 24363730.9495508 -6602453.1866866648 0 -6602453.1866866648 -4974470.4291961063 0 0 0 0 119669717.68060112 -19568668.179719448 0 -19568668.179719448 -80784699.156081676 0 0 0 0 7845937.4404598325 -4760285.3603520412 0 -4760285.3603520412 -6468480.9567743866 0 0 0 0 -26801511.375484467 -74946088.509332061 0 -74946088.509332061 -44849805.882024765 0 0 0 0 -255019005.03333282 -73951977.928676486 0 -73951977.928676486 66200309.463241577 0 0 0 0 -319721.45429755747 -580619.8654980287 0 -580619.8654980287 -142827.97062960075 0 0 0 0 200446894.34716034 -157102710.14433813 0 -157102710.14433813 -254916313.08918321 0 0 0 0 191440402.73765564 -106565285.95463306 0 -106565285.95463306 -85750838.415595055 0 0 0 0 35598683.220157623 -186430891.39935571 0 -186430891.39935571 33469559.35334301 0 0 0 0 -185922192.04717827 -664445.56097048521 0 -664445.56097048521 -4984718.5661315918 0 0 0 0 6551695.6727981567 -131073862.41469902 0 -131073862.41469902 1594633.9767794609 0 0 0 0 -1026153.7237574216 -1798046.4282533638 0 -1798046.4282533638 -638311.64431603893 0 0 0 0 49650932.128902435 -48366083.735199273 0 -48366083.735199273 55332234.317925692 0 0 0 0 -20282280.056634903 -161991484.27825916 0 -161991484.27825916 69836909.706772804 0 0 0 0 -147675.76796722412 -150858314.29635549 0 -150858314.29635549 -65321743.678812027 0 0 0 0 -192910175.20111847 -146097055.70122647 0 -146097055.70122647 50239398.733827353 0 0 0 0 -47100595.235530853 -95163896.680342823 0 -95163896.680342823 12630324.18962431 0 0 0 0 -67624020.820388794 -46309587.315824032 0 -46309587.315824032 22641747.154525995 0 0 0 0 -26250099.692676544 -19565819.380120307 0 -19565819.380120307 -20566445.327943087 0 0 0 0 80049558.91116333 -24436880.320976615 0 -24436880.320976615 -131332883.60110736 0 0 0 0 -2158138.2509849425 -1215530.7353244945 0 -1215530.7353244945 -438692.36015211255 0 0 0 0 -77496864.595169067 -27691015.769740343 0 -27691015.769740343 13816805.34926033 0 0 0 0 -52734659.046981812 -54629438.293288946 0 -54629438.293288946 26440491.490928888 0 0 0 0 -59417015.548660278 -37787391.766451597 0 -37787391.766451597 20323542.260216475 0 0 0 0 -67794913.493469238 -37953739.521563292 0 -37953739.521563292 21932136.286466122 0 0 0 0 7118970.4639282227 -30438487.245502234 0 -30438487.245502234 -24385808.35145998 0 0 0 0 -7204432.8749711886 -3651411.2725867685 0 -3651411.2725867685 -1118943.2645449177 0 0 0 0 -42653728.414283752 -19427316.584155321 0 -19427316.584155321 -3243712.7243285179 0 0 0 0 9918586.5402374268 -12568631.259729385 0 -12568631.259729385 -20587542.556575775 0 0 0 0 -2838242.8120257035 -28320815.095544584 0 -28320815.095544584 -12189696.869747099 0 0 0 0 -13591297.577377319 -13640850.147732258 0 -13640850.147732258 -10580296.112331867 0 0 0 0 -4257458.4361063335 -3391126.9719849993 0 -3391126.9719849993 -1283007.8746425896 0 0 0 0 2914549.6687911027 347489.22372233123 0 347489.22372233123 -2916218.5108199562 0 0 0 0 -15147383.238204956 -33302076.845561028 0 -33302076.845561028 -16542546.513491631 0 0 0 0 3881053.2319717407 -640980.02882385254 0 -640980.02882385254 -2975061.3250277042 0 0 0 0 -289023327.57125282 -24848180.437039733 0 -24848180.437039733 120174390.90435457 0 0 0 0 14584390.970039368 -172983622.83718181 0 -172983622.83718181 77571158.372479916 0 0 0 0 -119587644.3423233 52885337.96047914 0 52885337.96047914 12410470.165574074 0 0 0 0 -264555392.17211914 -42752033.131298542 0 -42752033.131298542 67929688.620813847 0 0 0 0 -179117735.56378174 -39935282.043821812 0 -39935282.043821812 -19069129.513289452 0 0 0 0 -405684824.77705383 -191404364.60371852 0 -191404364.60371852 -42648864.968972683 0 0 0 0 -110027.17253025994 -144001.0324315615 0 -144001.0324315615 -223572.35202997678 0 0 0 0 516666234.83974457 -20192682.840600252 0 -20192682.840600252 89096710.471375823 0 0 0 0 234548057.99569702 -13817191.132691145 0 -13817191.132691145 96135261.543993115 0 0 0 0 401838349.05399323 -220958569.34188592 0 -220958569.34188592 -8690423.7351083755 0 0 0 0 578879501.40874481 -355850850.27325881 0 -355850850.27325881 198788468.17712593 0 0 0 0 991257626.98145676 56020895.076408029 0 56020895.076408029 12291827.971504688 0 0 0 0 2069590013.1637421 -780411038.78823042 0 -780411038.78823042 41788479.861412525 0 0 0 0 2540613052.8348813 1074264293.6108513 0 1074264293.6108513 -16134161.663303852 0 0 0 0 1278122973.5808487 396397406.08383143 0 396397406.08383143 -140828952.02538788 0 0 0 0 713648731.74520111 -142047992.29705691 0 -142047992.29705691 -52100835.925525904 0 0 0 0 326183988.52254105 19576506.915987432 0 19576506.915987432 22504619.171360612 0 0 0 0 -154647005.77862549 -94290542.426159561 0 -94290542.426159561 8645385.6897286847 0 0 0 0 614287297.86399841 131409261.73645206 0 131409261.73645206 -254681844.7589398 0 0 0 0 -16031636.749443054 -90771245.467225119 0 -90771245.467225119 -62309830.087479681 0 0 0 0 16777761.969653804 -4612143.9136026073 0 -4612143.9136026073 -1111961.4236265142 0 0 0 0 492179922.75865936 329580456.45253348 0 329580456.45253348 135488567.19676721 0 0 0 0 914198329.015522 277982273.92223179 0 277982273.92223179 -198121867.03056335 0 0 0 0 579321874.34781647 150699837.83846951 0 150699837.83846951 -86758573.378416389 0 0 0 0 892613324.38034058 308775723.08811796 0 308775723.08811796 127299045.10603952 0 0 0 0 1417344278.11726 945742581.52559519 0 945742581.52559519 294853028.87859583 0 0 0 0 4081930604.7186809 2414249647.3310175 0 2414249647.3310175 1095846828.276794 0 0 0 0 4091748126.7204094 727294358.18835557 0 727294358.18835557 -585176907.6002481 0 0 0 0 4045377.3055478856 159543.98618485965 0 159543.98618485965 -1423442.1787739992 0 0 0 0 1380379680.7002144 -433684185.09954023 0 -433684185.09954023 -935208257.91640186 0 0 0 0 1096687057.9377155 638233985.61270738 0 638233985.61270738 -120135329.13386536 0 0 0 0 1103565984.9142036 670558117.16453242 0 670558117.16453242 -29416349.954574853 0 0 0 0 2219428.2069791779 -344864.00853158347 0 -344864.00853158347 -329208.58574224229 0 0 0 0 810415511.27741241 -1329280649.2671647 0 -1329280649.2671647 -723399747.80140603 0 0 0 0 4089593762.1001701 1630216644.9328876 0 1630216644.9328876 -437268861.32248068 0 0 0 0 1720810652.4811172 805692294.61133277 0 805692294.61133277 -618581872.3844806 0 0 0 0 2856207477.420887 -158549167.20730719 0 -158549167.20730719 -1712725123.5540657 0 0 0 0 2144672877.6330299 -1249054678.9136093 0 -1249054678.9136093 -91847122.975280166 0 0 0 0 2362128764.4099007 563654004.79357731 0 563654004.79357731 -2106184697.6762323 0 0 0 0 2801497647.2304649 -155056935.37700677 0 -155056935.37700677 -1711781015.9663646 0 0 0 0 -319776983.94134331 -1538708288.6925089 0 -1538708288.6925089 435214213.23279941 0 0 0 0 -211317089.66543579 -726737976.67923546 0 -726737976.67923546 -2359706669.4019938 0 0 0 0 565255884.90254211 -399400865.01704168 0 -399400865.01704168 -909242123.51266956 0 0 0 0 -1484468403.1973114 353253890.96307945 0 353253890.96307945 -1428885888.8125048 0 0 0 0 207691755.65682983 49970865.058716774 0 49970865.058716774 -1396491031.3895457 0 0 0 0 -2222356432.2612381 -1235501967.0592823 0 -1235501967.0592823 -701031981.2135005 0 0 0 0 -834489817.04393005 -1462228274.4686966 0 -1462228274.4686966 -687975368.27628112 0 0 0 0 -576429248.23307419 -1190087077.6457105 0 -1190087077.6457105 -500019692.69181776 0 0 0 0 725812450.97885513 -1689513445.1699009 0 -1689513445.1699009 -318941400.95735788 0 0 0 0 851568333.16717911 -224123735.27994847 0 -224123735.27994847 -858820225.57304907 0 0 0 0 7690503.8033304643 -3814221.9556112033 0 -3814221.9556112033 -3994598.1945419302 0 0 0 0 528394065.72155571 -855910552.28034782 0 -855910552.28034782 808689891.08396876 0 0 0 0 1656930325.0380878 -580826146.66981077 0 -580826146.66981077 350458152.63986468 0 0 0 0 1341808295.1274021 -1807711637.8181946 0 -1807711637.8181946 473850159.26068282 0 0 0 0 1907963775.4970722 -999723446.9227457 0 -999723446.9227457 1049420346.2589308 0 0 0 0 4097734270.3283434 -1350794614.3703392 0 -1350794614.3703392 -678707893.23956823 0 0 0 0 798984232.6734314 -365707589.37909341 0 -365707589.37909341 546891222.82370353 0 0 0 0 4087867663.295403 -2510985427.0058517 0 -2510985427.0058517 1791911314.4470031 0 0 0 0 7616513.18092959 -3820877.7735985299 0 -3820877.7735985299 -3119936.1167327631 0 0 0 0 4049265635.6221614 -2513894103.5123978 0 -2513894103.5123978 577672302.85068631 0 0 0 0 340418518.04826355 -1123133030.8007216 0 -1123133030.8007216 2889841968.2316422 0 0 0 0 6129808.2590444162 -2326547.0408479362 0 -2326547.0408479362 747967.02396496246 0 0 0 0 -147784991.77180481 -149656407.25094995 0 -149656407.25094995 1327879238.634095 0 0 0 0 320398127.29291153 -720663108.80394316 0 -720663108.80394316 835057652.84556222 0 0 0 0 549834897.19250631 -914321964.55855978 0 -914321964.55855978 989122160.67837393 0 0 0 0 278662182.24819374 -423661705.58542567 0 -423661705.58542567 646232753.58341074 0 0 0 0 234708850.02417183 -201898548.17483664 0 -201898548.17483664 230005469.47724944 0 0 0 0 78421405.458864927 36749009.647542357 0 36749009.647542357 75286162.330675125 0 0 0 0 -10516748.80398941 -169620869.16241962 0 -169620869.16241962 520534401.3408972 0 0 0 0 326831195.80031395 -475681293.1308558 0 -475681293.1308558 480046654.35291713 0 0 0 0 201106029.50418234 -298511983.60602075 0 -298511983.60602075 294299458.32648277 0 0 0 0 133623313.53884125 -368682888.5505116 0 -368682888.5505116 620994153.35826778 0 0 0 0 345113180.43374443 -542769115.83111382 0 -542769115.83111382 517437773.53873634 0 0 0 0 331720351.56462574 -488315537.28439784 0 -488315537.28439784 849505309.72623539 0 0 0 0 178488071.72301579 -511965548.26524401 0 -511965548.26524401 754657951.62090206 0 0 0 0 628645736.27343369 -584510923.54529333 0 -584510923.54529333 635102702.87640142 0 0 0 0 4276824284.18575 -458167530.94397354 0 -458167530.94397354 -619105502.49464774 0 0 0 0 4854477.3016425278 -1564132.6188263823 0 -1564132.6188263823 -689881.47684785782 0 0 0 0 -473386905.72519684 -2259448905.6329689 0 -2259448905.6329689 -1399683509.79054 0 0 0 0 2635945975.3157687 1939283611.8646832 0 1939283611.8646832 -103261153.29460239 0 0 0 0 584429835.53190517 -1395172296.1433671 0 -1395172296.1433671 -790342046.27763748 0 0 0 0 224129177.32057524 -2136886376.8418179 0 -2136886376.8418179 -1394020045.2223134 0 0 0 0 6502603.4481358565 -3651989.461428965 0 -3651989.461428965 -3374715.7296323278 0 0 0 0 371971124.22499847 -747740687.19946194 0 -747740687.19946194 882573173.17556489 0 0 0 0 436712060.14616323 -587220741.81299615 0 -587220741.81299615 665923352.68053627 0 0 0 0 106626327.78202629 -496172188.4408741 0 -496172188.4408741 816915424.93280315 0 0 0 0 177875498.62329769 -441059753.14483833 0 -441059753.14483833 757950261.70495749 0 0 0 0 12580982.62894547 -374661892.63998413 0 -374661892.63998413 1111950480.8765063 0 0 0 0 -5139759.4611871243 -444401571.98055267 0 -444401571.98055267 838761492.84180832 0 0 0 0 86247966.933031321 -680083070.33327913 0 -680083070.33327913 943930177.38194656 0 0 0 0 108802995.82752943 -515567717.2211827 0 -515567717.2211827 435459375.83978415 0 0 0 0 -72920342.261966705 -549791083.012151 0 -549791083.012151 276987812.46957731 0 0 0 0 -116325062.60276556 -499072219.13148975 0 -499072219.13148975 446368054.28588867 0 0 0 0 148102651.38882017 -342778217.57002324 0 -342778217.57002324 113996066.146595 0 0 0 0 33859143.343773842 -556362329.07440352 0 -556362329.07440352 786726697.73668575 0 0 0 0 204720245.17500401 -533541936.23105431 0 -533541936.23105431 447209101.62360144 0 0 0 0 106021633.02762222 -362626767.05757117 0 -362626767.05757117 532941428.62662709 0 0 0 0 97799606.310482025 -206222972.21346831 0 -206222972.21346831 283395416.14926767 0 0 0 0 165164412.97344732 -426527651.6311034 0 -426527651.6311034 240297045.81639528 0 0 0 0 50366817.173213005 -34361470.192845941 0 -34361470.192845941 95866481.602709293 0 0 0 0 134586367.56153917 -268240950.70115519 0 -268240950.70115519 14186067.966206908 0 0 0 0 159145524.09356689 -312895778.42174315 0 -312895778.42174315 298132415.52726912 0 0 0 0 131774183.42912483 -53422983.309486628 0 -53422983.309486628 32685297.785417557 0 0 0 0 3753384.9650788307 -5970177.0417084694 0 -5970177.0417084694 32357041.555244446 0 0 0 0 53869638.146261215 -64367295.469960213 0 -64367295.469960213 327016816.7779063 0 0 0 0 64992736.434060097 -52256658.030813217 0 -52256658.030813217 49072949.696862221 0 0 0 0 22345727.209703207 8293582.0250606537 0 8293582.0250606537 27686848.472211838 0 0 0 0 -31776627.167427778 8608221.5229430199 0 8608221.5229430199 20161268.596844673 0 0 0 0 11094854.664741702 1215797.1358963563 0 1215797.1358963563 -8690729.7441891283 0 0 0 0 -10458352.772229791 34388880.78603065 0 34388880.78603065 11832561.034955978 0 0 0 0 -22579172.753047705 15498678.064368606 0 15498678.064368606 12902190.256816387 0 0 0 0 8887984.38052845 -10057551.036185265 0 -10057551.036185265 3383187.8184354305 0 0 0 0 40219166.243401527 -59532074.071995974 0 -59532074.071995974 44739765.158004165 0 0 0 0 15986782.156645775 -27756849.36877346 0 -27756849.36877346 -24520253.773154736 0 0 0 0 -3672203.7285107374 -29743052.067908406 0 -29743052.067908406 -13196141.008763075 0 0 0 0 1233760.7931203491 -1123746.8291959222 0 -1123746.8291959222 -702477.26664483442 0 0 0 0 -336846616.82880473 -222456599.19909212 0 -222456599.19909212 -298335155.22893691 0 0 0 0 25414839.593983173 -17045433.358771205 0 -17045433.358771205 -21039399.708622932 0 0 0 0 4016999.7197368145 -21482386.560093522 0 -21482386.560093522 -12738877.662094951 0 0 0 0 105166567.53944677 -347834988.83187544 0 -347834988.83187544 -472362747.70321655 0 0 0 0 93976504.45023644 -283254768.03962016 0 -283254768.03962016 201037667.42398119 0 0 0 0 48606078.252760172 -101514818.9931193 0 -101514818.9931193 -147671959.78401399 0 0 0 0 217378610.92196655 -175110937.85362262 0 -175110937.85362262 -442135204.35746628 0 0 0 0 36953044.966526031 -328675493.74888855 0 -328675493.74888855 -278580644.48366892 0 0 0 0 94385859.434985161 -171486098.80043107 0 -171486098.80043107 -412907260.86658448 0 0 0 0 6044906.2146486575 -11357732.988253897 0 -11357732.988253897 -5477768.3203237951 0 0 0 0 6850534.9619983733 -7343861.0560582653 0 -7343861.0560582653 -4316496.9041492734 0 0 0 0 6639965.8258824348 -6381410.1030995846 0 -6381410.1030995846 -3609557.5425815582 0 0 0 0 12874900.662562847 -8898216.8992080688 0 -8898216.8992080688 -17591831.623439789 0 0 0 0 12168528.066837907 -31463333.805177689 0 -31463333.805177689 9095807.4471492767 0 0 0 0 5613740.4614721388 -10311348.726857537 0 -10311348.726857537 -2625027.9487055996 0 0 0 0 -598828.47040224075 -12206078.306146622 0 -12206078.306146622 12141851.554844856 0 0 0 0 1809322.2303077043 -2489957.2948777918 0 -2489957.2948777918 317363.01217639609 0 0 0 0 214771541.25399423 358683276.47248292 0 358683276.47248292 -558460977.11010122 0 0 0 0 818404.62875175476 -88139651.846684098 0 -88139651.846684098 -200197736.4762249 0 0 0 0 660730315.01930332 -389983929.87755108 0 -389983929.87755108 145116638.92119741 0 0 0 0 402106545.05843186 250209367.93840802 0 250209367.93840802 292435471.0862484 0 0 0 0 337074893.35033703 3932363.1754798889 0 3932363.1754798889 -179195531.27390361 0 0 0 0 456043643.54717445 -370520173.46566916 0 -370520173.46566916 297421199.10737419 0 0 0 0 192747429.42597389 -437238998.18810034 0 -437238998.18810034 280516866.13170052 0 0 0 0 1404871832.4467525 -1032042553.1825604 0 -1032042553.1825604 921711342.66728997 0 0 0 0 278090721.98030663 -313198472.93176842 0 -313198472.93176842 692960149.36462879 0 0 0 0 902318148.30924129 282557084.17555618 0 282557084.17555618 969067136.37284088 0 0 0 0 342930109.43473816 -261534259.74759841 0 -261534259.74759841 495019480.42670965 0 0 0 0 547824270.91212511 -414846345.53676796 0 -414846345.53676796 -142846975.3383522 0 0 0 0 912877335.47687244 -1112483709.4510045 0 -1112483709.4510045 1182311061.241339 0 0 0 0 879256373.28478718 -32936469.002785206 0 -32936469.002785206 -1154773762.1609459 0 0 0 0 -336119.66593718529 -483741118.7800684 0 -483741118.7800684 2723681396.1837578 0 0 0 0 1761586.5244579362 -1815461.4715393849 0 -1815461.4715393849 264254.57252707705 0 0 0 0 -49087908.362710953 -66341591.2475667 0 -66341591.2475667 -611132689.09839296 0 0 0 0 1392263012.6834288 -554783121.24821568 0 -554783121.24821568 -839391128.95036983 0 0 0 0 607328149.89204228 -71543113.772255182 0 -71543113.772255182 -476944710.02972984 0 0 0 0 606857502.04749775 -49007318.507408321 0 -49007318.507408321 -768493471.36490917 0 0 0 0 829049197.9966507 -143562477.01412106 0 -143562477.01412106 -536001663.16123247 0 0 0 0 769212739.94160867 -392257479.67686832 0 -392257479.67686832 -147436571.93840122 0 0 0 0 570515350.8361001 -72548254.972342253 0 -72548254.972342253 -79093971.758905888 0 0 0 0 313608127.94609261 -131694749.45048904 0 -131694749.45048904 -27206907.26108098 0 0 0 0 497744735.75563216 -113898084.46556705 0 -113898084.46556705 -389800370.92113781 0 0 0 0 541351552.37084675 12959612.024214506 0 12959612.024214506 -288431921.7452364 0 0 0 0 -6767218.5238056183 -78646040.148869991 0 -78646040.148869991 81651517.042992592 0 0 0 0 196383310.09535789 251468970.64533603 0 251468970.64533603 -411722085.98644662 0 0 0 0 691764.79610217921 -57099.172940899851 0 -57099.172940899851 -179235.62636397811 0 0 0 0 1915184.7904859902 -462237.08277367847 0 -462237.08277367847 -460558.27798919176 0 0 0 0 88890634.698789597 -114192679.40939879 0 -114192679.40939879 -496143599.48770142 0 0 0 0 -209790352.64295912 -182814142.03201115 0 -182814142.03201115 -310404678.36676097 0 0 0 0 -183852822.35169792 -182181628.10694265 0 -182181628.10694265 -485246657.16232079 0 0 0 0 24226829.093593121 -190504659.95334604 0 -190504659.95334604 -982291022.43016493 0 0 0 0 9211040.5866661072 -78492643.440164566 0 -78492643.440164566 -1342715261.9502597 0 0 0 0 24276750.984601974 -133176041.14018154 0 -133176041.14018154 -375042740.96994281 0 0 0 0 -207695643.59863853 -423630546.93985868 0 -423630546.93985868 -828867863.09610057 0 0 0 0 -57362143.50185585 39794935.275669336 0 39794935.275669336 -697526066.96065474 0 0 0 0 4694981.117616293 -5101400.7339645661 0 -5101400.7339645661 384517.91587051703 0 0 0 0 -342369445.39465714 -537831685.4794364 0 -537831685.4794364 -793226106.66164303 0 0 0 0 62660026.319140434 -276417644.83594227 0 -276417644.83594227 980556019.36910439 0 0 0 0 970643.83204653673 -592330.46291948715 0 -592330.46291948715 -676986.32282954245 0 0 0 0 -33312739.34778595 -437771682.27015781 0 -437771682.27015781 -1067379086.3632431 0 0 0 0 -20600624.015338346 -285405830.47607005 0 -285405830.47607005 1001679849.9650536 0 0 0 0 10290585.676635869 -832759.81441517128 0 -832759.81441517128 -2160593.6490687579 0 0 0 0 4235852.1778324461 -5823620.7246685885 0 -5823620.7246685885 -3249482.7882590354 0 0 0 0 105571794.51881838 -355931959.68308449 0 -355931959.68308449 757865046.93473005 0 0 0 0 117218205.45514536 -309530829.56460381 0 -309530829.56460381 941957050.56892586 0 0 0 0 -483814923.12397718 -191313286.43083924 0 -191313286.43083924 -76745673.071208715 0 0 0 0 -403255520.68806458 -405332570.64220732 0 -405332570.64220732 490087710.67636406 0 0 0 0 2442770506.271975 1395993697.6187634 0 1395993697.6187634 308607074.30806875 0 0 0 0 2395198516.6709685 2562368110.4558835 0 2562368110.4558835 1094889102.6627798 0 0 0 0 2213845284.7425003 1394577061.4140806 0 1394577061.4140806 739427332.64538765 0 0 0 0 4607993.3732971475 1228.634856621793 0 1228.634856621793 -860412.43724790867 0 0 0 0 2363099830.248939 1150800065.2639904 0 1150800065.2639904 193688018.54106724 0 0 0 0 370486759.13563299 -538497516.93065381 0 -538497516.93065381 -899595123.60005236 0 0 0 0 -41505255.649335384 -107822205.60133302 0 -107822205.60133302 -948017414.68892145 0 0 0 0 -280614428.25281239 -65521725.115029573 0 -65521725.115029573 -501630977.96242142 0 0 0 0 -83674063.54541111 -146364581.75783837 0 -146364581.75783837 -517652620.54512286 0 0 0 0 169350719.57499599 150910549.86638522 0 150910549.86638522 -608612329.81641841 0 0 0 0 1188591185.576725 -628101865.32211542 0 -628101865.32211542 -119062899.40732989 0 0 0 0 727526366.12284946 -701306360.02335989 0 -701306360.02335989 -33217634.26632452 0 0 0 0 2548807.3919916153 -269669924.17256504 0 -269669924.17256504 -79410410.1829772 0 0 0 0 1231170.8992451215 -447734.18390022323 0 -447734.18390022323 -307353.84546101891 0 0 0 0 35422313.843631744 -87076436.818922073 0 -87076436.818922073 -830310494.25561953 0 0 0 0 1812571080.4103489 361118729.41283458 0 361118729.41283458 -853324648.41000795 0 0 0 0 2142007686.4578934 425113698.54527068 0 425113698.54527068 -30796258.688879289 0 0 0 0 5777381.5604853649 -2916458.7523700562 0 -2916458.7523700562 112376.60539769579 0 0 0 0 2127802717.9835749 270292251.61802113 0 270292251.61802113 -1357906837.342236 0 0 0 0 2493420624.423769 217396774.17715192 0 217396774.17715192 69187196.093558311 0 0 0 0 1431450704.335372 -313010685.25947779 0 -313010685.25947779 -165149240.4364109 0 0 0 0 1381801522.4454422 -227542328.6284039 0 -227542328.6284039 -305046199.521447 0 0 0 0 1708480575.9409733 -69899042.577019632 0 -69899042.577019632 -373437487.05768394 0 0 0 0 4433914.6158419047 -2435530.0871887882 0 -2435530.0871887882 -527902.37117406377 0 0 0 0 4095930071.2756033 445123354.77489579 0 445123354.77489579 -244273691.36325172 0 0 0 0 4087891369.2754817 -302275184.31888348 0 -302275184.31888348 -728886602.15308309 0 0 0 0 2266297995.225358 -555802845.54083002 0 -555802845.54083002 -26991289.703922033 0 0 0 0 2618028285.0569715 -52218145.813004315 0 -52218145.813004315 -411161904.86220932 0 0 0 0 3347883395.6682615 -1010986149.5709722 0 -1010986149.5709722 -570163116.20704806 0 0 0 0 2693708466.8655863 -149211483.99270007 0 -149211483.99270007 -931053754.29768515 0 0 0 0 3688389869.699111 1252961262.4504681 0 1252961262.4504681 -1276748269.6488895 0 0 0 0 2180714577.8897076 1095101407.1166654 0 1095101407.1166654 487403056.66339684 0 0 0 0 1869404897.3184795 434873370.78829002 0 434873370.78829002 831005908.28886032 0 0 0 0 3359126468.5395145 -1013720572.5747313 0 -1013720572.5747313 1349483277.4263906 0 0 0 0 1950570495.3922858 1288270775.6312475 0 1288270775.6312475 874916373.76990986 0 0 0 0 1695351163.0838351 661210187.87648916 0 661210187.87648916 902602310.90199661 0 0 0 0 7040108.7738960674 -2337249.1832715501 0 -2337249.1832715501 -2269304.1114661125 0 0 0 0 2100133949.1533957 1201346247.8748999 0 1201346247.8748999 444218471.63074589 0 0 0 0 1782058099.6751232 1138830271.9642472 0 1138830271.9642472 745743259.87090302 0 0 0 0 2219031535.9373207 1014320866.2481463 0 1014320866.2481463 738140684.98245621 0 0 0 0 465108.20439343061 -213375.84049063921 0 -213375.84049063921 -737531.09014744358 0 0 0 0 11550199.125782013 -131857249.56921196 0 -131857249.56921196 -1529779752.0491779 0 0 0 0 -2074534465.4503555 -2606743192.857029 0 -2606743192.857029 -4460071899.9448242 0 0 0 0 4086036526.7976093 -173077667.7663599 0 -173077667.7663599 -2216676524.5935321 0 0 0 0 294646.18981119245 -4261168.4561086586 0 -4261168.4561086586 803099.26234287559 0 0 0 0 395511422.64195299 -640877012.23122418 0 -640877012.23122418 1020699492.2516328 0 0 0 0 2670138163.8381157 546157990.0876689 0 546157990.0876689 -1368332986.1637552 0 0 0 0 282351777.14785647 -269065994.88735056 0 -269065994.88735056 -176155696.09230614 0 0 0 0 -65991612.297784805 -105496080.30712891 0 -105496080.30712891 -209756297.81100535 0 0 0 0 309232996.21638781 -262034434.63537121 0 -262034434.63537121 -231141872.1477108 0 0 0 0 404123148.53972626 -420544172.87738895 0 -420544172.87738895 -130278145.75255632 0 0 0 0 468853173.1807518 -281249254.07007599 0 -281249254.07007599 -196888010.89221001 0 0 0 0 444865751.67127037 -391977307.25425816 0 -391977307.25425816 -112968769.84754372 0 0 0 0 397207239.38340294 -119789495.62200642 0 -119789495.62200642 -133497195.13080788 0 0 0 0 303906218.24226236 -10671226.035802364 0 -10671226.035802364 -262016782.24724197 0 0 0 0 202060641.71952248 -193638850.37843132 0 -193638850.37843132 -143966923.26294708 0 0 0 0 113683043.16306686 162565334.82785606 0 162565334.82785606 -175071418.66855907 0 0 0 0 191200474.01926136 218664113.72316074 0 218664113.72316074 -206869373.59726715 0 0 0 0 291197951.4512825 56161658.352336884 0 56161658.352336884 -118500050.16798687 0 0 0 0 156220219.37796974 228514528.47847939 0 228514528.47847939 -74744457.115062714 0 0 0 0 185393153.52436829 192232380.59668541 0 192232380.59668541 -331044382.46421432 0 0 0 0 29786782.350683212 251899132.10672569 0 251899132.10672569 -207262774.34219742 0 0 0 0 -20308289.501976013 258709257.83986855 0 258709257.83986855 -323825335.38512158 0 0 0 0 -132946930.67440224 378791237.61064529 0 378791237.61064529 -445866162.02670288 0 0 0 0 24775070.539962769 -123186548.06184578 0 -123186548.06184578 -160889016.48088455 0 0 0 0 90206712.562185287 83924815.347734451 0 83924815.347734451 -299785072.29364014 0 0 0 0 -45594446.874311447 52780014.27693367 0 52780014.27693367 -287322509.84659386 0 0 0 0 -9220175.4840206206 -116132079.08511209 0 -116132079.08511209 -431570774.1197052 0 0 0 0 -268407823.53543401 233952758.62196541 0 233952758.62196541 -404340388.07263184 0 0 0 0 -253834623.83769417 281941106.10182953 0 281941106.10182953 -1031530006.7058868 0 0 0 0 -414393392.66041416 177327164.08611679 0 177327164.08611679 -422455506.20365143 0 0 0 0 -66973378.895803988 389569642.25638258 0 389569642.25638258 -449055000.13161469 0 0 0 0 -454294313.56504726 58718443.645648956 0 58718443.645648956 -555442515.63628197 0 0 0 0 -524012665.0403223 501639693.36600113 0 501639693.36600113 -455684294.18392754 0 0 0 0 -171605989.10485077 644758479.36514282 0 644758479.36514282 -662146005.20032883 0 0 0 0 80583864.935483932 -93849085.188506126 0 -93849085.188506126 -176688152.03463745 0 0 0 0 -39418651.048516273 280486363.84589195 0 280486363.84589195 -817559959.4961586 0 0 0 0 455790.73756402044 -832958.3258040864 0 -832958.3258040864 -990237.72987598181 0 0 0 0 -1166920584.9987097 877298828.6648159 0 877298828.6648159 -512633400.86177063 0 0 0 0 -794440939.83408546 789537818.66252136 0 789537818.66252136 -881976006.02065754 0 0 0 0 -409127705.95991516 365262706.074646 0 365262706.074646 -580644682.09444427 0 0 0 0 -1102785510.2426021 514258860.24515414 0 514258860.24515414 -292309905.38189697 0 0 0 0 -189361584.52941728 165203231.92418098 0 165203231.92418098 -370513030.36763668 0 0 0 0 -217875588.53687406 143173143.9817872 0 143173143.9817872 -90548723.600639343 0 0 0 0 117542340.60091972 -11613290.899116516 0 -11613290.899116516 -312735034.15671539 0 0 0 0 -462668707.21274936 340368902.07668877 0 340368902.07668877 -405109231.33090973 0 0 0 0 -107850098.6145286 7040659.3327789307 0 7040659.3327789307 -495374590.31721878 0 0 0 0 228891407.57866716 -196872718.16018963 0 -196872718.16018963 -332477671.72224045 0 0 0 0 -147087696.46476352 3818009.1689434052 0 3818009.1689434052 -176697035.66714096 0 0 0 0 195224917.46729255 -287136718.1892662 0 -287136718.1892662 -52010912.546045303 0 0 0 0 418454619.41783905 -200296416.60322189 0 -200296416.60322189 -187756396.6671257 0 0 0 0 87506415.976417542 -90445101.414550781 0 -90445101.414550781 66744092.338411331 0 0 0 0 328413548.46273595 -19756821.408738613 0 -19756821.408738613 -124496630.54582596 0 0 0 0 304072039.35700393 -92845211.167398214 0 -92845211.167398214 355152042.79929352 0 0 0 0 736667950.88093281 -320789764.82084274 0 -320789764.82084274 20404117.694728851 0 0 0 0 820620697.05071926 -166331958.14115334 0 -166331958.14115334 63627625.936954498 0 0 0 0 1146441580.9376564 -457761270.65125656 0 -457761270.65125656 257057581.57023239 0 0 0 0 1461480633.6470394 -416388743.21619415 0 -416388743.21619415 190625354.4350853 0 0 0 0 642208328.86904597 -107278751.74378633 0 -107278751.74378633 579513678.23483276 0 0 0 0 2345338658.1119518 -423110255.33176613 0 -423110255.33176613 63861732.698112488 0 0 0 0 2022664944.5780258 -289453286.16119385 0 -289453286.16119385 101171123.58905029 0 0 0 0 1592938119.4817271 -48597574.075385094 0 -48597574.075385094 259086050.34076691 0 0 0 0 42866.514461775965 -2589124.4495748817 0 -2589124.4495748817 1153702.6934886128 0 0 0 0 -63932553.104984529 185513302.18478 0 185513302.18478 361332530.83729172 0 0 0 0 54630.711164734792 -147440.76161317155 0 -147440.76161317155 -169509.21695994935 0 0 0 0 1119924166.3254147 -121322103.23050308 0 -121322103.23050308 285112799.15733624 0 0 0 0 1917029355.6988831 213755015.78011703 0 213755015.78011703 -114535758.84200573 0 0 0 0 3765151.9168855911 -1490776.2202281617 0 -1490776.2202281617 -10225276.662394842 0 0 0 0 1150940241.405632 -88911290.540990829 0 -88911290.540990829 -81585716.039024353 0 0 0 0 1101663695.0465951 -40435627.72028923 0 -40435627.72028923 -89854856.956777573 0 0 0 0 14433785.949830055 43359357.661662579 0 43359357.661662579 -122711596.05981588 0 0 0 0 476487842.85983574 -337437369.67543685 0 -337437369.67543685 -17629540.848876953 0 0 0 0 417966530.81827736 -275360174.35751045 0 -275360174.35751045 81937317.989616394 0 0 0 0 737668745.50604534 -236478923.34881783 0 -236478923.34881783 -103638447.28237915 0 0 0 0 813140833.38246107 -353799654.0573988 0 -353799654.0573988 22746456.614337921 0 0 0 0 -52452502.993337512 19067995.346946716 0 19067995.346946716 91963127.590767384 0 0 0 0 149381777.49698138 -40445537.579692841 0 -40445537.579692841 16345119.456190109 0 0 0 0 4650688.0904538194 -7705241.3519365126 0 -7705241.3519365126 -1673134.2223607863 0 0 0 0 -30546263.929878235 1850057.295058012 0 1850057.295058012 12662711.591939449 0 0 0 0 -50279215.256825373 -79484956.269932747 0 -79484956.269932747 229446100.33689117 0 0 0 0 21211078.340698242 -21563233.573910952 0 -21563233.573910952 10680825.435275882 0 0 0 0 29631607.230088234 -46052086.477387309 0 -46052086.477387309 -132889891.59814811 0 0 0 0 173223036.73374462 -102279415.15698385 0 -102279415.15698385 -228842687.45498037 0 0 0 0 -139573741.61627197 294821174.34771395 0 294821174.34771395 75983130.570409775 0 0 0 0 -50572621.441716194 204518183.65105414 0 204518183.65105414 -319778066.68795943 0 0 0 0 -264750686.66185188 108503961.38066268 0 108503961.38066268 70442005.628669024 0 0 0 0 -20505639.902126789 94457311.889418066 0 94457311.889418066 -15865163.423384666 0 0 0 0 -114855460.26508808 120330017.93503809 0 120330017.93503809 -37829071.152941704 0 0 0 0 -58873434.063103676 -55163283.487221479 0 -55163283.487221479 311964247.48815799 0 0 0 0 129622498.88603616 157391698.21245968 0 157391698.21245968 534282788.36837673 0 0 0 0 632808133.21794605 -346489827.66592598 0 -346489827.66592598 -135533347.73867226 0 0 0 0 613348632.49717593 -196041402.05000234 0 -196041402.05000234 -91229226.837085724 0 0 0 0 1906673.6457135226 -867710.74726015795 0 -867710.74726015795 -6562485.864324783 0 0 0 0 634147762.53765392 -139336949.57657146 0 -139336949.57657146 -568692.73282051086 0 0 0 0 391354569.56756163 -164892397.0030899 0 -164892397.0030899 -52564619.766924858 0 0 0 0 371782119.63569689 -387884490.80139875 0 -387884490.80139875 -88030805.468495369 0 0 0 0 459205832.9118576 -342468320.74226236 0 -342468320.74226236 -65376270.376192093 0 0 0 0 837323.10505989217 -1068610.8843134735 0 -1068610.8843134735 -3165099.1368195447 0 0 0 0 17213272.902968407 -279459764.15334797 0 -279459764.15334797 32471693.953839779 0 0 0 0 -12587514.927185535 -106761496.18379951 0 -106761496.18379951 -124735146.06667328 0 0 0 0 -657902713.71739864 -191978520.19469929 0 -191978520.19469929 258575485.21336174 0 0 0 0 219897.06603962946 -654995.9424139508 0 -654995.9424139508 -832893.37888494926 0 0 0 0 186716344.12759781 -423274343.49343181 0 -423274343.49343181 130182507.88152695 0 0 0 0 293731800.6938076 -294313484.50154328 0 -294313484.50154328 51213151.307191849 0 0 0 0 403803761.24489021 -581596556.40108442 0 -581596556.40108442 352089315.78077888 0 0 0 0 -426527905.41988313 -92962426.643069953 0 -92962426.643069953 326688148.54268456 0 0 0 0 11429421.28677845 -238182173.51569533 0 -238182173.51569533 27730197.669599056 0 0 0 0 136812497.41280937 -215884526.98153472 0 -215884526.98153472 -94419084.38131237 0 0 0 0 119838443.70552135 -242703166.33179528 0 -242703166.33179528 5913808.9160060883 0 0 0 0 484813997.45212078 -217220801.85032129 0 -217220801.85032129 -207174493.1121788 0 0 0 0 441083473.23803425 -345293322.01641154 0 -345293322.01641154 -77914308.017916918 0 0 0 0 216041261.8491087 -180226768.9043777 0 -180226768.9043777 -97091322.586022377 0 0 0 0 313372049.69947958 -262763481.09644222 0 -262763481.09644222 -68269588.542284012 0 0 0 0 -46517301.643432617 21666936.867162466 0 21666936.867162466 161159293.54591048 0 0 0 0 339103936.44072819 -192770059.53687429 0 -192770059.53687429 107732229.77940515 0 0 0 0 155703098.93072176 -220413881.74413764 0 -220413881.74413764 483443654.22947884 0 0 0 0 88548574.045214653 -47896473.68506813 0 -47896473.68506813 54798695.06722486 0 0 0 0 232909938.72588873 11905424.404001713 0 11905424.404001713 266086384.36222792 0 0 0 0 -150326304.34809875 -350810832.08778882 0 -350810832.08778882 29871915.307658195 0 0 0 0 91357187.931458473 179312322.12765062 0 179312322.12765062 115443534.0550952 0 0 0 0 13128594.922333956 200815119.97378916 0 200815119.97378916 682601290.83608723 0 0 0 0 -12090658.96107436 213200813.92298144 0 213200813.92298144 1010209326.0507274 0 0 0 0 419229092.44831896 122676793.00982237 0 122676793.00982237 662569536.68250895 0 0 0 0 570998690.11373472 -227130664.26695061 0 -227130664.26695061 1466792827.9493101 0 0 0 0 710670446.24799442 504299458.11572444 0 504299458.11572444 922621032.03694332 0 0 0 0 1058715208.3376253 -5328526.4939454794 0 -5328526.4939454794 1012671381.3830628 0 0 0 0 789019398.01179218 -213731621.61242032 0 -213731621.61242032 419248667.0497117 0 0 0 0 895029681.67340112 -505768318.57978356 0 -505768318.57978356 1146002307.4329555 0 0 0 0 309481536.30374336 -228084097.2449255 0 -228084097.2449255 1009680009.4576778 0 0 0 0 515447849.08814669 -449379583.03552532 0 -449379583.03552532 136578102.75362873 0 0 0 0 531347418.57252741 -281322925.46650076 0 -281322925.46650076 190349020.69595432 0 0 0 0 756634687.75016737 -512611410.73924541 0 -512611410.73924541 427695794.95418882 0 0 0 0 921669618.34317946 -132539602.62745583 0 -132539602.62745583 177600298.06334496 0 0 0 0 796134679.99168909 -274001752.79681301 0 -274001752.79681301 72901296.14142704 0 0 0 0 628701567.49814928 -149468961.77456099 0 -149468961.77456099 -19591809.103355408 0 0 0 0 633809033.09026074 -457342020.43920434 0 -457342020.43920434 37623794.600654602 0 0 0 0 462920374.67699432 -337297513.71755028 0 -337297513.71755028 -46659447.62353754 0 0 0 0 457306698.44467974 -450003923.70547152 0 -450003923.70547152 -44901392.504467964 0 0 0 0 350759391.41065693 271865325.58784771 0 271865325.58784771 153804424.1199379 0 0 0 0 505876255.70186424 127040925.17818069 0 127040925.17818069 27161929.413739264 0 0 0 0 350567864.95154762 243445049.88590908 0 243445049.88590908 55324738.234888077 0 0 0 0 176350839.19990444 262767193.97047853 0 262767193.97047853 58991210.077041626 0 0 0 0 309459555.7547822 157901160.26454878 0 157901160.26454878 25768989.716438293 0 0 0 0 338784657.77091217 163428852.78173256 0 163428852.78173256 -63339793.377223969 0 0 0 0 463671922.94964409 100409087.03628349 0 100409087.03628349 -111463948.16996193 0 0 0 0 596161046.10203791 -214783328.92049122 0 -214783328.92049122 -94219759.980560303 0 0 0 0 370580402.2304616 679583.89933729172 0 679583.89933729172 -4937861.1601409912 0 0 0 0 483161974.65708494 145293611.13587809 0 145293611.13587809 162559666.12360191 0 0 0 0 707448397.837708 -41819552.85916996 0 -41819552.85916996 410208.05936694145 0 0 0 0 744889114.84526634 97989012.466776848 0 97989012.466776848 163065698.31932259 0 0 0 0 737449186.13060296 11308677.851991653 0 11308677.851991653 85014751.648140907 0 0 0 0 1008513564.416923 -139427415.77853155 0 -139427415.77853155 156631770.16119909 0 0 0 0 871895527.07018006 -191057156.65480781 0 -191057156.65480781 403549170.99489212 0 0 0 0 858302709.37409604 248557161.98648787 0 248557161.98648787 351187555.67411709 0 0 0 0 648212346.10163212 390023452.10231304 0 390023452.10231304 355146545.10415077 0 0 0 0 404263122.94366741 389185983.0966115 0 389185983.0966115 543234092.11852789 0 0 0 0 498452840.72522831 210035567.31723261 0 210035567.31723261 167035574.84436607 0 0 0 0 303179742.91319418 289742846.23932099 0 289742846.23932099 252890403.90704727 0 0 0 0 302320081.43765354 304620710.71671844 0 304620710.71671844 475494817.17945385 0 0 0 0 760075448.73581052 631582952.27962184 0 631582952.27962184 999510829.03377652 0 0 0 0 597580870.09284019 308998975.156268 0 308998975.156268 526844051.79398096 0 0 0 0 198701723.76222229 277114238.78516966 0 277114238.78516966 999996719.72266281 0 0 0 0 1530990564.9407916 -199150742.44046235 0 -199150742.44046235 403546964.33386928 0 0 0 0 1378084214.8699245 158285262.28982759 0 158285262.28982759 365969795.69118577 0 0 0 0 2542521879.0989313 -292311301.54929817 0 -292311301.54929817 676400659.77698064 0 0 0 0 1211521364.9391384 26654947.637810171 0 26654947.637810171 633274677.95011353 0 0 0 0 19387480.674845219 -11069883.371586084 0 -11069883.371586084 1172429948.1053467 0 0 0 0 1155898930.5279906 -449466197.3433255 0 -449466197.3433255 2546421168.1858444 0 0 0 0 1116856260.6234572 947913789.94848335 0 947913789.94848335 1852243726.7218561 0 0 0 0 2444981939.1308804 801593657.56214643 0 801593657.56214643 1324566472.9281824 0 0 0 0 140649597.76412773 176285737.65531015 0 176285737.65531015 1109396520.3800554 0 0 0 0 482726651.38391495 142331379.12170529 0 142331379.12170529 1138412165.209868 0 0 0 0 477779083.63694668 183338536.36209702 0 183338536.36209702 807756657.37430668 0 0 0 0 59741007.185649872 -253385208.25329542 0 -253385208.25329542 1093228462.3122959 0 0 0 0 89075626.672636032 -136595648.05531883 0 -136595648.05531883 679632452.67605972 0 0 0 0 -48598291.758720398 -27527214.932892799 0 -27527214.932892799 804863327.57935095 0 0 0 0 53110205.180776596 -212010361.51284885 0 -212010361.51284885 651468362.07592964 0 0 0 0 96603376.368250608 -11274436.267390251 0 -11274436.267390251 721812173.17314816 0 0 0 0 -103790568.68421173 103698219.97359329 0 103698219.97359329 615095407.27409303 0 0 0 0 -40458952.833723545 -24965305.914077759 0 -24965305.914077759 573810388.40912819 0 0 0 0 -151763544.29073715 -12161104.422816753 0 -12161104.422816753 455788444.25194931 0 0 0 0 -147111462.16962814 -363400.69556760788 0 -363400.69556760788 481325297.53092742 0 0 0 0 -199470028.9000206 92760998.975985169 0 92760998.975985169 461683985.10765886 0 0 0 0 -112327136.8893013 -64896166.088380098 0 -64896166.088380098 592926121.44753456 0 0 0 0 -148978809.50258923 32741466.816497549 0 32741466.816497549 507952117.01375979 0 0 0 0 -164066797.57970047 185114543.26356125 0 185114543.26356125 468703941.36065912 0 0 0 0 -125329090.37841415 207580803.04492709 0 207580803.04492709 478830817.5374943 0 0 0 0 -40981265.220277786 163481606.14991212 0 163481606.14991212 426923289.00713825 0 0 0 0 -1665941.2636508942 255905999.01515913 0 255905999.01515913 642144016.7883029 0 0 0 0 77962117.496845245 167563629.2148366 0 167563629.2148366 576503709.6232152 0 0 0 0 199990739.28284997 254562059.92448339 0 254562059.92448339 614193895.38932538 0 0 0 0 -1575026.5539131165 162137525.46425313 0 162137525.46425313 885102518.18348813 0 0 0 0 -32241258.229721069 64674537.161736533 0 64674537.161736533 576417163.19822419 0 0 0 0 -112959200.76985192 134813329.71591663 0 134813329.71591663 445315575.46775866 0 0 0 0 -304161679.33566284 78907673.315468311 0 78907673.315468311 447738511.78080678 0 0 0 0 -230565461.29200363 48766180.434838295 0 48766180.434838295 406246140.82642889 0 0 0 0 -242157819.23261499 127390562.15697676 0 127390562.15697676 297120088.89833164 0 0 0 0 -156207570.57024574 203774755.75427461 0 203774755.75427461 238376145.95164585 0 0 0 0 -205398263.9370079 94597743.208620191 0 94597743.208620191 146452977.02915031 0 0 0 0 -265899291.09692383 26576352.74280329 0 26576352.74280329 300920577.26251101 0 0 0 0 -273444570.57439888 216268693.62366077 0 216268693.62366077 535501647.92258072 0 0 0 0 -233639459.16364288 368565191.70375133 0 368565191.70375133 -260701072.68073678 0 0 0 0 -343996010.02946472 187405750.3193903 0 187405750.3193903 185883274.56835783 0 0 0 0 -250056560.45074081 406910506.90381718 0 406910506.90381718 7515133.1144514084 0 0 0 0 -195833512.07675552 193976981.07278204 0 193976981.07278204 -13205289.779730797 0 0 0 0 -232303706.40382385 216224459.41596556 0 216224459.41596556 272538745.76066685 0 0 0 0 -180601886.04480743 321074859.2539978 0 321074859.2539978 16708463.194337845 0 0 0 0 -188058030.59606552 427248991.02316284 0 427248991.02316284 -31014278.927001953 0 0 0 0 -215320580.7493515 382640651.75340271 0 382640651.75340271 -81839425.018856049 0 0 0 0 -229408278.46123505 399930744.62405777 0 399930744.62405777 -32993459.499971509 0 0 0 0 -362448974.48984778 254751438.16980287 0 254751438.16980287 -69992604.584048271 0 0 0 0 -365430920.86875153 328142842.48401356 0 328142842.48401356 -24008216.293146133 0 0 0 0 2303820.6005344391 335713671.65063667 0 335713671.65063667 291492756.66755581 0 0 0 0 21105610.923902512 348265429.88193798 0 348265429.88193798 135007302.87336731 0 0 0 0 120854611.9796505 368247459.18110251 0 368247459.18110251 526567524.37763882 0 0 0 0 76178831.165212631 257567038.60574484 0 257567038.60574484 252487783.97652173 0 0 0 0 -57776751.198331833 295287638.91640306 0 295287638.91640306 510594835.66779613 0 0 0 0 -68104014.753805161 218475489.47811246 0 218475489.47811246 247231094.89256573 0 0 0 0 -92757123.161582947 285443855.89656258 0 285443855.89656258 124919394.99395466 0 0 0 0 -138830942.53110504 306299101.53828907 0 306299101.53828907 313251953.20771122 0 0 0 0 -90978450.083095193 307761299.19192672 0 307761299.19192672 130334052.56962395 0 0 0 0 -85578080.369188309 392494681.72106075 0 392494681.72106075 25494476.086950302 0 0 0 0 -194691341.47283936 346795572.33263111 0 346795572.33263111 159697846.24448061 0 0 0 0 -182390356.86639404 427658298.45413208 0 427658298.45413208 -50335074.681674957 0 0 0 0 -156694072.99725056 347331316.44002008 0 347331316.44002008 -3109063.2211589813 0 0 0 0 -11667717.489967346 382772929.85155106 0 382772929.85155106 -10806077.20381546 0 0 0 0 29764532.318737507 281156356.37400723 0 281156356.37400723 -35993236.134597778 0 0 0 0 144726798.45942688 313672785.53037739 0 313672785.53037739 281896040.92584229 0 0 0 0 146946840.86845684 279017418.12741137 0 279017418.12741137 99295485.025810242 0 0 0 0 195341038.52482033 247068023.51927853 0 247068023.51927853 -61967526.030597687 0 0 0 0 50336943.023303986 342016849.32738113 0 342016849.32738113 104140725.26458859 0 0 0 0 44745946.370471954 283144480.31449699 0 283144480.31449699 -59820933.812239289 0 0 0 0 72548625.22440815 288453906.11976147 0 288453906.11976147 -193374106.53338623 0 0 0 0 -47616624.14931488 339122174.35017395 0 339122174.35017395 -48919785.789967537 0 0 0 0 -29279678.267787933 355036968.14175797 0 355036968.14175797 -153843649.76021957 0 0 0 0 -27536041.278223038 319374585.25631285 0 319374585.25631285 -324923097.95137787 0 0 0 0 70825599.559196472 289902533.52293539 0 289902533.52293539 -367539523.35470963 0 0 0 0 -59002952.995494843 298674995.15833473 0 298674995.15833473 -192824499.260517 0 0 0 0 9237502.9021008015 406154590.77779055 0 406154590.77779055 -539748239.883461 0 0 0 0 -9339795.3886146545 296092783.54808235 0 296092783.54808235 -359927713.80785561 0 0 0 0 8274916.5316476822 314126392.87211704 0 314126392.87211704 -530096559.51850891 0 0 0 0 -178568143.70164871 295387642.78210831 0 295387642.78210831 -328230431.25288391 0 0 0 0 84449665.256988525 371819073.14118195 0 371819073.14118195 -719090934.59550095 0 0 0 0 -50885322.501194 267612319.37784576 0 267612319.37784576 -555146502.87899208 0 0 0 0 -76590219.784169197 179802986.08522272 0 179802986.08522272 -730202738.93135834 0 0 0 0 58792590.68592453 246183018.57717896 0 246183018.57717896 -732356567.37930787 0 0 0 0 56487216.13445282 274051840.02634811 0 274051840.02634811 -832300537.60128403 0 0 0 0 86225272.908359528 399906891.89001846 0 399906891.89001846 -570683132.8741951 0 0 0 0 -310254344.01340866 305222085.64104462 0 305222085.64104462 -619169490.47588348 0 0 0 0 -353698256.09481621 425971602.81656313 0 425971602.81656313 -500201021.08766174 0 0 0 0 -160075292.85398865 386725093.3951416 0 386725093.3951416 -736104983.29812622 0 0 0 0 -198525080.97862244 376332310.38704681 0 376332310.38704681 -737923216.93145943 0 0 0 0 -742538037.72264481 509864193.11121368 0 509864193.11121368 -686353190.99315071 0 0 0 0 -264051601.46224976 399369463.29193497 0 399369463.29193497 -534870650.06219482 0 0 0 0 -144816156.69610214 283652644.80350113 0 283652644.80350113 -440674731.46544313 0 0 0 0 -401297881.41259003 250825369.954916 0 250825369.954916 -442342968.53979492 0 0 0 0 -301617066.01610374 358511973.63890457 0 358511973.63890457 -285574501.64694595 0 0 0 0 -210716424.31825256 418588837.35915756 0 418588837.35915756 -378980806.60277176 0 0 0 0 -331556035.50436401 357739535.83180428 0 357739535.83180428 -400700453.49973679 0 0 0 0 -211733057.45700455 405037690.43590927 0 405037690.43590927 -497919742.79618835 0 0 0 0 -232529480.14268494 360606646.10800743 0 360606646.10800743 -285686856.56789207 0 0 0 0 -178079800.6866827 409492122.80620003 0 409492122.80620003 -202352607.67889786 0 0 0 0 -223542044.17902565 429509102.01458097 0 429509102.01458097 -208298524.90546799 0 0 0 0 -157902289.10355759 302490669.14001465 0 302490669.14001465 -174875958.5781517 0 0 0 0 -148793845.9168129 393006799.2345295 0 393006799.2345295 -213382487.94059181 0 0 0 0 -203520318.42702341 328928251.27946973 0 328928251.27946973 -278243306.60894775 0 0 0 0 -123120094.64857483 331711959.20403099 0 331711959.20403099 -34199212.013528824 0 0 0 0 -97053138.084140778 380734366.89092112 0 380734366.89092112 -104555604.84242249 0 0 0 0 -193483046.47473526 356186996.65547752 0 356186996.65547752 -110682851.56591034 0 0 0 0 -199018561.38137054 375693233.15702248 0 375693233.15702248 -96781252.621397018 0 0 0 0 -198568160.91439056 439158786.67689896 0 439158786.67689896 -133360716.80823517 0 0 0 0 -159431168.67697144 369390725.2333622 0 369390725.2333622 -204415922.33464622 0 0 0 0 -160262224.51876068 360382738.78483009 0 360382738.78483009 -247514407.61515045 0 0 0 0 -309426471.03070068 317221444.9037199 0 317221444.9037199 -114589550.65088272 0 0 0 0 -132472913.95078659 296137884.01607323 0 296137884.01607323 -122071205.62730455 0 0 0 0 -15074536.550852299 43813853.715493083 0 43813853.715493083 -65493981.029693604 0 0 0 0 -31362481.203323364 195808984.92036057 0 195808984.92036057 -351963389.66691589 0 0 0 0 -46645074.603689194 167592418.0437994 0 167592418.0437994 -323528533.35262108 0 0 0 0 -182005796.72519302 423923886.23191833 0 423923886.23191833 -366531116.09967041 0 0 0 0 -100087562.98222351 344777106.82336998 0 344777106.82336998 -400231281.62963867 0 0 0 0 -192711115.04263878 422051995.70430946 0 422051995.70430946 -256300220.32665253 0 0 0 0 -227200611.52235413 402180710.54145432 0 402180710.54145432 -349511678.4356308 0 0 0 0 -112410124.62843704 309761846.39980125 0 309761846.39980125 -231455993.84719181 0 0 0 0 -124861853.63940811 394732324.64335251 0 394732324.64335251 -483739303.08482361 0 0 0 0 -160225497.44872284 374077120.28826904 0 374077120.28826904 -475112307.14879608 0 0 0 0 -8923450.6867980957 187336803.17917633 0 187336803.17917633 -599381333.48580933 0 0 0 0 68432112.635551453 144313536.01277161 0 144313536.01277161 -714767713.84626007 0 0 0 0 -91416660.06388855 384199431.62224197 0 384199431.62224197 -1000726140.147049 0 0 0 0 -20658541.18939209 220760634.42651367 0 220760634.42651367 -626458720.62850189 0 0 0 0 79276544.886688232 179018323.55936623 0 179018323.55936623 -1003684428.2801666 0 0 0 0 78633268.040481567 177631414.27575684 0 177631414.27575684 -989146089.24169922 0 0 0 0 31986134.194647558 8337680.6724958308 0 8337680.6724958308 -4736976.8303042082 0 0 0 0 37424927.570777893 2376572.3105192184 0 2376572.3105192184 2384512.7475318909 0 0 0 0 30083070.745285034 22122044.543609619 0 22122044.543609619 -13265536.650474548 0 0 0 0 32199821.464889526 18566270.483203888 0 18566270.483203888 -18810514.554153442 0 0 0 0 78694595.648597717 9206637.2646403313 0 9206637.2646403313 -119673522.07459641 0 0 0 0 78686456.606544495 3973785.988152504 0 3973785.988152504 -41917451.87229538 0 0 0 0 31356492.689113617 97924754.221401215 0 97924754.221401215 -36619962.071086884 0 0 0 0 54529993.03704834 40003042.53468895 0 40003042.53468895 -74781968.710823059 0 0 0 0 63386739.142204285 150280412.61911201 0 150280412.61911201 4089045.8799781799 0 0 0 0 31979918.903846741 26145495.701934814 0 26145495.701934814 -7881862.9271125793 0 0 0 0 36428281.176177979 23844374.765733719 0 23844374.765733719 -15712251.324739456 0 0 0 0 13845509.680038452 35013915.252923965 0 35013915.252923965 -11447642.574521065 0 0 0 0 9785980.8232116699 20066362.369945526 0 20066362.369945526 3200486.8544216156 0 0 0 0 25880500.42150116 13947394.297657013 0 13947394.297657013 -4781592.7851638794 0 0 0 0 292541669.31118965 -680980854.58408356 0 -680980854.58408356 -97171226.91997385 0 0 0 0 430154896.6853857 151144234.54032612 0 151144234.54032612 -1430818.5482788086 0 0 0 0 -37176340.549808502 327338859.75605011 0 327338859.75605011 -366082689.61073303 0 0 0 0 709063.47482410166 1083964.9265792985 0 1083964.9265792985 1310272.0114647262 0 0 0 0 -84631864.208000183 527290979.24829674 0 527290979.24829674 -531951417.03432465 0 0 0 0 92703877.061645508 752793825.68762207 0 752793825.68762207 -245198837.10870552 0 0 0 0 178836474.60571289 668294028.01660538 0 668294028.01660538 -581634439.32777596 0 0 0 0 -61286222.355172396 534381845.88504934 0 534381845.88504934 -654138666.16095734 0 0 0 0 579495891.52412033 898750069.98453331 0 898750069.98453331 -626263731.20306396 0 0 0 0 233213751.13695717 534855446.03116703 0 534855446.03116703 -993513006.28278351 0 0 0 0 834025724.99597359 250439560.8127594 0 250439560.8127594 -1467171223.1863785 0 0 0 0 -586635007.6542244 -187895066.10209274 0 -187895066.10209274 -961222145.81175232 0 0 0 0 21519275.039792065 13333333.198373009 0 13333333.198373009 2643508.2087715063 0 0 0 0 -71802797.404619217 457873474.08264923 0 457873474.08264923 295991601.5087204 0 0 0 0 -674572820.35681915 -249682547.36963272 0 -249682547.36963272 -208926095.25202942 0 0 0 0 -317687659.82369232 587709360.41226196 0 587709360.41226196 -1083394733.7881317 0 0 0 0 -75264300.388977051 450953392.66482544 0 450953392.66482544 -1264616831.643754 0 0 0 0 -2649416.5894535612 7734905.2736850837 0 7734905.2736850837 1670140.2816296774 0 0 0 0 880382473.82086182 -504744761.37997818 0 -504744761.37997818 61252478.080787659 0 0 0 0 520039804.53643799 -275368446.68272018 0 -275368446.68272018 -70290811.445465088 0 0 0 0 91432344.796539307 -748137014.70141983 0 -748137014.70141983 -10025487.064956665 0 0 0 0 1905574736.2070618 -748571996.03804398 0 -748571996.03804398 -494260945.60168505 0 0 0 0 2144396513.1762848 -251292154.63478851 0 -251292154.63478851 -680636535.11703897 0 0 0 0 1137178036.1270752 -167332593.16012001 0 -167332593.16012001 -427783770.28775024 0 0 0 0 1358566136.9246368 -130988555.08561707 0 -130988555.08561707 -684842682.69122005 0 0 0 0 1227108798.5582581 -617230667.81811142 0 -617230667.81811142 -511477152.33779526 0 0 0 0 998452868.70697784 -481365993.79278564 0 -481365993.79278564 -291677567.77828598 0 0 0 0 1047619958.8723755 -261654972.18836975 0 -261654972.18836975 -189279157.19597054 0 0 0 0 1033819941.5580292 -310936267.62972832 0 -310936267.62972832 -248929209.942379 0 0 0 0 661786957.37632751 59412559.035743713 0 59412559.035743713 -498734481.73665237 0 0 0 0 1187129336.0535965 -423901860.24635983 0 -423901860.24635983 -731767.60395050049 0 0 0 0 1864847917.8974152 113238848.84742165 0 113238848.84742165 -285824770.21425629 0 0 0 0 1131981426.8014424 -123555627.42480573 0 -123555627.42480573 -301690516.25214386 0 0 0 0 1131072627.8016052 -382557480.35369873 0 -382557480.35369873 -347103041.19269753 0 0 0 0 158827658.56578064 268641418.06188488 0 268641418.06188488 26266003.545806885 0 0 0 0 895298877.93508911 -63843398.959270477 0 -63843398.959270477 -285498088.75003433 0 0 0 0 1110947045.7123718 548299480.0629425 0 548299480.0629425 -160932994.77108765 0 0 0 0 1235205300.7210999 505403022.48550415 0 505403022.48550415 -148329732.20778847 0 0 0 0 1216001893.9373932 473381947.17304039 0 473381947.17304039 -201678940.48826599 0 0 0 0 2378951814.0252686 665011549.12870026 0 665011549.12870026 -176849556.0735569 0 0 0 0 1605125.8103302121 981579.54202514142 0 981579.54202514142 -538886.73500916734 0 0 0 0 441104131.70513916 337728840.20835686 0 337728840.20835686 126713144.59489441 0 0 0 0 247389945.76983643 -537055763.40526581 0 -537055763.40526581 -1451613250.6785431 0 0 0 0 473654699.48170471 812331628.39768219 0 812331628.39768219 -335622980.91452789 0 0 0 0 412269279.78229523 831599741.35771465 0 831599741.35771465 -23608441.348503113 0 0 0 0 869942145.68502808 709121145.56373596 0 709121145.56373596 -410086768.18968201 0 0 0 0 1009988634.5839996 975939492.3683815 0 975939492.3683815 89414156.811203003 0 0 0 0 292367956.74581909 -78785983.198032379 0 -78785983.198032379 -994284218.71573639 0 0 0 0 197665603.88174438 228334243.86603928 0 228334243.86603928 -291990321.93063354 0 0 0 0 183741153.38766479 142120596.67835999 0 142120596.67835999 -791477413.93676949 0 0 0 0 -45506684.315730095 2225239473.6776361 0 2225239473.6776361 136200408.80547333 0 0 0 0 60728491.33392334 -64895169.452659607 0 -64895169.452659607 -520694108.6812973 0 0 0 0 62900773.129272461 -36689624.441566467 0 -36689624.441566467 -154470259.78266716 0 0 0 0 -37416132.277709961 -48470572.335990906 0 -48470572.335990906 55207954.508483887 0 0 0 0 7174691.2360520139 496321.31218352914 0 496321.31218352914 -3771603.2646877114 0 0 0 0 30221487.754694156 6535026.0148265511 0 6535026.0148265511 -5283951.9359718682 0 0 0 0 -31998219.7943573 -99621105.39648819 0 -99621105.39648819 -194401879.64566803 0 0 0 0 396079478.85209656 722277383.19460678 0 722277383.19460678 -591237197.13133621 0 0 0 0 -482684505.81707764 33948267.068855286 0 33948267.068855286 315140878.63816643 0 0 0 0 259356728.76773834 89744927.16583252 0 89744927.16583252 7528384.2248535156 0 0 0 0 48616570.826026917 52871783.736469269 0 52871783.736469269 131109012.88781357 0 0 0 0 21386548.658867382 6613666.091706289 0 6613666.091706289 -4395760.1902032681 0 0 0 0 -32890382.369190216 95327491.590313911 0 95327491.590313911 -116214125.01181412 0 0 0 0 13703349.040941399 -1703449.2031734828 0 -1703449.2031734828 -9501166.6876143925 0 0 0 0 -450534642.36867905 218700827.94572353 0 218700827.94572353 -23844636.253949642 0 0 0 0 -243400110.81653595 164317257.61722517 0 164317257.61722517 -15485872.353395462 0 0 0 0 545303141.3846283 218461940.43146896 0 218461940.43146896 -27150050.74881649 0 0 0 0 307435327.21064758 186320301.84903622 0 186320301.84903622 74390785.45508194 0 0 0 0 500879625.91446686 262070237.66009045 0 262070237.66009045 -15982038.537559509 0 0 0 0 856867653.36552429 487685805.59632492 0 487685805.59632492 -284528669.96490479 0 0 0 0 802802533.56011963 329664606.5394249 0 329664606.5394249 -161666580.0665741 0 0 0 0 859491973.60574341 547765504.04137611 0 547765504.04137611 -122990412.38955688 0 0 0 0 658580283.65119171 519140849.86942387 0 519140849.86942387 46250282.886878967 0 0 0 0 1122179308.4502869 -940165619.18122673 0 -940165619.18122673 -179239180.2021637 0 0 0 0 12216999.648620605 236569800.21043015 0 236569800.21043015 858962760.79106522 0 0 0 0 7791770.3462454528 2288527.8916464113 0 2288527.8916464113 -1121361.7362135972 0 0 0 0 834954274.87496948 823102455.33430481 0 823102455.33430481 192064843.60402489 0 0 0 0 228137841.20716858 1179120158.9508553 0 1179120158.9508553 2656134325.8481407 0 0 0 0 901749756.53560638 691368437.92657757 0 691368437.92657757 -290863392.47610474 0 0 0 0 -599353911.98266602 1320137069.7185345 0 1320137069.7185345 5712283721.7110519 0 0 0 0 1559234681.1042786 2356144738.8648376 0 2356144738.8648376 1400185023.078392 0 0 0 0 3859564626.3779449 2326566047.928133 0 2326566047.928133 -2743615940.0190811 0 0 0 0 -270704561.21419525 -203356768.21740627 0 -203356768.21740627 -194438859.44791412 0 0 0 0 25721259.35188251 -25486860.790959232 0 -25486860.790959232 18151883.080597363 0 0 0 0 306321602.17359924 -495032736.63229942 0 -495032736.63229942 -589563275.69042206 0 0 0 0 -249082929.35149094 -238498758.61686826 0 -238498758.61686826 -203745678.14415741 0 0 0 0 1772814881.1648865 -342124475.08667183 0 -342124475.08667183 -1733906533.1508179 0 0 0 0 -335918635.20599174 -235636715.13606834 0 -235636715.13606834 -183078265.0317173 0 0 0 0 -701263881.59965038 -541202598.99859428 0 -541202598.99859428 -408478036.20909691 0 0 0 0 166918278.03508592 312368902.38003826 0 312368902.38003826 -675874048.10052109 0 0 0 0 -344321227.7488308 -190860364.40913582 0 -190860364.40913582 -160680732.74226379 0 0 0 0 627731690.57024765 368528073.92145967 0 368528073.92145967 222137698.08460999 0 0 0 0 735030555.9548378 353428787.01569462 0 353428787.01569462 130261183.28942108 0 0 0 0 942067189.03935242 438572872.00837612 0 438572872.00837612 102038928.94382858 0 0 0 0 972570020.30444336 385834396.77280831 0 385834396.77280831 26250100.759281158 0 0 0 0 900206310.05075073 643067989.56445789 0 643067989.56445789 201921249.40801167 0 0 0 0 1158594968.9385376 556099944.11887693 0 556099944.11887693 101789003.42388535 0 0 0 0 -154057736.45258331 -1163596924.1973877 0 -1163596924.1973877 -236075657.20120239 0 0 0 0 -543194780.76545143 -1172187837.9333382 0 -1172187837.9333382 78540507.768508911 0 0 0 0 2568336.0777844326 -987913.2062020069 0 -987913.2062020069 -1577033.8931242581 0 0 0 0 23892337.307744227 -23818937.591317367 0 -23818937.591317367 13983195.263594573 0 0 0 0 1280815691.0434265 287162130.77297831 0 287162130.77297831 184645238.85271835 0 0 0 0 1227959710.6622925 349689579.04247093 0 349689579.04247093 114632620.04704285 0 0 0 0 1191051976.5971375 126680691.03708315 0 126680691.03708315 438584025.9154129 0 0 0 0 -91547084.365333557 -295167786.91751862 0 -295167786.91751862 -146702234.76746368 0 0 0 0 -59680147.129528046 622023218.85721588 0 622023218.85721588 -1420329506.4822426 0 0 0 0 -288739950.22854042 -557334212.77661133 0 -557334212.77661133 -397691994.8062973 0 0 0 0 -380729889.77095032 -668097147.71896744 0 -668097147.71896744 54788515.438575745 0 0 0 0 -667992675.51410675 -1187309814.3501282 0 -1187309814.3501282 578714490.54011536 0 0 0 0 -362559114.88946152 -607600872.38154221 0 -607600872.38154221 155990940.81566238 0 0 0 0 -358768721.94175816 -875765059.01118469 0 -875765059.01118469 1261210910.0907402 0 0 0 0 532221569.31875038 -1172703043.1599741 0 -1172703043.1599741 482900882.36494446 0 0 0 0 -897756618.07281399 -413751210.7785759 0 -413751210.7785759 120335859.90875244 0 0 0 0 6939273.9224828919 -3383704.8423808105 0 -3383704.8423808105 -5737497.0874499343 0 0 0 0 -295200017.88193512 288032848.27079391 0 288032848.27079391 -57664425.776670456 0 0 0 0 570994928.4022522 75460295.162801743 0 75460295.162801743 28538710.873794556 0 0 0 0 812648134.02561188 249872459.97196865 0 249872459.97196865 14951118.14745909 0 0 0 0 797583912.88693237 318620811.03179264 0 318620811.03179264 -34309355.758437634 0 0 0 0 1016549255.6912308 219348746.24296665 0 219348746.24296665 162361256.31090355 0 0 0 0 838091389.67660141 169138214.56134677 0 169138214.56134677 203262873.00548172 0 0 0 0 984778366.07989502 294060495.44029808 0 294060495.44029808 303624181.28257942 0 0 0 0 902380009.66859436 629516848.35018086 0 629516848.35018086 694261610.46817946 0 0 0 0 841522778.70207214 366376982.432724 0 366376982.432724 314479988.52667809 0 0 0 0 965488096.53753662 294868952.39913177 0 294868952.39913177 743880147.96393776 0 0 0 0 967543394.1715889 314632679.09443569 0 314632679.09443569 322735837.90592194 0 0 0 0 921403036.35705566 703249232.08332634 0 703249232.08332634 442194285.90124416 0 0 0 0 791616226.83192825 384861424.99982452 0 384861424.99982452 -254809882.52474833 0 0 0 0 803889141.83837891 296086184.15022278 0 296086184.15022278 185707123.82918262 0 0 0 0 711412760.05243683 226191336.78241485 0 226191336.78241485 85997434.278232574 0 0 0 0 -1114707189.361927 344387852.98134172 0 344387852.98134172 31729118.62286365 0 0 0 0 2201766.8474957347 -2121611.1269918066 0 -2121611.1269918066 -1964169.5328632216 0 0 0 0 -255845101.6169281 -59815691.871325493 0 -59815691.871325493 39437725.795031309 0 0 0 0 350893007.20477295 1094194042.6301122 0 1094194042.6301122 -437575241.77492976 0 0 0 0 394771848.37830353 119667921.74983835 0 119667921.74983835 585895845.39546776 0 0 0 0 -527425272.97003174 455885703.54587734 0 455885703.54587734 598500035.28481531 0 0 0 0 -1114487092.5922813 -79510645.916278839 0 -79510645.916278839 135540112.71817017 0 0 0 0 1057582143.7834778 902929154.14603806 0 902929154.14603806 261242002.00722313 0 0 0 0 1113605400.8782959 779192569.73824501 0 779192569.73824501 262931200.26723289 0 0 0 0 20539043.608180892 -20373694.01574203 0 -20373694.01574203 10592941.172505053 0 0 0 0 1133311430.217514 769732071.48060226 0 769732071.48060226 61551323.350199223 0 0 0 0 1016599789.3461761 596309469.17330372 0 596309469.17330372 -39508933.054152966 0 0 0 0 659725103.61682129 620538265.64486599 0 620538265.64486599 98801025.493902802 0 0 0 0 1050832313.7553253 903848024.9379952 0 903848024.9379952 19757800.016625404 0 0 0 0 921738930.26940918 723330078.62445652 0 723330078.62445652 -142354053.44281864 0 0 0 0 769115641.80567169 857926677.88515413 0 857926677.88515413 99263378.160402775 0 0 0 0 -929529315.07505035 -129585090.1019516 0 -129585090.1019516 40959863.895942688 0 0 0 0 -812336590.98881721 14859681.764026642 0 14859681.764026642 -137465529.46258926 0 0 0 0 1094194229.6440716 659089630.24840117 0 659089630.24840117 1485447100.1459503 0 0 0 0 1163074169.1084709 398890095.8256073 0 398890095.8256073 10143981.009774208 0 0 0 0 1050596.7234109119 -407860.4224379845 0 -407860.4224379845 342543.56061989255 0 0 0 0 5666799.2152383178 -10243925.400195854 0 -10243925.400195854 14038417.071396451 0 0 0 0 378772629.55518341 422405015.06418514 0 422405015.06418514 297967141.62504959 0 0 0 0 199425726.68390656 614708310.43624401 0 614708310.43624401 853164131.90855598 0 0 0 0 -96980249.88678503 261444607.45547083 0 261444607.45547083 458356155.62607098 0 0 0 0 4194554.6071395874 259452976.25458097 0 259452976.25458097 435740199.92431593 0 0 0 0 -480992357.27375603 -44366860.804080963 0 -44366860.804080963 352448491.03541565 0 0 0 0 127128269.37415695 137471768.01700401 0 137471768.01700401 581600398.84628296 0 0 0 0 -250050291.39142609 -231028424.50222778 0 -231028424.50222778 251789380.16398048 0 0 0 0 -533162782.50980949 -95395404.492580414 0 -95395404.492580414 250203225.39546394 0 0 0 0 -293483547.06599975 -53891684.002100468 0 -53891684.002100468 56992442.109054565 0 0 0 0 -578158874.55069256 67859518.098085403 0 67859518.098085403 -331124123.07371521 0 0 0 0 -1203324461.3352947 373276366.69366074 0 373276366.69366074 -56999168.574249268 0 0 0 0 -840560669.46933556 -18635198.735450745 0 -18635198.735450745 192149948.67564392 0 0 0 0 -667412936.53462219 -19606973.049940109 0 -19606973.049940109 101374836.91415405 0 0 0 0 -912840263.80076981 96631977.123985291 0 96631977.123985291 150438013.00311279 0 0 0 0 -611391428.31690788 118997249.43320465 0 118997249.43320465 227880498.87036705 0 0 0 0 -689895137.04683208 259658612.2928009 0 259658612.2928009 19361465.159179688 0 0 0 0 -714407422.4809742 206183663.66734314 0 206183663.66734314 -54741640.223602295 0 0 0 0 -645951039.94478178 101692713.185709 0 101692713.185709 236038307.55134964 0 0 0 0 -799553028.87865639 116786073.17878723 0 116786073.17878723 239763667.10800552 0 0 0 0 -268033046.33426857 164442060.80664635 0 164442060.80664635 110289927.12487602 0 0 0 0 -152420970.06246126 -342645249.47434044 0 -342645249.47434044 586299309.22146606 0 0 0 0 48878979.11768055 -390580590.71876335 0 -390580590.71876335 302612789.16093826 0 0 0 0 584846166.64381218 -587645736.08638477 0 -587645736.08638477 365477818.18585587 0 0 0 0 642420776.86000824 -286383929.04955482 0 -286383929.04955482 593960943.69379997 0 0 0 0 977280527.31245327 -10146559.005393982 0 -10146559.005393982 561333303.90806389 0 0 0 0 -94474884.994027376 -274430357.26966095 0 -274430357.26966095 966562028.3509903 0 0 0 0 2191179256.6782856 1495665043.956192 0 1495665043.956192 1465147653.5362587 0 0 0 0 587369472.20755243 360613530.54581738 0 360613530.54581738 663266426.3598175 0 0 0 0 3708923355.2998471 618063908.23833084 0 618063908.23833084 -54655228.883540869 0 0 0 0 1088190950.9591837 137699627.82830429 0 137699627.82830429 12514938.551254272 0 0 0 0 367379.5250176235 1659182.1058036345 0 1659182.1058036345 4400717.2411315776 0 0 0 0 -145384240.85766363 -349525142.79121971 0 -349525142.79121971 2096754197.1652603 0 0 0 0 113525940.15984726 1562673711.1986694 0 1562673711.1986694 2702727938.0249577 0 0 0 0 3456308358.2483468 356437131.77839088 0 356437131.77839088 231721989.48409271 0 0 0 0 -225271605.85159016 87549297.957073212 0 87549297.957073212 2449130908.324379 0 0 0 0 1383428944.975719 -773476828.35610676 0 -773476828.35610676 -1635474952.4718208 0 0 0 0 9455601.3195753172 1913568.4964661887 0 1913568.4964661887 -2802702.2525380533 0 0 0 0 -345673137.88239002 300750932.08387566 0 300750932.08387566 336789669.48069763 0 0 0 0 56383838.070146561 -131891782.90455151 0 -131891782.90455151 -435923149.90389967 0 0 0 0 149263169.25645447 -9626246.079536438 0 -9626246.079536438 -350564587.56758404 0 0 0 0 106408343.13589859 -14864786.197465897 0 -14864786.197465897 -335649129.27064133 0 0 0 0 118766603.91556835 15120837.543457508 0 15120837.543457508 -276599075.36128998 0 0 0 0 147522655.54459333 -347441280.14134026 0 -347441280.14134026 -837862864.99664879 0 0 0 0 31299756.291599154 -53892708.33894062 0 -53892708.33894062 -261039407.07002354 0 0 0 0 931577515.7878648 -67820283.203981876 0 -67820283.203981876 -512601312.61903763 0 0 0 0 324875762.99893236 428509484.89628124 0 428509484.89628124 104531580.09270096 0 0 0 0 57432555.233695984 -974829585.48735046 0 -974829585.48735046 83589349.647087097 0 0 0 0 4073412.1137014572 702991.59384558536 0 702991.59384558536 -1104676.0119618978 0 0 0 0 -866062103.59509373 -171240439.03232193 0 -171240439.03232193 661406100.58768845 0 0 0 0 41700634.885427475 -89205834.232394218 0 -89205834.232394218 223468450.37754822 0 0 0 0 -231262630.25717926 155656498.33774948 0 155656498.33774948 21120922.19993782 0 0 0 0 146911765.52760506 69530907.087511063 0 69530907.087511063 -321145753.7700882 0 0 0 0 2457008.3883141316 3893192.0529607851 0 3893192.0529607851 -1135406.4057956617 0 0 0 0 -116059278.40783167 -93057837.884673595 0 -93057837.884673595 -42457598.611824036 0 0 0 0 101460530.96155167 484879713.58051491 0 484879713.58051491 262906358.74023628 0 0 0 0 466548788.40917397 720244462.40386963 0 720244462.40386963 335906173.74866247 0 0 0 0 -35674907.101776123 276165169.63066483 0 276165169.63066483 461907491.98095036 0 0 0 0 44437313.040064812 280056133.25588608 0 280056133.25588608 201903659.37325287 0 0 0 0 -70064812.168484688 202786889.27499008 0 202786889.27499008 51527671.835014343 0 0 0 0 74039893.644106865 -140475414.89282608 0 -140475414.89282608 158735499.32524586 0 0 0 0 22725292.285751343 1046464534.5377388 0 1046464534.5377388 921944823.97686291 0 0 0 0 -115126524.33071184 139699249.46232224 0 139699249.46232224 1430997360.5157318 0 0 0 0 347867846.21104908 944461797.95806122 0 944461797.95806122 665937663.282341 0 0 0 0 9531993.3859467097 3194813.3446601816 0 3194813.3446601816 -3376582.2903897585 0 0 0 0 1032893760.6450658 525008244.55750084 0 525008244.55750084 -785385461.72311783 0 0 0 0 4353880.1458037514 2277796.7546173157 0 2277796.7546173157 -1874030.7899828828 0 0 0 0 554164797.94981575 1266153442.1414371 0 1266153442.1414371 1133636470.4050417 0 0 0 0 179572356.81900597 959911314.7073164 0 959911314.7073164 669873797.17323875 0 0 0 0 156440304.94890785 398745836.20741463 0 398745836.20741463 390767275.59600449 0 0 0 0 1215133649.1323338 670244251.31581211 0 670244251.31581211 374963789.70487458 0 0 0 0 348910102.18134308 278736003.66207218 0 278736003.66207218 358887743.19479179 0 0 0 0 451035082.88458347 66819579.846324444 0 66819579.846324444 773244516.01715469 0 0 0 0 901161883.56028366 493846471.92051125 0 493846471.92051125 128958311.78647614 0 0 0 0 333212868.62667084 415256917.77685165 0 415256917.77685165 307806645.86089325 0 0 0 0 258152367.86216831 398911399.5560317 0 398911399.5560317 304272089.59313202 0 0 0 0 421749479.148386 609574271.51601219 0 609574271.51601219 722366021.87088013 0 0 0 0 750179121.57182312 -161617776.3510499 0 -161617776.3510499 -254175894.38314486 0 0 0 0 208585413.04440975 47819591.093258679 0 47819591.093258679 26490704.299401283 0 0 0 0 193172168.50322723 -358540103.06856537 0 -358540103.06856537 -221589253.55995655 0 0 0 0 -48594432.947865486 14270892.590364456 0 14270892.590364456 -132484719.67795372 0 0 0 0 11775654.933942795 -132641684.56579018 0 -132641684.56579018 -36275386.924527168 0 0 0 0 179651556.02187729 -66594761.32914114 0 -66594761.32914114 -23446445.118433952 0 0 0 0 -1736156.5968170166 -57942824.994710207 0 -57942824.994710207 12426986.21224308 0 0 0 0 4105502.6021347046 -144078298.00291145 0 -144078298.00291145 -178476753.32126427 0 0 0 0 -11718541.186943054 -46396474.221691489 0 -46396474.221691489 -61155714.708919168 0 0 0 0 129243438.31532001 -66826495.595783591 0 -66826495.595783591 -144460880.79534197 0 0 0 0 175594118.40562057 29907390.660571098 0 29907390.660571098 -96571454.11380434 0 0 0 0 150429524.09511185 -44664739.644605637 0 -44664739.644605637 -79674333.689899921 0 0 0 0 151924871.01327896 -65918682.069312811 0 -65918682.069312811 12024820.423160553 0 0 0 0 359746691.38943291 99392975.867777586 0 99392975.867777586 -56567130.689080238 0 0 0 0 409737170.6714325 125796993.17974424 0 125796993.17974424 -133902055.0042901 0 0 0 0 165175467.70602417 23701515.247698307 0 23701515.247698307 -76163959.559924781 0 0 0 0 141233857.31105423 201263359.92697459 0 201263359.92697459 2634141.1423845291 0 0 0 0 465733787.60155869 399777531.67950034 0 399777531.67950034 130527415.61226392 0 0 0 0 285966873.90995121 233587328.59759545 0 233587328.59759545 -21873740.106470108 0 0 0 0 -218475496.15211248 -166571824.46451283 0 -166571824.46451283 -63724898.345242023 0 0 0 0 286699255.91159964 75200405.007823944 0 75200405.007823944 -181006872.495121 0 0 0 0 2835588.8454717929 -593524.16899177665 0 -593524.16899177665 -2258447.7071732106 0 0 0 0 -312331380.49475718 -161323512.97386169 0 -161323512.97386169 -23993963.483503342 0 0 0 0 -254741162.16257715 -224377812.18091202 0 -224377812.18091202 -76770424.581531525 0 0 0 0 -263591674.35787314 -154671394.99433517 0 -154671394.99433517 -41776444.836624146 0 0 0 0 -220097089.73023915 -156274494.27096367 0 -156274494.27096367 -119764531.90913391 0 0 0 0 -289441447.10022593 -279941291.77972317 0 -279941291.77972317 -223846110.23139572 0 0 0 0 4883451.1011300096 -1523797.319970795 0 -1523797.319970795 -3246602.4629681092 0 0 0 0 -209432554.13742638 -261043676.26898956 0 -261043676.26898956 -256027277.56112671 0 0 0 0 -215573762.73785782 -197706601.19374275 0 -197706601.19374275 -234055023.39452744 0 0 0 0 -249601232.18598333 -255153408.65137082 0 -255153408.65137082 -176777402.53331757 0 0 0 0 54619778.71107769 -17902203.927119255 0 -17902203.927119255 -206031822.23767853 0 0 0 0 -32635344.328393936 -62073803.593489647 0 -62073803.593489647 -177519022.35229301 0 0 0 0 83093763.387439728 -55089567.014725685 0 -55089567.014725685 -180486459.30510879 0 0 0 0 -39987714.167870998 -74515140.578294039 0 -74515140.578294039 41157197.418889999 0 0 0 0 166571176.21834898 -184024443.18121099 0 -184024443.18121099 13339553.255460739 0 0 0 0 103683598.92305756 17144750.924236774 0 17144750.924236774 102858822.10193419 0 0 0 0 15609979.856126785 -87080950.60835886 0 -87080950.60835886 -18431487.235721588 0 0 0 0 -10414237.863162994 -41283377.375600338 0 -41283377.375600338 -22849508.889345914 0 0 0 0 -16617153.603700638 -50033855.608116627 0 -50033855.608116627 34854164.800595999 0 0 0 0 4249473.6298656464 -74057170.028081238 0 -74057170.028081238 -38023956.482948303 0 0 0 0 55614546.872882843 -65698468.772247076 0 -65698468.772247076 -310357794.65057826 0 0 0 0 -19084510.469562531 -52610143.081137657 0 -52610143.081137657 -46796341.212808788 0 0 0 0 9913654.2171735764 -82270154.140612662 0 -82270154.140612662 -156240988.73789072 0 0 0 0 -8089074.409154892 -37475522.755467176 0 -37475522.755467176 -169528934.4159767 0 0 0 0 71136506.576579094 -28688352.586180866 0 -28688352.586180866 -172659576.76434529 0 0 0 0 17119451.783179268 7140593.6742913667 0 7140593.6742913667 -11155003.201803127 0 0 0 0 11577009.828954697 -106658229.63375831 0 -106658229.63375831 -213740935.8856101 0 0 0 0 -397937542.58912277 62299414.998022199 0 62299414.998022199 36050529.046470642 0 0 0 0 28495393.269010048 -14723036.904258331 0 -14723036.904258331 10820656.16812134 0 0 0 0 -21257272.700316429 -243822703.32831335 0 -243822703.32831335 -15377200.535732746 0 0 0 0 254798129.83389187 -355295730.45037866 0 -355295730.45037866 79805466.582435608 0 0 0 0 -37277707.161406517 42492613.557662487 0 42492613.557662487 52499110.059133053 0 0 0 0 5316889.8125019856 2171239.4354916299 0 2171239.4354916299 -3415463.6491574645 0 0 0 0 22026846.707616806 -248064259.05774593 0 -248064259.05774593 -37849262.087528229 0 0 0 0 256494925.22642326 -328871538.75849342 0 -328871538.75849342 -93437108.038551807 0 0 0 0 427923243.9847734 6392295.9754405022 0 6392295.9754405022 -454448241.09702301 0 0 0 0 -241732070.19692969 -70494678.566917419 0 -70494678.566917419 -46443043.392848969 0 0 0 0 366991175.84074235 -242266811.71793747 0 -242266811.71793747 -181708018.8111248 0 0 0 0 24762157.915559158 -21886562.126336344 0 -21886562.126336344 19800757.606705006 0 0 0 0 -667140781.43873405 -972346788.52728212 0 -972346788.52728212 972344618.96915054 0 0 0 0 -346122667.83575511 -148681965.28441143 0 -148681965.28441143 -17247034.25819397 0 0 0 0 -365797903.81082892 -34891940.557457447 0 -34891940.557457447 -48628529.847210407 0 0 0 0 732095093.02166748 442331918.09748077 0 442331918.09748077 -609554139.76116562 0 0 0 0 -452567194.22610474 408575848.17294312 0 408575848.17294312 -134853004.06997871 0 0 0 0 120736662.69628906 145863033.72175598 0 145863033.72175598 -19421012.847044468 0 0 0 0 187397118.70526123 220017696.67339706 0 220017696.67339706 -103893111.19495821 0 0 0 0 285551177.43870544 11835594.13485527 0 11835594.13485527 22733335.767738342 0 0 0 0 280025312.94276428 121732540.61871719 0 121732540.61871719 -120221347.59100723 0 0 0 0 -172594061.87225342 70671383.020874977 0 70671383.020874977 -110460622.84392166 0 0 0 0 15251433.600554973 -9057039.449015215 0 -9057039.449015215 2690102.0587579743 0 0 0 0 -117263654.7860527 -6352308.4794425964 0 -6352308.4794425964 324158128.00029087 0 0 0 0 67979923.723373413 -79392067.759828568 0 -79392067.759828568 260516797.22731853 0 0 0 0 -99971683.132614136 90574455.511463165 0 90574455.511463165 122677345.29779053 0 0 0 0 233350435.26779175 124347380.9430027 0 124347380.9430027 101441257.61135101 0 0 0 0 92389072.474029541 199479767.56129456 0 199479767.56129456 184289693.36904478 0 0 0 0 -704268384.41181946 352245576.33820915 0 352245576.33820915 40678862.645139694 0 0 0 0 428482.26966666616 -278720.53073096275 0 -278720.53073096275 -543621.28641866241 0 0 0 0 365196626.71101379 171413875.49811459 0 171413875.49811459 -206497837.35351181 0 0 0 0 117054516.40172195 -238810077.96196485 0 -238810077.96196485 462890551.48155594 0 0 0 0 485860498.20884705 2577045.2206530571 0 2577045.2206530571 -107799466.19209862 0 0 0 0 42500741.07434082 24163952.36504364 0 24163952.36504364 -14921929.167168498 0 0 0 0 36143857.287938118 66808255.232937813 0 66808255.232937813 -91439760.427936554 0 0 0 0 46302553.114397004 -11003086.688416712 0 -11003086.688416712 1758793.5387732959 0 0 0 0 887726.49703443237 -7351442.7521338845 0 -7351442.7521338845 502110.5905013837 0 0 0 0 -31428377.12899971 -86774523.229065895 0 -86774523.229065895 -1173031.0430266857 0 0 0 0 82212116.177293777 -79441316.391677141 0 -79441316.391677141 -335223212.46260452 0 0 0 0 46439171.718125194 -8672595.1683184244 0 -8672595.1683184244 -2806796.4379271148 0 0 0 0 217399301.75210571 303253360.60858583 0 303253360.60858583 -400392281.13534355 0 0 0 0 8911581.3282394409 190573419.76284981 0 190573419.76284981 283319768.78998947 0 0 0 0 12130472.939928703 -1203235.95707836 0 -1203235.95707836 -3524069.4143573903 0 0 0 0 -66742036.100494385 682082282.98108101 0 682082282.98108101 -225454198.88186646 0 0 0 0 -67247241.907707214 355536149.60943127 0 355536149.60943127 643582417.46697807 0 0 0 0 12133441.444290161 76709556.735933304 0 76709556.735933304 -66735061.369779587 0 0 0 0 252900228.36477661 -187591938.10091257 0 -187591938.10091257 -109651763.72875595 0 0 0 0 517946521.96159363 218541933.88918495 0 218541933.88918495 -45141182.448223114 0 0 0 0 -22594949.64402771 35655299.350736618 0 35655299.350736618 -105571076.84501648 0 0 0 0 92291551.210327148 345879026.60871696 0 345879026.60871696 242648343.10787487 0 0 0 0 159523271.24423218 191278451.09587002 0 191278451.09587002 -65489254.941022873 0 0 0 0 -113005851.97360229 189269584.82355881 0 189269584.82355881 123984785.30942154 0 0 0 0 -104881196.03301811 298949606.08104604 0 298949606.08104604 820089397.21390533 0 0 0 0 77038.53131980449 3081437.8030385366 0 3081437.8030385366 1074850.5032918355 0 0 0 0 215883354.43914032 -2210828.5651330948 0 -2210828.5651330948 -38295533.726423264 0 0 0 0 429603688.30377197 -105050026.41703033 0 -105050026.41703033 -19630756.594303131 0 0 0 0 3274916.4595662728 331328.12095198594 0 331328.12095198594 -1376634.8037427738 0 0 0 0 318270429.14371109 -310726703.4507184 0 -310726703.4507184 144785914.24332047 0 0 0 0 -1084119.298915863 2831826.2942032814 0 2831826.2942032814 -4154418.6946258545 0 0 0 0 2512378.2675899714 2773415.7008802439 0 2773415.7008802439 -104207.26092866901 0 0 0 0 67019137.93794632 -45780079.834625244 0 -45780079.834625244 -125608631.86739349 0 0 0 0 45422.883544921875 4693758.279384613 0 4693758.279384613 -8650575.1199264526 0 0 0 0 2692982.3187615797 1905892.8788729189 0 1905892.8788729189 -975193.12904164661 0 0 0 0 -28168.677368164062 3291660.1592502594 0 3291660.1592502594 -4205130.5946452618 0 0 0 0 -184162858.36531067 143932148.49713135 0 143932148.49713135 -238550965.1581955 0 0 0 0 4647735.2290842403 914874.96119209751 0 914874.96119209751 -2382828.574191764 0 0 0 0 39098198.920410156 244819770.98999214 0 244819770.98999214 -345236292.03360939 0 0 0 0 -454991.19236755371 1177621.6674900055 0 1177621.6674900055 -14625655.733177185 0 0 0 0 1915849.0637484491 1957775.9090776481 0 1957775.9090776481 -585844.61547064036 0 0 0 0 -83202393.395843506 208194168.58195972 0 208194168.58195972 -163863450.63476562 0 0 0 0 24936158.476287842 278686389.78376389 0 278686389.78376389 -152587788.58114243 0 0 0 0 -88826018.637130737 139096902.08455086 0 139096902.08455086 -47953580.292825699 0 0 0 0 199385920.5857811 48124740.504831314 0 48124740.504831314 -131845036.56267357 0 0 0 0 170666929.77718544 217982383.20297265 0 217982383.20297265 114281775.77817535 0 0 0 0 165562413.93567085 186752302.43668699 0 186752302.43668699 -54407505.353778839 0 0 0 0 2056299.5157873891 -99726.274236042053 0 -99726.274236042053 -2795100.794507931 0 0 0 0 -137694749.71218872 -111666468.94636726 0 -111666468.94636726 -44892215.358394623 0 0 0 0 -100232258.40891969 117953553.54393123 0 117953553.54393123 -108766104.04255295 0 0 0 0 -145655397.72918701 306172751.05982208 0 306172751.05982208 -168426369.38169384 0 0 0 0 -378573886.75709152 283056640.18994045 0 283056640.18994045 -105521516.39144516 0 0 0 0 109637885.00652933 59084271.29749769 0 59084271.29749769 -53998065.956771851 0 0 0 0 103419140.29005814 63164428.452737808 0 63164428.452737808 -44246092.71979022 0 0 0 0 266866150.04873276 109414529.29197991 0 109414529.29197991 -72147320.116248608 0 0 0 0 140441501.52284336 -1503364.0475562811 0 -1503364.0475562811 -90298824.642359734 0 0 0 0 955660.84829330444 -32095970.422818184 0 -32095970.422818184 -53882704.01420784 0 0 0 0 41949634.229019165 -98640421.668507576 0 -98640421.668507576 -121425636.04654145 0 0 0 0 296934861.54151535 -863145981.96952724 0 -863145981.96952724 -236120958.06595612 0 0 0 0 39820962.835000388 -9787760.3323618025 0 -9787760.3323618025 -1612161.1187773552 0 0 0 0 77107146.239823341 -52536864.961297512 0 -52536864.961297512 -112234663.45412064 0 0 0 0 66298180.593948364 -41843651.521653414 0 -41843651.521653414 -97415198.123136997 0 0 0 0 -30366580.271324158 -114865741.46803379 0 -114865741.46803379 -117446205.73001647 0 0 0 0 -477898574.61836243 119381147.16553497 0 119381147.16553497 32232642.278505325 0 0 0 0 1225042452.7878418 361380331.42598534 0 361380331.42598534 59743774.695258617 0 0 0 0 437548457.54393005 -821460615.83941555 0 -821460615.83941555 -206896623.26651764 0 0 0 0 1206463483.831337 715600135.89937687 0 715600135.89937687 660051534.96748352 0 0 0 0 731297.73275646567 1103696.1460285606 0 1103696.1460285606 299037.43155509885 0 0 0 0 419277940.97946167 -552616879.00342369 0 -552616879.00342369 283988018.21810532 0 0 0 0 71648056.381156921 74995561.661781788 0 74995561.661781788 421414735.0927372 0 0 0 0 784927526.01402283 -118281581.47331524 0 -118281581.47331524 -61346660.204162598 0 0 0 0 335524046.68386841 -71885289.262529373 0 -71885289.262529373 -56320171.379247189 0 0 0 0 897183.12849159539 795934.43076470494 0 795934.43076470494 404717.17634109035 0 0 0 0 -71917967.792682648 -184105742.92128372 0 -184105742.92128372 136831637.19793129 0 0 0 0 366635989.47619629 -723147654.24425125 0 -723147654.24425125 -316769714.83248901 0 0 0 0 74331027.662910461 539699631.84701252 0 539699631.84701252 -118833236.19796145 0 0 0 0 34683901.324168488 -7533021.465511281 0 -7533021.465511281 -2136275.8715579333 0 0 0 0 58534502.874761581 -21203441.813038826 0 -21203441.813038826 -79484406.43285656 0 0 0 0 -28331370.389274597 -132699829.93930149 0 -132699829.93930149 -45440849.183896065 0 0 0 0 59404862.710201263 51758745.519934654 0 51758745.519934654 13082300.934257507 0 0 0 0 31497867.422851562 3337083.7023992538 0 3337083.7023992538 -5911390.1914262772 0 0 0 0 49167642.029251099 26292159.302770615 0 26292159.302770615 18045542.727766991 0 0 0 0 37094480.126853943 45170596.762859344 0 45170596.762859344 30592251.742092133 0 0 0 0 19198901.179519653 12052723.388540268 0 12052723.388540268 26468344.882265568 0 0 0 0 15020597.505355835 18550987.377548218 0 18550987.377548218 16800583.626502991 0 0 0 0 -45220167.480575562 -38057928.005705833 0 -38057928.005705833 29550712.245079041 0 0 0 0 -32220196.350311279 27140533.940621138 0 27140533.940621138 96674537.698123932 0 0 0 0 40437256.267807007 67990986.736365318 0 67990986.736365318 49868143.368597031 0 0 0 0 2880366.8111320026 3447021.9524431601 0 3447021.9524431601 1738771.2297580037 0 0 0 0 93387224.25125885 54002532.74922514 0 54002532.74922514 19303819.516320705 0 0 0 0 -156351292.26966858 -67396574.7189188 0 -67396574.7189188 59395627.630592346 0 0 0 0 35190941.083465576 40076393.268175125 0 40076393.268175125 16963155.245178223 0 0 0 0 -57297354.066162109 -6881632.5893630981 0 -6881632.5893630981 -88892915.372386932 0 0 0 0 -53026672.939819336 23202046.176269531 0 23202046.176269531 -78813696.535766602 0 0 0 0 -45401741.134399414 38535547.987125397 0 38535547.987125397 -47979654.293413162 0 0 0 0 -69972602.831176758 -15458714.905426025 0 -15458714.905426025 -24260335.025127411 0 0 0 0 -66222897.471069336 -35922212.359790802 0 -35922212.359790802 -65290931.898395538 0 0 0 0 -75298050.20690918 -34678082.623535156 0 -34678082.623535156 -45713583.170913696 0 0 0 0 -307615.35369825363 27901186.448883921 0 27901186.448883921 22343854.626361847 0 0 0 0 -82635751.568695068 300450.40031051636 0 300450.40031051636 21252408.640441895 0 0 0 0 -304620.13735961914 27595476.959205627 0 27595476.959205627 -30992887.957374573 0 0 0 0 -46206991.670074463 32305796.344459534 0 32305796.344459534 -2000978.6768531799 0 0 0 0 76586488.174957275 40438725.172603607 0 40438725.172603607 64652342.230304718 0 0 0 0 69735510.280548096 18936924.25932312 0 18936924.25932312 875771.72369003296 0 0 0 0 76287950.477302551 -34851589.941195488 0 -34851589.941195488 63423981.784023285 0 0 0 0 -30726355.84274292 32822335.778427124 0 32822335.778427124 30236923.450756073 0 0 0 0 62940662.248260498 -3756532.5436038971 0 -3756532.5436038971 29916474.65660882 0 0 0 0 195024469.83830261 122447082.53416252 0 122447082.53416252 -105439834.72149086 0 0 0 0 -191169397.67324066 92988780.392133951 0 92988780.392133951 91747670.244655609 0 0 0 0 233004280.10269165 114592754.35608482 0 114592754.35608482 40388579.43944931 0 0 0 0 281213715.69522095 8927733.7147407532 0 8927733.7147407532 -53035011.982496262 0 0 0 0 342482385.62271118 -52964833.595139503 0 -52964833.595139503 -16230351.805633545 0 0 0 0 293994487.79550362 -62635503.640585303 0 -62635503.640585303 79503366.128871918 0 0 0 0 647853.49840801209 379864.29228117689 0 379864.29228117689 -502494.56323791202 0 0 0 0 470047678.63005447 -197678649.06950283 0 -197678649.06950283 44619373.757774353 0 0 0 0 493913149.83035278 -18575425.594725609 0 -18575425.594725609 -71486122.511463165 0 0 0 0 280543599.16044617 -76966240.390922546 0 -76966240.390922546 34217717.280158997 0 0 0 0 465877510.00590515 -199110259.97709608 0 -199110259.97709608 46215862.728767395 0 0 0 0 58264003.820327759 -3861153.1613359451 0 -3861153.1613359451 360781.00225067139 0 0 0 0 415197.72478252836 445574.83226351067 0 445574.83226351067 -160398.63623511512 0 0 0 0 56613292.766143799 -11400324.342903137 0 -11400324.342903137 25835647.782704115 0 0 0 0 49950288.892211914 -9125069.009636879 0 -9125069.009636879 -2520905.3759307861 0 0 0 0 36636561.404850006 1082301.3594374657 0 1082301.3594374657 -13827163.707893372 0 0 0 0 14592307.414108276 12438361.169837952 0 12438361.169837952 -3139293.7398853302 0 0 0 0 23415404.042709351 14707199.047421932 0 14707199.047421932 -21806027.810541153 0 0 0 0 -20638183.138473511 27001842.20671463 0 27001842.20671463 -3069021.011138916 0 0 0 0 -12284009.349731445 51432120.849332809 0 51432120.849332809 3433943.8887367249 0 0 0 0 27003501.988891602 31486496.63551712 0 31486496.63551712 -8962086.9316253662 0 0 0 0 21567243.45324707 28771329.983041763 0 28771329.983041763 -5577170.1733617783 0 0 0 0 24196663.908905029 67760359.06334877 0 67760359.06334877 9825586.2857532501 0 0 0 0 96985419.305343628 15462303.293828964 0 15462303.293828964 -11110006.351284027 0 0 0 0 6048814.884765625 40464207.81633091 0 40464207.81633091 -13080060.60609436 0 0 0 0 -45761467.226135254 35432830.181446075 0 35432830.181446075 2455715.5842621326 0 0 0 0 2871019.4927825928 3300960.7513284683 0 3300960.7513284683 1751148.9240913391 0 0 0 0 915233.76339709759 5527982.0846015587 0 5527982.0846015587 5955525.7065466046 0 0 0 0 -75539738.45324707 27892514.275769234 0 27892514.275769234 5289875.2447929382 0 0 0 0 -55825476.498748779 54361341.003372192 0 54361341.003372192 -19538942.643180847 0 0 0 0 4286796.557864733 1864522.0752327405 0 1864522.0752327405 -1163149.7220210275 0 0 0 0 24448177.505828857 28035043.860090256 0 28035043.860090256 29907938.568851471 0 0 0 0 7028248.234121114 8342006.0585463867 0 8342006.0585463867 661513.96705672378 0 0 0 0 -48174873.481506348 24789934.920251846 0 24789934.920251846 -2215257.9867553711 0 0 0 0 2908914.8787841797 -15953386.885453224 0 -15953386.885453224 -100955977.74028969 0 0 0 0 11296131.44078064 7444147.1032314301 0 7444147.1032314301 -88464581.595930099 0 0 0 0 -17062268.419124603 36708731.203567505 0 36708731.203567505 536048.51671409607 0 0 0 0 7050262.5319311023 9787428.0835576933 0 9787428.0835576933 8275552.7074272819 0 0 0 0 -12588936.673019409 18471606.350054264 0 18471606.350054264 37584730.666915894 0 0 0 0 915512.97434647009 4073660.5388054289 0 4073660.5388054289 2353779.0270448979 0 0 0 0 9141310.5458159372 3215312.9671778567 0 3215312.9671778567 -8407937.7621514276 0 0 0 0 59282267.163528442 79396033.256278038 0 79396033.256278038 -16053333.548396111 0 0 0 0 10197185.704428606 2179094.2583082393 0 2179094.2583082393 -7873523.6252177823 0 0 0 0 23301686.080413818 21091578.048929214 0 21091578.048929214 3376731.8259811401 0 0 0 0 40328718.897003174 30849793.197540283 0 30849793.197540283 6412243.6157231331 0 0 0 0 17358258.65536499 11721594.121191502 0 11721594.121191502 34344709.284660339 0 0 0 0 58138119.211181641 5245031.2700614929 0 5245031.2700614929 -13467385.647764206 0 0 0 0 27808351.737670898 23439969.093572617 0 23439969.093572617 2855653.5047988892 0 0 0 0 24463006.483318329 982500.53139388561 0 982500.53139388561 -4340054.2621116638 0 0 0 0 24062177.150695801 31472248.217046499 0 31472248.217046499 50761481.690559387 0 0 0 0 2125827.0069581345 -148607.56604732201 0 -148607.56604732201 -2142480.3338715956 0 0 0 0 -4627073.5390777588 4039489.8105840683 0 4039489.8105840683 -582251.10687828064 0 0 0 0 4427878.2238690499 2018089.9830675311 0 2018089.9830675311 -2014749.9253199175 0 0 0 0 -3369614.8672943115 8066229.4047031403 0 8066229.4047031403 -9004024.886906147 0 0 0 0 -2126453.6990966797 2503154.5441827774 0 2503154.5441827774 -4090191.3381357193 0 0 0 0 -15469226.965194702 -64764736.315005302 0 -64764736.315005302 44822781.775995731 0 0 0 0 195701893.77461243 1724168.2889986038 0 1724168.2889986038 -18377752.241092682 0 0 0 0 -124447188.96042633 -14482633.173017144 0 -14482633.173017144 91259.282495498657 0 0 0 0 -41554191.204360962 -23572564.274931431 0 -23572564.274931431 -20008742.257842064 0 0 0 0 -519233.69724047184 1027149.6275192164 0 1027149.6275192164 -207802.03605673322 0 0 0 0 -2424770.3703842163 1857662.6575365067 0 1857662.6575365067 2016586.4159126282 0 0 0 0 7320690.9001922607 14375835.659013748 0 14375835.659013748 -7986171.2682113647 0 0 0 0 -7081281.8436279297 11654283.365606308 0 11654283.365606308 19494116.986222029 0 0 0 0 16605797.115739822 37093061.337495804 0 37093061.337495804 21931498.698793411 0 0 0 0 559436052.70924377 49794424.145833015 0 49794424.145833015 -90957554.256519318 0 0 0 0 401811014.88027954 -145137760.24545288 0 -145137760.24545288 24101088.258399963 0 0 0 0 614396.39352014661 362424.20566421375 0 362424.20566421375 -276083.39851058368 0 0 0 0 208337431.94866943 36868529.619027138 0 36868529.619027138 46657177.930953026 0 0 0 0 460455935.75780106 -259453954.16217303 0 -259453954.16217303 86762353.645553589 0 0 0 0 1517674.9671783447 1574735.8018703461 0 1574735.8018703461 -6393436.1746253967 0 0 0 0 223784084.25563049 -136912246.83400345 0 -136912246.83400345 85147320.964599624 0 0 0 0 1126657.7951157093 1164128.2386063412 0 1164128.2386063412 -365789.6370256478 0 0 0 0 257692481.32891846 -80752986.744300842 0 -80752986.744300842 -29453686.546743393 0 0 0 0 140021049.81420135 -29429608.52855587 0 -29429608.52855587 -513646.68479728699 0 0 0 0 224119363.23405457 -115057831.6870966 0 -115057831.6870966 15131011.456519127 0 0 0 0 289953932.41304016 -117785694.11300182 0 -117785694.11300182 9762538.4156265259 0 0 0 0 317073203.98495483 -93359452.574989796 0 -93359452.574989796 16050336.128333092 0 0 0 0 1052833.7967365459 557008.30383408442 0 557008.30383408442 -898080.79050837271 0 0 0 0 369192106.98817444 -128574324.04052639 0 -128574324.04052639 -29740658.802339554 0 0 0 0 325643626.45617676 -72486592.740105629 0 -72486592.740105629 46326066.342493057 0 0 0 0 1057678.4486050922 1084985.1462695487 0 1084985.1462695487 -307218.68386736047 0 0 0 0 299744527.64807892 -21993041.044329643 0 -21993041.044329643 39350877.237373352 0 0 0 0 102447815.17436218 -85270407.978043556 0 -85270407.978043556 110965.8728055954 0 0 0 0 291673652.16020966 -46078262.225478172 0 -46078262.225478172 -29135257.062814713 0 0 0 0 215614646.08113098 -116447791.63647461 0 -116447791.63647461 28024788.888534546 0 0 0 0 518241.50690550357 2057230.6792379543 0 2057230.6792379543 54763.415328836069 0 0 0 0 16072244.846801758 86276639.933011055 0 86276639.933011055 -41622499.054307938 0 0 0 0 128719744.10823631 -29590184.796977758 0 -29590184.796977758 -51408421.723047256 0 0 0 0 -1545454.8978347778 4796889.3974108696 0 4796889.3974108696 -5518278.9157133102 0 0 0 0 25139216.004013062 85937805.13903141 0 85937805.13903141 69196826.654024124 0 0 0 0 4785236.3590247892 2740839.153007742 0 2740839.153007742 -1743563.2079875795 0 0 0 0 624634699.2411499 -116622469.72510624 0 -116622469.72510624 -42869638.40113163 0 0 0 0 774419941.47343063 117277342.73829365 0 117277342.73829365 -151417222.28490067 0 0 0 0 687809873.0196991 152692595.32505226 0 152692595.32505226 -143654153.64274073 0 0 0 0 707494659.27127838 86070029.79723978 0 86070029.79723978 -155176858.98080444 0 0 0 0 235680232.37028503 -74965596.303673744 0 -74965596.303673744 -18669917.171715736 0 0 0 0 669333754.80500793 94187687.379217625 0 94187687.379217625 -85423076.996795654 0 0 0 0 -67448.548472456634 376743.36044507846 0 376743.36044507846 -15421.9299355275 0 0 0 0 681700998.11218262 44723905.468167305 0 44723905.468167305 -75817079.292376041 0 0 0 0 85385230.56463623 147198793.00719428 0 147198793.00719428 89574933.066944122 0 0 0 0 307554821.28974533 224983729.7137816 0 224983729.7137816 43914228.353715897 0 0 0 0 678720461.57011414 50218411.462881565 0 50218411.462881565 -52185850.839361191 0 0 0 0 1041173767.8857269 7578559.1723623276 0 7578559.1723623276 -48455847.671248198 0 0 0 0 790776934.82666779 -214188470.62287331 0 -214188470.62287331 56519631.88310051 0 0 0 0 339623626.71026611 198999759.50008202 0 198999759.50008202 154589949.67206478 0 0 0 0 537874084.15853882 80291749.056371689 0 80291749.056371689 -38669020.042655945 0 0 0 0 793190384.61885834 334369388.92302179 0 334369388.92302179 -29912663.475082397 0 0 0 0 979881.20809692889 511911.49315564148 0 511911.49315564148 -235524.87852017721 0 0 0 0 -106352039.41099167 -83281278.956742764 0 -83281278.956742764 96362586.678342819 0 0 0 0 260846191.65180969 68401038.265838623 0 68401038.265838623 71048168.281117439 0 0 0 0 589035981.7620697 -56775222.179364204 0 -56775222.179364204 -5635974.7940108776 0 0 0 0 582567833.70051575 -77750261.689874172 0 -77750261.689874172 81739924.830003738 0 0 0 0 730418610.29071045 -32224892.635040522 0 -32224892.635040522 35614349.141050339 0 0 0 0 303872213.91049957 167451970.95711756 0 167451970.95711756 74050124.470718384 0 0 0 0 105626.65532189608 202775.70065416396 0 202775.70065416396 576046.90657877829 0 0 0 0 104891029.45509338 -42644779.184165001 0 -42644779.184165001 264535251.74188423 0 0 0 0 617841410.1782074 191184414.13771534 0 191184414.13771534 -144672790.33861351 0 0 0 0 656590091.40248108 112917446.95601273 0 112917446.95601273 9942226.4375259876 0 0 0 0 666283897.76156044 109911227.26498997 0 109911227.26498997 -164568884.61429119 0 0 0 0 73246.410638488829 378991.6679360047 0 378991.6679360047 1451444.8129389724 0 0 0 0 53921967.512321472 -110000022.29031706 0 -110000022.29031706 74396203.801712036 0 0 0 0 -108220268.38483429 -114927526.40219641 0 -114927526.40219641 -13399659.430205345 0 0 0 0 112523745.46313477 -52138564.620023251 0 -52138564.620023251 4657899.6958217621 0 0 0 0 -27250647.179458618 -25649260.338429451 0 -25649260.338429451 72823298.039188728 0 0 0 0 -16533966.142532349 80680681.237407684 0 80680681.237407684 -43308983.803459167 0 0 0 0 -47115518.414649963 6355491.9620981216 0 6355491.9620981216 59954736.035133362 0 0 0 0 -80475450.643966675 30753328.853279114 0 30753328.853279114 61558032.666157722 0 0 0 0 -67929395.16065979 16066899.214313507 0 16066899.214313507 70199070.065800667 0 0 0 0 -300834531.74147034 87144916.825082779 0 87144916.825082779 48562369.401467323 0 0 0 0 -42979200.154930115 207534436.45771241 0 207534436.45771241 -105390727.94079399 0 0 0 0 70576674.840896606 65402972.972743988 0 65402972.972743988 -47219544.396554947 0 0 0 0 196982042.44265747 150786341.21918678 0 150786341.21918678 -164385149.04050446 0 0 0 0 3053033.9952163696 107123425.37472916 0 107123425.37472916 -70011983.421264648 0 0 0 0 198867482.39772034 -97723.016775131226 0 -97723.016775131226 -93939590.053348541 0 0 0 0 45203734.80619812 28936775.090669632 0 28936775.090669632 -99355758.591925621 0 0 0 0 7771631.5343322754 135015321.07820129 0 135015321.07820129 41597000.169897914 0 0 0 0 1436418.5018383451 16199.96091208607 0 16199.96091208607 -1761916.7611912917 0 0 0 0 174726674.57855225 1970483287.1150303 0 1970483287.1150303 -695901557.75502777 0 0 0 0 -30701420.874542236 -347113157.64010048 0 -347113157.64010048 822193268.59030151 0 0 0 0 -263471388.52246475 62269821.349316597 0 62269821.349316597 21008717.785747528 0 0 0 0 1561158.0691430867 2502823.9137245286 0 2502823.9137245286 38225.768882694189 0 0 0 0 51825872.228431702 -173265397.76846504 0 -173265397.76846504 -227817528.12998772 0 0 0 0 -231545738.74891663 -6278448.1059846878 0 -6278448.1059846878 9051953.590180397 0 0 0 0 2661564.3059568256 9090474.0297194682 0 9090474.0297194682 8373236.5183543488 0 0 0 0 -174122917.13388062 -220129.09012985229 0 -220129.09012985229 6442041.6798992157 0 0 0 0 -159424134.05380249 77086827.611475945 0 77086827.611475945 19864475.409435749 0 0 0 0 -602164.17194366455 24696134.726415634 0 24696134.726415634 -10563550.218162537 0 0 0 0 -1498872.1074123383 21004783.45296526 0 21004783.45296526 -10767010.982788086 0 0 0 0 3566728.4737167358 21732862.964452028 0 21732862.964452028 -15597251.851730347 0 0 0 0 -1094982.1051330566 114512675.54136467 0 114512675.54136467 47814085.929009438 0 0 0 0 -41022357.953353882 -26973370.065137863 0 -26973370.065137863 131895497.29766846 0 0 0 0 -51620206.825195312 38518222.034502983 0 38518222.034502983 -105936585.60207272 0 0 0 0 -203460681.0453949 122607812.9482851 0 122607812.9482851 12660781.842205048 0 0 0 0 -184151041.74589539 101761618.10910702 0 101761618.10910702 37111078.08069706 0 0 0 0 -47616804.327423096 53139527.018527031 0 53139527.018527031 4276549.5614643097 0 0 0 0 -150116940.69897461 118384365.71728468 0 118384365.71728468 -75724294.315979004 0 0 0 0 44716955.286224365 124560983.320508 0 124560983.320508 27180915.192456484 0 0 0 0 146495563.79574585 -28082311.015690327 0 -28082311.015690327 60380326.465486526 0 0 0 0 -10085575.017227173 48080487.413175583 0 48080487.413175583 -79550663.338638306 0 0 0 0 -35687237.901824951 203174550.97686386 0 203174550.97686386 -95082939.602340102 0 0 0 0 423237.51573985815 -19929.585983466357 0 -19929.585983466357 -371157.70341125131 0 0 0 0 -164328916.28078341 250376589.53591624 0 250376589.53591624 -13993459.950895309 0 0 0 0 2127693.5213385448 6895861.5885501616 0 6895861.5885501616 8495879.5079976097 0 0 0 0 -21853229.842559814 43998337.570890427 0 43998337.570890427 -30114390.029304504 0 0 0 0 -43606219.177787781 33388141.491420746 0 33388141.491420746 -21872928.770069122 0 0 0 0 -17371377.077514648 29452340.467206955 0 29452340.467206955 -36245218.449611664 0 0 0 0 -184282121.00464749 -107068803.20314071 0 -107068803.20314071 -72646841.43626976 0 0 0 0 -206483904.01583862 386196938.76888275 0 386196938.76888275 44790.724292039871 0 0 0 0 3293076.5077819824 23037302.751161575 0 23037302.751161575 -16277961.465614319 0 0 0 0 4643336.5285491943 23987698.217338562 0 23987698.217338562 -23390193.814861298 0 0 0 0 -1209139.215385437 28612562.539794922 0 28612562.539794922 -22099970.408168793 0 0 0 0 -24547588.440948486 35583857.451490402 0 35583857.451490402 -17656275.457328796 0 0 0 0 -11274190.417358398 23154987.885461807 0 23154987.885461807 -10892733.0766716 0 0 0 0 -1764195.4035186768 29424315.218647003 0 29424315.218647003 -31967770.247093201 0 0 0 0 -16096243.263832092 33398260.61813736 0 33398260.61813736 -24190685.641098022 0 0 0 0 -4812835.532081604 28380233.225964546 0 28380233.225964546 -23024659.064826965 0 0 0 0 -3764457.7720031738 28921241.708415985 0 28921241.708415985 -28687634.527248383 0 0 0 0 7648481.476852417 24620432.421609879 0 24620432.421609879 -26273387.125022888 0 0 0 0 5931682.1138916016 21591386.155534744 0 21591386.155534744 -20466881.82449913 0 0 0 0 4734737.2175521851 24351225.116487503 0 24351225.116487503 -22209475.903541565 0 0 0 0 10652438.397417545 23085359.239503622 0 23085359.239503622 -24071976.778060913 0 0 0 0 16096434.398208618 25122544.929159641 0 25122544.929159641 -19668267.30128479 0 0 0 0 4083543.3756942749 21212389.221090317 0 21212389.221090317 -4922347.6341114044 0 0 0 0 6129092.116394043 18956173.642484665 0 18956173.642484665 -20784026.348285675 0 0 0 0 -3147197.4281311035 25741738.961454391 0 25741738.961454391 -18254063.203037262 0 0 0 0 -8417632.7273406982 21905751.867570877 0 21905751.867570877 -20585963.259525299 0 0 0 0 -1632358.1663513184 27281656.620534897 0 27281656.620534897 -16553544.975406647 0 0 0 0 11486137.959312439 25613675.441358566 0 25613675.441358566 -6324524.1919288635 0 0 0 0 2722286.4299926758 17974811.500648499 0 17974811.500648499 -12502665.316085815 0 0 0 0 20940631.333721749 12663636.704700625 0 12663636.704700625 -836919.92547166534 0 0 0 0 13770283.92716217 10999445.354207993 0 10999445.354207993 -8538378.3142318726 0 0 0 0 -83410999.281857014 93300032.860706806 0 93300032.860706806 92997912.353656769 0 0 0 0 1881939.6123607159 5118139.9467163011 0 5118139.9467163011 6653938.8466264121 0 0 0 0 -44359472.295516968 69589402.555965424 0 69589402.555965424 -39815648.91072464 0 0 0 0 -6433232.1421813965 44898385.52015686 0 44898385.52015686 -51736331.973954201 0 0 0 0 -11421190.339447021 38452946.718330383 0 38452946.718330383 -31225222.756900787 0 0 0 0 -18492365.419967651 22735714.519075394 0 22735714.519075394 -12521389.608194351 0 0 0 0 3960006.6860351562 35687157.753881454 0 35687157.753881454 -3370764.0314846039 0 0 0 0 -5385549.554567337 35585589.373394489 0 35585589.373394489 -2382528.3124465942 0 0 0 0 -38730786.257019043 1707930.8096008301 0 1707930.8096008301 27988609.174621582 0 0 0 0 -13621323.992874146 65256982.006374359 0 65256982.006374359 5122650.6431121826 0 0 0 0 -417042.73552703857 96041161.869697571 0 96041161.869697571 66394356.025600433 0 0 0 0 -49530247.194000244 152321408.63594437 0 152321408.63594437 4434932.0854253769 0 0 0 0 1708117.2435322776 2956987.6909130532 0 2956987.6909130532 2913848.9020932149 0 0 0 0 -216915878.13461304 252084437.00339508 0 252084437.00339508 582946583.13752079 0 0 0 0 -45858554.773529053 -40619960.109884262 0 -40619960.109884262 317630842.5956955 0 0 0 0 -822437614.01698303 404459016.81799889 0 404459016.81799889 57453525.525661469 0 0 0 0 74433377.728515625 472902587.94680786 0 472902587.94680786 -95619599.242143393 0 0 0 0 1592757.1361628994 47966.235897095874 0 47966.235897095874 -1015099.9667806476 0 0 0 0 -140041752.90733528 -279884906.8371166 0 -279884906.8371166 -2373484.4403114319 0 0 0 0 2159931160.3199005 -693466749.18107796 0 -693466749.18107796 -426374531.28745651 0 0 0 0 760696898.74224854 -837282031.66179657 0 -837282031.66179657 -311283701.9958396 0 0 0 0 3186336301.3234863 1491755982.5951843 0 1491755982.5951843 2374694896.9423141 0 0 0 0 1628135.4581644684 9233.5995767191052 0 9233.5995767191052 -1031730.2348380052 0 0 0 0 122100329.79938555 -517133118.2410599 0 -517133118.2410599 -159279576.29724121 0 0 0 0 152921443.64460754 -347211567.73787689 0 -347211567.73787689 479581890.66779327 0 0 0 0 -331711833.99014282 -446780053.30826378 0 -446780053.30826378 283183253.93130493 0 0 0 0 -405283939.57707977 -635135283.48076344 0 -635135283.48076344 -193381999.10281372 0 0 0 0 463238988.65652466 247509181.00819206 0 247509181.00819206 -389697236.52362061 0 0 0 0 491518205.52172852 422780160.79714203 0 422780160.79714203 231050290.52077103 0 0 0 0 -145610459.7168808 -2304844368.8911428 0 -2304844368.8911428 -660764402.51160431 0 0 0 0 1019732516.4145813 875104203.74633598 0 875104203.74633598 618207567.38246536 0 0 0 0 1992728020.4917126 -595739252.54692626 0 -595739252.54692626 28017828.648269653 0 0 0 0 5205504.2436944768 -2307423.3122282298 0 -2307423.3122282298 958800.55271709478 0 0 0 0 605044374.61836243 640015323.77531433 0 640015323.77531433 1252848933.3493237 0 0 0 0 363845021.99356079 -770139675.50403595 0 -770139675.50403595 857519175.964921 0 0 0 0 229064081.14982986 -171789330.316504 0 -171789330.316504 201086470.0185318 0 0 0 0 1065473210.2230835 268557513.58220673 0 268557513.58220673 -94463223.218610764 0 0 0 0 50298497.341109276 51735035.929239571 0 51735035.929239571 630343716.43553352 0 0 0 0 503367654.28118896 447358314.34890747 0 447358314.34890747 461111885.11309624 0 0 0 0 2274729327.8795166 776971892.25121403 0 776971892.25121403 117744248.30053711 0 0 0 0 1007522664.1309662 127878470.05959034 0 127878470.05959034 -177034484.92377567 0 0 0 0 965299392.44419861 -111945292.93806934 0 -111945292.93806934 -398401996.30739021 0 0 0 0 1454115063.5709381 -7360277.380399704 0 -7360277.380399704 -430905479.23040199 0 0 0 0 970935403.68672943 -112691005.83495283 0 -112691005.83495283 -428223422.74558258 0 0 0 0 601329645.56520081 159224544.74723625 0 159224544.74723625 -171083063.33421707 0 0 0 0 576255763.35327148 54088398.814702988 0 54088398.814702988 -182229791.15988541 0 0 0 0 493363332.98852539 40960150.544029236 0 40960150.544029236 -175679934.65581131 0 0 0 0 506855765.84642029 142465503.17001343 0 142465503.17001343 -167989873.9823277 0 0 0 0 546108351.38304138 -289648994.65048599 0 -289648994.65048599 -256956483.08574104 0 0 0 0 968606467.43623352 -66610549.683795929 0 -66610549.683795929 -381019050.41346741 0 0 0 0 888373999.49017334 163202557.14569759 0 163202557.14569759 70109586.909370035 0 0 0 0 629720950.08083534 -29173062.935679674 0 -29173062.935679674 -125927461.21391869 0 0 0 0 618761441.29626465 -106737564.60411549 0 -106737564.60411549 -200155212.52661514 0 0 0 0 212189606.18565369 -60421036.44010067 0 -60421036.44010067 -97474559.868144035 0 0 0 0 -69330357.971176147 63054505.183381081 0 63054505.183381081 16717714.259347916 0 0 0 0 235792323.32093811 11074376.324360371 0 11074376.324360371 -42786214.410448074 0 0 0 0 5404279.1599578857 64115131.629312515 0 64115131.629312515 -136596456.00722504 0 0 0 0 210913358.985672 -65914607.15440464 0 -65914607.15440464 -116669858.84758377 0 0 0 0 -77646038.965538025 -312847439.22196436 0 -312847439.22196436 -64082363.923000336 0 0 0 0 638545120.49887848 -295578490.20176125 0 -295578490.20176125 -136107859.52714157 0 0 0 0 821647568.94795227 -69019463.366334915 0 -69019463.366334915 -208136159.07245469 0 0 0 0 
</DataArray>
<DataArray type="Float64" Name="cross_section_updated" format="ascii">
1 1 1 1 1 0.052013825426494853 1 1 1 1 1 1 1 0.050076076787750445 1 1 1 1 0.04987309964522299 1 1 0.053223642144294453 1 1 1 1 0.051380787306542185 1 1 1 1 0.05484229199912085 1 1 1 1 1 1 1 1 1 1 1 1 1 0.049947628203510792 1 1 0.049898798078791495 1 1 1 1 1 0.050468303789140398 1 1 1 1 1 1 1 0.052625628974573943 1 1 1 1 0.052107509344233721 1 1 1 1 1 1 1 1 1 0.052202674303273494 1 1 0.054676489177073719 1 1 0.061069999156587208 1 1 1 1 0.049745782891102812 1 1 1 1 1 1 1 0.060962830766930758 0.049963432485610887 0.044039822945946258 1 1 0.045627199140923821 1 1 1 1 1 0.05404525925985016 1 1 1 1 1 1 1 1 1 1 1 1 1 0.049472414084982902 1 1 1 0.048103970095597921 1 1 1 1 1 1 0.049599504418782824 1 1 1 1 1 1 1 1 1 1 1 1 1 1 1 1 1 1 1 1 1 1 1 1 1 0.049987782452825438 1 1 1 0.050480039783132244 1 1 0.049373274446054202 1 1 1 1 1 1 1 1 1 1 1 0.050270808789640312 1 1 1 1 1 1 1 1 0.051134828829456962 1 1 1 1 1 1 1 1 0.052264235983130194 1 1 1 1 1 1 1 1 1 0.05015402177303916 1 1 1 1 1 1 1 1 1 1 1 1 1 1 1 1 1 1 1 1 1 1 1 0.050010049408088918 1 1 1 0.053874804995688766 1 0.050043309662039737 1 0.051331143691488251 1 1 0.059022508759850587 1 1 1 0.050936857590666573 1 0.051867309917271336 1 0.052880263477487928 1 0.051562458207709161 0.057317167010814123 1 0.053090792103242107 1 1 0.055354030304793855 1 0.052320089183770811 1 1 1 0.051605223593585506 1 0.050921783626340131 0.052374048169755882 1 1 0.052414796954314627 1 1 1 0.050437835896710081 1 0.051916241942476071 0.051932613701786541 0.0496878848037864 1 0.05155394228885804 1 1 1 0.049966627873088913 1 0.051730824026199745 0.052269615318300537 0.049970833974543591 1 1 0.056320140675742827 0.05725150501314788 1 1 1 1 0.059581356918581553 1 0.049943008074696024 1 1 0.051391494921350048 1 1 1 0.050376722455309511 1 0.05007004599397203 0.050835852834036965 0.049419257438235401 1 1 1 0.051228120731554333 1 0.050655030464572121 0.053574056110842004 0.05126091688708638 0.052721287347090744 1 1 1 0.051457236311909578 0.049999791871371477 1 1 0.049652818318269981 0.05229261697494967 0.051002904545155166 1 0.050762393855582913 1 1 1 1 0.0499991483183925 1 1 1 1 1 1 1 0.053073080873052805 1 1 1 1 1 1 0.050601539622428769 0.04999869180330082 1 1 1 0.053068145171713224 1 1 1 0.050023809291359314 1 0.051149851514900493 1 0.045271211218996223 0.058484657656809769 1 1 1 1 0.050101988636921627 1 1 0.058162270425063708 1 1 1 1 0.050028452388296264 1 0.049957489193864182 1 1 1 1 1 0.04804420329806617 0.060171922629369212 1 1 1 1 1 1 1 1 0.049878504503468701 1 1 1 0.049137648070448563 1 1 0.055942973989055053 1 0.049995248929821899 1 1 1 1 1 1 1 1 1 1 1 0.057295021452917649 1 0.050381831924566772 1 0.056356017074020374 1 1 1 0.048907847346279898 1 0.050007637031733047 1 0.050676851277226369 1 1 1 1 1 1 0.052795399600290623 1 0.053423113601209479 1 1 1 0.052891515925246588 1 1 1 0.053303266004585584 1 0.051823993990787964 0.049823238113485102 1 1 1 1 0.057241982569538767 1 1 1 1 0.057274128224276868 0.049048451273717188 1 1 0.049142054749276833 1 0.051334254968866219 1 0.056480645382885844 0.055541421427771666 1 1 1 0.050049266877802777 1 1 1 1 0.053933252242719359 1 1 1 1 1 1 1 1 1 1 1 0.050005277201025794 1 1 1 1 0.056255828955509207 1 1 1 0.052121649825663099 1 0.049887077394862103 0.050011897502787658 0.049999530448416957 1 1 1 0.053783133591001758 0.058617632223138545 1 0.060987507354946645 1 1 0.050260278794930516 1 1 1 1 0.061170538648750994 1 1 1 1 1 1 1 1 1 1 1 0.062507365808950124 0.047476793645450488 1 1 0.056734576755799133 1 1 1 0.049993445645889645 1 1 1 1 1 1 0.057083117685024332 1 1 1 0.044444971953944638 1 1 1 0.05465679897129079 1 1 1 1 1 1 1 1 1 1 1 0.054156971782907057 1 1 1 0.051129228967114845 1 1 1 1 1 1 1 0.050161683264490262 1 1 1 1 1 0.050178109256959966 1 1 1 1 1 1 1 1 1 1 1 1 1 1 1 1 1 1 1 0.066766273067585563 1 1 1 1 0.063015267992644564 1 1 0.055333081002882235 1 1 1 1 1 1 1 0.049937454057928508 1 1 1 1 1 1 1 1 0.049575343536324069 1 0.04925895228148558 1 1 0.064071438069442488 1 1 1 0.063130021552816162 1 1 0.069243832996257748 1 1 1 0.050767232565292988 1 0.052612861914364983 1 1 0.049988450469492345 1 0.069133829575096659 1 1 1 1 1 1 1 1 1 1 1 1 1 1 1 1 1 1 1 1 1 1 0.050890552241994194 1 0.050307169435022302 1 0.050156266878397374 1 1 1 1 1 1 1 1 1 1 1 1 1 1 1 0.050394320800303274 1 1 1 1 1 1 1 1 1 0.050496231441690922 1 1 1 1 1 1 1 1 1 1 1 1 1 1 1 1 1 1 1 1 1 1 1 1 1 1 1 1 1 0.051728325964151625 1 1 0.05160795615951709 1 1 1 0.05789476048307772 0.049785858661672178 1 0.053316309024424531 1 1 1 1 1 0.0582640871379006 1 1 1 1 1 0.057096483078355298 1 1 1 1 1 1 1 1 1 1 1 1 1 1 1 1 1 1 1 1 1 1 1 1 1 1 1 1 1 1 1 1 1 1 1 1 1 1 1 1 1 1 1 1 1 1 1 1 1 0.051813112827551772 1 1 1 1 1 1 1 1 1 1 1 1 1 1 1 0.054713795274264197 1 1 1 1 0.052400376622070664 1 1 1 1 1 1 1 1 1 1 1 1 1 1 1 1 1 1 1 1 1 1 1 1 1 1 1 0.053934294651314094 1 1 0.05052641362745236 1 0.055921095456263649 0.050748133288537493 0.047459947647356122 0.049505219091769158 1 1 0.049927467762038831 1 1 1 1 1 1 1 1 1 1 1 1 1 1 1 1 1 0.057339534518377984 1 1 0.058813095565869625 1 0.053522932984625661 1 1 1 1 0.06088282557514587 1 0.049686734189919701 1 1 1 1 0.050058982236518314 1 1 1 0.051529291163841494 1 1 1 1 1 0.051002883359078835 1 0.054264810017487577 1 1 0.050355543579980996 0.054332267859850111 1 0.052873711463303864 1 1 1 1 1 1 1 1 1 1 1 0.063119842744704238 1 1 1 0.060053170612861737 1 1 1 0.055438718364227979 1 1 0.060081625099805261 0.049486133010900941 0.049841265907156276 1 1 1 1 1 1 1 1 1 1 1 0.049995706935518545 1 1 1 1 1 1 1 1 0.058500871132428245 0.065614526548573401 0.056888661646921079 1 1 1 1 1 1 1 1 0.063595884628721983 0.050095684498010176 1 1 1 0.047316589413361712 1 1 0.050416513967086962 1 1 1 1 1 1 1 1 1 1 1 0.050172335176980117 1 1 1 1 1 1 1 1 0.049855962724439096 1 1 1 1 1 1 1 1 1 1 0.049968910618638201 1 0.053338974101598748 0.064001364318264739 0.049492766969039939 1 1 1 1 1 1 1 0.058126558770396006 0.068731494980073568 1 0.048958722530036101 1 1 1 1 1 0.052760757871307754 1 0.049705621191098399 0.052409642372520715 1 1 1 0.055260035385044141 1 0.057342689771345462 1 1 1 1 0.050012913141264728 1 1 1 1 1 1 1 1 1 1 1 1 1 1 1 1 1 0.05508301786090302 1 1 1 0.05975675383556172 1 1 1 1 1 0.05213867181929361 1 1 1 1 1 1 0.057130454420550335 1 0.052769986153107282 1 1 1 1 1 1 1 1 0.049146524934422668 1 1 1 0.052220038741980342 1 1 1 1 1 1 1 1 1 1 1 1 1 1 1 1 1 1 1 1 1 1 1 1 1 0.047792348822474302 0.049712492828968197 0.063268008948111881 1 1 1 1 0.046302226381662426 1 1 1 1 0.043413866993853224 1 1 1 1 1 1 1 0.052421832744990148 1 1 1 1 1 1 1 1 0.054305967502585525 1 1 1 1 1 1 1 1 1 1 1 1 0.0531073219921206 1 1 1 1 1 1 0.050323985211236114 1 1 1 1 1 1 1 1 0.047740072003942619 1 1 1 0.058992929359709317 1 1 1 1 1 1 1 1 1 1 1 1 0.051884134757595374 1 1 1 1 1 1 1 1 1 1 1 1 1 1 1 1 1 1 1 1 1 1 1 1 1 1 1 1 1 1 1 1 1 1 1 1 1 1 1 1 1 1 1 1 1 1 1 0.050106894826956086 1 1 1 1 1 1 1 1 1 1 1 1 1 1 1 1 1 1 1 1 1 1 1 1 0.052028266855476242 1 1 1 1 1 1 1 1 1 1 0.052517312224566411 1 1 0.054311294635272303 1 1 1 1 1 1 1 1 1 0.055501847250022197 1 0.056364197934042182 1 1 1 1 0.054677657101711644 1 1 0.060940713501878345 1 0.051128599245899839 1 1 1 1 1 0.055345489832615766 1 1 1 1 1 1 1 1 0.056115921591530983 1 1 1 1 1 1 1 1 1 1 1 1 1 1 0.061814390386623466 1 0.057986321085435735 0.048291586571005705 1 1 1 1 1 0.049396929467698615 1 1 1 1 1 1 1 1 1 1 1 1 1 1 1 0.054473443535721977 1 1 1 1 1 1 1 1 1 1 1 1 1 1 1 1 0.049405557111936269 1 1 1 1 1 0.065870178989630143 0.05112368536142857 1 1 0.061500302581035796 1 1 1 1 1 1 1 1 1 1 0.049874563069844099 1 1 1 1 1 1 1 1 1 0.051088407466799324 1 0.075857683120015326 1 1 1 1 1 0.049768891541944103 1 1 1 1 0.077069108494591185 1 1 1 0.048862794674064167 1 1 1 0.07580422320804861 1 1 0.047741351760791521 1 1 1 1 1 1 1 1 1 1 1 1 1 1 1 1 0.050630911865943887 1 1 1 1 1 1 1 0.048052014006606136 1 1 1 1 1 1 1 1 1 1 1 1 1 1 1 1 1 1 1 1 1 1 1 1 1 1 1 0.08002141178871644 1 1 1 1 0.04929723451649165 1 1 1 0.026442440563336063 1 1 1 1 1 1 1 1 1 0.028427386963959592 1 0.050006455265772409 1 1 1 1 1 1 1 1 1 1 1 1 1 1 1 1 1 1 0.050031887704684037 0.069662961140460306 1 1 1 0.046700088593312102 1 1 0.060464694176900001 1 1 0.057554911424416315 1 1 1 0.050035750796360953 1 1 0.052780433096949908 1 1 1 1 1 1 1 1 1 1 1 1 1 1 1 1 1 1 1 1 0.049441307908297219 1 0.050263068998449456 1 1 1 1 1 1 1 1 1 1 1 0.048982129362271684 1 0.045310881256218974 1 1 1 0.060357264455270794 1 1 1 1 1 0.050303982139698021 1 1 1 1 1 1 0.055429605485818663 1 1 1 1 1 1 1 1 1 1 1 0.059971974768380898 1 1 1 1 1 1 1 1 0.054094583114498385 1 1 1 0.049121235373060138 1 1 0.064330340150756893 1 1 1 1 1 0.050834194666404528 1 1 1 1 1 1 1 1 1 0.050074480720773994 1 1 0.056879912183645812 1 0.054748878997071537 1 0.05024407850489454 0.051604590970065638 0.050566912209555011 1 0.050041752247201428 1 1 1 1 1 1 0.046588594278758132 1 1 1 1 1 1 0.050160672110489801 1 1 1 1 1 1 1 0.043884498139347902 1 1 1 1 0.040982483408862971 1 1 1 1 1 0.054264899071114717 1 0.050042498791608381 1 1 1 1 1 1 1 1 1 1 0.05036518570726134 1 1 1 1 1 1 1 0.069404823652625264 1 1 1 1 1 1 1 0.04999388142550918 1 0.050484743414879289 1 1 1 1 1 1 1 1 0.067537653786460858 1 1 1 0.090225704300188919 0.050031104603575141 1 1 1 1 1 0.064992008419128014 0.049786289489425976 1 0.060098430429084512 1 1 0.051177124870705012 1 1 0.071904520173033587 1 1 1 1 1 1 1 1 0.069612779690692558 1 1 1 1 1 0.077701140543692732 1 1 1 1 0.10484801812215089 1 1 0.098401527974748937 1 1 1 1 1 1 1 1 1 1 1 1 1 1 1 1 1 1 1 1 1 1 1 1 1 1 1 1 1 1 1 1 1 1 1 1 1 1 1 1 1 0.04847482967683367 1 1 0.050126961653741024 1 1 1 1 1 0.052914120270728497 1 1 1 1 0.049030992106386333 1 1 1 1 1 1 1 1 1 1 1 1 1 1 1 1 1 1 1 1 1 1 1 1 0.052321937329080123 1 1 1 0.05098168366769272 1 1 1 1 1 1 0.050286130210912772 1 1 1 1 1 1 1 1 1 1 1 0.054074556341692809 1 0.04830637543574292 0.053366811281691247 1 1 0.052119666436762219 1 1 1 1 1 1 1 1 1 1 1 0.057272753337465516 1 1 0.053749600699131872 1 1 1 1 1 1 1 1 1 1 1 1 1 1 1 0.055299559653809539 1 1 1 1 1 1 1 0.050044896529454139 1 0.051577114469597375 1 1 1 1 0.049482246299009588 1 0.05045749560085544 1 1 1 1 1 1 1 1 1 0.052203401889585568 1 1 1 1 1 1 1 1 1 1 1 1 1 1 1 1 1 0.049775940173892093 1 1 1 1 1 1 1 1 1 1 1 1 1 1 1 1 1 1 1 1 1 1 1 1 1 0.050042743743293476 0.050188666458509751 1 1 1 1 1 1 1 1 1 1 1 0.050665442548694338 1 1 1 1 0.049257040727998615 1 1 1 1 0.049842491999328942 1 1 1 1 1 1 1 1 0.051101700680233106 1 1 1 1 1 1 1 1 1 0.0504987787055729 1 1 1 1 1 1 1 1 1 1 1 1 1 1 1 1 1 1 1 1 0.059222456186923643 1 1 1 1 1 1 1 1 1 1 1 1 1 1 0.048596777837322344 1 0.050239550089916707 1 1 1 1 1 1 1 1 0.051323481112120643 1 1 0.050525680300829483 1 1 1 1 1 1 1 1 1 1 1 1 1 1 1 1 1 1 1 1 1 1 1 1 1 1 1 1 1 1 1 1 1 1 1 1 0.050095152433920688 1 1 0.050252388206869683 1 1 1 1 0.043622559694722861 1 0.065735640881623439 1 1 0.061738636834232662 1 0.052569040712011982 1 1 1 1 1 0.051110872820263789 1 1 1 1 1 1 1 1 1 1 1 1 0.053677784816271647 1 1 1 0.038644990030239412 1 1 1 1 1 1 1 1 1 0.059935275362419521 1 1 1 1 0.058760928370726877 0.044867999927562227 1 1 1 1 1 1 1 1 0.050237523196114041 1 1 1 1 1 0.049682497182619502 1 1 1 0.050060598346156851 1 1 1 0.056967673017607155 1 1 1 1 0.045715976266832811 1 1 1 1 1 1 1 1 1 1 1 1 1 1 0.054026310226000553 1 1 1 1 1 1 0.043686513049020367 1 0.053231276038791006 0.050003613885186926 1 0.032952649233664359 1 0.056486631175314682 1 1 1 1 0.049882945846951993 1 1 1 1 0.049545212981099068 1 1 1 1 1 1 1 1 1 0.051277470648722172 1 1 1 1 1 1 1 1 1 1 1 1 1 1 0.052735638540470357 1 1 1 0.050205364167263525 1 1 1 0.050550337837529075 1 0.050025444081214475 1 1 1 1 1 1 1 1 1 1 1 1 1 1 1 1 0.05227812150405859 1 1 1 1 1 1 0.057369910822549219 1 1 1 1 1 1 1 1 1 1 1 1 1 1 1 1 1 1 0.066476123929629011 1 1 1 1 1 1 1 1 1 1 1 1 1 1 1 1 1 1 1 1 1 1 1 1 1 1 1 1 1 1 1 1 1 1 0.048849402944238902 1 1 1 1 0.050342317282429903 1 1 1 1 1 1 1 0.064583233735237194 1 1 1 1 1 1 1 1 1 0.047992027694996525 1 1 0.073629981419283078 1 1 1 1 1 0.050001899525989081 1 1 1 0.049951311361190132 1 1 0.051815465428402582 1 1 1 1 1 1 1 1 1 1 1 1 1 1 1 1 1 1 1 1 0.053579466607436482 1 1 1 1 1 1 1 1 1 1 0.051250970280446104 0.058580028575151322 1 0.084724565027512605 1 1 1 1 1 0.089684736733998349 1 1 1 1 0.050677228389270468 1 1 1 1 1 0.049814119603770995 1 0.049933192011374139 1 1 0.0480887921356936 1 1 1 1 1 1 1 1 0.049369548737324902 1 1 1 1 1 1 0.050486074357527867 1 1 1 1 1 1 0.050718430767305513 1 1 1 1 0.052009228555909955 1 1 0.049929657340742527 1 0.053138913863956 1 1 0.050279587665809013 1 1 1 1 1 1 0.050227024731080934 1 1 1 1 0.050096067701409869 1 1 1 1 1 1 1 1 0.052051727563907066 0.054194914685993086 1 1 1 1 1 1 1 1 0.05064534217433788 1 1 1 1 1 1 0.050307886582854969 1 1 1 1 1 1 1 0.052463592584254183 1 1 1 0.056255273432749206 1 1 1 1 1 1 1 1 1 1 1 1 0.04998913042168851 1 1 1 1 0.052345270942126793 1 1 0.050038738254083073 1 1 1 1 0.048986540986769612 1 1 1 0.050035293759427273 0.048096145640445745 1 1 1 0.050875078447084533 1 1 1 0.049737672712067416 1 1 1 1 1 1 1 1 1 0.048308760904090205 1 1 1 0.049995240811891051 1 1 1 1 1 1 1 1 1 1 1 1 0.04699192960360099 1 0.050205692559786352 1 1 0.050283987972902705 1 1 0.050788427885591236 1 1 1 1 1 1 1 0.05001919765340497 1 1 1 1 1 0.049963111058330602 1 0.048694461305767267 1 1 1 0.04316485258488794 0.060397241845304331 1 0.054016566189268062 0.044580193180975038 1 0.048033169996884083 1 1 1 1 1 1 0.05034529424664673 1 0.061419981745748843 1 1 1 1 1 1 1 1 1 1 1 1 1 0.049920457734771259 1 1 0.056309145070849775 1 0.05110052550290263 1 1 0.060192906401809243 1 1 1 0.051566090341433099 0.051484189327746351 1 1 0.060886383166609256 1 1 1 1 1 1 1 1 1 1 1 1 1 1 1 1 1 1 1 1 1 1 1 0.050049354381007327 0.04995187788254668 1 0.05076456930808803 1 0.053158715857264879 1 1 0.050000154425465244 0.046963803152817445 1 1 0.049996983457869099 1 1 0.052626087803169089 1 1 0.048771108390958585 1 0.05333653940468143 1 1 1 1 0.049941609256349655 1 1 1 1 0.050518202932750618 1 0.051556196055048541 0.051628587866721795 1 0.049807781309700254 1 1 0.05941958481289536 0.050463328589165773 1 1 1 0.053729803435805051 1 1 1 1 0.056465196260262238 0.050383583227952333 1 1 1 1 1 0.049671880453140402 1 1 1 1 1 1 1 1 1 1 1 0.048675739047919393 1 0.050035827407512959 1 0.053148125290048392 1 1 0.049996988857662711 1 0.054972702946728257 1 1 1 1 1 1 1 1 0.052071829502385966 1 1 0.048676268339465811 1 1 1 1 0.049999617191214644 1 1 1 1 1 1 1 1 1 1 1 1 0.051482017783640019 1 1 1 1 1 1 1 1 1 1 1 0.050145750576320064 1 1 1 1 1 1 0.050033382702111273 1 0.048928527373951411 1 1 0.050413617100545552 1 1 1 1 1 1 1 1 1 1 1 1 1 1 1 1 1 0.050305899499829103 0.056362651518095677 1 1 1 0.04990597872764152 1 1 0.057004848065292629 1 1 1 1 1 1 1 1 1 1 1 1 1 1 1 1 1 1 1 1 1 1 1 1 1 0.050003376551487275 0.053380206128333219 1 1 1 1 1 1 1 1 1 1 1 0.053822354464880123 1 1 1 1 1 1 1 1 1 1 1 1 1 1 1 1 1 1 1 1 1 1 1 1 1 1 1 1 1 1 1 1 1 0.05008801838817354 1 1 1 1 1 0.050098296183358315 1 1 0.049571714544623044 1 1 0.054929145211236888 0.047125796133109091 1 1 1 1 1 1 1 1 1 1 1 1 1 0.047266575628070462 1 1 0.049857716589059589 1 1 1 1 1 1 0.049998215275320806 1 1 0.04745707398691687 1 1 1 1 1 1 1 1 1 1 1 1 1 0.049951500416713313 1 1 1 1 1 1 1 0.049997877644284774 1 1 1 1 1 1 1 1 1 1 1 1 0.050046206527959484 1 1 0.050012823825848207 1 1 1 1 1 1 1 1 1 1 1 1 1 1 1 1 1 1 1 1 0.050095092550677865 1 1 0.049987100579311383 1 0.049725040038236912 1 1 1 0.050004360508328335 1 1 0.052754072984214112 1 0.050452622434594245 1 1 1 0.05195042931561536 1 1 1 1 0.050058148307031827 1 1 1 1 1 1 1 0.050168640495649446 1 1 1 0.050665328854094582 1 1 1 1 1 1 1 1 1 1 1 1 0.049988635550466856 1 1 1 1 1 1 1 1 0.050725094295141646 1 1 1 1 1 1 1 1 1 1 1 0.051202034449629896 1 1 1 1 1 1 1 1 1 1 1 1 1 1 1 1 1 1 1 0.051650543560743535 0.050696883015907496 1 1 1 0.050263794695388622 1 1 1 1 1 1 1 1 1 1 1 1 0.050046581665726932 1 1 1 1 1 1 1 1 1 0.050149007105817704 1 1 1 1 1 1 1 1 1 1 1 1 1 1 1 1 0.059878000745341053 1 0.050605555997453151 1 1 1 1 1 0.057410273965206392 1 1 1 1 0.050617451448689989 1 1 1 0.049981484423608773 1 1 1 0.051693093565104944 1 1 1 1 1 1 1 1 1 0.051749074726990821 1 1 1 0.054819460918358293 1 1 0.050792618022344166 1 1 1 1 1 1 0.050403528913030723 1 1 1 1 1 1 1 1 0.051318959485585354 1 1 1 0.050645206498254609 1 1 1 1 1 1 1 1 1 1 1 1 1 1 1 1 1 1 1 1 1 1 1 1 1 1 1 0.050484771213037544 1 1 1 1 1 1 1 0.05030579944500118 1 1 1 1 1 1 1 1 1 1 1 1 1 1 1 1 1 1 1 1 1 1 1 1 1 0.050125543840450773 1 0.050093548488939377 1 1 1 1 1 1 0.05002601390996738 1 1 1 0.049834703371167459 1 1 0.049551686532989372 1 1 1 1 1 1 1 1 1 1 1 1 0.063907120395102796 1 1 1 1 1 0.061510128473874756 1 1 1 1 1 1 1 1 1 1 1 1 1 0.049994018558455998 1 1 1 0.050003232187156271 1 1 1 1 1 1 1 1 1 1 1 1 0.04998752178456449 0.052086406049279187 1 1 1 1 0.050419569639622137 1 1 1 1 1 1 1 1 1 0.049925134069953907 0.055070949183559578 1 1 1 1 1 0.056836990433270687 1 1 1 1 1 0.050291522908013593 1 1 1 1 1 0.049981617182242706 1 0.048825078609685039 1 1 1 1 0.051906072829848236 1 0.048955516272020411 1 0.051125179909296881 0.050005875847540751 1 1 1 1 1 1 1 0.049925572087667403 0.050993635809276711 1 1 1 1 1 1 0.049998736434279212 0.05725858535094816 0.051439118861401276 1 0.049647365968959245 0.048776754581391954 1 1 1 0.04978086907060203 1 1 1 1 1 0.056324926773770594 0.051788342090182377 0.049999175060370299 1 0.04904938656200028 1 1 1 0.050003254839979049 1 0.056886456850147871 0.050060014105096251 1 1 1 1 1 1 1 0.051623589011922981 0.048087644586194828 1 1 0.057999836887063068 0.061815900614576709 0.046006470401988825 1 1 1 1 1 1 1 1 1 1 1 1 1 1 1 1 1 1 1 1 1 1 1 1 1 1 1 1 1 1 1 1 1 1 1 1 1 1 1 1 0.050022176124378509 1 1 1 1 1 1 1 1 1 1 0.050080843788119875 1 1 1 1 1 1 0.050179184815463268 1 1 0.049567569684991694 1 1 1 1 1 1 1 1 1 1 1 1 1 0.049950251306571838 1 0.049335118863835202 1 1 1 1 0.052102453813108345 1 1 1 0.065364097265049659 1 1 0.064612202738464547 1 1 1 0.049994721018219869 1 1 0.05010761955663965 1 1 1 1 1 0.050054901823212108 1 1 1 1 1 1 1 0.050015611376595104 1 1 1 1 1 1 1 0.063371283069269396 1 1 0.061935956846905699 1 1 1 1 0.049767298415694383 1 0.050012713773404396 1 1 1 1 1 0.04928159943097736 1 1 1 1 0.050493376761658958 1 1 1 1 1 1 0.051570456499176673 0.047271278259735997 1 1 1 1 1 0.058000945887530825 1 1 0.054068903941790161 1 1 1 1 1 1 1 1 1 1 0.053969186909864846 1 1 1 1 1 1 1 1 1 1 1 1 1 1 1 1 1 1 0.051349361646419935 1 1 1 1 1 1 0.049811967471850127 1 1 1 1 1 1 1 0.044950068939792129 0.04937947164983901 1 1 1 1 0.049935724732982509 1 1 1 1 1 1 1 0.04773403209658026 1 1 0.051221636521109545 1 0.055274472264383465 0.047274970916020093 0.054045379338610484 1 1 1 1 1 1 0.050983081005986287 1 1 1 1 1 0.049996926543262543 1 1 1 1 0.052882373967957648 1 1 1 0.04426474553040935 1 1 1 0.051380390222297567 1 1 1 1 1 1 1 1 1 1 1 1 1 1 1 1 1 1 1 1 1 1 1 1 1 0.052965913007030241 1 1 1 1 1 1 1 0.050095064922193247 1 0.051818787208739836 1 1 1 1 1 1 0.060894388001138465 1 1 0.050604234673883371 1 1 1 0.050024860737995704 1 1 0.052226727569932588 1 1 1 1 1 0.049896209016867928 1 1 1 0.049961765340954895 0.050555437885874459 1 1 1 1 1 1 1 1 1 1 1 1 0.049134172763088214 1 1 1 1 1 1 1 1 1 0.046925061587688922 1 1 1 1 1 0.049964866782311011 0.052150029964462635 1 1 1 1 1 1 1 1 1 0.050293103240700493 1 1 1 1 1 1 1 1 0.051374378384247368 1 1 1 1 1 1 1 1 1 1 1 1 1 1 1 1 1 1 0.050493628527615103 1 1 1 1 0.051158957381709683 1 0.050475769300419401 1 0.050040440446458417 1 1 1 1 1 1 1 1 1 1 1 1 1 1 1 1 1 0.049803945359344973 1 1 1 1 1 0.052912776761355508 1 1 1 0.049058722707924107 0.053778905419530364 1 1 1 1 1 0.050925814504410229 1 1 1 1 0.049740610150275505 1 1 1 1 1 1 1 1 0.052748316821354634 1 1 1 1 1 1 1 0.05150022229537457 1 1 1 1 1 1 1 1 1 0.049695400004977137 1 1 1 1 1 1 1 1 1 1 1 1 1 1 1 1 1 1 0.049885684138612135 1 1 1 1 1 1 1 1 1 1 1 1 1 0.049972095719201602 1 1 1 1 1 1 0.050102779947846732 1 1 0.05067375298733074 1 1 0.050097206381537147 1 1 1 1 1 1 1 1 1 1 1 1 1 1 1 1 1 1 1 1 1 1 1 1 1 1 0.050056533960194625 1 0.050617318601458433 1 0.050000349483576026 0.048858142105641413 1 1 1 0.050727335934637824 1 1 1 1 1 1 1 1 1 0.049675745342287955 0.049904181437548288 1 0.05278894503305296 1 1 1 1 1 1 1 1 1 1 1 1 1 1 0.049999742483986219 1 0.048598506396712426 0.047888179609202323 1 0.051228691393979328 1 1 1 1 1 1 1 1 1 0.04559605984786283 0.0494710244169939 1 1 1 1 1 1 1 1 1 1 1 1 1 1 1 1 1 1 1 1 1 1 0.05166287573706041 1 1 1 1 1 0.049120852904510709 1 1 1 1 1 0.047035290451858183 1 1 1 0.055353260880355026 1 1 1 1 1 1 1 1 1 0.053006561463201846 1 1 1 1 0.054231193386371848 1 1 1 1 1 1 0.045466889579633428 1 1 1 1 1 1 1 0.050434038210394848 1 1 1 1 0.045514048006772286 1 1 1 1 1 1 1 1 1 1 0.051036968751414911 1 1 1 1 0.053535387544609195 1 1 1 0.057509174818406353 1 1 1 1 1 0.048748837519578418 1 1 1 1 1 1 1 1 1 1 1 1 1 1 0.04801264207152442 0.063596876289457024 1 1 0.059508062322847929 1 1 1 1 1 1 1 0.049290522826878853 1 1 1 1 1 1 0.050353924376772941 1 1 1 1 1 1 1 1 1 1 1 1 1 1 1 1 1 1 1 1 1 1 1 0.051598700219397574 1 1 1 1 1 1 1 1 0.050064524031821545 1 1 1 1 0.05012867636777165 1 1 1 1 1 0.053360461196659416 1 0.049976760529428725 1 0.053066985067402518 1 1 1 1 1 1 1 0.049788775517305331 1 1 1 0.061296539708811659 1 1 1 1 1 0.055590064742772963 1 1 1 1 1 0.049537669161981934 1 0.051060734704126878 1 1 0.051589029922291058 1 0.049151241849459258 1 1 1 1 1 0.049987456684352796 1 1 1 0.049744889341298677 1 1 1 1 1 1 1 1 1 1 0.049281365515597399 1 1 1 1 1 1 1 1 1 1 1 1 1 1 1 1 1 1 1 1 1 1 0.055298278603152999 1 1 1 1 1 1 1 1 1 1 1 1 1 1 1 1 1 1 0.063545064761082987 1 1 1 0.069113472406298768 1 1 1 1 1 1 0.085541591091602143 1 1 1 0.053686771880319034 0.057680396329062925 1 0.070136265385273761 1 0.051344427976502863 0.065053573457286643 1 0.063398364683931632 1 1 0.056762317973478263 1 1 0.047123112912913885 0.057245662814477856 1 1 1 1 1 1 1 1 0.053061081293498277 1 0.052892239222284809 1 1 1 1 1 1 1 1 1 1 1 1 1 1 1 1 1 1 1 1 1 1 0.05721706107465796 1 1 1 1 1 1 1 1 0.060614526355872056 1 1 0.050097978866900997 1 1 0.062780386164482477 0.050313241394821587 1 1 0.050089010515837501 1 1 1 1 1 1 1 1 1 1 1 1 1 1 1 1 1 1 1 1 1 1 1 1 1 1 1 1 1 1 1 1 1 1 1 1 1 1 1 0.10472910587582412 1 0.095663432442630147 1 1 1 1 1 1 1 1 1 1 1 1 1 1 1 1 1 1 1 1 1 1 1 1 1 1 1 1 1 1 1 1 1 1 1 1 1 1 1 1 0.054034891601133152 1 1 0.054022988591930346 1 1 1 1 1 0.049243038956302991 1 0.050082363769566207 1 1 0.048591291005097653 1 1 1 1 1 1 0.041528028580631537 1 1 1 1 1 1 1 1 1 1 1 0.049970733830194833 1 1 0.062500094340894388 0.10093204653043196 1 0.11939405444577339 1 1 0.036473104984462879 1 1 1 1 0.11247875260237127 1 1 1 1 1 1 1 1 1 0.050104886921375019 1 0.047149101313468798 1 1 1 1 1 1 1 0.05020142682258371 1 0.039712446636274865 1 1 1 1 1 1 1 1 1 0.049393072936818418 1 0.042655697286635194 1 1 1 1 1 1 1 1 1 1 0.048122780672623669 1 1 1 0.045286670421575845 1 1 0.050009631057742886 1 1 0.05975033990852148 1 1 1 1 0.055791327932342406 1 1 1 0.049994426433690412 1 1 1 1 1 1 1 1 1 1 1 1 1 1 0.051922846007894964 1 1 1 1 1 1 0.054690554862225127 1 0.04814785105624108 1 0.10609932341160777 1 1 1 0.052849375746411055 1 1 1 1 1 1 1 1 0.11492361097039955 1 1 1 1 1 0.050071868109027383 1 1 0.11805148589975298 1 1 1 1 1 1 1 1 1 0.060725586026741198 1 1 1 0.053682426392646469 1 1 1 1 1 1 0.067066485619699912 1 1 1 1 1 1 1 1 1 1 1 1 1 1 1 1 1 1 1 1 1 1 1 1 1 1 1 1 1 1 1 0.054033980161762599 1 1 1 1 1 0.051013165054219968 1 1 0.04899941650484084 0.0520081418784391 1 1 1 1 0.052749125310572957 1 1 1 1 1 0.050987995524045378 1 1 1 1 1 1 1 1 1 1 1 1 1 1 1 1 0.051610304051792767 1 1 1 1 1 1 1 1 0.052485169668017417 0.05566961549487618 1 1 1 1 1 1 0.054856226299701508 1 1 1 1 0.053230883897754641 1 1 1 1 1 1 1 1 1 1 1 1 1 1 1 1 1 1 1 1 1 1 1 1 0.053787795433012528 1 1 0.051364119323042697 1 1 1 1 1 1 1 1 1 1 1 1 1 1 1 1 1 1 1 1 1 1 1 1 1 1 1 0.05180693630660177 1 0.054317906957550184 1 1 1 1 1 0.058912452455642174 1 1 1 1 1 1 1 1 1 1 1 1 1 1 1 1 1 1 1 1 0.055501329828898875 0.053426908354165373 1 0.057397858897206 1 1 1 1 1 1 1 1 1 1 1 1 1 1 1 1 0.057415610990538525 1 1 1 0.053431832527711019 1 1 1 1 1 1 1 1 1 1 1 1 1 0.054594545498091986 1 1 1 1 1 1 1 1 1 1 1 1 1 1 1 1 1 1 1 1 1 1 0.091080169784583873 1 1 1 1 1 1 1 1 1 1 1 1 1 0.090475475729333191 1 0.07156055617760243 1 1 0.081559119537948949 0.069648830984592847 1 1 1 1 1 1 1 1 1 1 1 1 1 1 1 1 1 1 1 1 0.048266610505937696 1 1 0.07426293134220166 1 1 1 0.05044717011506375 1 1 1 1 1 1 0.072188670997437657 1 1 1 0.050508735744863503 1 1 1 1 1 1 1 1 0.050039593500983436 1 1 0.052524784913846531 1 1 0.058547756032209589 1 0.058275511206277664 1 1 1 1 0.05896471498572893 0.075549386816174888 1 1 0.049192678035380487 0.075333852343227384 1 1 0.058871295431171408 1 1 1 1 0.050032129891973906 1 1 0.057864192491641299 0.050446518725209229 1 0.050013396390672232 1 1 1 1 1 1 1 1 1 1 1 1 1 1 1 1 1 1 1 1 0.049986662488318234 1 1 1 1 0.051710539655558385 1 1 1 1 0.049866668618967047 0.050499226069855775 1 1 1 1 1 1 1 1 1 1 1 1 0.050185131993144831 1 1 1 0.066471017758429313 1 1 1 1 1 1 1 0.06883492838759224 1 1 1 0.049326381923448293 1 1 0.049977144153200634 0.04958226405755245 1 1 1 0.070532698738259431 1 1 1 0.049868443887256558 1 1 1 1 1 1 1 1 1 1 1 1 1 1 1 1 1 1 0.050651700395530665 1 1 1 1 1 1 1 1 1 1 1 1 1 1 1 1 1 1 0.049852429817153217 0.05182994999888043 1 1 1 1 1 0.052833595530855933 0.049580531696339546 1 0.053780731312517455 1 1 1 1 1 1 1 1 1 0.10165506718517785 1 1 1 0.097032738907191524 1 1 1 1 1 1 1 1 1 1 1 1 1 1 0.07285188529371886 1 1 1 1 1 1 1 0.086953038115859332 1 1 0.092134186279816677 1 1 1 1 1 1 0.061930680030160043 1 1 1 1 0.065585047246167441 1 1 1 1 1 1 0.046969264286462968 1 1 1 1 1 1 1 1 0.049774813456722036 0.058418598261910155 1 1 1 0.053989178388657251 0.047213514018789385 1 1 1 1 1 0.051311692415056731 1 1 1 1 1 1 0.050587300503970201 1 1 1 1 0.050244921693477017 1 1 1 1 1 0.050291339496768617 1 1 1 1 0.043953064865099686 1 1 1 1 1 1 1 1 1 1 1 1 1 1 1 1 1 1 1 1 1 1 1 1 1 0.049897398769395321 1 1 1 1 0.071052700772046187 1 0.052776911201192649 1 0.079803915034346667 1 1 0.050078221716213761 1 1 0.048054937875709691 1 1 0.049483417365836245 1 1 1 1 1 1 0.041188227589805677 1 1 0.045098969930217586 1 0.052085562736249466 0.048899339029814276 0.047320773399639464 1 1 0.0515924832105948 1 0.051556265026760695 0.051468462626318601 1 1 1 0.049821460510205556 1 0.049985585653938923 1 1 1 1 1 1 0.052606823540300302 1 1 1 0.049968327237088606 1 1 1 1 1 1 1 0.052024023146277798 1 1 1 0.056260927341822808 1 0.033877575300086955 0.037444923911924319 1 1 1 1 1 1 1 0.050934608370514695 1 1 1 1 1 1 1 1 0.049504025474075584 0.054647114695688198 1 1 1 1 0.057164515970936136 1 1 0.057202900867027152 1 1 1 0.049998970774138118 1 1 1 0.05540992599224201 0.052090097638580461 1 1 1 1 0.049662746330734142 1 1 1 1 1 0.052490057124318069 0.054965160971256054 1 1 1 1 1 1 1 1 1 1 1 1 1 1 1 1 1 1 1 1 1 1 1 1 1 1 1 1 1 1 1 0.052301574388725264 1 1 1 0.050149274460505329 1 1 1 1 1 1 1 1 1 1 1 1 1 1 1 0.055073965918784606 1 0.049492080145691134 0.046049268858650447 1 1 0.056078061896366993 1 1 1 1 1 1 1 1 1 1 1 1 1 1 1 1 1 1 1 1 1 1 1 0.049114917840177415 1 1 0.054057173779281265 0.050067010507344981 1 1 1 1 1 1 1 0.052533776817515115 1 1 1 0.047710226307159195 1 1 1 1 0.049546476304471607 0.049848843884416676 1 1 1 1 1 1 1 0.055613673885450285 1 1 1 1 0.053611266615078493 1 1 1 1 0.050601184569579884 1 1 1 1 1 1 1 1 1 1 1 1 1 1 1 1 1 1 1 0.049132537746700074 1 1 1 1 1 1 1 1 1 1 1 1 1 1 1 1 0.048907007738539697 1 1 1 0.049614131953656659 1 1 1 1 1 1 1 1 1 0.051288022155664428 1 1 1 1 1 1 1 1 1 1 1 1 1 1 1 1 1 1 1 1 1 0.05101078418428371 1 1 1 1 1 1 1 1 1 1 1 1 1 1 1 1 1 0.052701093961033528 1 1 1 1 1 0.049844790268144368 1 1 1 1 1 1 1 1 1 1 1 1 1 1 1 1 1 1 1 1 1 1 1 1 1 1 1 0.049601792464287274 1 1 0.036560616978349086 1 1 1 0.034175196679640765 1 1 1 1 1 1 1 1 1 1 1 1 1 1 1 0.031133767188075201 1 0.053688784837308129 1 1 1 1 1 1 1 1 1 0.035817403019912077 1 1 1 1 1 1 1 1 1 0.047892743822699591 0.041529857215762293 1 1 1 1 1 1 1 1 1 1 1 1 1 1 1 1 1 1 1 1 1 1 1 1 1 1 1 1 1 1 1 1 1 1 1 1 1 1 1 1 1 1 1 1 1 1 1 1 1 1 1 1 1 1 1 1 1 1 1 1 1 1 1 1 1 1 1 1 1 1 1 0.048118869013431119 1 1 1 1 1 1 0.044640908781352524 1 1 1 1 1 1 1 1 1 0.047340155818615469 1 0.044414783590620996 1 1 1 1 1 1 1 1 1 1 1 1 1 1 1 1 1 1 1 1 1 1 1 1 1 1 1 1 1 1 1 1 1 1 0.051952087270499013 1 1 1 0.051823963009440671 0.048956835654191413 1 1 1 1 1 1 1 1 1 1 1 1 1 1 1 1 1 1 1 1 1 1 0.050916800189304466 0.051196343519597981 1 1 1 1 1 1 1 1 0.04760051218105886 1 1 1 1 1 1 0.04839658640936826 1 1 1 1 1 0.051113077198753 1 1 1 1 0.050407383553568899 1 1 1 0.04083574961826953 1 1 1 0.044398376912056732 1 1 0.047662879825870523 1 1 1 1 1 1 1 1 1 1 1 1 1 0.050617679284634419 1 1 1 1 1 1 1 1 0.0517957586385102 1 1 1 1 1 1 1 1 1 1 1 0.050029351041275302 1 1 1 0.050025765683464785 1 1 1 1 0.051719666080314641 1 1 1 1 1 1 1 1 0.051022629426918514 1 0.048033712357529568 1 1 0.054948137147424345 1 1 1 1 1 0.049955416714852235 1 1 1 1 1 1 1 1 1 1 1 1 0.050697526039924251 1 1 1 1 1 1 1 1 1 0.051775683494937504 1 1 1 1 1 1 0.049569904906763107 1 1 1 1 1 1 1 0.050737689346748556 1 1 1 1 1 0.051435215386672783 1 1 1 1 1 1 1 1 1 1 1 1 1 1 1 1 1 1 1 1 1 1 1 1 1 1 1 1 1 1 1 1 1 1 1 1 1 1 1 1 1 1 1 1 1 1 1 0.050445409636265003 1 0.050796640327761482 1 1 1 1 1 1 1 1 1 1 1 1 1 1 0.049885177805970654 1 1 1 1 1 1 1 1 1 1 1 1 1 1 1 0.054387850683631125 1 1 0.051129797966300107 1 0.047086234294980461 1 1 1 1 1 0.051290147740436547 1 1 1 1 1 1 1 1 1 1 1 1 1 1 1 1 1 1 1 1 0.056374087134587109 1 1 1 1 1 1 1 1 1 1 1 0.055662470644683534 1 0.050273571423760752 1 1 0.05418432502736522 1 0.064965541958602463 1 1 1 1 1 1 1 0.049944727288793928 1 0.05789172258382147 1 1 1 1 0.05721222386722298 1 1 1 1 0.050858641897511075 0.051463889676828904 1 1 0.045474882282607008 1 1 1 1 1 1 1 1 1 1 1 1 1 1 1 1 0.049650862707635822 1 1 1 1 1 1 1 1 1 1 1 1 1 1 0.048972086355913831 1 0.050228340177065477 1 1 1 1 1 1 1 0.064016901066834303 1 0.064778194190200034 1 1 1 1 1 1 1 1 1 0.050124010822170703 0.061897384975895767 1 1 1 0.061342074183987176 1 1 1 1 0.068190537614510965 1 0.058653658691831444 1 1 0.049439550752171102 1 0.068535539585814792 0.068114771064362506 0.050265745627911425 1 1 0.050003792004472677 1 1 1 0.051037149763587114 0.056012512069968622 0.048036393986251702 1 1 1 1 1 1 1 1 1 1 1 0.049087130445236535 1 1 1 1 1 1 0.067971646449892842 1 1 1 0.050077258006946054 1 1 1 1 1 1 1 1 0.049661995387230644 1 1 1 0.049892668388216557 1 1 1 1 1 1 1 1 1 1 1 1 1 1 1 1 1 1 1 1 1 1 1 1 1 1 1 1 1 1 1 1 1 1 1 1 1 1 1 1 1 1 1 1 1 1 1 1 1 1 1 1 1 1 1 1 1 1 1 1 0.052614167904347774 1 1 1 1 1 0.056681169329060838 1 1 1 1 0.052205776992995535 1 1 1 0.059004081888642715 1 1 1 1 1 1 1 1 1 1 1 1 1 1 1 1 1 1 1 1 1 1 1 1 1 1 1 1 1 1 1 1 1 1 1 1 1 1 1 1 0.054263257316659326 1 1 0.060847493523990458 1 1 1 1 1 1 1 0.049328153710602632 1 1 1 1 1 1 1 1 1 1 1 0.046987666929763201 1 1 0.050101143151498773 1 0.053419259849505685 1 1 1 0.064599596550886429 1 1 1 1 1 1 1 1 0.049720053249582633 1 1 1 1 0.049033862582489041 1 1 1 1 0.063099633799752711 1 0.052789628499736937 1 1 1 1 1 1 1 1 1 1 1 1 0.055144100879008319 1 0.059417330721489144 1 1 1 1 1 1 1 1 1 1 1 1 1 0.050270318248740536 1 1 1 1 1 1 1 1 1 0.050687610681202894 1 1 1 0.050417292432462374 1 1 1 1 1 1 1 1 1 1 1 1 1 1 1 1 1 1 1 1 1 1 1 1 1 1 1 1 1 1 1 1 1 1 1 0.050672536229386257 1 1 0.049961594303253601 1 1 1 1 0.052298825078656443 1 1 1 1 1 1 1 1 1 1 1 1 1 1 1 0.051455153125705352 1 1 1 1 1 1 1 1 1 0.050861150267995509 1 0.050722868445574762 1 1 1 1 1 1 1 0.050987759270766278 1 1 1 1 1 1 1 1 1 1 1 1 1 1 0.052149971513548971 1 1 1 1 1 1 1 1 1 1 1 0.055263509779961639 1 1 1 1 1 1 1 1 1 1 1 1 1 1 1 1 1 1 1 1 1 1 1 0.049739926477132435 1 0.049396610746310035 1 1 1 1 1 1 0.054552633528446332 1 0.052852837080809359 1 1 1 0.054184098604013714 1 1 1 0.048055798691151556 1 1 1 0.053980896397373357 1 1 0.04791568338274959 1 1 1 1 1 1 1 0.048970638621748608 1 1 1 1 1 1 1 0.060301261526728364 1 1 1 1 1 1 1 1 1 1 1 1 1 0.052307724538028982 1 1 1 1 1 1 1 1 0.061019349535551291 1 1 1 1 1 1 1 1 1 1 1 1 1 1 1 1 1 1 1 1 0.057442316560892111 1 1 1 1 1 1 1 1 1 1 1 1 1 1 1 1 1 1 1 1 1 1 1 1 1 1 1 1 1 1 1 1 1 1 1 1 1 1 1 1 1 1 1 1 1 1 1 1 1 1 0.048741224210667566 1 0.055286052986421572 1 1 1 0.050415971581327004 1 1 0.049787499061871784 0.056611377841502608 1 0.046077096439144462 1 1 1 1 1 1 1 1 1 1 1 1 1 1 1 1 1 1 1 1 1 1 1 1 1 1 1 1 1 1 1 1 1 1 1 0.049573383510912478 1 1 1 1 0.04765496011024891 1 1 0.052643164484188751 1 1 1 0.051577111274558746 1 1 1 1 0.045198037868317921 1 0.05010557880560608 0.059146142140355525 1 1 1 1 0.057724471039969735 1 1 1 0.044210451693378221 1 1 1 0.053319625107617674 1 1 1 1 1 1 0.049979778575685259 1 1 1 1 1 1 1 1 1 1 1 1 1 1 1 1 1 1 1 1 0.048278073969652911 1 1 1 1 1 1 1 1 1 1 1 1 1 1 1 1 1 1 0.049427420490002698 1 1 0.048432350381191605 1 1 0.068834854170117629 1 1 1 1 1 1 1 1 1 1 1 0.047285195159804214 1 1 1 1 0.050411143634742202 1 1 1 1 0.053686234080934592 1 1 1 0.052503100213058082 1 1 1 1 1 1 1 1 1 1 1 1 1 1 1 1 1 1 1 1 1 1 1 1 1 0.051121080455596282 1 1 1 1 1 1 1 1 0.052497854667027569 1 1 1 0.067414156265170291 1 1 1 1 1 1 1 1 1 1 1 1 1 1 1 1 1 1 1 1 1 1 1 1 0.046424381416889211 1 1 1 0.053322762990036132 1 1 1 1 1 1 1 1 0.046826374507791785 1 1 0.051951741400828588 1 1 1 1 0.050543438244929705 1 1 1 1 1 1 1 0.065883563215598684 1 0.047423685319752412 1 1 0.044799678592577802 1 1 0.070165183057533762 0.050008263210870645 1 1 1 1 1 1 1 1 1 1 1 1 1 1 1 1 1 1 1 1 1 0.056491933467683053 1 1 1 1 0.061252163620405697 1 1 1 1 1 1 1 1 1 1 1 1 1 0.053323648980276715 1 1 0.050080003175086242 1 1 1 1 1 1 1 1 1 1 1 1 1 1 1 1 1 1 1 1 1 1 1 1 1 1 1 1 1 1 1 1 1 1 1 1 1 1 1 1 1 1 1 1 1 1 1 1 1 1 1 1 1 1 1 1 1 1 1 1 1 1 1 1 1 1 1 1 1 1 1 1 1 1 1 1 1 1 1 1 1 1 1 1 1 1 1 1 1 1 1 1 1 1 1 1 1 1 1 1 1 1 1 1 1 1 1 1 1 1 1 1 1 1 1 1 1 1 1 1 1 1 1 1 1 1 1 1 0.049239012383095235 1 1 1 1 1 1 1 0.04873491049733332 1 1 1 1 1 1 1 1 1 0.046838536896232422 1 0.058103054516429879 1 1 1 0.053607601335756386 1 1 0.055046866303302369 1 1 1 1 1 1 1 1 1 1 1 1 1 1 1 1 1 1 1 1 1 1 1 1 1 1 1 1 1 1 1 1 1 1 1 1 1 0.048342922970255581 1 1 0.054538191673182412 0.045473239746509631 1 1 0.049427756288218008 1 1 0.062339009244587393 1 1 1 0.059442358366056602 1 1 1 1 1 1 1 1 1 0.053464765537719117 1 1 1 1 1 1 0.04963520257087476 1 1 1 1 1 1 1 1 1 1 1 1 1 1 1 1 1 1 1 1 1 1 1 1 1 1 1 1 1 1 1 0.04751649129393113 1 1 1 1 1 1 1 1 1 1 1 1 1 1 1 1 1 1 1 1 1 1 1 1 1 1 1 1 1 1 1 1 1 1 1 1 1 1 1 1 1 1 1 1 1 1 0.061373448877648382 1 0.050550915240611768 1 1 1 1 0.050095669617883254 1 1 1 1 0.060058495357741659 1 1 1 1 0.049805805073470627 1 1 1 1 1 1 1 1 0.050775838780297212 1 1 0.050424374570311584 1 0.050255220840396589 1 1 1 1 0.051199765781118206 1 1 0.051436876048971292 0.054213833215866689 1 1 1 1 1 1 0.050062135220286602 1 1 1 1 1 1 1 1 1 1 0.051261722918034991 0.059133683201196198 1 1 1 1 1 0.059467232204890794 1 1 0.050647682888701986 1 1 1 1 0.051529792679315671 1 1 0.05000251622863127 1 1 1 1 1 1 1 1 1 1 1 1 1 1 1 1 1 1 1 1 1 1 1 1 1 1 1 1 1 0.050093763473901126 1 0.050027550372651906 1 1 1 1 1 1 1 1 1 1 1 1 1 0.049959189435805108 1 1 1 1 0.067436608656731983 0.067886421010881409 1 1 1 1 1 1 1 1 1 1 1 1 1 1 1 1 1 1 1 1 1 1 1 1 1 1 1 1 1 1 1 1 1 1 1 1 1 1 1 1 1 1 0.050043650963713618 1 1 1 0.05008446152790854 1 1 1 1 1 1 1 1 1 1 1 1 1 1 1 1 1 1 1 1 0.066920427105456787 1 1 0.066312239336820566 1 1 1 1 1 1 1 1 1 0.050001431487157112 1 1 1 1 1 0.062234002199202304 1 1 1 1 1 0.049893816356559081 1 0.049909849423208953 1 1 1 1 1 1 1 1 1 1 1 1 1 0.053206058367440988 1 1 1 0.056350215473265311 0.061187842993926718 1 1 1 1 1 1 1 1 0.050001188436462653 1 1 0.058397299063572376 1 1 0.050003127597772527 0.053621411014063119 1 1 1 1 1 0.049938284661809093 1 1 1 1 1 1 1 0.05096411652407204 1 1 0.052203228287953672 0.050676724171480184 1 1 1 1 1 1 0.056934079961851854 0.047732947197932266 1 1 1 0.052738655139685675 1 1 1 1 1 1 1 0.052388077645014741 1 1 1 1 1 1 1 1 1 1 1 1 1 1 1 1 1 1 1 1 1 1 1 1 1 1 0.060939724215825178 1 1 1 1 1 1 1 0.050078168539026857 1 1 1 1 1 1 1 1 1 1 1 0.061594557382767881 1 1 1 1 1 1 1 1 0.052434715396190011 1 1 1 1 1 1 1 1 1 1 1 1 1 1 1 1 0.052458406842222895 1 1 1 0.051478717006783359 1 1 1 1 1 0.056092156715101538 1 1 1 1 1 1 1 1 1 1 1 1 1 1 0.049497652196281799 1 1 1 1 0.048273613438646473 1 1 0.046659208389809199 1 1 1 1 1 0.049998780100432925 1 1 1 1 1 1 1 1 1 1 1 1 1 1 0.050234627480926414 1 0.046214296745109039 1 1 1 0.051367984840430647 1 0.051696223407066644 1 0.052069102526652512 1 1 1 1 1 1 0.050133383521073285 0.055660655273684669 1 1 1 1 1 1 0.056249283428325421 1 0.050572033707567701 1 1 1 1 1 1 1 1 1 1 1 1 1 1 1 1 1 0.056564480084337815 1 1 1 0.049796295617254169 0.056323458885159515 1 1 1 1 1 0.051439432023693762 1 1 0.050103180149543111 0.050606895925648807 1 1 1 1 1 1 1 1 1 1 1 1 1 1 1 1 1 1 1 1 1 1 1 1 1 1 1 1 1 1 1 1 1 1 1 1 1 1 1 1 1 1 1 1 0.045827651222439827 1 1 0.05662392396362205 0.054171683771367787 0.050385250085009901 1 1 1 1 1 1 0.049683018864641666 1 1 1 1 1 1 1 1 1 0.050330868532448364 1 1 1 0.049286477571145293 1 1 1 1 1 1 1 1 1 1 1 1 1 1 1 1 1 1 1 1 0.051127890482427565 1 1 1 1 0.050713131929143798 1 1 1 1 1 1 1 1 1 1 1 1 1 1 1 1 1 1 1 1 1 1 1 1 1 1 1 1 1 1 1 1 1 1 0.04932402293218574 1 0.050444045966505272 1 1 1 1 1 1 1 1 0.05090174560909104 1 1 1 0.048626836066140877 1 0.050457699642585785 1 1 1 1 1 1 1 1 0.059670448745316761 1 1 1 1 0.053901708120183377 1 1 1 1 0.050024030452361368 1 1 1 1 1 1 1 0.05157968836892101 1 1 1 1 0.050858471050514789 1 1 1 1 1 1 1 1 1 1 1 1 1 1 1 1 1 1 1 1 1 1 1 1 1 1 1 1 1 1 1 1 1 1 1 1 1 1 1 1 1 1 1 1 1 1 0.050961859214883089 1 1 1 1 0.050004324349437711 0.050490197068216863 1 1 0.051035160926805628 0.051155070125848176 1 1 1 1 1 1 1 1 1 1 1 1 1 1 1 1 1 1 1 0.050521915863393427 1 1 1 0.050130319364481216 0.050001808541501269 1 1 1 1 1 1 1 1 1 1 1 1 1 1 1 1 1 1 1 1 1 1 1 1 1 1 1 0.050359592372927364 1 1 1 1 1 1 1 0.049840913723284551 1 1 1 1 1 1 1 1 1 1 1 1 1 1 1 0.04903274410829575 1 1 1 1 1 1 1 1 0.050730904151020217 1 0.049417754058954017 0.051887070594796941 1 1 1 1 1 1 1 1 1 1 1 1 0.050955998389406634 1 1 1 1 1 1 1 1 1 1 1 1 1 1 1 1 1 1 0.060788768818054222 1 1 1 0.051397946004511905 1 1 1 1 1 1 1 1 0.050470975056530212 1 1 1 1 1 1 1 1 1 1 1 1 1 1 1 0.052079825002232349 1 1 1 0.050725806792059298 1 1 1 1 1 1 1 1 1 1 1 1 1 1 1 1 1 1 1 1 1 1 1 1 1 1 1 1 1 1 1 1 1 0.050649595503078272 1 0.050290345580020344 1 1 1 1 1 1 1 1 0.049971399393037588 1 1 1 1 1 1 1 1 1 0.049841000163923239 1 1 0.049950736432531451 1 1 1 1 1 0.0499595667180745 1 1 1 1 0.049985630639682616 1 1 1 1 0.04927479695494253 1 1 1 0.050072236294939995 1 0.048480855783175653 1 1 0.049335715511930389 1 1 1 1 1 1 1 1 1 1 1 1 1 1 0.049995035961763842 1 1 0.050009961455574022 1 0.049983971853042819 1 1 1 0.050029133958802312 1 1 0.047185272468514852 1 1 1 1 0.051028114154847828 1 0.050822529398024008 1 1 1 1 1 1 0.050305331446086551 1 0.050219859965403846 1 1 1 1 1 0.064262815239679014 1 1 1 1 0.050878783554863458 1 1 1 1 1 1 0.063776881965467477 1 1 1 1 1 1 1 1 1 1 1 1 1 1 1 1 1 1 1 1 1 1 1 1 1 1 1 1 1 1 1 1 1 0.050072396136998445 0.049999532216686016 1 1 1 1 1 1 1 1 1 1 0.064241682210826517 1 1 0.050691695092691676 0.062342755731612284 1 0.04997978230159042 1 1 1 1 1 1 1 0.06259955266360992 1 1 1 1 1 1 1 1 1 1 1 1 0.049083025217452884 1 1 1 1 0.049666899234422399 1 1 1 1 1 1 1 1 1 1 1 1 0.052313553279269585 1 1 1 1 1 1 1 1 1 1 1 1 1 1 1 1 1 0.052058683010737752 1 1 1 1 1 0.050623629709830843 1 1 1 0.054472513190592806 1 1 1 1 1 1 0.052981719438583062 1 0.052982157567168134 1 1 1 0.051956469522709416 1 1 1 1 1 1 1 1 1 0.055537315978937817 1 1 0.050029296009551111 1 1 1 1 1 1 1 0.051190857059865251 1 1 1 1 1 1 1 1 1 1 1 1 1 0.048482371830707957 1 1 0.050390544936010764 1 1 1 1 1 1 0.049897027589485332 1 1 1 1 1 1 0.057672576742571202 1 1 1 1 1 1 1 0.060870344714352743 1 1 1 1 1 1 1 1 1 1 1 1 1 1 1 1 1 1 1 1 1 1 0.050766449013008343 1 1 1 1 1 1 1 1 1 1 0.054727041384564683 1 1 1 1 0.054422225811801887 0.051551171822950874 1 1 1 1 0.05137557165118125 1 1 1 1 1 1 1 1 1 0.05114165795602043 1 1 1 1 1 1 1 1 1 1 1 0.055672652151396634 1 1 1 0.052559738769052643 1 1 1 0.052178825767487412 1 1 1 1 1 1 1 1 1 1 1 1 0.054989946371056829 1 1 1 1 1 0.04999208380033026 1 1 0.04994101878362784 1 1 1 1 1 1 1 1 1 1 1 1 1 1 0.054625581414009292 1 1 1 1 1 1 1 0.062317462235846853 1 1 1 0.067057745643056707 1 1 1 1 1 0.049886758739619445 1 1 1 1 1 1 1 1 1 0.049937823756321852 1 1 1 1 1 1 1 1 0.069561108716288345 1 1 1 1 1 0.051272347325020153 1 1 1 1 1 1 1 0.050462334502888173 1 1 1 1 1 1 1 1 1 1 1 1 1 1 1 1 1 1 1 1 1 1 1 1 1 1 1 1 1 1 1 1 1 1 1 1 1 1 1 1 1 1 1 1 1 1 1 1 0.052681650811874987 1 1 1 1 1 1 1 0.051039865735758437 1 1 1 1 1 1 1 1 1 1 1 1 1 1 1 1 1 1 1 1 1 1 0.050290922435731342 0.050489003485884511 1 1 0.053111418621985561 0.058117867676680937 1 1 1 1 1 1 1 0.062332789128026887 1 1 1 1 1 1 1 1 1 1 1 1 1 1 0.050050095198874101 1 1 1 1 1 1 1 1 0.049968435255497726 1 1 0.050104510101700521 1 1 1 0.050324288601375389 1 1 1 1 1 1 1 1 1 1 1 1 1 1 1 1 1 1 1 1 1 1 1 1 1 1 1 1 0.049830366858439397 1 1 1 1 1 1 1 1 0.049984825124750429 1 1 1 1 1 1 0.049262092291149598 0.049946385721502971 1 1 1 1 0.050026951052244362 1 1 0.049747091163062501 1 1 0.048852144473370815 1 1 1 1 1 1 0.050004910383980541 1 1 1 1 1 1 1 1 0.050001918867308405 1 1 1 1 1 1 1 1 1 1 1 0.050007506311551327 1 1 0.050005589616244892 1 1 1 1 1 1 1 0.049981477596122349 1 1 1 0.050027071887791083 1 0.05010917214979118 1 0.050001344229901837 1 1 1 1 1 1 1 1 1 1 1 1 1 1 1 1 1 0.050119698733127098 1 0.049999750505568395 1 1 1 1 1 1 1 1 1 1 0.050182586622453472 1 1 1 1 1 1 1 0.050213385265398314 1 1 1 0.04999601308684859 1 0.053257217460238961 0.052783676044899072 1 1 0.056171135806398723 1 1 1 1 0.051683649809525715 1 1 1 0.053150561691976406 1 1 1 0.053422903135904809 1 0.056057401363135355 0.048876382734982647 1 1 1 1 1 1 0.056888291841455885 1 1 1 1 1 1 1 1 0.045793845134975433 0.050001321975418962 0.047754047519142279 1 0.043521820265818356 1 1 0.05906372718753454 0.050000926325073039 1 1 0.071007461464843435 1 1 1 1 1 1 1 1 1 1 1 0.049976512683843455 1 1 1 1 1 1 1 1 1 1 1 1 1 0.048748704857565224 0.04669381910119802 1 1 1 1 0.048210957823144371 1 1 1 0.0517885457885148 1 1 1 1 1 0.048068946751906622 0.049997571631255178 1 1 1 0.052308003221700074 1 1 1 1 1 1 1 1 1 1 1 1 1 1 1 0.051135091054923136 1 1 1 0.051328092114085934 1 1 1 0.05054520055961928 1 1 1 1 1 1 0.054391727332458534 1 1 1 1 1 0.053523723512110481 1 1 1 1 1 1 1 1 0.05001093566264158 1 1 1 1 1 1 1 1 1 0.050038411119488348 1 1 1 1 0.050012997928743058 1 0.050022921593133568 1 1 0.04942733362040657 1 0.051117712431829228 1 1 1 1 1 1 0.050665223837872433 1 0.05002063837728804 0.050716580427231588 1 1 1 1 1 1 1 1 0.055365003125491107 1 0.050256474376561763 1 0.050065190170312822 1 0.049568448607893688 1 1 1 1 1 1 1 1 1 1 1 0.050607568513158341 1 1 1 0.050574944177905062 1 1 1 1 1 1 1 1 0.049967375664746717 1 1 1 1 1 1 1 1 1 0.050594629989531285 1 1 1 1 0.055456247230986272 1 1 0.063860451940975185 1 1 1 1 1 1 1 1 1 0.070455728755065172 1 1 1 0.068428232655708632 1 1 1 1 1 1 1 1 1 1 1 1 1 1 1 1 1 1 1 0.070913025940093494 1 1 1 1 1 1 1 1 1 1 0.049526912765505728 1 1 1 1 1 1 1 1 1 1 1 1 1 1 1 1 1 1 1 1 1 1 1 1 1 1 1 1 1 1 1 1 1 1 1 1 1 1 1 1 1 1 1 1 1 0.045948816555660243 0.050044329266296476 1 1 1 1 1 1 1 1 1 1 1 1 1 0.044150968653710529 0.060530007654327332 1 1 1 0.057778617366296782 1 1 0.047349592745103655 1 1 1 0.04367062118134471 1 1 1 0.045559727088366919 1 1 1 1 1 1 1 1 0.050479800151274713 1 1 0.049357949028232477 1 0.053620001347305567 0.049810446527519051 1 1 1 1 1 1 0.048314654299275339 1 0.052314322980075642 0.049704626496101932 0.049914946892543 1 1 0.05110029638829866 1 1 0.04710113766872339 0.047171047426436304 1 1 1 1 1 1 1 1 1 1 1 1 1 1 1 1 1 1 1 1 1 0.071078993345680949 1 1 1 1 1 1 1 1 1 0.050394372454426822 1 1 1 1 1 1 1 0.051443378112410655 0.070836366246208482 1 1 1 1 1 1 1 1 1 1 1 1 1 1 1 1 1 1 1 1 1 1 1 0.049142554640170089 1 0.050024323671907824 1 1 1 1 1 1 1 0.048543051403402551 1 1 1 0.055304253293182018 0.073164092886999432 1 1 0.053532189459067445 1 1 1 1 0.054326658148549423 1 1 1 0.070513118668562705 1 1 1 0.047398749418666716 1 1 1 1 1 1 1 1 1 0.043932977679531235 0.054446176997130925 1 1 1 1 1 0.047397108192274107 1 1 0.053123284319293938 0.043711649335602801 0.045160136062400574 1 1 1 1 1 0.069658370124797059 1 1 1 1 1 1 1 1 1 0.050551584947515285 1 0.050234458823965905 1 1 1 1 1 1 1 1 1 1 1 1 1 1 1 1 1 1 1 1 1 1 1 1 0.051959064285209577 1 1 1 1 0.048587628698904123 0.055880327689048374 1 1 1 0.045422354557942086 1 1 1 1 1 1 1 1 1 1 1 1 1 1 1 1 0.063843091938845783 1 1 1 0.050055453613866902 1 1 0.066922302343905893 1 1 1 1 1 1 1 1 1 1 1 1 1 0.059673862454682015 1 1 0.058090953842507093 1 1 1 0.06115678516503667 1 0.050869995582323912 1 0.050380267432953693 1 0.04612386449870113 0.061029187034952678 0.050106278849500765 1 1 1 1 1 1 1 1 0.051151603721752592 1 1 1 1 1 1 1 1 0.066984407936094559 1 1 0.040595671664190078 1 1 1 1 1 1 1 1 1 1 1 1 1 1 1 1 1 1 1 1 1 0.057899686166005764 1 1 1 1 1 1 1 1 1 1 0.054918359133251174 1 0.047608493537863276 1 1 0.052651849767877137 1 0.059485513646033432 1 0.049923645200948955 1 1 0.049891750714717423 1 0.062366219872013719 1 1 0.051750478915545454 1 1 1 0.048968518022258253 1 1 1 1 1 1 1 1 1 1 1 1 1 1 1 1 1 1 1 1 1 1 1 1 1 1 1 1 1 1 1 1 1 1 1 1 1 1 1 1 1 1 1 1 1 1 1 1 1 1 1 1 1 1 1 1 1 1 1 1 1 0.055452050237746499 1 1 0.061481505205705278 1 1 1 1 1 1 0.046653145103843843 0.059820924653656675 1 1 1 1 1 1 1 1 1 1 1 1 1 1 1 1 1 1 0.057039774188270644 1 1 1 0.050138515687078486 1 1 1 1 1 1 1 1 1 1 1 1 1 1 1 1 0.049968800166730706 1 1 1 1 1 1 1 0.062273569646073473 1 1 1 1 1 1 1 1 0.059302532619830636 1 0.050391590743452473 1 1 1 1 1 1 1 1 1 1 1 1 1 1 1 1 0.055654752729000306 1 1 1 1 1 1 1 0.064563478722602957 1 1 1 1 0.048704832277602396 1 1 1 1 1 1 1 0.04492775620902234 1 1 0.058937107140252833 0.049625715278464266 1 1 0.066388507251477935 1 1 1 1 1 1 0.070432409523117773 1 1 1 1 1 1 1 1 1 0.045449051944384061 1 1 0.050131032248262458 1 1 0.04986262657442584 1 1 0.057620262522818148 1 1 1 1 1 0.056099704112309384 1 1 1 1 1 1 1 1 0.050190245079612547 1 1 1 1 1 1 1 0.050596496032270115 1 1 1 1 1 1 1 1 1 1 1 1 0.051712415292455127 1 1 1 1 1 1 1 0.049749291436883392 0.049844206786780448 1 0.027850560079627006 1 0.044146273424812754 1 1 1 1 1 1 1 1 1 1 1 1 1 1 1 0.049995995230022343 1 0.042497561644923167 1 1 1 1 1 1 1 1 0.064772202986236121 1 0.052226977308723131 1 0.042413129163765759 1 0.070350662283834742 1 0.049379801544461338 1 1 0.050025501004888298 1 1 1 1 1 0.049926511972697575 1 1 1 1 1 1 1 1 0.050149794460335129 1 1 1 1 1 0.050467420453209622 1 1 0.028151252706340113 1 0.050735654256021237 0.047713448988741726 1 1 1 1 1 1 1 1 0.049949192424670157 1 1 1 1 1 1 1 1 1 1 1 1 1 0.064067795459666566 1 1 1 1 1 1 1 0.051119909939244035 1 1 1 0.051118333886778153 1 1 1 1 1 1 1 1 1 1 1 1 1 1 1 1 1 0.04949130406498975 1 1 1 1 1 1 1 0.049724061615989384 1 1 0.055305192273009979 1 1 1 1 1 1 1 1 1 1 1 1 1 1 1 0.054019887396998485 1 1 1 1 0.049239646896602582 1 1 1 1 1 1 1 1 1 1 1 1 1 1 1 1 1 1 1 1 1 1 1 1 1 0.043138938541780372 1 1 1 1 1 1 0.049716475634086078 1 1 1 1 1 1 1 1 1 0.043820007695354504 0.056362032829683988 1 1 1 0.055797115970011239 1 0.049274267957919338 1 1 1 1 1 1 1 1 1 1 1 1 1 1 1 0.051983285721009354 1 1 1 1 1 1 1 1 1 1 1 1 0.05053567139918487 0.051440819130439588 1 1 1 1 1 1 1 1 0.05536619689355974 1 1 0.049795722180039262 1 1 0.057935392767648197 0.046504267467328844 1 1 1 1 1 1 1 0.053424203734982911 1 1 1 1 1 1 1 1 1 0.050905147731254728 1 1 1 0.051090748660434837 1 1 1 1 1 0.050423773735847069 1 1 1 1 1 1 1 1 1 1 1 1 0.049132569968626326 1 1 1 0.049509575361927523 1 1 1 0.052891063257885673 1 1 1 1 1 1 1 1 1 1 1 1 1 1 1 1 1 1 1 1 1 1 1 1 1 1 1 1 1 1 1 1 0.048914282397835733 1 1 1 1 1 1 1 1 1 1 1 1 1 1 1 1 1 1 1 1 1 1 1 1 0.051136661326796493 1 0.050061931034316526 1 1 0.042046449975186743 1 1 1 1 1 1 1 1 1 0.054692704671307449 1 1 1 1 1 1 1 1 1 1 1 1 1 1 0.044886592761613359 1 1 1 1 0.047589755506277462 1 1 1 0.049398032290718548 1 1 1 1 1 1 1 1 1 1 1 1 1 1 1 1 1 1 1 1 1 1 1 1 1 1 1 1 1 1 1 1 1 1 1 1 1 1 1 1 1 1 1 1 1 1 1 1 1 1 1 1 1 1 1 1 1 1 1 1 1 1 1 1 1 1 1 1 1 1 1 1 1 1 1 1 1 1 1 1 1 1 1 1 1 1 1 1 1 1 1 1 1 1 1 1 1 1 1 1 1 1 1 1 1 1 1 1 1 1 1 1 1 1 1 1 1 1 1 1 1 1 1 1 1 1 1 1 1 1 1 1 1 1 1 1 1 1 1 1 1 1 1 1 1 1 1 1 1 1 1 1 1 1 1 1 1 1 1 1 1 1 1 1 1 1 1 1 1 1 1 1 1 1 1 1 1 1 1 1 1 1 1 1 1 1 1 1 1 0.076343765379409123 1 1 1 1 1 1 1 1 1 1 1 1 1 1 1 1 0.051658785136648129 1 1 1 1 1 1 1 1 0.067717282813961707 1 1 1 1 0.049038244036280293 1 1 1 1 1 1 1 1 1 1 1 1 1 1 1 1 1 1 1 1 1 1 0.051059632404227548 1 1 1 1 1 1 1 1 1 1 1 1 1 0.046995936033150013 0.074691964916761916 1 1 1 1 1 0.067755315640231545 1 0.042758025400017927 1 1 1 1 1 1 1 1 1 1 1 0.056454548053689303 1 1 1 1 1 1 1 0.083279889988000733 1 1 1 1 1 1 1 1 1 1 1 1 1 1 1 0.051107379181785532 0.079287731283435886 1 1 1 1 1 1 1 1 1 1 1 1 0.045895675105735605 1 1 1 1 1 1 1 1 1 1 1 1 1 1 1 1 0.048706520136435831 1 1 1 1 1 1 1 0.074251981251349186 1 1 1 1 1 1 1 1 1 1 0.050194546200904459 0.066507338273693012 1 1 1 1 1 1 1 1 1 1 1 1 1 1 1 1 1 1 1 1 1 1 1 1 1 1 1 1 1 1 0.053893047296709719 1 1 1 1 1 0.055758543266589036 1 1 1 1 1 1 1 1 1 1 0.052543235841869179 1 1 1 1 0.049015625362351295 1 1 1 1 1 1 1 1 1 1 0.055190452153910018 1 0.051975144729190161 1 1 1 1 1 1 1 1 1 1 1 1 1 1 1 1 1 1 1 1 1 1 1 1 1 1 1 1 1 1 1 0.050614428704698941 1 1 1 1 1 0.051721807886484471 1 1 1 1 1 1 1 1 1 1 1 1 1 1 1 1 1 1 0.051113952600224194 1 1 0.072077985486451099 1 1 1 0.050392825390883841 1 1 1 1 1 0.081623116166155002 1 1 1 1 1 1 1 1 1 1 0.060976125364248332 1 1 1 1 1 1 0.049510284724278632 1 1 1 1 1 0.08524741197937398 0.049832382866341604 1 1 0.08076488349916161 1 1 0.051069606219325152 1 1 1 1 1 1 1 1 1 1 0.051281398473666404 1 1 0.052025800178066406 1 1 0.052921691978778551 1 1 0.0527559638594342 1 1 0.048733380172368335 1 1 0.052143650993200293 1 1 1 1 1 1 0.047951707675859191 1 1 1 1 1 1 1 1 1 1 1 0.078323528065121231 1 1 1 1 1 1 1 0.051223224416850115 1 1 1 1 0.049966648313045758 1 1 1 0.073748961516961337 1 1 1 1 1 1 1 1 1 1 1 0.049756435185580039 1 1 1 1 1 1 1 1 1 1 1 1 1 1 1 1 1 1 1 1 1 1 1 1 0.049978557930480512 1 1 1 1 1 0.050044887881545916 1 1 1 1 1 1 1 1 1 1 1 1 1 1 0.051512642105715503 1 1 0.049093207205590773 1 0.059867522502037383 1 1 1 1 0.063777305233244916 1 0.049701811857084624 0.045451181746156921 1 0.046779172618126072 1 1 1 1 1 1 1 0.050023857740852551 1 0.049394316799737215 1 1 1 1 1 1 0.050307802014280811 1 1 1 1 1 1 0.05041892550319331 1 1 1 1 0.0512208600911137 1 1 1 1 1 0.049875585519965841 1 1 0.050174074360853124 1 1 1 1 0.051858511173463857 1 1 1 1 0.049871141932410726 1 1 1 1 1 1 0.050200010271763913 1 1 1 1 1 1 1 1 1 0.050913384471397101 1 1 1 1 1 1 0.050456265667706821 1 1 1 1 0.050980282216345631 1 1 1 1 1 1 1 1 1 1 1 1 1 1 1 1 0.049685218501640357 1 1 1 0.049511691660603097 1 1 0.06185908832293982 1 1 1 1 1 1 1 1 1 1 1 1 1 1 1 1 0.050022124951347169 1 0.060016248501258265 1 1 1 1 1 1 1 1 1 1 1 1 1 1 1 1 1 1 1 1 1 1 1 1 1 1 0.065280265002288937 1 1 0.057695265682923894 1 1 1 1 1 1 1 1 1 1 0.054226865096248328 1 1 1 1 0.050323874950775546 1 1 1 1 0.050301749999428408 1 1 1 1 1 1 1 1 1 0.053839281549377158 1 1 1 1 1 1 1 1 1 1 1 1 1 1 1 1 1 1 1 1 1 1 1 1 1 1 1 1 
</DataArray>
</CellData>
</Piece>
</UnstructuredGrid>
</VTKFile>
